<?xml version="1.0"?>
<VTKFile type="UnstructuredGrid" version="0.1" byte_order="LittleEndian">
<UnstructuredGrid>
<Piece NumberOfPoints="30578" NumberOfCells="10723">
<Points>
<DataArray type="Float64" NumberOfComponents="3" format="ascii">
-0.5 -0.5 0 -0.47439485679867832 -0.48072581506667478 0 -0.5 -0.44765434486020428 0 -0.5 -0.5 0 -0.47439485679867832 -0.48072581506667478 0 -0.43702443379937372 -0.49999999999999922 0 -0.47439485679867832 -0.48072581506667478 0 -0.45530669598391149 -0.47718009944797551 0 -0.43702443379937372 -0.49999999999999922 0 -0.47439485679867832 -0.48072581506667478 0 -0.45530669598391149 -0.47718009944797551 0 -0.4597353119515426 -0.45943449384344293 0 -0.45530669598391149 -0.47718009944797551 0 -0.44381084376742141 -0.47114793899167112 0 -0.4597353119515426 -0.45943449384344293 0 -0.45530669598391149 -0.47718009944797551 0 -0.44381084376742141 -0.47114793899167112 0 -0.43702443379937372 -0.49999999999999922 0 -0.44381084376742141 -0.47114793899167112 0 -0.43702443379937372 -0.49999999999999922 0 -0.45059725373546922 -0.44229587798334291 0 -0.4339166039271336 -0.43498117536117131 0 -0.43309128002320102 -0.45351235807576151 0 -0.44381084376742141 -0.47114793899167112 0 -0.45059725373546922 -0.44229587798334291 0 -0.4597353119515426 -0.45943449384344293 0 -0.44381084376742141 -0.47114793899167112 0 -0.45059725373546922 -0.44229587798334291 0 -0.43309128002320102 -0.45351235807576151 0 -0.44381084376742141 -0.47114793899167112 0 -0.45059725373546922 -0.44229587798334291 0 -0.4597353119515426 -0.45943449384344293 0 -0.47505511338101108 -0.44868394208069429 0 -0.46517432262153441 -0.43649963461163338 0 -0.45059725373546922 -0.44229587798334291 0 -0.4597353119515426 -0.45943449384344293 0 -0.46517432262153441 -0.43649963461163338 0 -0.47505511338101108 -0.44868394208069429 0 -0.47820614292347569 -0.42776699273468149 0 -0.46517432262153441 -0.43649963461163338 0 -0.47505511338101108 -0.44868394208069429 0 -0.47820614292347569 -0.42776699273468149 0 -0.47439485679867832 -0.48072581506667478 0 -0.47505511338101108 -0.44868394208069429 0 -0.5 -0.44765434486020428 0 -0.47439485679867832 -0.48072581506667478 0 -0.4597353119515426 -0.45943449384344293 0 -0.47505511338101108 -0.44868394208069429 0 -0.47505511338101108 -0.44868394208069429 0 -0.5 -0.44765434486020428 0 -0.47820614292347569 -0.42776699273468149 0 -0.5 -0.44765434486020428 0 -0.49656450065014057 -0.42151023988558672 0 -0.47820614292347569 -0.42776699273468149 0 -0.5 -0.44765434486020428 0 -0.49656450065014057 -0.42151023988558672 0 -0.50000000000000089 -0.37904661106745707 0 -0.49656450065014057 -0.42151023988558672 0 -0.48135717246594062 -0.40685004338866881 0 -0.47820614292347569 -0.42776699273468149 0 -0.49656450065014057 -0.42151023988558672 0 -0.48135717246594062 -0.40685004338866881 0 -0.48135717246594062 -0.40685004338866881 0 -0.47820614292347569 -0.42776699273468149 0 -0.48135717246594062 -0.40685004338866881 0 -0.47820614292347569 -0.42776699273468149 0 -0.45738366370351707 -0.41344381697501481 0 -0.49656450065014057 -0.42151023988558672 0 -0.48135717246594062 -0.40685004338866881 0 -0.50000000000000089 -0.37904661106745707 0 -0.50000000000000089 -0.37904661106745707 0 -0.48466894952205442 -0.38486603086372417 0 -0.48717439863114548 -0.36823452950912272 0 -0.48135717246594062 -0.40685004338866881 0 -0.50000000000000089 -0.37904661106745707 0 -0.48466894952205442 -0.38486603086372417 0 -0.48466894952205442 -0.38486603086372417 0 -0.48717439863114548 -0.36823452950912272 0 -0.50000000000000089 -0.37904661106745707 0 -0.48466894952205442 -0.38486603086372417 0 -0.48135717246594062 -0.40685004338866881 0 -0.48466894952205442 -0.38486603086372417 0 -0.46593083509403682 -0.39197871725165279 0 -0.48135717246594062 -0.40685004338866881 0 -0.48466894952205442 -0.38486603086372417 0 -0.48135717246594062 -0.40685004338866881 0 -0.46593083509403682 -0.39197871725165279 0 -0.48466894952205442 -0.38486603086372417 0 -0.47195833844942919 -0.37959069520904498 0 -0.46593083509403682 -0.39197871725165279 0 -0.48466894952205442 -0.38486603086372417 0 -0.46593083509403682 -0.39197871725165279 0 -0.48466894952205442 -0.38486603086372417 0 -0.47195833844942919 -0.37959069520904498 0 -0.48717439863114548 -0.36823452950912272 0 -0.46593083509403682 -0.39197871725165279 0 -0.44890944387521442 -0.39029302340116001 0 -0.45132291774153199 -0.37789636588759368 0 -0.47195833844942919 -0.37959069520904498 0 -0.46593083509403682 -0.39197871725165279 0 -0.45132291774153199 -0.37789636588759368 0 -0.46593083509403682 -0.39197871725165279 0 -0.45132291774153199 -0.37789636588759368 0 -0.48135717246594062 -0.40685004338866881 0 -0.46593083509403682 -0.39197871725165279 0 -0.45738366370351707 -0.41344381697501481 0 -0.46593083509403682 -0.39197871725165279 0 -0.44275815558040038 -0.40077469311046232 0 -0.45738366370351707 -0.41344381697501481 0 -0.46593083509403682 -0.39197871725165279 0 -0.44275815558040038 -0.40077469311046232 0 -0.46593083509403682 -0.39197871725165279 0 -0.44275815558040038 -0.40077469311046232 0 -0.44890944387521442 -0.39029302340116001 0 -0.44275815558040038 -0.40077469311046232 0 -0.44064580868350911 -0.39542861624611658 0 -0.44890944387521442 -0.39029302340116001 0 -0.44225344557501872 -0.38376649822575309 0 -0.45132291774153199 -0.37789636588759368 0 -0.43671500038902772 -0.36381401452353412 0 -0.44890944387521442 -0.39029302340116001 0 -0.44225344557501872 -0.38376649822575309 0 -0.45132291774153199 -0.37789636588759368 0 -0.44064580868350911 -0.39542861624611658 0 -0.44225344557501872 -0.38376649822575309 0 -0.43040194378266172 -0.3881600185019185 0 -0.44064580868350911 -0.39542861624611658 0 -0.44890944387521442 -0.39029302340116001 0 -0.44225344557501872 -0.38376649822575309 0 -0.47820614292347569 -0.42776699273468149 0 -0.46517432262153441 -0.43649963461163338 0 -0.45738366370351707 -0.41344381697501481 0 -0.45059725373546922 -0.44229587798334291 0 -0.45738366370351707 -0.41344381697501481 0 -0.45059725373546922 -0.44229587798334291 0 -0.46517432262153441 -0.43649963461163338 0 -0.45738366370351707 -0.41344381697501481 0 -0.44275815558040038 -0.40077469311046232 0 -0.45738366370351707 -0.41344381697501481 0 -0.44164244492799948 -0.42121090558557039 0 -0.45059725373546922 -0.44229587798334291 0 -0.45738366370351707 -0.41344381697501481 0 -0.44164244492799948 -0.42121090558557039 0 -0.45059725373546922 -0.44229587798334291 0 -0.44164244492799948 -0.42121090558557039 0 -0.4339166039271336 -0.43498117536117131 0 -0.4339166039271336 -0.43498117536117131 0 -0.42355654769347711 -0.414558964497861 0 -0.41671115160429401 -0.44095791049380378 0 -0.44164244492799948 -0.42121090558557039 0 -0.4339166039271336 -0.43498117536117131 0 -0.42355654769347711 -0.414558964497861 0 -0.44275815558040038 -0.40077469311046232 0 -0.44164244492799948 -0.42121090558557039 0 -0.42355654769347711 -0.414558964497861 0 -0.42355654769347711 -0.414558964497861 0 -0.41056920252370888 -0.3963363404412637 0 -0.40050668374064252 -0.41734442193795029 0 -0.42355654769347711 -0.414558964497861 0 -0.41671115160429401 -0.44095791049380378 0 -0.42355654769347711 -0.414558964497861 0 -0.40050668374064252 -0.41734442193795029 0 -0.41671115160429401 -0.44095791049380378 0 -0.44225344557501872 -0.38376649822575309 0 -0.43040194378266172 -0.3881600185019185 0 -0.43671500038902772 -0.36381401452353412 0 -0.43040194378266172 -0.3881600185019185 0 -0.43671500038902772 -0.36381401452353412 0 -0.44064580868350911 -0.39542861624611658 0 -0.42355654769347711 -0.414558964497861 0 -0.43040194378266172 -0.3881600185019185 0 -0.42355654769347711 -0.414558964497861 0 -0.43040194378266172 -0.3881600185019185 0 -0.44275815558040038 -0.40077469311046232 0 -0.44064580868350911 -0.39542861624611658 0 -0.42355654769347711 -0.414558964497861 0 -0.44064580868350911 -0.39542861624611658 0 -0.43040194378266172 -0.3881600185019185 0 -0.42355654769347711 -0.414558964497861 0 -0.43040194378266172 -0.3881600185019185 0 -0.41056920252370888 -0.3963363404412637 0 -0.43040194378266172 -0.3881600185019185 0 -0.4079689369259607 -0.37224253963894771 0 -0.43040194378266172 -0.3881600185019185 0 -0.41056920252370888 -0.3963363404412637 0 -0.4079689369259607 -0.37224253963894771 0 -0.41056920252370888 -0.3963363404412637 0 -0.39195929229331972 -0.37982250283040359 0 -0.4079689369259607 -0.37224253963894771 0 -0.41056920252370888 -0.3963363404412637 0 -0.39195929229331972 -0.37982250283040359 0 -0.39357845321732049 -0.39746174547711199 0 -0.41056920252370888 -0.3963363404412637 0 -0.39357845321732049 -0.39746174547711199 0 -0.40050668374064252 -0.41734442193795029 0 -0.39357845321732049 -0.39746174547711199 0 -0.38114412328536468 -0.40833987260765031 0 -0.36544727141479139 -0.39026932065168712 0 -0.39195929229331972 -0.37982250283040359 0 -0.37549160074202448 -0.3732971907138336 0 -0.36544727141479139 -0.39026932065168712 0 -0.39195929229331972 -0.37982250283040359 0 -0.39357845321732049 -0.39746174547711199 0 -0.36544727141479139 -0.39026932065168712 0 -0.40050668374064252 -0.41734442193795029 0 -0.3944977858259317 -0.43926335073686201 0 -0.41671115160429401 -0.44095791049380378 0 -0.40050668374064252 -0.41734442193795029 0 -0.38028594703985957 -0.42392304976487449 0 -0.3944977858259317 -0.43926335073686201 0 -0.39357845321732049 -0.39746174547711199 0 -0.40050668374064252 -0.41734442193795029 0 -0.38114412328536468 -0.40833987260765031 0 -0.40050668374064252 -0.41734442193795029 0 -0.38114412328536468 -0.40833987260765031 0 -0.38028594703985957 -0.42392304976487449 0 -0.38114412328536468 -0.40833987260765031 0 -0.38028594703985957 -0.42392304976487449 0 -0.36590226101420908 -0.41270082520662749 0 -0.38028594703985957 -0.42392304976487449 0 -0.3944977858259317 -0.43926335073686201 0 -0.3723601590800425 -0.44005613486137668 0 -0.3944977858259317 -0.43926335073686201 0 -0.38265619596279349 -0.45813348326120767 0 -0.3723601590800425 -0.44005613486137668 0 -0.40093272222703252 -0.45142790024540502 0 -0.3944977858259317 -0.43926335073686201 0 -0.38265619596279349 -0.45813348326120767 0 -0.40093272222703252 -0.45142790024540502 0 -0.3944977858259317 -0.43926335073686201 0 -0.41671115160429401 -0.44095791049380378 0 -0.38265619596279349 -0.45813348326120767 0 -0.40986575551511062 -0.46735685648974662 0 -0.38265619596279349 -0.45813348326120767 0 -0.39389470715733632 -0.47355095168427308 0 -0.40986575551511062 -0.46735685648974662 0 -0.40093272222703252 -0.45142790024540502 0 -0.38265619596279349 -0.45813348326120767 0 -0.40986575551511062 -0.46735685648974662 0 -0.38265619596279349 -0.45813348326120767 0 -0.38272382101637098 -0.47243968377412587 0 -0.39389470715733632 -0.47355095168427308 0 -0.38272382101637098 -0.47243968377412587 0 -0.38859428369766791 -0.48614630665141417 0 -0.36652141413456929 -0.48474993749143802 0 -0.38272382101637098 -0.47243968377412587 0 -0.38859428369766791 -0.48614630665141417 0 -0.39389470715733632 -0.47355095168427308 0 -0.37500484199342449 -0.5 0 -0.38859428369766791 -0.48614630665141417 0 -0.40140120367436599 -0.49999999999999611 0 -0.37500484199342449 -0.5 0 -0.38859428369766791 -0.48614630665141417 0 -0.36652141413456929 -0.48474993749143802 0 -0.38859428369766791 -0.48614630665141417 0 -0.40140120367436599 -0.49999999999999611 0 -0.40563347959473789 -0.48367842824487117 0 -0.40140120367436599 -0.49999999999999611 0 -0.40563347959473789 -0.48367842824487117 0 -0.40563347959473789 -0.48367842824487117 0 -0.39389470715733632 -0.47355095168427308 0 -0.40986575551511062 -0.46735685648974662 0 -0.38859428369766791 -0.48614630665141417 0 -0.40563347959473789 -0.48367842824487117 0 -0.39389470715733632 -0.47355095168427308 0 -0.40563347959473789 -0.48367842824487117 0 -0.40986575551511062 -0.46735685648974662 0 -0.42809744812538553 -0.47353695305504512 0 -0.40986575551511062 -0.46735685648974662 0 -0.4199949121527507 -0.4855396040697898 0 -0.42809744812538553 -0.47353695305504512 0 -0.40986575551511062 -0.46735685648974662 0 -0.40563347959473789 -0.48367842824487117 0 -0.4199949121527507 -0.4855396040697898 0 -0.40986575551511062 -0.46735685648974662 0 -0.40563347959473789 -0.48367842824487117 0 -0.4199949121527507 -0.4855396040697898 0 -0.41921281873686977 -0.5 0 -0.40140120367436599 -0.49999999999999611 0 -0.40563347959473789 -0.48367842824487117 0 -0.41921281873686977 -0.5 0 -0.4199949121527507 -0.4855396040697898 0 -0.41921281873686977 -0.5 0 -0.43702443379937372 -0.49999999999999922 0 -0.4199949121527507 -0.4855396040697898 0 -0.43702443379937372 -0.49999999999999922 0 -0.42809744812538553 -0.47353695305504512 0 -0.44381084376742141 -0.47114793899167112 0 -0.43702443379937372 -0.49999999999999922 0 -0.42809744812538553 -0.47353695305504512 0 -0.42809744812538553 -0.47353695305504512 0 -0.42194140881699782 -0.45884101952858919 0 -0.43309128002320102 -0.45351235807576151 0 -0.44381084376742141 -0.47114793899167112 0 -0.42809744812538553 -0.47353695305504512 0 -0.43309128002320102 -0.45351235807576151 0 -0.4339166039271336 -0.43498117536117131 0 -0.43309128002320102 -0.45351235807576151 0 -0.41671115160429401 -0.44095791049380378 0 -0.42194140881699782 -0.45884101952858919 0 -0.43309128002320102 -0.45351235807576151 0 -0.41671115160429401 -0.44095791049380378 0 -0.42194140881699782 -0.45884101952858919 0 -0.41671115160429401 -0.44095791049380378 0 -0.40986575551511062 -0.46735685648974662 0 -0.41671115160429401 -0.44095791049380378 0 -0.40986575551511062 -0.46735685648974662 0 -0.40093272222703252 -0.45142790024540502 0 -0.41671115160429401 -0.44095791049380378 0 -0.40986575551511062 -0.46735685648974662 0 -0.42809744812538553 -0.47353695305504512 0 -0.42194140881699782 -0.45884101952858919 0 -0.40986575551511062 -0.46735685648974662 0 -0.45828666285701658 -0.26028432573271792 0 -0.43487007995442373 -0.25384069753834382 0 -0.45658005330295048 -0.2439827770756183 0 -0.43864273500925549 -0.2751587481676856 0 -0.45828666285701658 -0.26028432573271792 0 -0.43487007995442373 -0.25384069753834382 0 -0.43864273500925549 -0.2751587481676856 0 -0.45645423860141388 -0.27827293425430932 0 -0.45828666285701658 -0.26028432573271792 0 -0.43864273500925549 -0.2751587481676856 0 -0.45828666285701658 -0.26028432573271792 0 -0.45645423860141388 -0.27827293425430932 0 -0.47869064668718631 -0.2683854874950159 0 -0.47091363495918082 -0.28947603344621109 0 -0.45645423860141388 -0.27827293425430932 0 -0.45828666285701658 -0.26028432573271792 0 -0.47869064668718631 -0.2683854874950159 0 -0.45828666285701658 -0.26028432573271792 0 -0.47793059070477772 -0.24540990329775009 0 -0.45828666285701658 -0.26028432573271792 0 -0.47869064668718631 -0.2683854874950159 0 -0.47793059070477772 -0.24540990329775009 0 -0.4872249908214738 -0.25598993182963242 0 -0.47869064668718631 -0.2683854874950159 0 -0.47793059070477772 -0.24540990329775009 0 -0.4872249908214738 -0.25598993182963242 0 -0.5 -0.25006354863638108 0 -0.5 -0.27586016112259643 0 -0.4872249908214738 -0.25598993182963242 0 -0.5 -0.25006354863638108 0 -0.49068252501969761 -0.24549971615663649 0 -0.4872249908214738 -0.25598993182963242 0 -0.5 -0.27586016112259643 0 -0.47869064668718631 -0.2683854874950159 0 -0.5 -0.27586016112259643 0 -0.47869064668718631 -0.2683854874950159 0 -0.48721788021035761 -0.2882082846164955 0 -0.47869064668718631 -0.2683854874950159 0 -0.47091363495918082 -0.28947603344621109 0 -0.48721788021035761 -0.2882082846164955 0 -0.47091363495918082 -0.28947603344621109 0 -0.48721788021035761 -0.2882082846164955 0 -0.48161809245015419 -0.30465866835107641 0 -0.5 -0.27586016112259643 0 -0.48721788021035761 -0.2882082846164955 0 -0.5 -0.3016567736088116 0 -0.48721788021035761 -0.2882082846164955 0 -0.5 -0.3016567736088116 0 -0.48161809245015419 -0.30465866835107641 0 -0.5 -0.3016567736088116 0 -0.48161809245015419 -0.30465866835107641 0 -0.5 -0.32745338609502678 0 -0.47091363495918082 -0.28947603344621109 0 -0.48161809245015419 -0.30465866835107641 0 -0.45879166701778518 -0.3036258058313378 0 -0.48161809245015419 -0.30465866835107641 0 -0.45879166701778518 -0.3036258058313378 0 -0.47638885418803739 -0.32253493654140952 0 -0.45645423860141388 -0.27827293425430932 0 -0.47091363495918082 -0.28947603344621109 0 -0.45879166701778518 -0.3036258058313378 0 -0.45645423860141388 -0.27827293425430932 0 -0.45879166701778518 -0.3036258058313378 0 -0.43905227881958647 -0.29505920944709452 0 -0.43864273500925549 -0.2751587481676856 0 -0.45645423860141388 -0.27827293425430932 0 -0.43905227881958647 -0.29505920944709452 0 -0.45879166701778518 -0.3036258058313378 0 -0.43905227881958647 -0.29505920944709452 0 -0.4399695753826649 -0.31139282438396382 0 -0.4399695753826649 -0.31139282438396382 0 -0.45223868162566522 -0.32343332413938758 0 -0.42808850906329299 -0.32433171173736591 0 -0.45879166701778518 -0.3036258058313378 0 -0.4399695753826649 -0.31139282438396382 0 -0.45223868162566522 -0.32343332413938758 0 -0.45223868162566522 -0.32343332413938758 0 -0.42808850906329299 -0.32433171173736591 0 -0.45223868162566522 -0.32343332413938758 0 -0.44207286924452832 -0.33783824796895978 0 -0.46140244920768408 -0.33754740415941759 0 -0.44207286924452832 -0.33783824796895978 0 -0.46140244920768408 -0.33754740415941759 0 -0.45117994904742642 -0.3486532256997657 0 -0.45223868162566522 -0.32343332413938758 0 -0.44207286924452832 -0.33783824796895978 0 -0.42808850906329299 -0.32433171173736591 0 -0.45879166701778518 -0.3036258058313378 0 -0.45223868162566522 -0.32343332413938758 0 -0.47638885418803739 -0.32253493654140952 0 -0.45223868162566522 -0.32343332413938758 0 -0.46140244920768408 -0.33754740415941759 0 -0.47638885418803739 -0.32253493654140952 0 -0.45223868162566522 -0.32343332413938758 0 -0.47638885418803739 -0.32253493654140952 0 -0.48161809245015419 -0.30465866835107641 0 -0.47638885418803739 -0.32253493654140952 0 -0.5 -0.32745338609502678 0 -0.47638885418803739 -0.32253493654140952 0 -0.5 -0.32745338609502678 0 -0.48104103145021149 -0.34129537751375599 0 -0.5 -0.32745338609502678 0 -0.48104103145021149 -0.34129537751375599 0 -0.5 -0.35324999858124201 0 -0.46140244920768408 -0.33754740415941759 0 -0.48104103145021149 -0.34129537751375599 0 -0.46549330969023639 -0.35152931309322771 0 -0.46140244920768408 -0.33754740415941759 0 -0.47638885418803739 -0.32253493654140952 0 -0.48104103145021149 -0.34129537751375599 0 -0.48104103145021149 -0.34129537751375599 0 -0.48025743214923627 -0.35616585996071459 0 -0.46549330969023639 -0.35152931309322771 0 -0.48025743214923627 -0.35616585996071459 0 -0.46757842097458802 -0.36652008110622503 0 -0.46549330969023639 -0.35152931309322771 0 -0.48025743214923627 -0.35616585996071459 0 -0.5 -0.35324999858124201 0 -0.48717439863114548 -0.36823452950912272 0 -0.48104103145021149 -0.34129537751375599 0 -0.48025743214923627 -0.35616585996071459 0 -0.5 -0.35324999858124201 0 -0.50000000000000089 -0.37904661106745707 0 -0.5 -0.35324999858124201 0 -0.48717439863114548 -0.36823452950912272 0 -0.47195833844942919 -0.37959069520904498 0 -0.48717439863114548 -0.36823452950912272 0 -0.46757842097458802 -0.36652008110622503 0 -0.48025743214923627 -0.35616585996071459 0 -0.48717439863114548 -0.36823452950912272 0 -0.46757842097458802 -0.36652008110622503 0 -0.45132291774153199 -0.37789636588759368 0 -0.46757842097458802 -0.36652008110622503 0 -0.45216690816074923 -0.36231126303824313 0 -0.47195833844942919 -0.37959069520904498 0 -0.45132291774153199 -0.37789636588759368 0 -0.46757842097458802 -0.36652008110622503 0 -0.46757842097458802 -0.36652008110622503 0 -0.46549330969023639 -0.35152931309322771 0 -0.45216690816074923 -0.36231126303824313 0 -0.46140244920768408 -0.33754740415941759 0 -0.46549330969023639 -0.35152931309322771 0 -0.45117994904742642 -0.3486532256997657 0 -0.46549330969023639 -0.35152931309322771 0 -0.45117994904742642 -0.3486532256997657 0 -0.45216690816074923 -0.36231126303824313 0 -0.44599028472907742 -0.35554349803526408 0 -0.45117994904742642 -0.3486532256997657 0 -0.45216690816074923 -0.36231126303824313 0 -0.44599028472907742 -0.35554349803526408 0 -0.45117994904742642 -0.3486532256997657 0 -0.44228407783080631 -0.34851364977492799 0 -0.44207286924452832 -0.33783824796895978 0 -0.44228407783080631 -0.34851364977492799 0 -0.43394442261003058 -0.34546672586134508 0 -0.44228407783080631 -0.34851364977492799 0 -0.43858436747801349 -0.35660488883003821 0 -0.43394442261003058 -0.34546672586134508 0 -0.44207286924452832 -0.33783824796895978 0 -0.45117994904742642 -0.3486532256997657 0 -0.44228407783080631 -0.34851364977492799 0 -0.44599028472907742 -0.35554349803526408 0 -0.44228407783080631 -0.34851364977492799 0 -0.43858436747801349 -0.35660488883003821 0 -0.44599028472907742 -0.35554349803526408 0 -0.43858436747801349 -0.35660488883003821 0 -0.43671500038902772 -0.36381401452353412 0 -0.43858436747801349 -0.35660488883003821 0 -0.43671500038902772 -0.36381401452353412 0 -0.44599028472907742 -0.35554349803526408 0 -0.45216690816074923 -0.36231126303824313 0 -0.43671500038902772 -0.36381401452353412 0 -0.45132291774153199 -0.37789636588759368 0 -0.43671500038902772 -0.36381401452353412 0 -0.45132291774153199 -0.37789636588759368 0 -0.45216690816074923 -0.36231126303824313 0 -0.43671500038902772 -0.36381401452353412 0 -0.43040194378266172 -0.3881600185019185 0 -0.43671500038902772 -0.36381401452353412 0 -0.4079689369259607 -0.37224253963894771 0 -0.43858436747801349 -0.35660488883003821 0 -0.43671500038902772 -0.36381401452353412 0 -0.41901032175007979 -0.34674631764622038 0 -0.43671500038902772 -0.36381401452353412 0 -0.41901032175007979 -0.34674631764622038 0 -0.43858436747801349 -0.35660488883003821 0 -0.43394442261003058 -0.34546672586134508 0 -0.41901032175007979 -0.34674631764622038 0 -0.41901032175007979 -0.34674631764622038 0 -0.4079689369259607 -0.37224253963894771 0 -0.40160491304204049 -0.35527610236370899 0 -0.43671500038902772 -0.36381401452353412 0 -0.41901032175007979 -0.34674631764622038 0 -0.4079689369259607 -0.37224253963894771 0 -0.4079689369259607 -0.37224253963894771 0 -0.38553593006925752 -0.3563250607759802 0 -0.4079689369259607 -0.37224253963894771 0 -0.38553593006925752 -0.3563250607759802 0 -0.40160491304204049 -0.35527610236370899 0 -0.39195929229331972 -0.37982250283040359 0 -0.4079689369259607 -0.37224253963894771 0 -0.38553593006925752 -0.3563250607759802 0 -0.39195929229331972 -0.37982250283040359 0 -0.37549160074202448 -0.3732971907138336 0 -0.38553593006925752 -0.3563250607759802 0 -0.37549160074202448 -0.3732971907138336 0 -0.38553593006925752 -0.3563250607759802 0 -0.38553593006925752 -0.3563250607759802 0 -0.36666079927166728 -0.34293209489202431 0 -0.38553593006925752 -0.3563250607759802 0 -0.39342078659019603 -0.34300184077244372 0 -0.38006824781918919 -0.33243312042550199 0 -0.38553593006925752 -0.3563250607759802 0 -0.38006824781918919 -0.33243312042550199 0 -0.36666079927166728 -0.34293209489202431 0 -0.38553593006925752 -0.3563250607759802 0 -0.39342078659019603 -0.34300184077244372 0 -0.41901032175007979 -0.34674631764622038 0 -0.40160491304204049 -0.35527610236370899 0 -0.39342078659019603 -0.34300184077244372 0 -0.38553593006925752 -0.3563250607759802 0 -0.40160491304204049 -0.35527610236370899 0 -0.39342078659019603 -0.34300184077244372 0 -0.41901032175007979 -0.34674631764622038 0 -0.40130564311113259 -0.32967862076890581 0 -0.39342078659019603 -0.34300184077244372 0 -0.40130564311113259 -0.32967862076890581 0 -0.39064670272592411 -0.32967160323888278 0 -0.39342078659019603 -0.34300184077244372 0 -0.40130564311113259 -0.32967862076890581 0 -0.39342078659019603 -0.34300184077244372 0 -0.39064670272592411 -0.32967160323888278 0 -0.39342078659019603 -0.34300184077244372 0 -0.38006824781918919 -0.33243312042550199 0 -0.38006824781918919 -0.33243312042550199 0 -0.38935907146989862 -0.31816186479418052 0 -0.37140736883531977 -0.32183989730859341 0 -0.38935907146989862 -0.31816186479418052 0 -0.38351210912712752 -0.30253866195360818 0 -0.37140736883531977 -0.32183989730859341 0 -0.39064670272592411 -0.32967160323888278 0 -0.38006824781918919 -0.33243312042550199 0 -0.38935907146989862 -0.31816186479418052 0 -0.38935907146989862 -0.31816186479418052 0 -0.401514660155255 -0.31819685637317691 0 -0.39554973675391708 -0.30949047449279188 0 -0.40130564311113259 -0.32967862076890581 0 -0.38935907146989862 -0.31816186479418052 0 -0.40130564311113259 -0.32967862076890581 0 -0.38935907146989862 -0.31816186479418052 0 -0.39962023335203928 -0.32539073298322901 0 -0.38935907146989862 -0.31816186479418052 0 -0.39962023335203928 -0.32539073298322901 0 -0.401514660155255 -0.31819685637317691 0 -0.40130564311113259 -0.32967862076890581 0 -0.39064670272592411 -0.32967160323888278 0 -0.38935907146989862 -0.31816186479418052 0 -0.40130564311113259 -0.32967862076890581 0 -0.39962023335203928 -0.32539073298322901 0 -0.4039383365009207 -0.3252300993353433 0 -0.39962023335203928 -0.32539073298322901 0 -0.4039383365009207 -0.3252300993353433 0 -0.39962023335203928 -0.32539073298322901 0 -0.4039383365009207 -0.3252300993353433 0 -0.401514660155255 -0.31819685637317691 0 -0.40130564311113259 -0.32967862076890581 0 -0.4039383365009207 -0.3252300993353433 0 -0.401514660155255 -0.31819685637317691 0 -0.4088463285069534 -0.31693695448250642 0 -0.4053668684804122 -0.3086126184714344 0 -0.4039383365009207 -0.3252300993353433 0 -0.401514660155255 -0.31819685637317691 0 -0.4088463285069534 -0.31693695448250642 0 -0.4039383365009207 -0.3252300993353433 0 -0.42808850906329299 -0.32433171173736591 0 -0.4088463285069534 -0.31693695448250642 0 -0.42808850906329299 -0.32433171173736591 0 -0.41503252140001728 -0.31110728079830707 0 -0.4039383365009207 -0.3252300993353433 0 -0.4088463285069534 -0.31693695448250642 0 -0.42808850906329299 -0.32433171173736591 0 -0.4039383365009207 -0.3252300993353433 0 -0.41609663568284688 -0.33258428014908531 0 -0.42808850906329299 -0.32433171173736591 0 -0.4039383365009207 -0.3252300993353433 0 -0.4088463285069534 -0.31693695448250642 0 -0.40130564311113259 -0.32967862076890581 0 -0.4039383365009207 -0.3252300993353433 0 -0.41609663568284688 -0.33258428014908531 0 -0.41901032175007979 -0.34674631764622038 0 -0.40130564311113259 -0.32967862076890581 0 -0.41609663568284688 -0.33258428014908531 0 -0.41901032175007979 -0.34674631764622038 0 -0.40130564311113259 -0.32967862076890581 0 -0.41901032175007979 -0.34674631764622038 0 -0.41609663568284688 -0.33258428014908531 0 -0.42777047674672519 -0.33763052508657909 0 -0.41609663568284688 -0.33258428014908531 0 -0.42777047674672519 -0.33763052508657909 0 -0.42808850906329299 -0.32433171173736591 0 -0.43394442261003058 -0.34546672586134508 0 -0.41901032175007979 -0.34674631764622038 0 -0.42777047674672519 -0.33763052508657909 0 -0.44207286924452832 -0.33783824796895978 0 -0.43394442261003058 -0.34546672586134508 0 -0.42777047674672519 -0.33763052508657909 0 -0.44207286924452832 -0.33783824796895978 0 -0.42777047674672519 -0.33763052508657909 0 -0.42808850906329299 -0.32433171173736591 0 -0.4399695753826649 -0.31139282438396382 0 -0.42808850906329299 -0.32433171173736591 0 -0.42349591428063971 -0.31031667424466408 0 -0.42808850906329299 -0.32433171173736591 0 -0.42349591428063971 -0.31031667424466408 0 -0.41503252140001728 -0.31110728079830707 0 -0.43905227881958647 -0.29505920944709452 0 -0.42349591428063971 -0.31031667424466408 0 -0.41899880716149451 -0.29003317060265321 0 -0.43905227881958647 -0.29505920944709452 0 -0.4399695753826649 -0.31139282438396382 0 -0.42349591428063971 -0.31031667424466408 0 -0.43864273500925549 -0.2751587481676856 0 -0.43905227881958647 -0.29505920944709452 0 -0.41899880716149451 -0.29003317060265321 0 -0.43864273500925549 -0.2751587481676856 0 -0.41899880716149451 -0.29003317060265321 0 -0.41649742047364408 -0.2919272257303569 0 -0.41502826726935188 -0.28951283527362931 0 -0.41151645216318689 -0.29124877083691719 0 -0.41899880716149451 -0.29003317060265321 0 -0.41649742047364408 -0.2919272257303569 0 -0.41502826726935188 -0.28951283527362931 0 -0.41899880716149451 -0.29003317060265321 0 -0.41649742047364408 -0.2919272257303569 0 -0.41899880716149451 -0.29003317060265321 0 -0.41502826726935188 -0.28951283527362931 0 -0.41310038927908221 -0.28484217392458988 0 -0.41310038927908221 -0.28484217392458988 0 -0.40629814920556201 -0.2872410904076857 0 -0.40433064532645308 -0.27892106023783952 0 -0.41502826726935188 -0.28951283527362931 0 -0.41310038927908221 -0.28484217392458988 0 -0.41151645216318689 -0.29124877083691719 0 -0.41310038927908221 -0.28484217392458988 0 -0.40629814920556201 -0.2872410904076857 0 -0.41151645216318689 -0.29124877083691719 0 -0.41649742047364408 -0.2919272257303569 0 -0.41151645216318689 -0.29124877083691719 0 -0.41283916949633909 -0.29890888486812428 0 -0.40629814920556201 -0.2872410904076857 0 -0.41151645216318689 -0.29124877083691719 0 -0.4052488046064433 -0.29379102377099447 0 -0.41151645216318689 -0.29124877083691719 0 -0.41283916949633909 -0.29890888486812428 0 -0.4052488046064433 -0.29379102377099447 0 -0.42349591428063971 -0.31031667424466408 0 -0.41899880716149451 -0.29003317060265321 0 -0.42349591428063971 -0.31031667424466408 0 -0.41649742047364408 -0.2919272257303569 0 -0.41283916949633909 -0.29890888486812428 0 -0.42349591428063971 -0.31031667424466408 0 -0.41899880716149451 -0.29003317060265321 0 -0.41649742047364408 -0.2919272257303569 0 -0.40711072979061191 -0.30081998795009107 0 -0.41283916949633909 -0.29890888486812428 0 -0.4052488046064433 -0.29379102377099447 0 -0.40711072979061191 -0.30081998795009107 0 -0.41283916949633909 -0.29890888486812428 0 -0.41256685577174013 -0.30556786269479153 0 -0.42349591428063971 -0.31031667424466408 0 -0.41283916949633909 -0.29890888486812428 0 -0.41256685577174013 -0.30556786269479153 0 -0.42349591428063971 -0.31031667424466408 0 -0.41503252140001728 -0.31110728079830707 0 -0.41256685577174013 -0.30556786269479153 0 -0.4088463285069534 -0.31693695448250642 0 -0.41503252140001728 -0.31110728079830707 0 -0.4053668684804122 -0.3086126184714344 0 -0.41503252140001728 -0.31110728079830707 0 -0.41256685577174013 -0.30556786269479153 0 -0.4053668684804122 -0.3086126184714344 0 -0.40711072979061191 -0.30081998795009107 0 -0.41256685577174013 -0.30556786269479153 0 -0.4053668684804122 -0.3086126184714344 0 -0.401514660155255 -0.31819685637317691 0 -0.4053668684804122 -0.3086126184714344 0 -0.39554973675391708 -0.30949047449279188 0 -0.4053668684804122 -0.3086126184714344 0 -0.39799597453689262 -0.29994237087155962 0 -0.39554973675391708 -0.30949047449279188 0 -0.40711072979061191 -0.30081998795009107 0 -0.4053668684804122 -0.3086126184714344 0 -0.39799597453689262 -0.29994237087155962 0 -0.40711072979061191 -0.30081998795009107 0 -0.39799597453689262 -0.29994237087155962 0 -0.4052488046064433 -0.29379102377099447 0 -0.39799597453689262 -0.29994237087155962 0 -0.39554973675391708 -0.30949047449279188 0 -0.38351210912712752 -0.30253866195360818 0 -0.38935907146989862 -0.31816186479418052 0 -0.39554973675391708 -0.30949047449279188 0 -0.38351210912712752 -0.30253866195360818 0 -0.38351210912712752 -0.30253866195360818 0 -0.3950660262777419 -0.28803976586637831 0 -0.37433096522584453 -0.28132989654828328 0 -0.39799597453689262 -0.29994237087155962 0 -0.38351210912712752 -0.30253866195360818 0 -0.3950660262777419 -0.28803976586637831 0 -0.39799597453689262 -0.29994237087155962 0 -0.3950660262777419 -0.28803976586637831 0 -0.4052488046064433 -0.29379102377099447 0 -0.40629814920556201 -0.2872410904076857 0 -0.3950660262777419 -0.28803976586637831 0 -0.4052488046064433 -0.29379102377099447 0 -0.40629814920556201 -0.2872410904076857 0 -0.3950660262777419 -0.28803976586637831 0 -0.40433064532645308 -0.27892106023783952 0 -0.40433064532645308 -0.27892106023783952 0 -0.39374553591587069 -0.27251425727467649 0 -0.41316010660589619 -0.2636986180010682 0 -0.39374553591587069 -0.27251425727467649 0 -0.41316010660589619 -0.2636986180010682 0 -0.3950660262777419 -0.28803976586637831 0 -0.40433064532645308 -0.27892106023783952 0 -0.39374553591587069 -0.27251425727467649 0 -0.39374553591587069 -0.27251425727467649 0 -0.37433096522584453 -0.28132989654828328 0 -0.3950660262777419 -0.28803976586637831 0 -0.39374553591587069 -0.27251425727467649 0 -0.37433096522584453 -0.28132989654828328 0 -0.39374553591587069 -0.27251425727467649 0 -0.37648826808451968 -0.27741199289956509 0 -0.37433096522584453 -0.28132989654828328 0 -0.39374553591587069 -0.27251425727467649 0 -0.37598097480723441 -0.26745556380373348 0 -0.38363075469537122 -0.26088114511686322 0 -0.39374553591587069 -0.27251425727467649 0 -0.37598097480723441 -0.26745556380373348 0 -0.37648826808451968 -0.27741199289956509 0 -0.37598097480723441 -0.26745556380373348 0 -0.37648826808451968 -0.27741199289956509 0 -0.37277902062147272 -0.27405557492128901 0 -0.37648826808451968 -0.27741199289956509 0 -0.37433096522584453 -0.28132989654828328 0 -0.38363075469537122 -0.26088114511686322 0 -0.37393540655460039 -0.25504906339868932 0 -0.38258347849844832 -0.24967798674395081 0 -0.37598097480723441 -0.26745556380373348 0 -0.38363075469537122 -0.26088114511686322 0 -0.37393540655460039 -0.25504906339868932 0 -0.38363075469537122 -0.26088114511686322 0 -0.3945867816951415 -0.25828321704239809 0 -0.38258347849844832 -0.24967798674395081 0 -0.3945867816951415 -0.25828321704239809 0 -0.3933004523496676 -0.24484402304582939 0 -0.38258347849844832 -0.24967798674395081 0 -0.39374553591587069 -0.27251425727467649 0 -0.3945867816951415 -0.25828321704239809 0 -0.41316010660589619 -0.2636986180010682 0 -0.3945867816951415 -0.25828321704239809 0 -0.41316010660589619 -0.2636986180010682 0 -0.40847937369743209 -0.24258689873782929 0 -0.39374553591587069 -0.27251425727467649 0 -0.38363075469537122 -0.26088114511686322 0 -0.3945867816951415 -0.25828321704239809 0 -0.41316010660589619 -0.2636986180010682 0 -0.42931567121415071 -0.25028064732030619 0 -0.40847937369743209 -0.24258689873782929 0 -0.41316010660589619 -0.2636986180010682 0 -0.40847937369743209 -0.24258689873782929 0 -0.41899880716149451 -0.29003317060265321 0 -0.41310038927908221 -0.28484217392458988 0 -0.41316010660589619 -0.2636986180010682 0 -0.41310038927908221 -0.28484217392458988 0 -0.40433064532645308 -0.27892106023783952 0 -0.41316010660589619 -0.2636986180010682 0 -0.41899880716149451 -0.29003317060265321 0 -0.41316010660589619 -0.2636986180010682 0 -0.42551969657153998 -0.27199364899169498 0 -0.41899880716149451 -0.29003317060265321 0 -0.41316010660589619 -0.2636986180010682 0 -0.43864273500925549 -0.2751587481676856 0 -0.42551969657153998 -0.27199364899169498 0 -0.43487007995442373 -0.25384069753834382 0 -0.43864273500925549 -0.2751587481676856 0 -0.41899880716149451 -0.29003317060265321 0 -0.42551969657153998 -0.27199364899169498 0 -0.41316010660589619 -0.2636986180010682 0 -0.43487007995442373 -0.25384069753834382 0 -0.41316010660589619 -0.2636986180010682 0 -0.42551969657153998 -0.27199364899169498 0 -0.43487007995442373 -0.25384069753834382 0 -0.41316010660589619 -0.2636986180010682 0 -0.43487007995442373 -0.25384069753834382 0 -0.42931567121415071 -0.25028064732030619 0 -0.32316489217708799 -0.25890650528201359 0 -0.32888695585781391 -0.26910619260742191 0 -0.31032083431566337 -0.26180085087236171 0 -0.32316489217708799 -0.25890650528201359 0 -0.32888695585781391 -0.26910619260742191 0 -0.33131030172746923 -0.25321851497678438 0 -0.32888695585781391 -0.26910619260742191 0 -0.31032083431566337 -0.26180085087236171 0 -0.32316489217708799 -0.25890650528201359 0 -0.33131030172746923 -0.25321851497678438 0 -0.32202724095639168 -0.2495658441092535 0 -0.32316489217708799 -0.25890650528201359 0 -0.31032083431566337 -0.26180085087236171 0 -0.32202724095639168 -0.2495658441092535 0 -0.31032083431566337 -0.26180085087236171 0 -0.32202724095639168 -0.2495658441092535 0 -0.31283906540333922 -0.25031215033235238 0 -0.31032083431566337 -0.26180085087236171 0 -0.32202724095639168 -0.2495658441092535 0 -0.31480478096024378 -0.27564718726691712 0 -0.32888695585781391 -0.26910619260742191 0 -0.31032083431566337 -0.26180085087236171 0 -0.31480478096024378 -0.27564718726691712 0 -0.32888695585781391 -0.26910619260742191 0 -0.32507396769595592 -0.29410449247197662 0 -0.32888695585781391 -0.26910619260742191 0 -0.3381311227387106 -0.26238754928509761 0 -0.34453036853746388 -0.27526151563856671 0 -0.32888695585781391 -0.26910619260742191 0 -0.34453036853746388 -0.27526151563856671 0 -0.33279411355556121 -0.28213246275860349 0 -0.32888695585781391 -0.26910619260742191 0 -0.34453036853746388 -0.27526151563856671 0 -0.34453036853746388 -0.27526151563856671 0 -0.34450588037081892 -0.28462367662190302 0 -0.33279411355556121 -0.28213246275860349 0 -0.32888695585781391 -0.26910619260742191 0 -0.33131030172746923 -0.25321851497678438 0 -0.32888695585781391 -0.26910619260742191 0 -0.3381311227387106 -0.26238754928509761 0 -0.33131030172746923 -0.25321851497678438 0 -0.3381311227387106 -0.26238754928509761 0 -0.34897267059429732 -0.25990550268967838 0 -0.3420777495351906 -0.24844208584564559 0 -0.3381311227387106 -0.26238754928509761 0 -0.33131030172746923 -0.25321851497678438 0 -0.3420777495351906 -0.24844208584564559 0 -0.34897267059429732 -0.25990550268967838 0 -0.35255150303394622 -0.24812522560144931 0 -0.3420777495351906 -0.24844208584564559 0 -0.34897267059429732 -0.25990550268967838 0 -0.35751050643918753 -0.2560897164936603 0 -0.35722060467742811 -0.26762499714769428 0 -0.34897267059429732 -0.25990550268967838 0 -0.35751050643918753 -0.2560897164936603 0 -0.35255150303394622 -0.24812522560144931 0 -0.35751050643918753 -0.2560897164936603 0 -0.363557814049559 -0.2486896754833777 0 -0.35255150303394622 -0.24812522560144931 0 -0.35751050643918753 -0.2560897164936603 0 -0.36561260290989678 -0.26128521942254013 0 -0.363557814049559 -0.2486896754833777 0 -0.35751050643918753 -0.2560897164936603 0 -0.36561260290989678 -0.26128521942254013 0 -0.35722060467742811 -0.26762499714769428 0 -0.37598097480723441 -0.26745556380373348 0 -0.36561260290989678 -0.26128521942254013 0 -0.37393540655460039 -0.25504906339868932 0 -0.36561260290989678 -0.26128521942254013 0 -0.37393540655460039 -0.25504906339868932 0 -0.363557814049559 -0.2486896754833777 0 -0.37277902062147272 -0.27405557492128901 0 -0.36654922363893422 -0.27215591673696138 0 -0.37433096522584453 -0.28132989654828328 0 -0.37648826808451968 -0.27741199289956509 0 -0.37277902062147272 -0.27405557492128901 0 -0.37433096522584453 -0.28132989654828328 0 -0.37598097480723441 -0.26745556380373348 0 -0.37277902062147272 -0.27405557492128901 0 -0.36654922363893422 -0.27215591673696138 0 -0.37598097480723441 -0.26745556380373348 0 -0.36561260290989678 -0.26128521942254013 0 -0.36654922363893422 -0.27215591673696138 0 -0.36561260290989678 -0.26128521942254013 0 -0.36654922363893422 -0.27215591673696138 0 -0.35722060467742811 -0.26762499714769428 0 -0.36654922363893422 -0.27215591673696138 0 -0.35722060467742811 -0.26762499714769428 0 -0.36017378121711419 -0.28141683866971062 0 -0.36654922363893422 -0.27215591673696138 0 -0.36017378121711419 -0.28141683866971062 0 -0.37433096522584453 -0.28132989654828328 0 -0.34453036853746388 -0.27526151563856671 0 -0.36017378121711419 -0.28141683866971062 0 -0.35722060467742811 -0.26762499714769428 0 -0.34453036853746388 -0.27526151563856671 0 -0.36017378121711419 -0.28141683866971062 0 -0.34453036853746388 -0.27526151563856671 0 -0.34450588037081892 -0.28462367662190302 0 -0.36017378121711419 -0.28141683866971062 0 -0.34897267059429732 -0.25990550268967838 0 -0.35722060467742811 -0.26762499714769428 0 -0.34453036853746388 -0.27526151563856671 0 -0.3381311227387106 -0.26238754928509761 0 -0.34897267059429732 -0.25990550268967838 0 -0.34453036853746388 -0.27526151563856671 0 -0.34450588037081892 -0.28462367662190302 0 -0.34891652205724832 -0.29286991805537971 0 -0.36017378121711419 -0.28141683866971062 0 -0.37433096522584453 -0.28132989654828328 0 -0.36105831684996031 -0.30543451277817618 0 -0.34891652205724832 -0.29286991805537971 0 -0.37433096522584453 -0.28132989654828328 0 -0.34891652205724832 -0.29286991805537971 0 -0.36017378121711419 -0.28141683866971062 0 -0.37433096522584453 -0.28132989654828328 0 -0.38351210912712752 -0.30253866195360818 0 -0.37433096522584453 -0.28132989654828328 0 -0.36105831684996031 -0.30543451277817618 0 -0.34891652205724832 -0.29286991805537971 0 -0.37433096522584453 -0.28132989654828328 0 -0.36105831684996031 -0.30543451277817618 0 -0.38351210912712752 -0.30253866195360818 0 -0.36105831684996031 -0.30543451277817618 0 -0.37140736883531977 -0.32183989730859341 0 -0.36105831684996031 -0.30543451277817618 0 -0.3496688877197569 -0.30429177800002122 0 -0.34586440994984541 -0.3145735322147622 0 -0.34891652205724832 -0.29286991805537971 0 -0.36105831684996031 -0.30543451277817618 0 -0.3496688877197569 -0.30429177800002122 0 -0.34891652205724832 -0.29286991805537971 0 -0.3496688877197569 -0.30429177800002122 0 -0.33956299038192078 -0.30735077663143923 0 -0.3496688877197569 -0.30429177800002122 0 -0.33956299038192078 -0.30735077663143923 0 -0.34586440994984541 -0.3145735322147622 0 -0.34891652205724832 -0.29286991805537971 0 -0.33956299038192078 -0.30735077663143923 0 -0.32350207888865212 -0.30440993956247547 0 -0.33956299038192078 -0.30735077663143923 0 -0.3301339810941622 -0.31110503031331638 0 -0.32350207888865212 -0.30440993956247547 0 -0.34891652205724832 -0.29286991805537971 0 -0.32350207888865212 -0.30440993956247547 0 -0.33956299038192078 -0.30735077663143923 0 -0.3301339810941622 -0.31110503031331638 0 -0.33675509785737662 -0.31655799101612769 0 -0.34891652205724832 -0.29286991805537971 0 -0.33611461648670682 -0.29143764798725502 0 -0.32350207888865212 -0.30440993956247547 0 -0.32888695585781391 -0.26910619260742191 0 -0.33279411355556121 -0.28213246275860349 0 -0.32507396769595592 -0.29410449247197662 0 -0.34450588037081892 -0.28462367662190302 0 -0.34891652205724832 -0.29286991805537971 0 -0.33611461648670682 -0.29143764798725502 0 -0.34450588037081892 -0.28462367662190302 0 -0.33611461648670682 -0.29143764798725502 0 -0.33279411355556121 -0.28213246275860349 0 -0.33279411355556121 -0.28213246275860349 0 -0.33070524953878982 -0.29012978506972142 0 -0.32507396769595592 -0.29410449247197662 0 -0.33611461648670682 -0.29143764798725502 0 -0.33279411355556121 -0.28213246275860349 0 -0.33070524953878982 -0.29012978506972142 0 -0.33611461648670682 -0.29143764798725502 0 -0.32742439802278828 -0.29462709162158601 0 -0.32350207888865212 -0.30440993956247547 0 -0.33611461648670682 -0.29143764798725502 0 -0.33070524953878982 -0.29012978506972142 0 -0.32742439802278828 -0.29462709162158601 0 -0.32507396769595592 -0.29410449247197662 0 -0.30234930147786221 -0.28905184696057518 0 -0.32507396769595592 -0.29410449247197662 0 -0.32350207888865212 -0.30440993956247547 0 -0.30234930147786221 -0.28905184696057518 0 -0.31480478096024378 -0.27564718726691712 0 -0.32507396769595592 -0.29410449247197662 0 -0.30234930147786221 -0.28905184696057518 0 -0.32888695585781391 -0.26910619260742191 0 -0.32507396769595592 -0.29410449247197662 0 -0.32507396769595592 -0.29410449247197662 0 -0.32742439802278828 -0.29462709162158601 0 -0.33070524953878982 -0.29012978506972142 0 -0.32507396769595592 -0.29410449247197662 0 -0.32742439802278828 -0.29462709162158601 0 -0.32302725724223008 -0.30752291379569302 0 -0.32350207888865212 -0.30440993956247547 0 -0.2999756881373381 -0.31509264677165549 0 -0.3301339810941622 -0.31110503031331638 0 -0.32302725724223008 -0.30752291379569302 0 -0.32422013968378288 -0.31561436227230438 0 -0.32302725724223008 -0.30752291379569302 0 -0.32350207888865212 -0.30440993956247547 0 -0.3301339810941622 -0.31110503031331638 0 -0.32302725724223008 -0.30752291379569302 0 -0.32350207888865212 -0.30440993956247547 0 -0.32507396769595592 -0.29410449247197662 0 -0.32742439802278828 -0.29462709162158601 0 -0.32350207888865212 -0.30440993956247547 0 -0.32507396769595592 -0.29410449247197662 0 -0.32350207888865212 -0.30440993956247547 0 -0.32302725724223008 -0.30752291379569302 0 -0.31656029902357641 -0.31849097864348519 0 -0.2999756881373381 -0.31509264677165549 0 -0.32265466046617669 -0.32198754646013139 0 -0.33127214989488979 -0.33008610863815152 0 -0.32872450059276898 -0.31896534214889599 0 -0.32265466046617669 -0.32198754646013139 0 -0.31892782856615448 -0.32825501756413727 0 -0.33127214989488979 -0.33008610863815152 0 -0.32265466046617669 -0.32198754646013139 0 -0.32422013968378288 -0.31561436227230438 0 -0.32872450059276898 -0.31896534214889599 0 -0.32302725724223008 -0.30752291379569302 0 -0.32422013968378288 -0.31561436227230438 0 -0.31656029902357641 -0.31849097864348519 0 -0.3301339810941622 -0.31110503031331638 0 -0.32422013968378288 -0.31561436227230438 0 -0.32872450059276898 -0.31896534214889599 0 -0.32265466046617669 -0.32198754646013139 0 -0.32422013968378288 -0.31561436227230438 0 -0.31656029902357641 -0.31849097864348519 0 -0.32265466046617669 -0.32198754646013139 0 -0.31656029902357641 -0.31849097864348519 0 -0.31892782856615448 -0.32825501756413727 0 -0.31656029902357641 -0.31849097864348519 0 -0.31892782856615448 -0.32825501756413727 0 -0.30936258926988919 -0.3261434941065412 0 -0.31892782856615448 -0.32825501756413727 0 -0.31208723605418232 -0.33616024018399832 0 -0.30936258926988919 -0.3261434941065412 0 -0.31892782856615448 -0.32825501756413727 0 -0.32183099473442811 -0.33958013728355868 0 -0.31208723605418232 -0.33616024018399832 0 -0.32183099473442811 -0.33958013728355868 0 -0.31234840654553953 -0.34764506024843322 0 -0.31208723605418232 -0.33616024018399832 0 -0.31892782856615448 -0.32825501756413727 0 -0.32183099473442811 -0.33958013728355868 0 -0.33127214989488979 -0.33008610863815152 0 -0.33127214989488979 -0.33008610863815152 0 -0.34778566847407638 -0.32953912900806931 0 -0.33412452318830171 -0.35434929914508079 0 -0.32183099473442811 -0.33958013728355868 0 -0.33127214989488979 -0.33008610863815152 0 -0.33412452318830171 -0.35434929914508079 0 -0.34778566847407638 -0.32953912900806931 0 -0.33412452318830171 -0.35434929914508079 0 -0.33127214989488979 -0.33008610863815152 0 -0.34035549841598117 -0.32426700585474 0 -0.34778566847407638 -0.32953912900806931 0 -0.34035549841598117 -0.32426700585474 0 -0.33427681169025408 -0.32246911191447869 0 -0.33675509785737662 -0.31655799101612769 0 -0.33127214989488979 -0.33008610863815152 0 -0.34035549841598117 -0.32426700585474 0 -0.33427681169025408 -0.32246911191447869 0 -0.33127214989488979 -0.33008610863815152 0 -0.33427681169025408 -0.32246911191447869 0 -0.32872450059276898 -0.31896534214889599 0 -0.33427681169025408 -0.32246911191447869 0 -0.32872450059276898 -0.31896534214889599 0 -0.33675509785737662 -0.31655799101612769 0 -0.3301339810941622 -0.31110503031331638 0 -0.32872450059276898 -0.31896534214889599 0 -0.33675509785737662 -0.31655799101612769 0 -0.33956299038192078 -0.30735077663143923 0 -0.33675509785737662 -0.31655799101612769 0 -0.34586440994984541 -0.3145735322147622 0 -0.34035549841598117 -0.32426700585474 0 -0.33675509785737662 -0.31655799101612769 0 -0.34586440994984541 -0.3145735322147622 0 -0.36105831684996031 -0.30543451277817618 0 -0.34778566847407638 -0.32953912900806931 0 -0.36105831684996031 -0.30543451277817618 0 -0.34586440994984541 -0.3145735322147622 0 -0.34778566847407638 -0.32953912900806931 0 -0.34035549841598117 -0.32426700585474 0 -0.34586440994984541 -0.3145735322147622 0 -0.34778566847407638 -0.32953912900806931 0 -0.34035549841598117 -0.32426700585474 0 -0.34778566847407638 -0.32953912900806931 0 -0.36105831684996031 -0.30543451277817618 0 -0.37140736883531977 -0.32183989730859341 0 -0.34778566847407638 -0.32953912900806931 0 -0.38006824781918919 -0.33243312042550199 0 -0.37140736883531977 -0.32183989730859341 0 -0.36666079927166728 -0.34293209489202431 0 -0.37140736883531977 -0.32183989730859341 0 -0.36666079927166728 -0.34293209489202431 0 -0.34778566847407638 -0.32953912900806931 0 -0.34778566847407638 -0.32953912900806931 0 -0.35170181166344461 -0.34709871950800919 0 -0.33412452318830171 -0.35434929914508079 0 -0.36666079927166728 -0.34293209489202431 0 -0.34778566847407638 -0.32953912900806931 0 -0.36666079927166728 -0.34293209489202431 0 -0.34778566847407638 -0.32953912900806931 0 -0.35170181166344461 -0.34709871950800919 0 -0.36666079927166728 -0.34293209489202431 0 -0.35170181166344461 -0.34709871950800919 0 -0.35823625571973289 -0.36157435498686258 0 -0.35170181166344461 -0.34709871950800919 0 -0.35823625571973289 -0.36157435498686258 0 -0.33412452318830171 -0.35434929914508079 0 -0.38553593006925752 -0.3563250607759802 0 -0.36666079927166728 -0.34293209489202431 0 -0.35823625571973289 -0.36157435498686258 0 -0.37549160074202448 -0.3732971907138336 0 -0.38553593006925752 -0.3563250607759802 0 -0.35823625571973289 -0.36157435498686258 0 -0.37549160074202448 -0.3732971907138336 0 -0.35823625571973289 -0.36157435498686258 0 -0.35302350150803719 -0.38208755235937009 0 -0.35823625571973289 -0.36157435498686258 0 -0.34413293857164062 -0.37054757780120701 0 -0.35302350150803719 -0.38208755235937009 0 -0.35823625571973289 -0.36157435498686258 0 -0.34413293857164062 -0.37054757780120701 0 -0.33412452318830171 -0.35434929914508079 0 -0.34413293857164062 -0.37054757780120701 0 -0.33412452318830171 -0.35434929914508079 0 -0.33519042443293379 -0.3802220457599616 0 -0.33412452318830171 -0.35434929914508079 0 -0.33519042443293379 -0.3802220457599616 0 -0.32046337790252549 -0.37915946928209171 0 -0.32183099473442811 -0.33958013728355868 0 -0.33412452318830171 -0.35434929914508079 0 -0.31234840654553953 -0.34764506024843322 0 -0.33412452318830171 -0.35434929914508079 0 -0.316806384823896 -0.36257585725837499 0 -0.31234840654553953 -0.34764506024843322 0 -0.316806384823896 -0.36257585725837499 0 -0.3002892316592175 -0.36914960035789463 0 -0.32046337790252549 -0.37915946928209171 0 -0.33412452318830171 -0.35434929914508079 0 -0.316806384823896 -0.36257585725837499 0 -0.32046337790252549 -0.37915946928209171 0 -0.33412452318830171 -0.35434929914508079 0 -0.32046337790252549 -0.37915946928209171 0 -0.3002892316592175 -0.36914960035789463 0 -0.32046337790252549 -0.37915946928209171 0 -0.3002892316592175 -0.36914960035789463 0 -0.31234840654553953 -0.34764506024843322 0 -0.29527517448125451 -0.36666176000398298 0 -0.316806384823896 -0.36257585725837499 0 -0.3002892316592175 -0.36914960035789463 0 -0.31234840654553953 -0.34764506024843322 0 -0.3002892316592175 -0.36914960035789463 0 -0.29527517448125451 -0.36666176000398298 0 -0.3002892316592175 -0.36914960035789463 0 -0.29403121103535113 -0.38030922419454549 0 -0.31234840654553953 -0.34764506024843322 0 -0.29527517448125451 -0.36666176000398298 0 -0.2976254313092957 -0.34087720338781918 0 -0.3002892316592175 -0.36914960035789463 0 -0.31234840654553953 -0.34764506024843322 0 -0.29527517448125451 -0.36666176000398298 0 -0.26926364122666091 -0.35375553660024128 0 -0.28048823453243299 -0.34080574413418752 0 -0.29527517448125451 -0.36666176000398298 0 -0.2976254313092957 -0.34087720338781918 0 -0.29527517448125451 -0.36666176000398298 0 -0.28048823453243299 -0.34080574413418752 0 -0.2976254313092957 -0.34087720338781918 0 -0.29527517448125451 -0.36666176000398298 0 -0.26926364122666091 -0.35375553660024128 0 -0.29527517448125451 -0.36666176000398298 0 -0.27994264201103719 -0.36323993691456841 0 -0.26926364122666091 -0.35375553660024128 0 -0.29527517448125451 -0.36666176000398298 0 -0.28588261091775702 -0.37268605543787447 0 -0.29403121103535113 -0.38030922419454549 0 -0.29527517448125451 -0.36666176000398298 0 -0.29403121103535113 -0.38030922419454549 0 -0.3002892316592175 -0.36914960035789463 0 -0.29527517448125451 -0.36666176000398298 0 -0.29403121103535113 -0.38030922419454549 0 -0.29527517448125451 -0.36666176000398298 0 -0.28588261091775702 -0.37268605543787447 0 -0.27994264201103719 -0.36323993691456841 0 -0.28588261091775702 -0.37268605543787447 0 -0.27994264201103719 -0.36323993691456841 0 -0.2742629371717063 -0.37916463673385931 0 -0.27994264201103719 -0.36323993691456841 0 -0.26568404082974961 -0.36651666061706623 0 -0.2742629371717063 -0.37916463673385931 0 -0.27994264201103719 -0.36323993691456841 0 -0.26568404082974961 -0.36651666061706623 0 -0.26017799311385281 -0.35268912854855933 0 -0.26568404082974961 -0.36651666061706623 0 -0.25909124390184018 -0.37475905286733341 0 -0.2742629371717063 -0.37916463673385931 0 -0.26568404082974961 -0.36651666061706623 0 -0.25909124390184018 -0.37475905286733341 0 -0.25494538795031141 -0.36273054802101118 0 -0.26568404082974961 -0.36651666061706623 0 -0.25494538795031141 -0.36273054802101118 0 -0.26017799311385281 -0.35268912854855933 0 -0.25909124390184018 -0.37475905286733341 0 -0.25494538795031141 -0.36273054802101118 0 -0.24748772700216881 -0.3717564301773445 0 -0.26017799311385281 -0.35268912854855933 0 -0.2404133442166683 -0.34213832018255058 0 -0.26926364122666091 -0.35375553660024128 0 -0.24325210797206609 -0.34084931319650169 0 -0.26017799311385281 -0.35268912854855933 0 -0.26926364122666091 -0.35375553660024128 0 -0.24325210797206609 -0.34084931319650169 0 -0.25494538795031141 -0.36273054802101118 0 -0.26017799311385281 -0.35268912854855933 0 -0.24808760514302669 -0.3536558827211943 0 -0.27994264201103719 -0.36323993691456841 0 -0.26017799311385281 -0.35268912854855933 0 -0.27994264201103719 -0.36323993691456841 0 -0.26017799311385281 -0.35268912854855933 0 -0.26926364122666091 -0.35375553660024128 0 -0.28048823453243299 -0.34080574413418752 0 -0.2621599680271573 -0.33226375772155409 0 -0.28106782808224812 -0.3236782022466056 0 -0.26926364122666091 -0.35375553660024128 0 -0.28048823453243299 -0.34080574413418752 0 -0.2621599680271573 -0.33226375772155409 0 -0.2621599680271573 -0.33226375772155409 0 -0.24518994726652291 -0.33234415230164399 0 -0.24308922262768951 -0.32099342612622928 0 -0.2621599680271573 -0.33226375772155409 0 -0.24325210797206609 -0.34084931319650169 0 -0.24518994726652291 -0.33234415230164399 0 -0.2621599680271573 -0.33226375772155409 0 -0.24325210797206609 -0.34084931319650169 0 -0.26926364122666091 -0.35375553660024128 0 -0.2621599680271573 -0.33226375772155409 0 -0.24325210797206609 -0.34084931319650169 0 -0.2621599680271573 -0.33226375772155409 0 -0.25915672867891859 -0.31415112243359272 0 -0.24308922262768951 -0.32099342612622928 0 -0.2621599680271573 -0.33226375772155409 0 -0.28106782808224812 -0.3236782022466056 0 -0.25915672867891859 -0.31415112243359272 0 -0.28106782808224812 -0.3236782022466056 0 -0.2709678639136075 -0.30238435136382452 0 -0.2621599680271573 -0.33226375772155409 0 -0.25915672867891859 -0.31415112243359272 0 -0.28106782808224812 -0.3236782022466056 0 -0.28106782808224812 -0.3236782022466056 0 -0.2999756881373381 -0.31509264677165549 0 -0.28453315598845252 -0.30841843357299598 0 -0.28106782808224812 -0.3236782022466056 0 -0.2976254313092957 -0.34087720338781918 0 -0.2999756881373381 -0.31509264677165549 0 -0.28106782808224812 -0.3236782022466056 0 -0.2999756881373381 -0.31509264677165549 0 -0.28048823453243299 -0.34080574413418752 0 -0.28106782808224812 -0.3236782022466056 0 -0.2976254313092957 -0.34087720338781918 0 -0.31234840654553953 -0.34764506024843322 0 -0.2976254313092957 -0.34087720338781918 0 -0.31208723605418232 -0.33616024018399832 0 -0.2976254313092957 -0.34087720338781918 0 -0.31208723605418232 -0.33616024018399832 0 -0.30936258926988919 -0.3261434941065412 0 -0.2976254313092957 -0.34087720338781918 0 -0.2999756881373381 -0.31509264677165549 0 -0.2976254313092957 -0.34087720338781918 0 -0.30936258926988919 -0.3261434941065412 0 -0.2999756881373381 -0.31509264677165549 0 -0.31656029902357641 -0.31849097864348519 0 -0.30936258926988919 -0.3261434941065412 0 -0.2999756881373381 -0.31509264677165549 0 -0.32350207888865212 -0.30440993956247547 0 -0.2999756881373381 -0.31509264677165549 0 -0.30234930147786221 -0.28905184696057518 0 -0.2999756881373381 -0.31509264677165549 0 -0.30234930147786221 -0.28905184696057518 0 -0.2999756881373381 -0.31509264677165549 0 -0.30234930147786221 -0.28905184696057518 0 -0.29239547880504652 -0.30127313523009702 0 -0.32350207888865212 -0.30440993956247547 0 -0.2999756881373381 -0.31509264677165549 0 -0.30234930147786221 -0.28905184696057518 0 -0.29006270545698909 -0.29189763306700739 0 -0.29239547880504652 -0.30127313523009702 0 -0.30234930147786221 -0.28905184696057518 0 -0.29006270545698909 -0.29189763306700739 0 -0.28742262680475061 -0.28573302172180548 0 -0.30234930147786221 -0.28905184696057518 0 -0.28742262680475061 -0.28573302172180548 0 -0.29006270545698909 -0.29189763306700739 0 -0.28742262680475061 -0.28573302172180548 0 -0.28158089536532038 -0.29680102193740848 0 -0.29006270545698909 -0.29189763306700739 0 -0.28158089536532038 -0.29680102193740848 0 -0.29239547880504652 -0.30127313523009702 0 -0.28158089536532038 -0.29680102193740848 0 -0.29239547880504652 -0.30127313523009702 0 -0.28453315598845252 -0.30841843357299598 0 -0.2999756881373381 -0.31509264677165549 0 -0.29239547880504652 -0.30127313523009702 0 -0.28453315598845252 -0.30841843357299598 0 -0.28106782808224812 -0.3236782022466056 0 -0.28453315598845252 -0.30841843357299598 0 -0.2709678639136075 -0.30238435136382452 0 -0.28158089536532038 -0.29680102193740848 0 -0.28453315598845252 -0.30841843357299598 0 -0.2709678639136075 -0.30238435136382452 0 -0.25915672867891859 -0.31415112243359272 0 -0.25718459078837252 -0.29759752524363881 0 -0.24047089863443691 -0.30798947189970438 0 -0.25915672867891859 -0.31415112243359272 0 -0.2709678639136075 -0.30238435136382452 0 -0.25718459078837252 -0.29759752524363881 0 -0.25718459078837252 -0.29759752524363881 0 -0.25108388684634803 -0.28956965662021522 0 -0.26792751193251091 -0.28139844079955562 0 -0.25108388684634803 -0.28956965662021522 0 -0.26792751193251091 -0.28139844079955562 0 -0.2484323970602714 -0.27706385987730509 0 -0.2709678639136075 -0.30238435136382452 0 -0.25718459078837252 -0.29759752524363881 0 -0.26792751193251091 -0.28139844079955562 0 -0.28742262680475061 -0.28573302172180548 0 -0.26792751193251091 -0.28139844079955562 0 -0.28158089536532038 -0.29680102193740848 0 -0.2709678639136075 -0.30238435136382452 0 -0.26792751193251091 -0.28139844079955562 0 -0.28742262680475061 -0.28573302172180548 0 -0.28158089536532038 -0.29680102193740848 0 -0.26792751193251091 -0.28139844079955562 0 -0.26792751193251091 -0.28139844079955562 0 -0.27965676560653041 -0.27550351800418249 0 -0.27506057922854799 -0.26523935036500679 0 -0.28742262680475061 -0.28573302172180548 0 -0.26792751193251091 -0.28139844079955562 0 -0.27965676560653041 -0.27550351800418249 0 -0.26792751193251091 -0.28139844079955562 0 -0.26170023695288303 -0.26848976391570201 0 -0.27506057922854799 -0.26523935036500679 0 -0.27965676560653041 -0.27550351800418249 0 -0.27506057922854799 -0.26523935036500679 0 -0.28821634446031208 -0.2696432591303618 0 -0.26792751193251091 -0.28139844079955562 0 -0.2484323970602714 -0.27706385987730509 0 -0.26792751193251091 -0.28139844079955562 0 -0.26170023695288303 -0.26848976391570201 0 -0.2484323970602714 -0.27706385987730509 0 -0.26170023695288303 -0.26848976391570201 0 -0.25309751137434572 -0.26289123234143091 0 -0.2484323970602714 -0.27706385987730509 0 -0.2565674865322034 -0.25340195958415102 0 -0.26524553468775469 -0.25886506807255583 0 -0.27383001930629169 -0.24744255459442921 0 -0.2565674865322034 -0.25340195958415102 0 -0.27383001930629169 -0.24744255459442921 0 -0.2565674865322034 -0.25340195958415102 0 -0.25309751137434572 -0.26289123234143091 0 -0.24233717299785959 -0.25960849866204011 0 -0.2565674865322034 -0.25340195958415102 0 -0.25309751137434572 -0.26289123234143091 0 -0.26524553468775469 -0.25886506807255583 0 -0.26170023695288303 -0.26848976391570201 0 -0.25309751137434572 -0.26289123234143091 0 -0.26524553468775469 -0.25886506807255583 0 -0.27506057922854799 -0.26523935036500679 0 -0.28942662192718172 -0.25357945894426132 0 -0.27383001930629169 -0.24744255459442921 0 -0.26524553468775469 -0.25886506807255583 0 -0.27506057922854799 -0.26523935036500679 0 -0.27383001930629169 -0.24744255459442921 0 -0.26170023695288303 -0.26848976391570201 0 -0.26524553468775469 -0.25886506807255583 0 -0.27506057922854799 -0.26523935036500679 0 -0.28942662192718172 -0.25357945894426132 0 -0.29569431645386429 -0.26311293363000732 0 -0.28821634446031208 -0.2696432591303618 0 -0.28942662192718172 -0.25357945894426132 0 -0.27383001930629169 -0.24744255459442921 0 -0.27506057922854799 -0.26523935036500679 0 -0.28942662192718172 -0.25357945894426132 0 -0.28821634446031208 -0.2696432591303618 0 -0.28942662192718172 -0.25357945894426132 0 -0.29569431645386429 -0.26311293363000732 0 -0.30502322454807101 -0.25971636329409542 0 -0.29569431645386429 -0.26311293363000732 0 -0.28821634446031208 -0.2696432591303618 0 -0.30425539613548452 -0.26814017253042433 0 -0.28742262680475061 -0.28573302172180548 0 -0.27965676560653041 -0.27550351800418249 0 -0.28821634446031208 -0.2696432591303618 0 -0.28742262680475061 -0.28573302172180548 0 -0.28821634446031208 -0.2696432591303618 0 -0.30425539613548452 -0.26814017253042433 0 -0.28742262680475061 -0.28573302172180548 0 -0.30425539613548452 -0.26814017253042433 0 -0.31480478096024378 -0.27564718726691712 0 -0.30234930147786221 -0.28905184696057518 0 -0.30425539613548452 -0.26814017253042433 0 -0.30234930147786221 -0.28905184696057518 0 -0.30425539613548452 -0.26814017253042433 0 -0.30234930147786221 -0.28905184696057518 0 -0.28742262680475061 -0.28573302172180548 0 -0.30425539613548452 -0.26814017253042433 0 -0.31480478096024378 -0.27564718726691712 0 -0.30425539613548452 -0.26814017253042433 0 -0.31032083431566337 -0.26180085087236171 0 -0.30425539613548452 -0.26814017253042433 0 -0.31032083431566337 -0.26180085087236171 0 -0.30502322454807101 -0.25971636329409542 0 -0.28942662192718172 -0.25357945894426132 0 -0.30538593138510828 -0.25573712372202267 0 -0.29948497002523827 -0.2483657822867901 0 -0.28942662192718172 -0.25357945894426132 0 -0.30502322454807101 -0.25971636329409542 0 -0.30538593138510828 -0.25573712372202267 0 -0.30425539613548452 -0.26814017253042433 0 -0.31032083431566337 -0.26180085087236171 0 -0.31032083431566337 -0.26180085087236171 0 -0.30502322454807101 -0.25971636329409542 0 -0.31032083431566337 -0.26180085087236171 0 -0.30502322454807101 -0.25971636329409542 0 -0.30538593138510828 -0.25573712372202267 0 -0.31283906540333922 -0.25031215033235238 0 -0.31032083431566337 -0.26180085087236171 0 -0.30538593138510828 -0.25573712372202267 0 -0.31283906540333922 -0.25031215033235238 0 -0.30538593138510828 -0.25573712372202267 0 -0.30623861516307299 -0.24935013043731349 0 -0.30502322454807101 -0.25971636329409542 0 -0.30538593138510828 -0.25573712372202267 0 -0.28942662192718172 -0.25357945894426132 0 -0.30502322454807101 -0.25971636329409542 0 -0.30538593138510828 -0.25573712372202267 0 -0.29948497002523827 -0.2483657822867901 0 -0.30623861516307299 -0.24935013043731349 0 -0.30425539613548452 -0.26814017253042433 0 -0.30502322454807101 -0.25971636329409542 0 -0.29569431645386429 -0.26311293363000732 0 -0.30425539613548452 -0.26814017253042433 0 -0.30502322454807101 -0.25971636329409542 0 -0.33143192801526428 -0.45396038638140679 0 -0.33152258580119082 -0.46633970128806979 0 -0.34296165509457921 -0.45730971557378147 0 -0.34069406563311189 -0.44566521365826578 0 -0.32492704317595772 -0.44077768091168912 0 -0.33812272201467081 -0.43047089330918592 0 -0.33143192801526428 -0.45396038638140679 0 -0.34069406563311189 -0.44566521365826578 0 -0.32492704317595772 -0.44077768091168912 0 -0.33143192801526428 -0.45396038638140679 0 -0.34296165509457921 -0.45730971557378147 0 -0.34069406563311189 -0.44566521365826578 0 -0.33143192801526428 -0.45396038638140679 0 -0.32492704317595772 -0.44077768091168912 0 -0.31987457796333868 -0.4551426725204325 0 -0.32492704317595772 -0.44077768091168912 0 -0.31987457796333868 -0.4551426725204325 0 -0.31015853372433788 -0.44544301337781073 0 -0.33152258580119082 -0.46633970128806979 0 -0.30592196819360068 -0.46328971004504182 0 -0.33152258580119082 -0.46633970128806979 0 -0.31987457796333868 -0.4551426725204325 0 -0.30592196819360068 -0.46328971004504182 0 -0.33152258580119082 -0.46633970128806979 0 -0.32094261384274558 -0.46854088973335889 0 -0.30592196819360068 -0.46328971004504182 0 -0.33143192801526428 -0.45396038638140679 0 -0.33152258580119082 -0.46633970128806979 0 -0.31987457796333868 -0.4551426725204325 0 -0.33152258580119082 -0.46633970128806979 0 -0.32094261384274558 -0.46854088973335889 0 -0.32966732857214198 -0.4835879285261328 0 -0.32094261384274558 -0.46854088973335889 0 -0.32966732857214198 -0.4835879285261328 0 -0.31208929727375578 -0.48491526738579699 0 -0.32221211863154181 -0.5 0 -0.32966732857214198 -0.4835879285261328 0 -0.31208929727375578 -0.48491526738579699 0 -0.32221211863154181 -0.5 0 -0.32966732857214198 -0.4835879285261328 0 -0.34860848031248309 -0.5 0 -0.32966732857214198 -0.4835879285261328 0 -0.34707385437868848 -0.48052394199199022 0 -0.34860848031248309 -0.5 0 -0.33152258580119082 -0.46633970128806979 0 -0.32966732857214198 -0.4835879285261328 0 -0.34707385437868848 -0.48052394199199022 0 -0.33152258580119082 -0.46633970128806979 0 -0.3571232034087809 -0.46938969253109791 0 -0.34707385437868848 -0.48052394199199022 0 -0.3571232034087809 -0.46938969253109791 0 -0.34707385437868848 -0.48052394199199022 0 -0.36652141413456929 -0.48474993749143802 0 -0.34707385437868848 -0.48052394199199022 0 -0.34860848031248309 -0.5 0 -0.36652141413456929 -0.48474993749143802 0 -0.37500484199342449 -0.5 0 -0.34860848031248309 -0.5 0 -0.36652141413456929 -0.48474993749143802 0 -0.38272382101637098 -0.47243968377412587 0 -0.3571232034087809 -0.46938969253109791 0 -0.36652141413456929 -0.48474993749143802 0 -0.38272382101637098 -0.47243968377412587 0 -0.3571232034087809 -0.46938969253109791 0 -0.38265619596279349 -0.45813348326120767 0 -0.38272382101637098 -0.47243968377412587 0 -0.3571232034087809 -0.46938969253109791 0 -0.38265619596279349 -0.45813348326120767 0 -0.3571232034087809 -0.46938969253109791 0 -0.35544663641047641 -0.4489101100326689 0 -0.38265619596279349 -0.45813348326120767 0 -0.35544663641047641 -0.4489101100326689 0 -0.34296165509457921 -0.45730971557378147 0 -0.3571232034087809 -0.46938969253109791 0 -0.35544663641047641 -0.4489101100326689 0 -0.33152258580119082 -0.46633970128806979 0 -0.3571232034087809 -0.46938969253109791 0 -0.33152258580119082 -0.46633970128806979 0 -0.34296165509457921 -0.45730971557378147 0 -0.3571232034087809 -0.46938969253109791 0 -0.34069406563311189 -0.44566521365826578 0 -0.35544663641047641 -0.4489101100326689 0 -0.35372302635176472 -0.43532257313283612 0 -0.34296165509457921 -0.45730971557378147 0 -0.34069406563311189 -0.44566521365826578 0 -0.35544663641047641 -0.4489101100326689 0 -0.35544663641047641 -0.4489101100326689 0 -0.3723601590800425 -0.44005613486137668 0 -0.35372302635176472 -0.43532257313283612 0 -0.38265619596279349 -0.45813348326120767 0 -0.35544663641047641 -0.4489101100326689 0 -0.3723601590800425 -0.44005613486137668 0 -0.38028594703985957 -0.42392304976487449 0 -0.3723601590800425 -0.44005613486137668 0 -0.36423780173753523 -0.4264797532188066 0 -0.3723601590800425 -0.44005613486137668 0 -0.36423780173753523 -0.4264797532188066 0 -0.35372302635176472 -0.43532257313283612 0 -0.38028594703985957 -0.42392304976487449 0 -0.36423780173753523 -0.4264797532188066 0 -0.36590226101420908 -0.41270082520662749 0 -0.36423780173753523 -0.4264797532188066 0 -0.36590226101420908 -0.41270082520662749 0 -0.35147677323475168 -0.42035333371671318 0 -0.36590226101420908 -0.41270082520662749 0 -0.35147677323475168 -0.42035333371671318 0 -0.35184044830027089 -0.40346733636007898 0 -0.35147677323475168 -0.42035333371671318 0 -0.35184044830027089 -0.40346733636007898 0 -0.33675831632547681 -0.41105613646481343 0 -0.35147677323475168 -0.42035333371671318 0 -0.35372302635176472 -0.43532257313283612 0 -0.33812272201467081 -0.43047089330918592 0 -0.34069406563311189 -0.44566521365826578 0 -0.35372302635176472 -0.43532257313283612 0 -0.33812272201467081 -0.43047089330918592 0 -0.36423780173753523 -0.4264797532188066 0 -0.35147677323475168 -0.42035333371671318 0 -0.35372302635176472 -0.43532257313283612 0 -0.37549160074202448 -0.3732971907138336 0 -0.36544727141479139 -0.39026932065168712 0 -0.37549160074202448 -0.3732971907138336 0 -0.36544727141479139 -0.39026932065168712 0 -0.35302350150803719 -0.38208755235937009 0 -0.36590226101420908 -0.41270082520662749 0 -0.36544727141479139 -0.39026932065168712 0 -0.35184044830027089 -0.40346733636007898 0 -0.38114412328536468 -0.40833987260765031 0 -0.36590226101420908 -0.41270082520662749 0 -0.36544727141479139 -0.39026932065168712 0 -0.35184044830027089 -0.40346733636007898 0 -0.35302350150803719 -0.38208755235937009 0 -0.34082557137486691 -0.39523504024196021 0 -0.36544727141479139 -0.39026932065168712 0 -0.35184044830027089 -0.40346733636007898 0 -0.35302350150803719 -0.38208755235937009 0 -0.34413293857164062 -0.37054757780120701 0 -0.35302350150803719 -0.38208755235937009 0 -0.33519042443293379 -0.3802220457599616 0 -0.35302350150803719 -0.38208755235937009 0 -0.33519042443293379 -0.3802220457599616 0 -0.34082557137486691 -0.39523504024196021 0 -0.33519042443293379 -0.3802220457599616 0 -0.32808226850220168 -0.39240284671641351 0 -0.3247168406287716 -0.38559411673624039 0 -0.33519042443293379 -0.3802220457599616 0 -0.34082557137486691 -0.39523504024196021 0 -0.32808226850220168 -0.39240284671641351 0 -0.34082557137486691 -0.39523504024196021 0 -0.32808226850220168 -0.39240284671641351 0 -0.33675831632547681 -0.41105613646481343 0 -0.32808226850220168 -0.39240284671641351 0 -0.33675831632547681 -0.41105613646481343 0 -0.3206477944579052 -0.41019310838576051 0 -0.35184044830027089 -0.40346733636007898 0 -0.34082557137486691 -0.39523504024196021 0 -0.33675831632547681 -0.41105613646481343 0 -0.32808226850220168 -0.39240284671641351 0 -0.31437491003333667 -0.39021680895226152 0 -0.3206477944579052 -0.41019310838576051 0 -0.32808226850220168 -0.39240284671641351 0 -0.3247168406287716 -0.38559411673624039 0 -0.31437491003333667 -0.39021680895226152 0 -0.31437491003333667 -0.39021680895226152 0 -0.32046337790252549 -0.37915946928209171 0 -0.30588070030683939 -0.38181824174751872 0 -0.3247168406287716 -0.38559411673624039 0 -0.31437491003333667 -0.39021680895226152 0 -0.32046337790252549 -0.37915946928209171 0 -0.31437491003333667 -0.39021680895226152 0 -0.32046337790252549 -0.37915946928209171 0 -0.33519042443293379 -0.3802220457599616 0 -0.3247168406287716 -0.38559411673624039 0 -0.32046337790252549 -0.37915946928209171 0 -0.32492704317595772 -0.44077768091168912 0 -0.33812272201467081 -0.43047089330918592 0 -0.32670905357880831 -0.42305010768611329 0 -0.35147677323475168 -0.42035333371671318 0 -0.33812272201467081 -0.43047089330918592 0 -0.33675831632547681 -0.41105613646481343 0 -0.33812272201467081 -0.43047089330918592 0 -0.33675831632547681 -0.41105613646481343 0 -0.32670905357880831 -0.42305010768611329 0 -0.33675831632547681 -0.41105613646481343 0 -0.3206477944579052 -0.41019310838576051 0 -0.32670905357880831 -0.42305010768611329 0 -0.3206477944579052 -0.41019310838576051 0 -0.31307232924124478 -0.42559811140412351 0 -0.32670905357880831 -0.42305010768611329 0 -0.32492704317595772 -0.44077768091168912 0 -0.31307232924124478 -0.42559811140412351 0 -0.31015853372433788 -0.44544301337781073 0 -0.32492704317595772 -0.44077768091168912 0 -0.31307232924124478 -0.42559811140412351 0 -0.32670905357880831 -0.42305010768611329 0 -0.31307232924124478 -0.42559811140412351 0 -0.29907098912325059 -0.43374406761790368 0 -0.29851577765410048 -0.41098608612968202 0 -0.31307232924124478 -0.42559811140412351 0 -0.29907098912325059 -0.43374406761790368 0 -0.31015853372433788 -0.44544301337781073 0 -0.3206477944579052 -0.41019310838576051 0 -0.31307232924124478 -0.42559811140412351 0 -0.29851577765410048 -0.41098608612968202 0 -0.3206477944579052 -0.41019310838576051 0 -0.29851577765410048 -0.41098608612968202 0 -0.29851577765410048 -0.41098608612968202 0 -0.27638376085029581 -0.41177906387360241 0 -0.29851577765410048 -0.41098608612968202 0 -0.28520748594282241 -0.3960441440340734 0 -0.27638376085029581 -0.41177906387360241 0 -0.29851577765410048 -0.41098608612968202 0 -0.28540276919059199 -0.42535658303670731 0 -0.27638376085029581 -0.41177906387360241 0 -0.29907098912325059 -0.43374406761790368 0 -0.29851577765410048 -0.41098608612968202 0 -0.28540276919059199 -0.42535658303670731 0 -0.28540276919059199 -0.42535658303670731 0 -0.27848929033898201 -0.43669604725877897 0 -0.28902284908971709 -0.44016681433255572 0 -0.29907098912325059 -0.43374406761790368 0 -0.28540276919059199 -0.42535658303670731 0 -0.28902284908971709 -0.44016681433255572 0 -0.3002892316592175 -0.36914960035789463 0 -0.32046337790252549 -0.37915946928209171 0 -0.30588070030683939 -0.38181824174751872 0 -0.3002892316592175 -0.36914960035789463 0 -0.29819443980788141 -0.38001079285233907 0 -0.30588070030683939 -0.38181824174751872 0 -0.3002892316592175 -0.36914960035789463 0 -0.29819443980788141 -0.38001079285233907 0 -0.29403121103535113 -0.38030922419454549 0 -0.31437491003333667 -0.39021680895226152 0 -0.30588070030683939 -0.38181824174751872 0 -0.30232780815510779 -0.39560758766926629 0 -0.29819443980788141 -0.38001079285233907 0 -0.30588070030683939 -0.38181824174751872 0 -0.29681739610749358 -0.387616864260033 0 -0.30588070030683939 -0.38181824174751872 0 -0.30232780815510779 -0.39560758766926629 0 -0.29681739610749358 -0.387616864260033 0 -0.31437491003333667 -0.39021680895226152 0 -0.3206477944579052 -0.41019310838576051 0 -0.30232780815510779 -0.39560758766926629 0 -0.3206477944579052 -0.41019310838576051 0 -0.29851577765410048 -0.41098608612968202 0 -0.30232780815510779 -0.39560758766926629 0 -0.30232780815510779 -0.39560758766926629 0 -0.28520748594282241 -0.3960441440340734 0 -0.29681739610749358 -0.387616864260033 0 -0.29851577765410048 -0.41098608612968202 0 -0.30232780815510779 -0.39560758766926629 0 -0.28520748594282241 -0.3960441440340734 0 -0.28520748594282241 -0.3960441440340734 0 -0.28484606126690931 -0.38205101510008821 0 -0.29403121103535113 -0.38030922419454549 0 -0.28520748594282241 -0.3960441440340734 0 -0.29403121103535113 -0.38030922419454549 0 -0.28520748594282241 -0.3960441440340734 0 -0.29681739610749358 -0.387616864260033 0 -0.29403121103535113 -0.38030922419454549 0 -0.28520748594282241 -0.3960441440340734 0 -0.28484606126690931 -0.38205101510008821 0 -0.2742629371717063 -0.37916463673385931 0 -0.28588261091775702 -0.37268605543787447 0 -0.28484606126690931 -0.38205101510008821 0 -0.2742629371717063 -0.37916463673385931 0 -0.28588261091775702 -0.37268605543787447 0 -0.28484606126690931 -0.38205101510008821 0 -0.29403121103535113 -0.38030922419454549 0 -0.29819443980788141 -0.38001079285233907 0 -0.29681739610749358 -0.387616864260033 0 -0.29403121103535113 -0.38030922419454549 0 -0.28520748594282241 -0.3960441440340734 0 -0.2742629371717063 -0.37916463673385931 0 -0.26755910350718881 -0.39582792531461569 0 -0.2742629371717063 -0.37916463673385931 0 -0.26755910350718881 -0.39582792531461569 0 -0.26281209396899169 -0.38517470131063508 0 -0.28520748594282241 -0.3960441440340734 0 -0.27638376085029581 -0.41177906387360241 0 -0.28520748594282241 -0.3960441440340734 0 -0.26755910350718881 -0.39582792531461569 0 -0.27638376085029581 -0.41177906387360241 0 -0.26755910350718881 -0.39582792531461569 0 -0.25033509129523179 -0.39094719032673231 0 -0.25487024651921952 -0.41254988102096568 0 -0.26755910350718881 -0.39582792531461569 0 -0.25033509129523179 -0.39094719032673231 0 -0.26281209396899169 -0.38517470131063508 0 -0.25909124390184018 -0.37475905286733341 0 -0.25033509129523179 -0.39094719032673231 0 -0.26281209396899169 -0.38517470131063508 0 -0.25909124390184018 -0.37475905286733341 0 -0.25033509129523179 -0.39094719032673231 0 -0.24748772700216881 -0.3717564301773445 0 -0.25909124390184018 -0.37475905286733341 0 -0.2742629371717063 -0.37916463673385931 0 -0.26281209396899169 -0.38517470131063508 0 -0.26911429951178012 -0.42474234074800371 0 -0.27848929033898201 -0.43669604725877897 0 -0.26690007516498948 -0.44242471351124879 0 -0.28540276919059199 -0.42535658303670731 0 -0.26911429951178012 -0.42474234074800371 0 -0.27848929033898201 -0.43669604725877897 0 -0.27638376085029581 -0.41177906387360241 0 -0.25487024651921952 -0.41254988102096568 0 -0.28540276919059199 -0.42535658303670731 0 -0.26911429951178012 -0.42474234074800371 0 -0.27638376085029581 -0.41177906387360241 0 -0.26911429951178012 -0.42474234074800371 0 -0.27638376085029581 -0.41177906387360241 0 -0.25487024651921952 -0.41254988102096568 0 -0.26755910350718881 -0.39582792531461569 0 -0.27638376085029581 -0.41177906387360241 0 -0.25487024651921952 -0.41254988102096568 0 -0.26911429951178012 -0.42474234074800371 0 -0.27638376085029581 -0.41177906387360241 0 -0.26911429951178012 -0.42474234074800371 0 -0.25908880606166329 -0.43064529781943001 0 -0.26690007516498948 -0.44242471351124879 0 -0.25487024651921952 -0.41254988102096568 0 -0.25908880606166329 -0.43064529781943001 0 -0.2468605885266735 -0.43014712497011809 0 -0.26911429951178012 -0.42474234074800371 0 -0.25487024651921952 -0.41254988102096568 0 -0.25908880606166329 -0.43064529781943001 0 -0.25908880606166329 -0.43064529781943001 0 -0.25479397652280911 -0.44050862113911837 0 -0.2468605885266735 -0.43014712497011809 0 -0.25479397652280911 -0.44050862113911837 0 -0.2546108597688766 -0.45375703833677078 0 -0.2450571310604201 -0.44414202720417628 0 -0.25479397652280911 -0.44050862113911837 0 -0.2546108597688766 -0.45375703833677078 0 -0.26690007516498948 -0.44242471351124879 0 -0.2546108597688766 -0.45375703833677078 0 -0.26838297633475061 -0.45652413347846638 0 -0.26690007516498948 -0.44242471351124879 0 -0.25908880606166329 -0.43064529781943001 0 -0.25479397652280911 -0.44050862113911837 0 -0.26690007516498948 -0.44242471351124879 0 -0.25109629719050858 -0.46406488014867903 0 -0.2546108597688766 -0.45375703833677078 0 -0.26079873433517492 -0.46936342421069649 0 -0.2546108597688766 -0.45375703833677078 0 -0.26838297633475061 -0.45652413347846638 0 -0.26079873433517492 -0.46936342421069649 0 -0.27799569035848881 -0.46687050799545499 0 -0.26838297633475061 -0.45652413347846638 0 -0.26079873433517492 -0.46936342421069649 0 -0.27799569035848881 -0.46687050799545499 0 -0.26838297633475061 -0.45652413347846638 0 -0.28160952204622303 -0.450204983338161 0 -0.26838297633475061 -0.45652413347846638 0 -0.26690007516498948 -0.44242471351124879 0 -0.28160952204622303 -0.450204983338161 0 -0.27848929033898201 -0.43669604725877897 0 -0.26690007516498948 -0.44242471351124879 0 -0.28160952204622303 -0.450204983338161 0 -0.29907098912325059 -0.43374406761790368 0 -0.28902284908971709 -0.44016681433255572 0 -0.29708038679871529 -0.44973292283788502 0 -0.27848929033898201 -0.43669604725877897 0 -0.28902284908971709 -0.44016681433255572 0 -0.28160952204622303 -0.450204983338161 0 -0.28902284908971709 -0.44016681433255572 0 -0.28160952204622303 -0.450204983338161 0 -0.29708038679871529 -0.44973292283788502 0 -0.27799569035848881 -0.46687050799545499 0 -0.29150619976335518 -0.46129715127825488 0 -0.29492343141974797 -0.47638763217473168 0 -0.27799569035848881 -0.46687050799545499 0 -0.28160952204622303 -0.450204983338161 0 -0.29150619976335518 -0.46129715127825488 0 -0.28160952204622303 -0.450204983338161 0 -0.29150619976335518 -0.46129715127825488 0 -0.29708038679871529 -0.44973292283788502 0 -0.29150619976335518 -0.46129715127825488 0 -0.30592196819360068 -0.46328971004504182 0 -0.29708038679871529 -0.44973292283788502 0 -0.31987457796333868 -0.4551426725204325 0 -0.30592196819360068 -0.46328971004504182 0 -0.31015853372433788 -0.44544301337781073 0 -0.29150619976335518 -0.46129715127825488 0 -0.30592196819360068 -0.46328971004504182 0 -0.29492343141974797 -0.47638763217473168 0 -0.29907098912325059 -0.43374406761790368 0 -0.31015853372433788 -0.44544301337781073 0 -0.29708038679871529 -0.44973292283788502 0 -0.30592196819360068 -0.46328971004504182 0 -0.31015853372433788 -0.44544301337781073 0 -0.29708038679871529 -0.44973292283788502 0 -0.31208929727375578 -0.48491526738579699 0 -0.29492343141974797 -0.47638763217473168 0 -0.29581575695060047 -0.5 0 -0.32221211863154181 -0.5 0 -0.31208929727375578 -0.48491526738579699 0 -0.29581575695060047 -0.5 0 -0.32094261384274558 -0.46854088973335889 0 -0.30592196819360068 -0.46328971004504182 0 -0.29492343141974797 -0.47638763217473168 0 -0.32094261384274558 -0.46854088973335889 0 -0.29492343141974797 -0.47638763217473168 0 -0.32094261384274558 -0.46854088973335889 0 -0.31208929727375578 -0.48491526738579699 0 -0.29492343141974797 -0.47638763217473168 0 -0.29492343141974797 -0.47638763217473168 0 -0.26890424899675031 -0.48423437461610452 0 -0.29492343141974797 -0.47638763217473168 0 -0.28441593737837417 -0.48860776134254891 0 -0.26890424899675031 -0.48423437461610452 0 -0.29492343141974797 -0.47638763217473168 0 -0.28441593737837417 -0.48860776134254891 0 -0.29581575695060047 -0.5 0 -0.28441593737837417 -0.48860776134254891 0 -0.29581575695060047 -0.5 0 -0.26941939526965919 -0.5 0 -0.28441593737837417 -0.48860776134254891 0 -0.26941939526965919 -0.5 0 -0.26890424899675031 -0.48423437461610452 0 -0.27799569035848881 -0.46687050799545499 0 -0.29492343141974797 -0.47638763217473168 0 -0.26890424899675031 -0.48423437461610452 0 -0.27799569035848881 -0.46687050799545499 0 -0.26890424899675031 -0.48423437461610452 0 -0.26079873433517492 -0.46936342421069649 0 -0.26890424899675031 -0.48423437461610452 0 -0.26079873433517492 -0.46936342421069649 0 -0.25379328426056558 -0.48205965705463422 0 -0.26079873433517492 -0.46936342421069649 0 -0.25379328426056558 -0.48205965705463422 0 -0.250874604213362 -0.47391739130808008 0 -0.25109629719050858 -0.46406488014867903 0 -0.26079873433517492 -0.46936342421069649 0 -0.250874604213362 -0.47391739130808008 0 -0.26941939526965919 -0.5 0 -0.26890424899675031 -0.48423437461610452 0 -0.2544134183364497 -0.49413622749019132 0 -0.26941939526965919 -0.5 0 -0.2544134183364497 -0.49413622749019132 0 -0.2430230335887178 -0.5 0 -0.26890424899675031 -0.48423437461610452 0 -0.2544134183364497 -0.49413622749019132 0 -0.24288506657375261 -0.49208111705747781 0 -0.26890424899675031 -0.48423437461610452 0 -0.25379328426056558 -0.48205965705463422 0 -0.24288506657375261 -0.49208111705747781 0 -0.26890424899675031 -0.48423437461610452 0 -0.24288506657375261 -0.49208111705747781 0 -0.2544134183364497 -0.49413622749019132 0 -0.2430230335887178 -0.5 0 -0.24783534725336881 -0.49436564577737419 0 -0.2544134183364497 -0.49413622749019132 0 -0.24783534725336881 -0.49436564577737419 0 -0.24288506657375261 -0.49208111705747781 0 -0.2430230335887178 -0.5 0 -0.24783534725336881 -0.49436564577737419 0 -0.24288506657375261 -0.49208111705747781 0 -0.24783534725336881 -0.49436564577737419 0 -0.24288506657375261 -0.49208111705747781 0 -0.24288506657375261 -0.49208111705747781 0 -0.24429345028001889 -0.4821559175287794 0 -0.23457410743521059 -0.47899140825596259 0 -0.25379328426056558 -0.48205965705463422 0 -0.24288506657375261 -0.49208111705747781 0 -0.24429345028001889 -0.4821559175287794 0 -0.25379328426056558 -0.48205965705463422 0 -0.250874604213362 -0.47391739130808008 0 -0.24429345028001889 -0.4821559175287794 0 -0.24429345028001889 -0.4821559175287794 0 -0.2443912550005416 -0.47194307759761112 0 -0.2395637252682277 -0.47605318874815389 0 -0.25109629719050858 -0.46406488014867903 0 -0.250874604213362 -0.47391739130808008 0 -0.2443912550005416 -0.47194307759761112 0 -0.250874604213362 -0.47391739130808008 0 -0.24429345028001889 -0.4821559175287794 0 -0.2443912550005416 -0.47194307759761112 0 -0.2443912550005416 -0.47194307759761112 0 -0.2395637252682277 -0.47605318874815389 0 -0.23499608835713959 -0.47112235161026261 0 -0.2395637252682277 -0.47605318874815389 0 -0.23499608835713959 -0.47112235161026261 0 -0.23457410743521059 -0.47899140825596259 0 -0.24429345028001889 -0.4821559175287794 0 -0.2395637252682277 -0.47605318874815389 0 -0.23457410743521059 -0.47899140825596259 0 -0.23457410743521059 -0.47899140825596259 0 -0.2250369990674011 -0.47003999804886298 0 -0.2204246459600448 -0.48171575006642248 0 -0.24288506657375261 -0.49208111705747781 0 -0.23457410743521059 -0.47899140825596259 0 -0.2204246459600448 -0.48171575006642248 0 -0.23499608835713959 -0.47112235161026261 0 -0.23457410743521059 -0.47899140825596259 0 -0.2250369990674011 -0.47003999804886298 0 -0.2430230335887178 -0.5 0 -0.24288506657375261 -0.49208111705747781 0 -0.21662667190777651 -0.49999999999999939 0 -0.24288506657375261 -0.49208111705747781 0 -0.21662667190777651 -0.49999999999999939 0 -0.24288506657375261 -0.49208111705747781 0 -0.2204246459600448 -0.48171575006642248 0 -0.24288506657375261 -0.49208111705747781 0 -0.2204246459600448 -0.48171575006642248 0 -0.21662667190777651 -0.49999999999999939 0 -0.2450571310604201 -0.44414202720417628 0 -0.23716380350122879 -0.45645441389937441 0 -0.23280677558438309 -0.43386548686292281 0 -0.2546108597688766 -0.45375703833677078 0 -0.2450571310604201 -0.44414202720417628 0 -0.23716380350122879 -0.45645441389937441 0 -0.25479397652280911 -0.44050862113911837 0 -0.2450571310604201 -0.44414202720417628 0 -0.2468605885266735 -0.43014712497011809 0 -0.25109629719050858 -0.46406488014867903 0 -0.2546108597688766 -0.45375703833677078 0 -0.23716380350122879 -0.45645441389937441 0 -0.25109629719050858 -0.46406488014867903 0 -0.2443912550005416 -0.47194307759761112 0 -0.23716380350122879 -0.45645441389937441 0 -0.2443912550005416 -0.47194307759761112 0 -0.23499608835713959 -0.47112235161026261 0 -0.23716380350122879 -0.45645441389937441 0 -0.2250369990674011 -0.47003999804886298 0 -0.21844010846223411 -0.44206575668227449 0 -0.2250369990674011 -0.47003999804886298 0 -0.23716380350122879 -0.45645441389937441 0 -0.21844010846223411 -0.44206575668227449 0 -0.23499608835713959 -0.47112235161026261 0 -0.2250369990674011 -0.47003999804886298 0 -0.23716380350122879 -0.45645441389937441 0 -0.23716380350122879 -0.45645441389937441 0 -0.21844010846223411 -0.44206575668227449 0 -0.23280677558438309 -0.43386548686292281 0 -0.21844010846223411 -0.44206575668227449 0 -0.21054881561508179 -0.46151962797655111 0 -0.19087809923939161 -0.44242625200982799 0 -0.2250369990674011 -0.47003999804886298 0 -0.21844010846223411 -0.44206575668227449 0 -0.21054881561508179 -0.46151962797655111 0 -0.21054881561508179 -0.46151962797655111 0 -0.19087809923939161 -0.44242625200982799 0 -0.1979642253463372 -0.47135038307536692 0 -0.19087809923939161 -0.44242625200982799 0 -0.1979642253463372 -0.47135038307536692 0 -0.17550380473262961 -0.46098501608431119 0 -0.2039060436575347 -0.48788306012054039 0 -0.21662667190777651 -0.49999999999999939 0 -0.191185415407293 -0.5 0 -0.2204246459600448 -0.48171575006642248 0 -0.2039060436575347 -0.48788306012054039 0 -0.21662667190777651 -0.49999999999999939 0 -0.2250369990674011 -0.47003999804886298 0 -0.2204246459600448 -0.48171575006642248 0 -0.21054881561508179 -0.46151962797655111 0 -0.2204246459600448 -0.48171575006642248 0 -0.2039060436575347 -0.48788306012054039 0 -0.1979642253463372 -0.47135038307536692 0 -0.2204246459600448 -0.48171575006642248 0 -0.1979642253463372 -0.47135038307536692 0 -0.2204246459600448 -0.48171575006642248 0 -0.21054881561508179 -0.46151962797655111 0 -0.1979642253463372 -0.47135038307536692 0 -0.2039060436575347 -0.48788306012054039 0 -0.1979642253463372 -0.47135038307536692 0 -0.18170511770794731 -0.48283447360099019 0 -0.2039060436575347 -0.48788306012054039 0 -0.191185415407293 -0.5 0 -0.18170511770794731 -0.48283447360099019 0 -0.191185415407293 -0.5 0 -0.16574415890680941 -0.5 0 -0.18170511770794731 -0.48283447360099019 0 -0.16574415890680941 -0.5 0 -0.18170511770794731 -0.48283447360099019 0 -0.1559270581970803 -0.47678838232572268 0 -0.18170511770794731 -0.48283447360099019 0 -0.17550380473262961 -0.46098501608431119 0 -0.1559270581970803 -0.47678838232572268 0 -0.1979642253463372 -0.47135038307536692 0 -0.18170511770794731 -0.48283447360099019 0 -0.17550380473262961 -0.46098501608431119 0 -0.1979642253463372 -0.47135038307536692 0 -0.17550380473262961 -0.46098501608431119 0 -0.19087809923939161 -0.44242625200982799 0 -0.17550380473262961 -0.46098501608431119 0 -0.16487953686040341 -0.43668708651363358 0 -0.17550380473262961 -0.46098501608431119 0 -0.15866236735209521 -0.45377864165300308 0 -0.16487953686040341 -0.43668708651363358 0 -0.17550380473262961 -0.46098501608431119 0 -0.15866236735209521 -0.45377864165300308 0 -0.1559270581970803 -0.47678838232572268 0 -0.15866236735209521 -0.45377864165300308 0 -0.14280129841846509 -0.46103953978105727 0 -0.1559270581970803 -0.47678838232572268 0 -0.15866236735209521 -0.45377864165300308 0 -0.14280129841846509 -0.46103953978105727 0 -0.1438484805828521 -0.43705968193712769 0 -0.15866236735209521 -0.45377864165300308 0 -0.1438484805828521 -0.43705968193712769 0 -0.16487953686040341 -0.43668708651363358 0 -0.14280129841846509 -0.46103953978105727 0 -0.13093011984253891 -0.44972195681556543 0 -0.1438484805828521 -0.43705968193712769 0 -0.13093011984253891 -0.44972195681556543 0 -0.1438484805828521 -0.43705968193712769 0 -0.123519809913229 -0.43733662075251151 0 -0.14280129841846509 -0.46103953978105727 0 -0.13093011984253891 -0.44972195681556543 0 -0.12704973474613379 -0.46277216333596533 0 -0.14280129841846509 -0.46103953978105727 0 -0.12704973474613379 -0.46277216333596533 0 -0.13010403334985379 -0.48000251283874379 0 -0.13010403334985379 -0.48000251283874379 0 -0.1403029024063259 -0.5 0 -0.1148616459058424 -0.5 0 -0.16574415890680941 -0.5 0 -0.1403029024063259 -0.5 0 -0.1559270581970803 -0.47678838232572268 0 -0.13010403334985379 -0.48000251283874379 0 -0.1403029024063259 -0.5 0 -0.1559270581970803 -0.47678838232572268 0 -0.14280129841846509 -0.46103953978105727 0 -0.13010403334985379 -0.48000251283874379 0 -0.1559270581970803 -0.47678838232572268 0 -0.13724659116883831 -0.38156720383825199 0 -0.13696324729183901 -0.40051159333262831 0 -0.1562511533772393 -0.40085091578326698 0 -0.13696324729183901 -0.40051159333262831 0 -0.14428023194946249 -0.41611080081516499 0 -0.1562511533772393 -0.40085091578326698 0 -0.13724659116883831 -0.38156720383825199 0 -0.1562511533772393 -0.40085091578326698 0 -0.1663441030446621 -0.37717300760659073 0 -0.13724659116883831 -0.38156720383825199 0 -0.11827115974421661 -0.40327967795429231 0 -0.13724659116883831 -0.38156720383825199 0 -0.13696324729183901 -0.40051159333262831 0 -0.11827115974421661 -0.40327967795429231 0 -0.13696324729183901 -0.40051159333262831 0 -0.12597911368703019 -0.41952469120143437 0 -0.14428023194946249 -0.41611080081516499 0 -0.13696324729183901 -0.40051159333262831 0 -0.12597911368703019 -0.41952469120143437 0 -0.11827115974421661 -0.40327967795429231 0 -0.12597911368703019 -0.41952469120143437 0 -0.1438484805828521 -0.43705968193712769 0 -0.123519809913229 -0.43733662075251151 0 -0.12597911368703019 -0.41952469120143437 0 -0.1438484805828521 -0.43705968193712769 0 -0.14428023194946249 -0.41611080081516499 0 -0.1438484805828521 -0.43705968193712769 0 -0.16487953686040341 -0.43668708651363358 0 -0.1579375607246061 -0.42228606781690858 0 -0.1438484805828521 -0.43705968193712769 0 -0.14428023194946249 -0.41611080081516499 0 -0.1579375607246061 -0.42228606781690858 0 -0.14428023194946249 -0.41611080081516499 0 -0.1579375607246061 -0.42228606781690858 0 -0.1562511533772393 -0.40085091578326698 0 -0.1717517290487513 -0.41486076781395709 0 -0.1579375607246061 -0.42228606781690858 0 -0.1562511533772393 -0.40085091578326698 0 -0.1717517290487513 -0.41486076781395709 0 -0.16487953686040341 -0.43668708651363358 0 -0.1579375607246061 -0.42228606781690858 0 -0.1717517290487513 -0.41486076781395709 0 -0.16487953686040341 -0.43668708651363358 0 -0.19087809923939161 -0.44242625200982799 0 -0.16487953686040341 -0.43668708651363358 0 -0.18049207608238291 -0.42812424827546058 0 -0.1717517290487513 -0.41486076781395709 0 -0.16487953686040341 -0.43668708651363358 0 -0.18049207608238291 -0.42812424827546058 0 -0.1717517290487513 -0.41486076781395709 0 -0.18680736564207029 -0.41498853585306777 0 -0.17862392123709919 -0.39303444911428059 0 -0.1717517290487513 -0.41486076781395709 0 -0.18049207608238291 -0.42812424827546058 0 -0.18680736564207029 -0.41498853585306777 0 -0.18680736564207029 -0.41498853585306777 0 -0.17862392123709919 -0.39303444911428059 0 -0.19656737959219739 -0.40219111980173922 0 -0.1717517290487513 -0.41486076781395709 0 -0.17862392123709919 -0.39303444911428059 0 -0.1717517290487513 -0.41486076781395709 0 -0.17862392123709919 -0.39303444911428059 0 -0.1562511533772393 -0.40085091578326698 0 -0.17862392123709919 -0.39303444911428059 0 -0.1562511533772393 -0.40085091578326698 0 -0.1663441030446621 -0.37717300760659073 0 -0.17862392123709919 -0.39303444911428059 0 -0.1663441030446621 -0.37717300760659073 0 -0.1854961134254472 -0.37120813041460421 0 -0.17862392123709919 -0.39303444911428059 0 -0.1854961134254472 -0.37120813041460421 0 -0.17862392123709919 -0.39303444911428059 0 -0.20527564977482679 -0.38624161667098289 0 -0.1854961134254472 -0.37120813041460421 0 -0.17862392123709919 -0.39303444911428059 0 -0.19656737959219739 -0.40219111980173922 0 -0.20527564977482679 -0.38624161667098289 0 -0.20527564977482679 -0.38624161667098289 0 -0.2118432178570665 -0.41409151531568628 0 -0.2281799985799623 -0.39436158075255778 0 -0.19656737959219739 -0.40219111980173922 0 -0.20527564977482679 -0.38624161667098289 0 -0.2118432178570665 -0.41409151531568628 0 -0.20527564977482679 -0.38624161667098289 0 -0.2118432178570665 -0.41409151531568628 0 -0.20527564977482679 -0.38624161667098289 0 -0.22195794658956111 -0.37463091785279867 0 -0.21168543115216709 -0.36681117402183649 0 -0.20527564977482679 -0.38624161667098289 0 -0.2281799985799623 -0.39436158075255778 0 -0.22195794658956111 -0.37463091785279867 0 -0.18049207608238291 -0.42812424827546058 0 -0.18680736564207029 -0.41498853585306777 0 -0.19899408631087909 -0.4269358685541359 0 -0.19087809923939161 -0.44242625200982799 0 -0.18049207608238291 -0.42812424827546058 0 -0.19899408631087909 -0.4269358685541359 0 -0.21844010846223411 -0.44206575668227449 0 -0.19087809923939161 -0.44242625200982799 0 -0.19899408631087909 -0.4269358685541359 0 -0.18680736564207029 -0.41498853585306777 0 -0.19656737959219739 -0.40219111980173922 0 -0.2118432178570665 -0.41409151531568628 0 -0.18680736564207029 -0.41498853585306777 0 -0.19899408631087909 -0.4269358685541359 0 -0.2118432178570665 -0.41409151531568628 0 -0.18680736564207029 -0.41498853585306777 0 -0.2118432178570665 -0.41409151531568628 0 -0.21844010846223411 -0.44206575668227449 0 -0.19899408631087909 -0.4269358685541359 0 -0.2118432178570665 -0.41409151531568628 0 -0.21844010846223411 -0.44206575668227449 0 -0.2118432178570665 -0.41409151531568628 0 -0.21844010846223411 -0.44206575668227449 0 -0.2118432178570665 -0.41409151531568628 0 -0.23280677558438309 -0.43386548686292281 0 -0.2118432178570665 -0.41409151531568628 0 -0.23335673218814301 -0.41332069816832789 0 -0.2281799985799623 -0.39436158075255778 0 -0.2118432178570665 -0.41409151531568628 0 -0.23335673218814301 -0.41332069816832789 0 -0.2118432178570665 -0.41409151531568628 0 -0.23280677558438309 -0.43386548686292281 0 -0.23335673218814301 -0.41332069816832789 0 -0.25487024651921952 -0.41254988102096568 0 -0.23335673218814301 -0.41332069816832789 0 -0.25487024651921952 -0.41254988102096568 0 -0.23335673218814301 -0.41332069816832789 0 -0.24168551714563921 -0.4027948375671459 0 -0.25487024651921952 -0.41254988102096568 0 -0.23335673218814301 -0.41332069816832789 0 -0.2468605885266735 -0.43014712497011809 0 -0.23280677558438309 -0.43386548686292281 0 -0.23335673218814301 -0.41332069816832789 0 -0.2468605885266735 -0.43014712497011809 0 -0.2450571310604201 -0.44414202720417628 0 -0.23280677558438309 -0.43386548686292281 0 -0.2468605885266735 -0.43014712497011809 0 -0.2281799985799623 -0.39436158075255778 0 -0.2359431282162788 -0.37698905115118858 0 -0.22195794658956111 -0.37463091785279867 0 -0.25033509129523179 -0.39094719032673231 0 -0.2281799985799623 -0.39436158075255778 0 -0.24168551714563921 -0.4027948375671459 0 -0.25033509129523179 -0.39094719032673231 0 -0.25487024651921952 -0.41254988102096568 0 -0.24168551714563921 -0.4027948375671459 0 -0.23335673218814301 -0.41332069816832789 0 -0.2281799985799623 -0.39436158075255778 0 -0.24168551714563921 -0.4027948375671459 0 -0.25033509129523179 -0.39094719032673231 0 -0.2359431282162788 -0.37698905115118858 0 -0.24748772700216881 -0.3717564301773445 0 -0.25033509129523179 -0.39094719032673231 0 -0.2281799985799623 -0.39436158075255778 0 -0.2359431282162788 -0.37698905115118858 0 -0.25494538795031141 -0.36273054802101118 0 -0.24748772700216881 -0.3717564301773445 0 -0.24521251836493849 -0.35951647641646678 0 -0.24748772700216881 -0.3717564301773445 0 -0.24521251836493849 -0.35951647641646678 0 -0.23939899228441261 -0.3655962622813349 0 -0.23939899228441261 -0.3655962622813349 0 -0.23024759562621139 -0.36380396142485888 0 -0.23761117654761921 -0.35850429625613017 0 -0.24521251836493849 -0.35951647641646678 0 -0.23939899228441261 -0.3655962622813349 0 -0.23761117654761921 -0.35850429625613017 0 -0.2359431282162788 -0.37698905115118858 0 -0.23939899228441261 -0.3655962622813349 0 -0.23024759562621139 -0.36380396142485888 0 -0.2359431282162788 -0.37698905115118858 0 -0.24748772700216881 -0.3717564301773445 0 -0.23939899228441261 -0.3655962622813349 0 -0.2359431282162788 -0.37698905115118858 0 -0.23024759562621139 -0.36380396142485888 0 -0.22195794658956111 -0.37463091785279867 0 -0.23024759562621139 -0.36380396142485888 0 -0.22135664398937441 -0.36020929429952131 0 -0.2310785660723691 -0.35440187846705151 0 -0.23024759562621139 -0.36380396142485888 0 -0.22135664398937441 -0.36020929429952131 0 -0.22195794658956111 -0.37463091785279867 0 -0.22135664398937441 -0.36020929429952131 0 -0.22331676928072861 -0.34527245129667988 0 -0.2310785660723691 -0.35440187846705151 0 -0.23024759562621139 -0.36380396142485888 0 -0.2310785660723691 -0.35440187846705151 0 -0.23761117654761921 -0.35850429625613017 0 -0.22331676928072861 -0.34527245129667988 0 -0.2337118992122327 -0.34903918396608452 0 -0.23708401688859529 -0.34365007901650441 0 -0.22331676928072861 -0.34527245129667988 0 -0.2310785660723691 -0.35440187846705151 0 -0.2337118992122327 -0.34903918396608452 0 -0.26017799311385281 -0.35268912854855933 0 -0.24808760514302669 -0.3536558827211943 0 -0.2404133442166683 -0.34213832018255058 0 -0.2310785660723691 -0.35440187846705151 0 -0.2337118992122327 -0.34903918396608452 0 -0.2396887820693627 -0.35120494043738398 0 -0.26017799311385281 -0.35268912854855933 0 -0.24325210797206609 -0.34084931319650169 0 -0.2404133442166683 -0.34213832018255058 0 -0.2396887820693627 -0.35120494043738398 0 -0.23708401688859529 -0.34365007901650441 0 -0.2404133442166683 -0.34213832018255058 0 -0.2337118992122327 -0.34903918396608452 0 -0.2396887820693627 -0.35120494043738398 0 -0.23708401688859529 -0.34365007901650441 0 -0.2310785660723691 -0.35440187846705151 0 -0.2396887820693627 -0.35120494043738398 0 -0.23761117654761921 -0.35850429625613017 0 -0.24521251836493849 -0.35951647641646678 0 -0.2396887820693627 -0.35120494043738398 0 -0.23761117654761921 -0.35850429625613017 0 -0.24521251836493849 -0.35951647641646678 0 -0.2396887820693627 -0.35120494043738398 0 -0.24808760514302669 -0.3536558827211943 0 -0.25494538795031141 -0.36273054802101118 0 -0.24521251836493849 -0.35951647641646678 0 -0.24808760514302669 -0.3536558827211943 0 -0.2396887820693627 -0.35120494043738398 0 -0.24808760514302669 -0.3536558827211943 0 -0.2404133442166683 -0.34213832018255058 0 -0.24325210797206609 -0.34084931319650169 0 -0.24518994726652291 -0.33234415230164399 0 -0.23958942898634211 -0.33903199036576709 0 -0.24518994726652291 -0.33234415230164399 0 -0.23560348244150561 -0.32909319502054812 0 -0.23958942898634211 -0.33903199036576709 0 -0.23708401688859529 -0.34365007901650441 0 -0.2404133442166683 -0.34213832018255058 0 -0.24325210797206609 -0.34084931319650169 0 -0.2404133442166683 -0.34213832018255058 0 -0.23958942898634211 -0.33903199036576709 0 -0.24325210797206609 -0.34084931319650169 0 -0.2404133442166683 -0.34213832018255058 0 -0.24325210797206609 -0.34084931319650169 0 -0.23958942898634211 -0.33903199036576709 0 -0.25915672867891859 -0.31415112243359272 0 -0.24308922262768951 -0.32099342612622928 0 -0.24047089863443691 -0.30798947189970438 0 -0.24518994726652291 -0.33234415230164399 0 -0.23560348244150561 -0.32909319502054812 0 -0.24308922262768951 -0.32099342612622928 0 -0.23560348244150561 -0.32909319502054812 0 -0.24308922262768951 -0.32099342612622928 0 -0.22938765682563561 -0.32144886021699343 0 -0.24308922262768951 -0.32099342612622928 0 -0.22938765682563561 -0.32144886021699343 0 -0.23158309368585001 -0.31181085789310747 0 -0.24308922262768951 -0.32099342612622928 0 -0.24047089863443691 -0.30798947189970438 0 -0.23158309368585001 -0.31181085789310747 0 -0.22938765682563561 -0.32144886021699343 0 -0.23158309368585001 -0.31181085789310747 0 -0.22249387381410951 -0.31123320620709588 0 -0.23560348244150561 -0.32909319502054812 0 -0.22938765682563561 -0.32144886021699343 0 -0.22076115650133771 -0.33164754609210678 0 -0.22938765682563561 -0.32144886021699343 0 -0.22076115650133771 -0.33164754609210678 0 -0.2180259411870723 -0.31620608063285149 0 -0.22938765682563561 -0.32144886021699343 0 -0.2180259411870723 -0.31620608063285149 0 -0.22249387381410951 -0.31123320620709588 0 -0.22331676928072861 -0.34527245129667988 0 -0.23708401688859529 -0.34365007901650441 0 -0.22076115650133771 -0.33164754609210678 0 -0.23560348244150561 -0.32909319502054812 0 -0.23958942898634211 -0.33903199036576709 0 -0.22076115650133771 -0.33164754609210678 0 -0.2404133442166683 -0.34213832018255058 0 -0.22076115650133771 -0.33164754609210678 0 -0.2404133442166683 -0.34213832018255058 0 -0.23958942898634211 -0.33903199036576709 0 -0.22076115650133771 -0.33164754609210678 0 -0.23708401688859529 -0.34365007901650441 0 -0.2404133442166683 -0.34213832018255058 0 -0.22076115650133771 -0.33164754609210678 0 -0.22331676928072861 -0.34527245129667988 0 -0.22076115650133771 -0.33164754609210678 0 -0.20784983644103361 -0.34097302903627591 0 -0.22076115650133771 -0.33164754609210678 0 -0.20348412114368319 -0.33156666209817831 0 -0.20784983644103361 -0.34097302903627591 0 -0.2180259411870723 -0.31620608063285149 0 -0.19974136112887431 -0.31343603927203523 0 -0.20110896878600679 -0.32115677200166343 0 -0.22076115650133771 -0.33164754609210678 0 -0.2180259411870723 -0.31620608063285149 0 -0.20110896878600679 -0.32115677200166343 0 -0.22076115650133771 -0.33164754609210678 0 -0.20348412114368319 -0.33156666209817831 0 -0.20110896878600679 -0.32115677200166343 0 -0.22076115650133771 -0.33164754609210678 0 -0.20110896878600679 -0.32115677200166343 0 -0.2180259411870723 -0.31620608063285149 0 -0.19974136112887431 -0.31343603927203523 0 -0.20904493575850211 -0.30938578927939081 0 -0.2180259411870723 -0.31620608063285149 0 -0.19974136112887431 -0.31343603927203523 0 -0.19974136112887431 -0.31343603927203523 0 -0.20110896878600679 -0.32115677200166343 0 -0.1814567810706762 -0.3106659979112194 0 -0.20110896878600679 -0.32115677200166343 0 -0.1814567810706762 -0.3106659979112194 0 -0.20110896878600679 -0.32115677200166343 0 -0.19214051361034601 -0.33054181938157612 0 -0.1814567810706762 -0.3106659979112194 0 -0.20348412114368319 -0.33156666209817831 0 -0.20110896878600679 -0.32115677200166343 0 -0.19214051361034601 -0.33054181938157612 0 -0.20348412114368319 -0.33156666209817831 0 -0.20784983644103361 -0.34097302903627591 0 -0.19214051361034601 -0.33054181938157612 0 -0.20784983644103361 -0.34097302903627591 0 -0.19214051361034601 -0.33054181938157612 0 -0.20232946575910341 -0.34593351830387509 0 -0.19214051361034601 -0.33054181938157612 0 -0.19236830561379509 -0.34938181171492771 0 -0.18622265824693729 -0.34003474470360739 0 -0.19214051361034601 -0.33054181938157612 0 -0.19236830561379509 -0.34938181171492771 0 -0.19870808169258641 -0.35839171802627962 0 -0.19214051361034601 -0.33054181938157612 0 -0.19870808169258641 -0.35839171802627962 0 -0.19214051361034601 -0.33054181938157612 0 -0.20232946575910341 -0.34593351830387509 0 -0.19870808169258641 -0.35839171802627962 0 -0.19236830561379509 -0.34938181171492771 0 -0.1854961134254472 -0.37120813041460421 0 -0.20527564977482679 -0.38624161667098289 0 -0.19870808169258641 -0.35839171802627962 0 -0.20527564977482679 -0.38624161667098289 0 -0.19870808169258641 -0.35839171802627962 0 -0.1854961134254472 -0.37120813041460421 0 -0.19236830561379509 -0.34938181171492771 0 -0.19870808169258641 -0.35839171802627962 0 -0.1854961134254472 -0.37120813041460421 0 -0.20527564977482679 -0.38624161667098289 0 -0.19870808169258641 -0.35839171802627962 0 -0.21168543115216709 -0.36681117402183649 0 -0.19870808169258641 -0.35839171802627962 0 -0.21168543115216709 -0.36681117402183649 0 -0.21061943129244759 -0.3538275067713687 0 -0.22135664398937441 -0.36020929429952131 0 -0.22195794658956111 -0.37463091785279867 0 -0.21168543115216709 -0.36681117402183649 0 -0.22135664398937441 -0.36020929429952131 0 -0.21168543115216709 -0.36681117402183649 0 -0.21061943129244759 -0.3538275067713687 0 -0.22135664398937441 -0.36020929429952131 0 -0.22331676928072861 -0.34527245129667988 0 -0.21061943129244759 -0.3538275067713687 0 -0.22331676928072861 -0.34527245129667988 0 -0.20784983644103361 -0.34097302903627591 0 -0.21061943129244759 -0.3538275067713687 0 -0.20784983644103361 -0.34097302903627591 0 -0.20232946575910341 -0.34593351830387509 0 -0.21061943129244759 -0.3538275067713687 0 -0.20232946575910341 -0.34593351830387509 0 -0.19870808169258641 -0.35839171802627962 0 -0.21061943129244759 -0.3538275067713687 0 -0.22866545068461799 -0.25948943059043711 0 -0.21759888839251429 -0.26212753750200368 0 -0.22025275826160279 -0.2471257797298928 0 -0.22866545068461799 -0.25948943059043711 0 -0.22398633244919169 -0.27132847136955079 0 -0.21759888839251429 -0.26212753750200368 0 -0.22866545068461799 -0.25948943059043711 0 -0.23442911476228809 -0.24683612341654529 0 -0.22025275826160279 -0.2471257797298928 0 -0.22866545068461799 -0.25948943059043711 0 -0.24233717299785959 -0.25960849866204011 0 -0.23442911476228809 -0.24683612341654529 0 -0.2565674865322034 -0.25340195958415102 0 -0.24233717299785959 -0.25960849866204011 0 -0.25018128361314113 -0.24746468840205441 0 -0.22866545068461799 -0.25948943059043711 0 -0.24233717299785959 -0.25960849866204011 0 -0.2333815926018066 -0.27110706845475141 0 -0.24233717299785959 -0.25960849866204011 0 -0.2333815926018066 -0.27110706845475141 0 -0.24140403581614819 -0.28379898528087227 0 -0.24233717299785959 -0.25960849866204011 0 -0.24140403581614819 -0.28379898528087227 0 -0.24233717299785959 -0.25960849866204011 0 -0.2484323970602714 -0.27706385987730509 0 -0.24140403581614819 -0.28379898528087227 0 -0.25309751137434572 -0.26289123234143091 0 -0.24233717299785959 -0.25960849866204011 0 -0.2484323970602714 -0.27706385987730509 0 -0.2333815926018066 -0.27110706845475141 0 -0.2300547693907766 -0.28178467995593781 0 -0.24140403581614819 -0.28379898528087227 0 -0.2333815926018066 -0.27110706845475141 0 -0.22398633244919169 -0.27132847136955079 0 -0.2300547693907766 -0.28178467995593781 0 -0.22866545068461799 -0.25948943059043711 0 -0.2333815926018066 -0.27110706845475141 0 -0.22398633244919169 -0.27132847136955079 0 -0.22398633244919169 -0.27132847136955079 0 -0.21947311754018139 -0.28174823216008099 0 -0.2300547693907766 -0.28178467995593781 0 -0.21947311754018139 -0.28174823216008099 0 -0.22569627159534009 -0.29064390563822362 0 -0.2300547693907766 -0.28178467995593781 0 -0.21947311754018139 -0.28174823216008099 0 -0.22569627159534009 -0.29064390563822362 0 -0.21595054291829549 -0.29285447433738648 0 -0.22569627159534009 -0.29064390563822362 0 -0.22453607640027501 -0.29842387346705762 0 -0.21595054291829549 -0.29285447433738648 0 -0.22569627159534009 -0.29064390563822362 0 -0.2341156104824163 -0.28973116501788848 0 -0.23104294706112549 -0.29817392722980551 0 -0.22569627159534009 -0.29064390563822362 0 -0.23104294706112549 -0.29817392722980551 0 -0.22453607640027501 -0.29842387346705762 0 -0.22569627159534009 -0.29064390563822362 0 -0.2341156104824163 -0.28973116501788848 0 -0.2300547693907766 -0.28178467995593781 0 -0.25108388684634803 -0.28956965662021522 0 -0.24140403581614819 -0.28379898528087227 0 -0.24047089863443691 -0.30798947189970438 0 -0.2341156104824163 -0.28973116501788848 0 -0.24140403581614819 -0.28379898528087227 0 -0.24047089863443691 -0.30798947189970438 0 -0.24140403581614819 -0.28379898528087227 0 -0.24047089863443691 -0.30798947189970438 0 -0.2341156104824163 -0.28973116501788848 0 -0.2300547693907766 -0.28178467995593781 0 -0.24140403581614819 -0.28379898528087227 0 -0.25108388684634803 -0.28956965662021522 0 -0.2484323970602714 -0.27706385987730509 0 -0.24140403581614819 -0.28379898528087227 0 -0.25718459078837252 -0.29759752524363881 0 -0.25108388684634803 -0.28956965662021522 0 -0.24047089863443691 -0.30798947189970438 0 -0.2341156104824163 -0.28973116501788848 0 -0.24047089863443691 -0.30798947189970438 0 -0.23104294706112549 -0.29817392722980551 0 -0.24047089863443691 -0.30798947189970438 0 -0.23158309368585001 -0.31181085789310747 0 -0.2303958781931594 -0.30408122012615352 0 -0.23158309368585001 -0.31181085789310747 0 -0.2303958781931594 -0.30408122012615352 0 -0.2249978911063876 -0.30539226771637512 0 -0.24047089863443691 -0.30798947189970438 0 -0.23104294706112549 -0.29817392722980551 0 -0.2303958781931594 -0.30408122012615352 0 -0.23104294706112549 -0.29817392722980551 0 -0.2303958781931594 -0.30408122012615352 0 -0.22453607640027501 -0.29842387346705762 0 -0.2303958781931594 -0.30408122012615352 0 -0.22453607640027501 -0.29842387346705762 0 -0.2249978911063876 -0.30539226771637512 0 -0.22453607640027501 -0.29842387346705762 0 -0.2249978911063876 -0.30539226771637512 0 -0.21872282414136721 -0.30136563651957121 0 -0.22453607640027501 -0.29842387346705762 0 -0.21872282414136721 -0.30136563651957121 0 -0.21595054291829549 -0.29285447433738648 0 -0.22249387381410951 -0.31123320620709588 0 -0.2249978911063876 -0.30539226771637512 0 -0.21872282414136721 -0.30136563651957121 0 -0.23158309368585001 -0.31181085789310747 0 -0.22249387381410951 -0.31123320620709588 0 -0.2249978911063876 -0.30539226771637512 0 -0.22249387381410951 -0.31123320620709588 0 -0.20819654573008861 -0.30010144335043992 0 -0.2180259411870723 -0.31620608063285149 0 -0.2144403241224431 -0.30923162986744451 0 -0.20904493575850211 -0.30938578927939081 0 -0.22249387381410951 -0.31123320620709588 0 -0.2144403241224431 -0.30923162986744451 0 -0.20819654573008861 -0.30010144335043992 0 -0.2180259411870723 -0.31620608063285149 0 -0.22249387381410951 -0.31123320620709588 0 -0.2144403241224431 -0.30923162986744451 0 -0.21872282414136721 -0.30136563651957121 0 -0.20819654573008861 -0.30010144335043992 0 -0.21595054291829549 -0.29285447433738648 0 -0.22249387381410951 -0.31123320620709588 0 -0.21872282414136721 -0.30136563651957121 0 -0.20819654573008861 -0.30010144335043992 0 -0.20819654573008861 -0.30010144335043992 0 -0.20288915614788011 -0.30684576889979082 0 -0.200327377448308 -0.30070497350852549 0 -0.19974136112887431 -0.31343603927203523 0 -0.20904493575850211 -0.30938578927939081 0 -0.20288915614788011 -0.30684576889979082 0 -0.2144403241224431 -0.30923162986744451 0 -0.20819654573008861 -0.30010144335043992 0 -0.20904493575850211 -0.30938578927939081 0 -0.20819654573008861 -0.30010144335043992 0 -0.20904493575850211 -0.30938578927939081 0 -0.20288915614788011 -0.30684576889979082 0 -0.19974136112887431 -0.31343603927203523 0 -0.1814567810706762 -0.3106659979112194 0 -0.19974136112887431 -0.31343603927203523 0 -0.20288915614788011 -0.30684576889979082 0 -0.19308950921137841 -0.30535425612401718 0 -0.19974136112887431 -0.31343603927203523 0 -0.19308950921137841 -0.30535425612401718 0 -0.1814567810706762 -0.3106659979112194 0 -0.19308950921137841 -0.30535425612401718 0 -0.1899902243989981 -0.29832565749187118 0 -0.1817779539512053 -0.30255714357571323 0 -0.19308950921137841 -0.30535425612401718 0 -0.1899902243989981 -0.29832565749187118 0 -0.200327377448308 -0.30070497350852549 0 -0.20288915614788011 -0.30684576889979082 0 -0.19308950921137841 -0.30535425612401718 0 -0.200327377448308 -0.30070497350852549 0 -0.20819654573008861 -0.30010144335043992 0 -0.19389921764606771 -0.28896968049378402 0 -0.200327377448308 -0.30070497350852549 0 -0.19389921764606771 -0.28896968049378402 0 -0.20819654573008861 -0.30010144335043992 0 -0.200327377448308 -0.30070497350852549 0 -0.19389921764606771 -0.28896968049378402 0 -0.20819654573008861 -0.30010144335043992 0 -0.19389921764606771 -0.28896968049378402 0 -0.2049502680629153 -0.28953974020436019 0 -0.1899902243989981 -0.29832565749187118 0 -0.19389921764606771 -0.28896968049378402 0 -0.18066470514172869 -0.29420676669921531 0 -0.1899902243989981 -0.29832565749187118 0 -0.200327377448308 -0.30070497350852549 0 -0.19389921764606771 -0.28896968049378402 0 -0.19389921764606771 -0.28896968049378402 0 -0.18643891475010321 -0.2753500999052107 0 -0.19389921764606771 -0.28896968049378402 0 -0.1815972113741586 -0.27939145610981342 0 -0.19389921764606771 -0.28896968049378402 0 -0.2049502680629153 -0.28953974020436019 0 -0.20163083764207049 -0.27816255368004889 0 -0.2099333729274668 -0.28317129254800538 0 -0.2049502680629153 -0.28953974020436019 0 -0.20163083764207049 -0.27816255368004889 0 -0.2099333729274668 -0.28317129254800538 0 -0.2049502680629153 -0.28953974020436019 0 -0.21595054291829549 -0.29285447433738648 0 -0.20819654573008861 -0.30010144335043992 0 -0.2049502680629153 -0.28953974020436019 0 -0.21595054291829549 -0.29285447433738648 0 -0.21947311754018139 -0.28174823216008099 0 -0.2099333729274668 -0.28317129254800538 0 -0.21595054291829549 -0.29285447433738648 0 -0.2117440640613063 -0.2714560660025862 0 -0.20163083764207049 -0.27816255368004889 0 -0.20334583650585281 -0.26123793981755161 0 -0.22398633244919169 -0.27132847136955079 0 -0.21947311754018139 -0.28174823216008099 0 -0.2117440640613063 -0.2714560660025862 0 -0.21947311754018139 -0.28174823216008099 0 -0.2099333729274668 -0.28317129254800538 0 -0.2117440640613063 -0.2714560660025862 0 -0.22398633244919169 -0.27132847136955079 0 -0.2117440640613063 -0.2714560660025862 0 -0.21759888839251429 -0.26212753750200368 0 -0.2099333729274668 -0.28317129254800538 0 -0.2117440640613063 -0.2714560660025862 0 -0.20163083764207049 -0.27816255368004889 0 -0.20163083764207049 -0.27816255368004889 0 -0.20334583650585281 -0.26123793981755161 0 -0.18643891475010321 -0.2753500999052107 0 -0.20334583650585281 -0.26123793981755161 0 -0.18643891475010321 -0.2753500999052107 0 -0.1892261620383611 -0.26071341320317981 0 -0.20334583650585281 -0.26123793981755161 0 -0.18643891475010321 -0.2753500999052107 0 -0.19389921764606771 -0.28896968049378402 0 -0.20163083764207049 -0.27816255368004889 0 -0.18643891475010321 -0.2753500999052107 0 -0.1892261620383611 -0.26071341320317981 0 -0.20334583650585281 -0.26123793981755161 0 -0.1971211098569064 -0.2485562144643311 0 -0.20334583650585281 -0.26123793981755161 0 -0.21759888839251429 -0.26212753750200368 0 -0.22025275826160279 -0.2471257797298928 0 -0.20334583650585281 -0.26123793981755161 0 -0.22025275826160279 -0.2471257797298928 0 -0.20334583650585281 -0.26123793981755161 0 -0.1971211098569064 -0.2485562144643311 0 -0.22025275826160279 -0.2471257797298928 0 -0.2117440640613063 -0.2714560660025862 0 -0.20334583650585281 -0.26123793981755161 0 -0.21759888839251429 -0.26212753750200368 0 -0.15821309250511281 -0.26118480488572993 0 -0.17536452169406261 -0.25513261131262932 0 -0.1815972113741586 -0.27939145610981342 0 -0.15821309250511281 -0.26118480488572993 0 -0.17536452169406261 -0.25513261131262932 0 -0.15566934165753701 -0.24482136105764621 0 -0.1892261620383611 -0.26071341320317981 0 -0.17536452169406261 -0.25513261131262932 0 -0.1971211098569064 -0.2485562144643311 0 -0.1892261620383611 -0.26071341320317981 0 -0.17536452169406261 -0.25513261131262932 0 -0.18643891475010321 -0.2753500999052107 0 -0.17536452169406261 -0.25513261131262932 0 -0.18643891475010321 -0.2753500999052107 0 -0.17536452169406261 -0.25513261131262932 0 -0.18643891475010321 -0.2753500999052107 0 -0.1815972113741586 -0.27939145610981342 0 -0.19389921764606771 -0.28896968049378402 0 -0.18643891475010321 -0.2753500999052107 0 -0.1815972113741586 -0.27939145610981342 0 -0.18643891475010321 -0.2753500999052107 0 -0.1815972113741586 -0.27939145610981342 0 -0.15821309250511281 -0.26118480488572993 0 -0.1815972113741586 -0.27939145610981342 0 -0.1605334253196628 -0.27705414769848019 0 -0.15821309250511281 -0.26118480488572993 0 -0.1815972113741586 -0.27939145610981342 0 -0.1605334253196628 -0.27705414769848019 0 -0.16662117086531369 -0.29189191504570172 0 -0.1460397447830028 -0.28392096720827609 0 -0.1815972113741586 -0.27939145610981342 0 -0.1605334253196628 -0.27705414769848019 0 -0.16662117086531369 -0.29189191504570172 0 -0.16662117086531369 -0.29189191504570172 0 -0.18066470514172869 -0.29420676669921531 0 -0.16807172941449361 -0.30108874618849107 0 -0.1815972113741586 -0.27939145610981342 0 -0.16662117086531369 -0.29189191504570172 0 -0.1815972113741586 -0.27939145610981342 0 -0.16662117086531369 -0.29189191504570172 0 -0.18066470514172869 -0.29420676669921531 0 -0.19389921764606771 -0.28896968049378402 0 -0.1815972113741586 -0.27939145610981342 0 -0.18066470514172869 -0.29420676669921531 0 -0.18066470514172869 -0.29420676669921531 0 -0.1817779539512053 -0.30255714357571323 0 -0.16807172941449361 -0.30108874618849107 0 -0.1817779539512053 -0.30255714357571323 0 -0.17538193411824851 -0.30742310974349601 0 -0.16807172941449361 -0.30108874618849107 0 -0.1899902243989981 -0.29832565749187118 0 -0.18066470514172869 -0.29420676669921531 0 -0.1817779539512053 -0.30255714357571323 0 -0.19308950921137841 -0.30535425612401718 0 -0.1817779539512053 -0.30255714357571323 0 -0.1814567810706762 -0.3106659979112194 0 -0.1817779539512053 -0.30255714357571323 0 -0.1814567810706762 -0.3106659979112194 0 -0.17538193411824851 -0.30742310974349601 0 -0.1814567810706762 -0.3106659979112194 0 -0.17538193411824851 -0.30742310974349601 0 -0.1814567810706762 -0.3106659979112194 0 -0.17538193411824851 -0.30742310974349601 0 -0.1521471234576928 -0.30622570102712859 0 -0.16662117086531369 -0.29189191504570172 0 -0.16807172941449361 -0.30108874618849107 0 -0.15164513035647001 -0.30439237398159158 0 -0.17538193411824851 -0.30742310974349601 0 -0.16807172941449361 -0.30108874618849107 0 -0.1521471234576928 -0.30622570102712859 0 -0.16807172941449361 -0.30108874618849107 0 -0.1521471234576928 -0.30622570102712859 0 -0.15164513035647001 -0.30439237398159158 0 -0.1814567810706762 -0.3106659979112194 0 -0.1521471234576928 -0.30622570102712859 0 -0.16662117086531369 -0.29189191504570172 0 -0.15164513035647001 -0.30439237398159158 0 -0.14986325126998301 -0.30587970344869631 0 -0.1472482395654931 -0.30806244637126978 0 -0.13137693926794269 -0.30307910049847142 0 -0.14986325126998301 -0.30587970344869631 0 -0.13137693926794269 -0.30307910049847142 0 -0.14191197011226919 -0.29595195204747682 0 -0.1521471234576928 -0.30622570102712859 0 -0.15536928910057479 -0.31799335959440589 0 -0.1521471234576928 -0.30622570102712859 0 -0.1472482395654931 -0.30806244637126978 0 -0.1481744133336001 -0.31559103279323952 0 -0.1521471234576928 -0.30622570102712859 0 -0.14986325126998301 -0.30587970344869631 0 -0.1472482395654931 -0.30806244637126978 0 -0.1521471234576928 -0.30622570102712859 0 -0.14986325126998301 -0.30587970344869631 0 -0.15164513035647001 -0.30439237398159158 0 -0.1521471234576928 -0.30622570102712859 0 -0.14986325126998301 -0.30587970344869631 0 -0.1521471234576928 -0.30622570102712859 0 -0.15164513035647001 -0.30439237398159158 0 -0.14986325126998301 -0.30587970344869631 0 -0.15164513035647001 -0.30439237398159158 0 -0.14986325126998301 -0.30587970344869631 0 -0.1472482395654931 -0.30806244637126978 0 -0.14986325126998301 -0.30587970344869631 0 -0.15164513035647001 -0.30439237398159158 0 -0.14191197011226919 -0.29595195204747682 0 -0.1472482395654931 -0.30806244637126978 0 -0.13676428411235661 -0.311985534419285 0 -0.1481744133336001 -0.31559103279323952 0 -0.14986325126998301 -0.30587970344869631 0 -0.13137693926794269 -0.30307910049847142 0 -0.1472482395654931 -0.30806244637126978 0 -0.13676428411235661 -0.311985534419285 0 -0.13137693926794269 -0.30307910049847142 0 -0.13137693926794269 -0.30307910049847142 0 -0.14191197011226919 -0.29595195204747682 0 -0.12354370332633501 -0.29237215235494779 0 -0.13676428411235661 -0.311985534419285 0 -0.13137693926794269 -0.30307910049847142 0 -0.12202825811921469 -0.30947938976295097 0 -0.1460397447830028 -0.28392096720827609 0 -0.14191197011226919 -0.29595195204747682 0 -0.13317406737037779 -0.2802173890703723 0 -0.14191197011226919 -0.29595195204747682 0 -0.13317406737037779 -0.2802173890703723 0 -0.12354370332633501 -0.29237215235494779 0 -0.13317406737037779 -0.2802173890703723 0 -0.121176560474238 -0.27855216134530347 0 -0.12354370332633501 -0.29237215235494779 0 -0.16662117086531369 -0.29189191504570172 0 -0.15164513035647001 -0.30439237398159158 0 -0.1460397447830028 -0.28392096720827609 0 -0.15164513035647001 -0.30439237398159158 0 -0.1460397447830028 -0.28392096720827609 0 -0.14191197011226919 -0.29595195204747682 0 -0.15164513035647001 -0.30439237398159158 0 -0.1460397447830028 -0.28392096720827609 0 -0.1460397447830028 -0.28392096720827609 0 -0.14043435920953651 -0.26344956043496021 0 -0.1605334253196628 -0.27705414769848019 0 -0.1460397447830028 -0.28392096720827609 0 -0.14043435920953651 -0.26344956043496021 0 -0.15821309250511281 -0.26118480488572993 0 -0.1605334253196628 -0.27705414769848019 0 -0.14043435920953651 -0.26344956043496021 0 -0.13317406737037779 -0.2802173890703723 0 -0.1259380663168852 -0.26705754103126977 0 -0.14043435920953651 -0.26344956043496021 0 -0.1460397447830028 -0.28392096720827609 0 -0.13317406737037779 -0.2802173890703723 0 -0.14043435920953651 -0.26344956043496021 0 -0.13317406737037779 -0.2802173890703723 0 -0.1259380663168852 -0.26705754103126977 0 -0.121176560474238 -0.27855216134530347 0 -0.14043435920953651 -0.26344956043496021 0 -0.1283361407779757 -0.25159171728621699 0 -0.13482897363606841 -0.24297815366164491 0 -0.14043435920953651 -0.26344956043496021 0 -0.13482897363606841 -0.24297815366164491 0 -0.1259380663168852 -0.26705754103126977 0 -0.14043435920953651 -0.26344956043496021 0 -0.1283361407779757 -0.25159171728621699 0 -0.15821309250511281 -0.26118480488572993 0 -0.13482897363606841 -0.24297815366164491 0 -0.15821309250511281 -0.26118480488572993 0 -0.14043435920953651 -0.26344956043496021 0 -0.13482897363606841 -0.24297815366164491 0 -0.17697510949039719 -0.35596577996135209 0 -0.17519745401808179 -0.33814225560617162 0 -0.1562220225934601 -0.35985472972221177 0 -0.17519745401808179 -0.33814225560617162 0 -0.1532624182972378 -0.33871633494107939 0 -0.1562220225934601 -0.35985472972221177 0 -0.17519745401808179 -0.33814225560617162 0 -0.1562220225934601 -0.35985472972221177 0 -0.1663441030446621 -0.37717300760659073 0 -0.17697510949039719 -0.35596577996135209 0 -0.1562220225934601 -0.35985472972221177 0 -0.1663441030446621 -0.37717300760659073 0 -0.1854961134254472 -0.37120813041460421 0 -0.17697510949039719 -0.35596577996135209 0 -0.19236830561379509 -0.34938181171492771 0 -0.1854961134254472 -0.37120813041460421 0 -0.17697510949039719 -0.35596577996135209 0 -0.17697510949039719 -0.35596577996135209 0 -0.17519745401808179 -0.33814225560617162 0 -0.18622265824693729 -0.34003474470360739 0 -0.19236830561379509 -0.34938181171492771 0 -0.17697510949039719 -0.35596577996135209 0 -0.18622265824693729 -0.34003474470360739 0 -0.19214051361034601 -0.33054181938157612 0 -0.17519745401808179 -0.33814225560617162 0 -0.18622265824693729 -0.34003474470360739 0 -0.19214051361034601 -0.33054181938157612 0 -0.17519745401808179 -0.33814225560617162 0 -0.17075841890319021 -0.32267991232295651 0 -0.19214051361034601 -0.33054181938157612 0 -0.1814567810706762 -0.3106659979112194 0 -0.17075841890319021 -0.32267991232295651 0 -0.1814567810706762 -0.3106659979112194 0 -0.1521471234576928 -0.30622570102712859 0 -0.17075841890319021 -0.32267991232295651 0 -0.1521471234576928 -0.30622570102712859 0 -0.17075841890319021 -0.32267991232295651 0 -0.15536928910057479 -0.31799335959440589 0 -0.17075841890319021 -0.32267991232295651 0 -0.15536928910057479 -0.31799335959440589 0 -0.15041885550205389 -0.32708722206771829 0 -0.17519745401808179 -0.33814225560617162 0 -0.17075841890319021 -0.32267991232295651 0 -0.1532624182972378 -0.33871633494107939 0 -0.17075841890319021 -0.32267991232295651 0 -0.1532624182972378 -0.33871633494107939 0 -0.15041885550205389 -0.32708722206771829 0 -0.1532624182972378 -0.33871633494107939 0 -0.15041885550205389 -0.32708722206771829 0 -0.13403844172661231 -0.33095488736429202 0 -0.15041885550205389 -0.32708722206771829 0 -0.14028103823900179 -0.32077908792264309 0 -0.13403844172661231 -0.33095488736429202 0 -0.15536928910057479 -0.31799335959440589 0 -0.15041885550205389 -0.32708722206771829 0 -0.1481744133336001 -0.31559103279323952 0 -0.1521471234576928 -0.30622570102712859 0 -0.15536928910057479 -0.31799335959440589 0 -0.1481744133336001 -0.31559103279323952 0 -0.15041885550205389 -0.32708722206771829 0 -0.1481744133336001 -0.31559103279323952 0 -0.14028103823900179 -0.32077908792264309 0 -0.13676428411235661 -0.311985534419285 0 -0.1481744133336001 -0.31559103279323952 0 -0.14028103823900179 -0.32077908792264309 0 -0.13676428411235661 -0.311985534419285 0 -0.14028103823900179 -0.32077908792264309 0 -0.12839564496088529 -0.32005881249807028 0 -0.14028103823900179 -0.32077908792264309 0 -0.12839564496088529 -0.32005881249807028 0 -0.13403844172661231 -0.33095488736429202 0 -0.12839564496088529 -0.32005881249807028 0 -0.13403844172661231 -0.33095488736429202 0 -0.1231279148664025 -0.32697127933959502 0 -0.13676428411235661 -0.311985534419285 0 -0.12839564496088529 -0.32005881249807028 0 -0.12202825811921469 -0.30947938976295097 0 -0.13403844172661231 -0.33095488736429202 0 -0.13290241802702499 -0.35265178330474523 0 -0.1166361947753133 -0.33638206822001748 0 -0.1532624182972378 -0.33871633494107939 0 -0.13403844172661231 -0.33095488736429202 0 -0.13290241802702499 -0.35265178330474523 0 -0.1532624182972378 -0.33871633494107939 0 -0.13290241802702499 -0.35265178330474523 0 -0.1562220225934601 -0.35985472972221177 0 -0.13724659116883831 -0.38156720383825199 0 -0.13290241802702499 -0.35265178330474523 0 -0.1562220225934601 -0.35985472972221177 0 -0.13724659116883831 -0.38156720383825199 0 -0.1663441030446621 -0.37717300760659073 0 -0.1562220225934601 -0.35985472972221177 0 -0.13724659116883831 -0.38156720383825199 0 -0.1562220225934601 -0.35985472972221177 0 -0.13724659116883831 -0.38156720383825199 0 -0.13290241802702499 -0.35265178330474523 0 -0.1192781490478088 -0.36668410834504778 0 -0.1192781490478088 -0.36668410834504778 0 -0.1016352808315869 -0.36700177770792092 0 -0.11220573075163159 -0.38220411347121069 0 -0.1192781490478088 -0.36668410834504778 0 -0.1016352808315869 -0.36700177770792092 0 -0.1099844304083452 -0.35257743562026572 0 -0.1016352808315869 -0.36700177770792092 0 -0.091783481537845241 -0.36974840743822202 0 -0.093334558199797538 -0.36412034719781128 0 -0.1016352808315869 -0.36700177770792092 0 -0.094364811557621053 -0.35389299716276579 0 -0.093334558199797538 -0.36412034719781128 0 -0.1016352808315869 -0.36700177770792092 0 -0.091783481537845241 -0.36974840743822202 0 -0.093814789784828018 -0.38091150164421111 0 -0.094364811557621053 -0.35389299716276579 0 -0.1099844304083452 -0.35257743562026572 0 -0.096042697554356071 -0.3397062417384924 0 -0.1016352808315869 -0.36700177770792092 0 -0.094364811557621053 -0.35389299716276579 0 -0.1099844304083452 -0.35257743562026572 0 -0.13290241802702499 -0.35265178330474523 0 -0.1099844304083452 -0.35257743562026572 0 -0.1166361947753133 -0.33638206822001748 0 -0.13290241802702499 -0.35265178330474523 0 -0.1192781490478088 -0.36668410834504778 0 -0.1099844304083452 -0.35257743562026572 0 -0.13403844172661231 -0.33095488736429202 0 -0.1166361947753133 -0.33638206822001748 0 -0.1231279148664025 -0.32697127933959502 0 -0.1166361947753133 -0.33638206822001748 0 -0.1152881905332649 -0.31967160768574748 0 -0.098893476597157901 -0.32632392269665411 0 -0.1166361947753133 -0.33638206822001748 0 -0.1231279148664025 -0.32697127933959502 0 -0.1152881905332649 -0.31967160768574748 0 -0.12839564496088529 -0.32005881249807028 0 -0.1152881905332649 -0.31967160768574748 0 -0.12202825811921469 -0.30947938976295097 0 -0.12839564496088529 -0.32005881249807028 0 -0.1231279148664025 -0.32697127933959502 0 -0.1152881905332649 -0.31967160768574748 0 -0.1152881905332649 -0.31967160768574748 0 -0.11397155121489801 -0.30848478901155318 0 -0.10823649018657309 -0.3106210867482716 0 -0.1152881905332649 -0.31967160768574748 0 -0.12202825811921469 -0.30947938976295097 0 -0.11397155121489801 -0.30848478901155318 0 -0.1152881905332649 -0.31967160768574748 0 -0.098893476597157901 -0.32632392269665411 0 -0.10823649018657309 -0.3106210867482716 0 -0.1166361947753133 -0.33638206822001748 0 -0.098893476597157901 -0.32632392269665411 0 -0.096042697554356071 -0.3397062417384924 0 -0.1099844304083452 -0.35257743562026572 0 -0.1166361947753133 -0.33638206822001748 0 -0.096042697554356071 -0.3397062417384924 0 -0.081273045807338212 -0.32012122354728773 0 -0.072383893537199012 -0.33396092306611819 0 -0.082523744249277803 -0.34494336359321798 0 -0.081273045807338212 -0.32012122354728773 0 -0.082523744249277803 -0.34494336359321798 0 -0.096042697554356071 -0.3397062417384924 0 -0.081273045807338212 -0.32012122354728773 0 -0.082523744249277803 -0.34494336359321798 0 -0.098893476597157901 -0.32632392269665411 0 -0.096042697554356071 -0.3397062417384924 0 -0.081273045807338212 -0.32012122354728773 0 -0.098893476597157901 -0.32632392269665411 0 -0.081273045807338212 -0.32012122354728773 0 -0.088490963390462057 -0.3073149594937738 0 -0.081273045807338212 -0.32012122354728773 0 -0.06349485352407537 -0.31994243130957151 0 -0.072383893537199012 -0.33396092306611819 0 -0.081273045807338212 -0.32012122354728773 0 -0.06349485352407537 -0.31994243130957151 0 -0.071882199735688629 -0.30989172464331072 0 -0.06349485352407537 -0.31994243130957151 0 -0.072383893537199012 -0.33396092306611819 0 -0.062587044379988993 -0.33886333000968721 0 -0.072383893537199012 -0.33396092306611819 0 -0.072040779725314613 -0.34593426687082662 0 -0.082523744249277803 -0.34494336359321798 0 -0.072383893537199012 -0.33396092306611819 0 -0.062587044379988993 -0.33886333000968721 0 -0.072040779725314613 -0.34593426687082662 0 -0.062587044379988993 -0.33886333000968721 0 -0.072040779725314613 -0.34593426687082662 0 -0.05778126825204781 -0.35817517109810632 0 -0.081484465201393491 -0.35485127927681481 0 -0.05778126825204781 -0.35817517109810632 0 -0.072289445743601369 -0.36429171085611578 0 -0.081484465201393491 -0.35485127927681481 0 -0.05778126825204781 -0.35817517109810632 0 -0.072040779725314613 -0.34593426687082662 0 -0.081484465201393491 -0.35485127927681481 0 -0.05778126825204781 -0.35817517109810632 0 -0.066117606829746781 -0.37437488941039382 0 -0.072289445743601369 -0.36429171085611578 0 -0.05778126825204781 -0.35817517109810632 0 -0.066117606829746781 -0.37437488941039382 0 -0.072289445743601369 -0.36429171085611578 0 -0.083774442691217046 -0.36976550363914829 0 -0.072289445743601369 -0.36429171085611578 0 -0.083774442691217046 -0.36976550363914829 0 -0.081484465201393491 -0.35485127927681481 0 -0.085554658872136979 -0.36583820648233678 0 -0.083774442691217046 -0.36976550363914829 0 -0.082523744249277803 -0.34494336359321798 0 -0.085554658872136979 -0.36583820648233678 0 -0.083774442691217046 -0.36976550363914829 0 -0.083774442691217046 -0.36976550363914829 0 -0.091783481537845241 -0.36974840743822202 0 -0.093814789784828018 -0.38091150164421111 0 -0.085554658872136979 -0.36583820648233678 0 -0.083774442691217046 -0.36976550363914829 0 -0.091783481537845241 -0.36974840743822202 0 -0.094364811557621053 -0.35389299716276579 0 -0.085554658872136979 -0.36583820648233678 0 -0.093334558199797538 -0.36412034719781128 0 -0.085554658872136979 -0.36583820648233678 0 -0.091783481537845241 -0.36974840743822202 0 -0.093334558199797538 -0.36412034719781128 0 -0.094364811557621053 -0.35389299716276579 0 -0.085554658872136979 -0.36583820648233678 0 -0.082523744249277803 -0.34494336359321798 0 -0.083774442691217046 -0.36976550363914829 0 -0.082523744249277803 -0.34494336359321798 0 -0.083774442691217046 -0.36976550363914829 0 -0.082523744249277803 -0.34494336359321798 0 -0.081484465201393491 -0.35485127927681481 0 -0.094364811557621053 -0.35389299716276579 0 -0.096042697554356071 -0.3397062417384924 0 -0.082523744249277803 -0.34494336359321798 0 -0.072040779725314613 -0.34593426687082662 0 -0.082523744249277803 -0.34494336359321798 0 -0.081484465201393491 -0.35485127927681481 0 -0.101475907254733 -0.26829823342826459 0 -0.093680051977193257 -0.25300014610948141 0 -0.1025516661405015 -0.24412656761791199 0 -0.1097432552782682 -0.2572086698476283 0 -0.101475907254733 -0.26829823342826459 0 -0.1025516661405015 -0.24412656761791199 0 -0.101475907254733 -0.26829823342826459 0 -0.1025516661405015 -0.24412656761791199 0 -0.101475907254733 -0.26829823342826459 0 -0.092490388530258719 -0.26367462890309928 0 -0.093680051977193257 -0.25300014610948141 0 -0.1097432552782682 -0.2572086698476283 0 -0.11415052326640381 -0.26847741843797612 0 -0.101475907254733 -0.26829823342826459 0 -0.1097432552782682 -0.2572086698476283 0 -0.1183855941197941 -0.25651062511641259 0 -0.1121525856099083 -0.24863050463757599 0 -0.1283361407779757 -0.25159171728621699 0 -0.1183855941197941 -0.25651062511641259 0 -0.11992695639240671 -0.24305274461581289 0 -0.1259380663168852 -0.26705754103126977 0 -0.1183855941197941 -0.25651062511641259 0 -0.11415052326640381 -0.26847741843797612 0 -0.1259380663168852 -0.26705754103126977 0 -0.1283361407779757 -0.25159171728621699 0 -0.1183855941197941 -0.25651062511641259 0 -0.1097432552782682 -0.2572086698476283 0 -0.1183855941197941 -0.25651062511641259 0 -0.11415052326640381 -0.26847741843797612 0 -0.1259380663168852 -0.26705754103126977 0 -0.11415052326640381 -0.26847741843797612 0 -0.121176560474238 -0.27855216134530347 0 -0.11415052326640381 -0.26847741843797612 0 -0.121176560474238 -0.27855216134530347 0 -0.112272911659429 -0.28340806039222649 0 -0.101475907254733 -0.26829823342826459 0 -0.1004001483689636 -0.29246989923861699 0 -0.089806853404465051 -0.2713401455271785 0 -0.101475907254733 -0.26829823342826459 0 -0.1004001483689636 -0.29246989923861699 0 -0.11415052326640381 -0.26847741843797612 0 -0.101475907254733 -0.26829823342826459 0 -0.112272911659429 -0.28340806039222649 0 -0.101475907254733 -0.26829823342826459 0 -0.089806853404465051 -0.2713401455271785 0 -0.092490388530258719 -0.26367462890309928 0 -0.1004001483689636 -0.29246989923861699 0 -0.112272911659429 -0.28340806039222649 0 -0.11289062726590229 -0.30027849754824781 0 -0.101475907254733 -0.26829823342826459 0 -0.1004001483689636 -0.29246989923861699 0 -0.112272911659429 -0.28340806039222649 0 -0.1004001483689636 -0.29246989923861699 0 -0.10013860532164209 -0.29834661679915908 0 -0.1004001483689636 -0.29246989923861699 0 -0.11289062726590229 -0.30027849754824781 0 -0.112272911659429 -0.28340806039222649 0 -0.12354370332633501 -0.29237215235494779 0 -0.11289062726590229 -0.30027849754824781 0 -0.121176560474238 -0.27855216134530347 0 -0.112272911659429 -0.28340806039222649 0 -0.12354370332633501 -0.29237215235494779 0 -0.13137693926794269 -0.30307910049847142 0 -0.11289062726590229 -0.30027849754824781 0 -0.13137693926794269 -0.30307910049847142 0 -0.11289062726590229 -0.30027849754824781 0 -0.12202825811921469 -0.30947938976295097 0 -0.13137693926794269 -0.30307910049847142 0 -0.12354370332633501 -0.29237215235494779 0 -0.11289062726590229 -0.30027849754824781 0 -0.11289062726590229 -0.30027849754824781 0 -0.11397155121489801 -0.30848478901155318 0 -0.10823649018657309 -0.3106210867482716 0 -0.11289062726590229 -0.30027849754824781 0 -0.12202825811921469 -0.30947938976295097 0 -0.11397155121489801 -0.30848478901155318 0 -0.098893476597157901 -0.32632392269665411 0 -0.10013860532164209 -0.29834661679915908 0 -0.098893476597157901 -0.32632392269665411 0 -0.10013860532164209 -0.29834661679915908 0 -0.088490963390462057 -0.3073149594937738 0 -0.098893476597157901 -0.32632392269665411 0 -0.10823649018657309 -0.3106210867482716 0 -0.10013860532164209 -0.29834661679915908 0 -0.11289062726590229 -0.30027849754824781 0 -0.10013860532164209 -0.29834661679915908 0 -0.1004001483689636 -0.29246989923861699 0 -0.11289062726590229 -0.30027849754824781 0 -0.10013860532164209 -0.29834661679915908 0 -0.11289062726590229 -0.30027849754824781 0 -0.10823649018657309 -0.3106210867482716 0 -0.10013860532164209 -0.29834661679915908 0 -0.081273045807338212 -0.32012122354728773 0 -0.075730545320634307 -0.30237183499028841 0 -0.080022347365398816 -0.29529908350135742 0 -0.081273045807338212 -0.32012122354728773 0 -0.088490963390462057 -0.3073149594937738 0 -0.080022347365398816 -0.29529908350135742 0 -0.10013860532164209 -0.29834661679915908 0 -0.088490963390462057 -0.3073149594937738 0 -0.080022347365398816 -0.29529908350135742 0 -0.081273045807338212 -0.32012122354728773 0 -0.080022347365398816 -0.29529908350135742 0 -0.06349485352407537 -0.31994243130957151 0 -0.067929239438661637 -0.29744245220773302 0 -0.06349485352407537 -0.31994243130957151 0 -0.067929239438661637 -0.29744245220773302 0 -0.05709164511789562 -0.30596989755068921 0 -0.081273045807338212 -0.32012122354728773 0 -0.071882199735688629 -0.30989172464331072 0 -0.075730545320634307 -0.30237183499028841 0 -0.06349485352407537 -0.31994243130957151 0 -0.071882199735688629 -0.30989172464331072 0 -0.067929239438661637 -0.29744245220773302 0 -0.067929239438661637 -0.29744245220773302 0 -0.075730545320634307 -0.30237183499028841 0 -0.074800211398343183 -0.29676828128919502 0 -0.071882199735688629 -0.30989172464331072 0 -0.067929239438661637 -0.29744245220773302 0 -0.075730545320634307 -0.30237183499028841 0 -0.075730545320634307 -0.30237183499028841 0 -0.074800211398343183 -0.29676828128919502 0 -0.080022347365398816 -0.29529908350135742 0 -0.067929239438661637 -0.29744245220773302 0 -0.072363625353247057 -0.27494247310589431 0 -0.074800211398343183 -0.29676828128919502 0 -0.075988861669628593 -0.29203098004520328 0 -0.080022347365398816 -0.29529908350135742 0 -0.067929239438661637 -0.29744245220773302 0 -0.063481929201992804 -0.28659419931659808 0 -0.072363625353247057 -0.27494247310589431 0 -0.067929239438661637 -0.29744245220773302 0 -0.075162920182542767 -0.28731555611229459 0 -0.072363625353247057 -0.27494247310589431 0 -0.075988861669628593 -0.29203098004520328 0 -0.075162920182542767 -0.28731555611229459 0 -0.080022347365398816 -0.29529908350135742 0 -0.067929239438661637 -0.29744245220773302 0 -0.075988861669628593 -0.29203098004520328 0 -0.075162920182542767 -0.28731555611229459 0 -0.067929239438661637 -0.29744245220773302 0 -0.074800211398343183 -0.29676828128919502 0 -0.075988861669628593 -0.29203098004520328 0 -0.067929239438661637 -0.29744245220773302 0 -0.063481929201992804 -0.28659419931659808 0 -0.057157199652218327 -0.29433345841048941 0 -0.1004001483689636 -0.29246989923861699 0 -0.079212385277153408 -0.27922407156230239 0 -0.10013860532164209 -0.29834661679915908 0 -0.080022347365398816 -0.29529908350135742 0 -0.075162920182542767 -0.28731555611229459 0 -0.080022347365398816 -0.29529908350135742 0 -0.079212385277153408 -0.27922407156230239 0 -0.1004001483689636 -0.29246989923861699 0 -0.080022347365398816 -0.29529908350135742 0 -0.079212385277153408 -0.27922407156230239 0 -0.1004001483689636 -0.29246989923861699 0 -0.10013860532164209 -0.29834661679915908 0 -0.080022347365398816 -0.29529908350135742 0 -0.080022347365398816 -0.29529908350135742 0 -0.079212385277153408 -0.27922407156230239 0 -0.1004001483689636 -0.29246989923861699 0 -0.089806853404465051 -0.2713401455271785 0 -0.079212385277153408 -0.27922407156230239 0 -0.089806853404465051 -0.2713401455271785 0 -0.084998741484643592 -0.26205999054747281 0 -0.092490388530258719 -0.26367462890309928 0 -0.089806853404465051 -0.2713401455271785 0 -0.078429256909339093 -0.26368161834739218 0 -0.084998741484643592 -0.26205999054747281 0 -0.079212385277153408 -0.27922407156230239 0 -0.078429256909339093 -0.26368161834739218 0 -0.089806853404465051 -0.2713401455271785 0 -0.079212385277153408 -0.27922407156230239 0 -0.078429256909339093 -0.26368161834739218 0 -0.075162920182542767 -0.28731555611229459 0 -0.079212385277153408 -0.27922407156230239 0 -0.072363625353247057 -0.27494247310589431 0 -0.072363625353247057 -0.27494247310589431 0 -0.052651973256824323 -0.26261945695013877 0 -0.072363625353247057 -0.27494247310589431 0 -0.065594040539757301 -0.27326720108960889 0 -0.052651973256824323 -0.26261945695013877 0 -0.079212385277153408 -0.27922407156230239 0 -0.072363625353247057 -0.27494247310589431 0 -0.072363625353247057 -0.27494247310589431 0 -0.065594040539757301 -0.27326720108960889 0 -0.061663959528748452 -0.27997783588547598 0 -0.063481929201992804 -0.28659419931659808 0 -0.072363625353247057 -0.27494247310589431 0 -0.061663959528748452 -0.27997783588547598 0 -0.079212385277153408 -0.27922407156230239 0 -0.072363625353247057 -0.27494247310589431 0 -0.078429256909339093 -0.26368161834739218 0 -0.072363625353247057 -0.27494247310589431 0 -0.077646128541525 -0.24813916513248199 0 -0.072363625353247057 -0.27494247310589431 0 -0.078429256909339093 -0.26368161834739218 0 -0.077646128541525 -0.24813916513248199 0 -0.072363625353247057 -0.27494247310589431 0 -0.052651973256824323 -0.26261945695013877 0 -0.077646128541525 -0.24813916513248199 0 -0.078429256909339093 -0.26368161834739218 0 -0.077646128541525 -0.24813916513248199 0 -0.084998741484643592 -0.26205999054747281 0 -0.088104632666654803 -0.24175912157342011 0 -0.084998741484643592 -0.26205999054747281 0 -0.093680051977193257 -0.25300014610948141 0 -0.088104632666654803 -0.24175912157342011 0 -0.084998741484643592 -0.26205999054747281 0 -0.088104632666654803 -0.24175912157342011 0 -0.077646128541525 -0.24813916513248199 0 -0.078429256909339093 -0.26368161834739218 0 -0.084998741484643592 -0.26205999054747281 0 -0.077646128541525 -0.24813916513248199 0 -0.084998741484643592 -0.26205999054747281 0 -0.092490388530258719 -0.26367462890309928 0 -0.093680051977193257 -0.25300014610948141 0 -0.032940321160402269 -0.25029644079438251 0 -0.052651973256824323 -0.26261945695013877 0 -0.050902643065861071 -0.24349095896983161 0 -0.032940321160402269 -0.25029644079438251 0 -0.052651973256824323 -0.26261945695013877 0 -0.030801127425925001 -0.25680016795848581 0 -0.032940321160402269 -0.25029644079438251 0 -0.052651973256824323 -0.26261945695013877 0 -0.052651973256824323 -0.26261945695013877 0 -0.048838748996681343 -0.27669498093657302 0 -0.030801127425925001 -0.25680016795848581 0 -0.032940321160402269 -0.25029644079438251 0 -0.030801127425925001 -0.25680016795848581 0 -0.052651973256824323 -0.26261945695013877 0 -0.050902643065861071 -0.24349095896983161 0 -0.077646128541525 -0.24813916513248199 0 -0.065594040539757301 -0.27326720108960889 0 -0.048838748996681343 -0.27669498093657302 0 -0.065594040539757301 -0.27326720108960889 0 -0.052651973256824323 -0.26261945695013877 0 -0.048838748996681343 -0.27669498093657302 0 -0.065594040539757301 -0.27326720108960889 0 -0.061663959528748452 -0.27997783588547598 0 -0.048838748996681343 -0.27669498093657302 0 -0.061663959528748452 -0.27997783588547598 0 -0.048838748996681343 -0.27669498093657302 0 -0.054451087829631463 -0.28288517796522222 0 -0.048838748996681343 -0.27669498093657302 0 -0.054451087829631463 -0.28288517796522222 0 -0.048838748996681343 -0.27669498093657302 0 -0.030801127425925001 -0.25680016795848581 0 -0.048838748996681343 -0.27669498093657302 0 -0.02248395618448398 -0.28208661661419232 0 -0.030801127425925001 -0.25680016795848581 0 -0.048838748996681343 -0.27669498093657302 0 -0.02248395618448398 -0.28208661661419232 0 -0.048838748996681343 -0.27669498093657302 0 -0.041077846387481028 -0.28937070966441081 0 -0.02248395618448398 -0.28208661661419232 0 -0.041077846387481028 -0.28937070966441081 0 -0.037109865356421391 -0.29952186761000271 0 -0.029468436869721851 -0.29252598106650862 0 -0.041077846387481028 -0.28937070966441081 0 -0.04975385330497957 -0.2890306135367654 0 -0.047244383658885593 -0.30186874070713182 0 -0.048838748996681343 -0.27669498093657302 0 -0.041077846387481028 -0.28937070966441081 0 -0.04975385330497957 -0.2890306135367654 0 -0.048838748996681343 -0.27669498093657302 0 -0.04975385330497957 -0.2890306135367654 0 -0.054451087829631463 -0.28288517796522222 0 -0.04975385330497957 -0.2890306135367654 0 -0.054451087829631463 -0.28288517796522222 0 -0.057157199652218327 -0.29433345841048941 0 -0.063481929201992804 -0.28659419931659808 0 -0.054451087829631463 -0.28288517796522222 0 -0.057157199652218327 -0.29433345841048941 0 -0.063481929201992804 -0.28659419931659808 0 -0.061663959528748452 -0.27997783588547598 0 -0.054451087829631463 -0.28288517796522222 0 -0.04975385330497957 -0.2890306135367654 0 -0.057157199652218327 -0.29433345841048941 0 -0.047244383658885593 -0.30186874070713182 0 -0.057157199652218327 -0.29433345841048941 0 -0.047244383658885593 -0.30186874070713182 0 -0.05709164511789562 -0.30596989755068921 0 -0.067929239438661637 -0.29744245220773302 0 -0.057157199652218327 -0.29433345841048941 0 -0.05709164511789562 -0.30596989755068921 0 -0.047244383658885593 -0.30186874070713182 0 -0.05709164511789562 -0.30596989755068921 0 -0.049632549315637188 -0.31626240511852 0 -0.047244383658885593 -0.30186874070713182 0 -0.049632549315637188 -0.31626240511852 0 -0.036505516356473318 -0.31400569198040618 0 -0.047244383658885593 -0.30186874070713182 0 -0.037109865356421391 -0.29952186761000271 0 -0.036505516356473318 -0.31400569198040618 0 -0.041077846387481028 -0.28937070966441081 0 -0.047244383658885593 -0.30186874070713182 0 -0.037109865356421391 -0.29952186761000271 0 -0.037109865356421391 -0.29952186761000271 0 -0.02678144107749017 -0.30078470409936309 0 -0.036505516356473318 -0.31400569198040618 0 -0.02678144107749017 -0.30078470409936309 0 -0.021312585502779081 -0.32213078764647213 0 -0.02678144107749017 -0.30078470409936309 0 -0.036505516356473318 -0.31400569198040618 0 -0.021312585502779081 -0.32213078764647213 0 -0.02678144107749017 -0.30078470409936309 0 -0.01630762940426286 -0.3038502133106713 0 -0.021312585502779081 -0.32213078764647213 0 -0.037109865356421391 -0.29952186761000271 0 -0.02678144107749017 -0.30078470409936309 0 -0.029468436869721851 -0.29252598106650862 0 -0.02678144107749017 -0.30078470409936309 0 -0.01630762940426286 -0.3038502133106713 0 -0.01957434403417008 -0.29093262400193609 0 -0.0063780240591087903 -0.31078717533589839 0 -0.0074917523477661804 -0.29461577546968681 0 0.013051880611257029 -0.30817184754300292 0 -0.01630762940426286 -0.3038502133106713 0 -0.0063780240591087903 -0.31078717533589839 0 -0.021312585502779081 -0.32213078764647213 0 -0.01630762940426286 -0.3038502133106713 0 -0.0063780240591087903 -0.31078717533589839 0 -0.0074917523477661804 -0.29461577546968681 0 -0.02248395618448398 -0.28208661661419232 0 0.0027723556212477219 -0.28725352620772771 0 -0.01075429771457371 -0.28163518560512563 0 -0.02248395618448398 -0.28208661661419232 0 0.0027723556212477219 -0.28725352620772771 0 -0.0074917523477661804 -0.29461577546968681 0 -0.02248395618448398 -0.28208661661419232 0 0.0027723556212477219 -0.28725352620772771 0 -0.01630762940426286 -0.3038502133106713 0 -0.0074917523477661804 -0.29461577546968681 0 -0.01957434403417008 -0.29093262400193609 0 -0.01075429771457371 -0.28163518560512563 0 -0.0017476628817073611 -0.27805551369469472 0 0.0027723556212477219 -0.28725352620772771 0 -0.041077846387481028 -0.28937070966441081 0 -0.02248395618448398 -0.28208661661419232 0 -0.029468436869721851 -0.29252598106650862 0 -0.02248395618448398 -0.28208661661419232 0 -0.01957434403417008 -0.29093262400193609 0 -0.0074917523477661804 -0.29461577546968681 0 -0.02248395618448398 -0.28208661661419232 0 -0.01957434403417008 -0.29093262400193609 0 -0.02678144107749017 -0.30078470409936309 0 -0.01957434403417008 -0.29093262400193609 0 -0.029468436869721851 -0.29252598106650862 0 -0.02248395618448398 -0.28208661661419232 0 -0.01957434403417008 -0.29093262400193609 0 -0.029468436869721851 -0.29252598106650862 0 -0.02248395618448398 -0.28208661661419232 0 -0.030801127425925001 -0.25680016795848581 0 -0.02248395618448398 -0.28208661661419232 0 -0.01520552987642871 -0.27187005660595642 0 -0.030801127425925001 -0.25680016795848581 0 -0.01075429771457371 -0.28163518560512563 0 -0.02248395618448398 -0.28208661661419232 0 -0.01520552987642871 -0.27187005660595642 0 -0.0017476628817073611 -0.27805551369469472 0 -0.01024060517545407 -0.26077279915728391 0 0.0057386521092319797 -0.26220041049146298 0 -0.0017476628817073611 -0.27805551369469472 0 -0.01520552987642871 -0.27187005660595642 0 -0.01024060517545407 -0.26077279915728391 0 -0.0017476628817073611 -0.27805551369469472 0 -0.01024060517545407 -0.26077279915728391 0 -0.01075429771457371 -0.28163518560512563 0 -0.0017476628817073611 -0.27805551369469472 0 -0.01520552987642871 -0.27187005660595642 0 -0.01075429771457371 -0.28163518560512563 0 -0.0017476628817073611 -0.27805551369469472 0 -0.01024060517545407 -0.26077279915728391 0 0.0057386521092319797 -0.26220041049146298 0 0.0025328853753160741 -0.24958102673793139 0 -0.01024060517545407 -0.26077279915728391 0 -0.018733547469201091 -0.24349008461987329 0 -0.01024060517545407 -0.26077279915728391 0 -0.018733547469201091 -0.24349008461987329 0 0.0025328853753160741 -0.24958102673793139 0 -0.01024060517545407 -0.26077279915728391 0 -0.030801127425925001 -0.25680016795848581 0 -0.018733547469201091 -0.24349008461987329 0 -0.01520552987642871 -0.27187005660595642 0 -0.01024060517545407 -0.26077279915728391 0 -0.030801127425925001 -0.25680016795848581 0 -0.032940321160402269 -0.25029644079438251 0 -0.030801127425925001 -0.25680016795848581 0 -0.026871719323301121 -0.24650256912316601 0 -0.030801127425925001 -0.25680016795848581 0 -0.018733547469201091 -0.24349008461987329 0 -0.034078071302702163 -0.36149906291939787 0 -0.05778126825204781 -0.35817517109810632 0 -0.044598414929564491 -0.33459332569111688 0 -0.034078071302702163 -0.36149906291939787 0 -0.044598414929564491 -0.33459332569111688 0 -0.02963630761074966 -0.34409655343526241 0 -0.034078071302702163 -0.36149906291939787 0 -0.05778126825204781 -0.35817517109810632 0 -0.034078071302702163 -0.36149906291939787 0 -0.031733352269984409 -0.37630872523495079 0 -0.04671422923235316 -0.37926911911211442 0 -0.034078071302702163 -0.36149906291939787 0 -0.05778126825204781 -0.35817517109810632 0 -0.04671422923235316 -0.37926911911211442 0 -0.066117606829746781 -0.37437488941039382 0 -0.05778126825204781 -0.35817517109810632 0 -0.04671422923235316 -0.37926911911211442 0 -0.062587044379988993 -0.33886333000968721 0 -0.05778126825204781 -0.35817517109810632 0 -0.044598414929564491 -0.33459332569111688 0 -0.06349485352407537 -0.31994243130957151 0 -0.062587044379988993 -0.33886333000968721 0 -0.044598414929564491 -0.33459332569111688 0 -0.06349485352407537 -0.31994243130957151 0 -0.049632549315637188 -0.31626240511852 0 -0.044598414929564491 -0.33459332569111688 0 -0.06349485352407537 -0.31994243130957151 0 -0.05709164511789562 -0.30596989755068921 0 -0.049632549315637188 -0.31626240511852 0 -0.049632549315637188 -0.31626240511852 0 -0.036505516356473318 -0.31400569198040618 0 -0.044598414929564491 -0.33459332569111688 0 -0.036505516356473318 -0.31400569198040618 0 -0.044598414929564491 -0.33459332569111688 0 -0.021312585502779081 -0.32213078764647213 0 -0.044598414929564491 -0.33459332569111688 0 -0.021312585502779081 -0.32213078764647213 0 -0.02963630761074966 -0.34409655343526241 0 -0.015843729928067991 -0.34347687119358122 0 -0.021312585502779081 -0.32213078764647213 0 -0.02963630761074966 -0.34409655343526241 0 -0.015843729928067991 -0.34347687119358122 0 -0.021312585502779081 -0.32213078764647213 0 -0.0063780240591087903 -0.31078717533589839 0 -0.021312585502779081 -0.32213078764647213 0 3.5896068887442723e-05 -0.32803491845883598 0 -0.015843729928067991 -0.34347687119358122 0 -0.00014080085946228561 -0.35082738964002957 0 3.5896068887442723e-05 -0.32803491845883598 0 -0.015843729928067991 -0.34347687119358122 0 -0.021312585502779081 -0.32213078764647213 0 3.5896068887442723e-05 -0.32803491845883598 0 -0.015843729928067991 -0.34347687119358122 0 -0.00014080085946228561 -0.35082738964002957 0 -0.01037487435335663 -0.3648229547406901 0 -0.015843729928067991 -0.34347687119358122 0 -0.01037487435335663 -0.3648229547406901 0 -0.015843729928067991 -0.34347687119358122 0 -0.02275820373048933 -0.35362182208710219 0 -0.02963630761074966 -0.34409655343526241 0 -0.015843729928067991 -0.34347687119358122 0 -0.02275820373048933 -0.35362182208710219 0 -0.01037487435335663 -0.3648229547406901 0 -0.034078071302702163 -0.36149906291939787 0 -0.02275820373048933 -0.35362182208710219 0 -0.02963630761074966 -0.34409655343526241 0 -0.034078071302702163 -0.36149906291939787 0 -0.02215424893162643 -0.37111505202744122 0 -0.01037487435335663 -0.3648229547406901 0 -0.034078071302702163 -0.36149906291939787 0 -0.01037487435335663 -0.3648229547406901 0 -0.034078071302702163 -0.36149906291939787 0 -0.02275820373048933 -0.35362182208710219 0 -0.01037487435335663 -0.3648229547406901 0 -0.034078071302702163 -0.36149906291939787 0 -0.02215424893162643 -0.37111505202744122 0 -0.031733352269984409 -0.37630872523495079 0 -0.02215424893162643 -0.37111505202744122 0 -0.016772253886492949 -0.37410089839641808 0 -0.01404568160319189 -0.3712617873641948 0 -0.01404568160319189 -0.3712617873641948 0 -0.0094265442937821464 -0.37378457166277412 0 -0.01319259440905524 -0.37623554315916408 0 -0.0078283346885702904 -0.37476262999778609 0 -0.0094265442937821464 -0.37378457166277412 0 -0.01037487435335663 -0.3648229547406901 0 -0.02215424893162643 -0.37111505202744122 0 -0.01404568160319189 -0.3712617873641948 0 -0.01037487435335663 -0.3648229547406901 0 -0.01037487435335663 -0.3648229547406901 0 0.0058490520874761691 -0.36709803082098191 0 -0.016772253886492949 -0.37410089839641808 0 -0.01404568160319189 -0.3712617873641948 0 -0.01319259440905524 -0.37623554315916408 0 -0.00014080085946228561 -0.35082738964002957 0 -0.01037487435335663 -0.3648229547406901 0 0.0058490520874761691 -0.36709803082098191 0 -0.0078283346885702904 -0.37476262999778609 0 -0.01037487435335663 -0.3648229547406901 0 0.0058490520874761691 -0.36709803082098191 0 -0.0078283346885702904 -0.37476262999778609 0 -0.01037487435335663 -0.3648229547406901 0 -0.01404568160319189 -0.3712617873641948 0 -0.0094265442937821464 -0.37378457166277412 0 -0.01037487435335663 -0.3648229547406901 0 -0.0078283346885702904 -0.37476262999778609 0 -0.0094265442937821464 -0.37378457166277412 0 -0.0078283346885702904 -0.37476262999778609 0 -0.0023576536845698339 -0.39611583857600319 0 -0.0078283346885702904 -0.37476262999778609 0 -0.011142097151610131 -0.38172381805447092 0 -0.0023576536845698339 -0.39611583857600319 0 -0.011142097151610131 -0.38172381805447092 0 -0.0023576536845698339 -0.39611583857600319 0 -0.01587325479487519 -0.38723674351337972 0 -0.011142097151610131 -0.38172381805447092 0 -0.01610234460482865 -0.37998891207167063 0 -0.01587325479487519 -0.38723674351337972 0 -0.01319259440905524 -0.37623554315916408 0 -0.011142097151610131 -0.38172381805447092 0 -0.01610234460482865 -0.37998891207167063 0 -0.016772253886492949 -0.37410089839641808 0 -0.01319259440905524 -0.37623554315916408 0 -0.01610234460482865 -0.37998891207167063 0 -0.01319259440905524 -0.37623554315916408 0 -0.010397392635754449 -0.37662664071854879 0 -0.011142097151610131 -0.38172381805447092 0 -0.0078283346885702904 -0.37476262999778609 0 -0.010397392635754449 -0.37662664071854879 0 -0.011142097151610131 -0.38172381805447092 0 -0.0094265442937821464 -0.37378457166277412 0 -0.01319259440905524 -0.37623554315916408 0 -0.010397392635754449 -0.37662664071854879 0 -0.0078283346885702904 -0.37476262999778609 0 -0.0094265442937821464 -0.37378457166277412 0 -0.010397392635754449 -0.37662664071854879 0 -0.0023576536845698339 -0.39611583857600319 0 -0.016854849126784088 -0.39742738565483049 0 -0.01587325479487519 -0.38723674351337972 0 -0.0023576536845698339 -0.39611583857600319 0 -0.016854849126784088 -0.39742738565483049 0 -0.0081630895937607941 -0.41129335178386173 0 -0.016854849126784088 -0.39742738565483049 0 -0.023392714889338931 -0.39064901327928331 0 -0.029305467632274609 -0.40049385546170407 0 -0.016854849126784088 -0.39742738565483049 0 -0.023392714889338931 -0.39064901327928331 0 -0.01587325479487519 -0.38723674351337972 0 -0.023392714889338931 -0.39064901327928331 0 -0.029305467632274609 -0.40049385546170407 0 -0.032188689101130562 -0.38901283488088068 0 -0.02215424893162643 -0.37111505202744122 0 -0.016772253886492949 -0.37410089839641808 0 -0.02353152278210973 -0.38064755723492022 0 -0.016772253886492949 -0.37410089839641808 0 -0.01610234460482865 -0.37998891207167063 0 -0.02353152278210973 -0.38064755723492022 0 -0.01610234460482865 -0.37998891207167063 0 -0.01587325479487519 -0.38723674351337972 0 -0.02353152278210973 -0.38064755723492022 0 -0.023392714889338931 -0.39064901327928331 0 -0.01587325479487519 -0.38723674351337972 0 -0.02353152278210973 -0.38064755723492022 0 -0.023392714889338931 -0.39064901327928331 0 -0.02353152278210973 -0.38064755723492022 0 -0.032188689101130562 -0.38901283488088068 0 -0.02353152278210973 -0.38064755723492022 0 -0.031733352269984409 -0.37630872523495079 0 -0.032188689101130562 -0.38901283488088068 0 -0.02215424893162643 -0.37111505202744122 0 -0.02353152278210973 -0.38064755723492022 0 -0.031733352269984409 -0.37630872523495079 0 -0.031733352269984409 -0.37630872523495079 0 -0.04671422923235316 -0.37926911911211442 0 -0.032188689101130562 -0.38901283488088068 0 -0.04671422923235316 -0.37926911911211442 0 -0.032188689101130562 -0.38901283488088068 0 -0.044289202763444772 -0.39135289085216762 0 -0.032188689101130562 -0.38901283488088068 0 -0.041257957344308177 -0.40487627914437913 0 -0.044289202763444772 -0.39135289085216762 0 -0.029305467632274609 -0.40049385546170407 0 -0.032188689101130562 -0.38901283488088068 0 -0.041257957344308177 -0.40487627914437913 0 -0.056230819367541693 -0.39440183914975269 0 -0.051493530029743613 -0.41277891791385168 0 -0.065747409502729032 -0.40953455918739179 0 -0.041257957344308177 -0.40487627914437913 0 -0.056230819367541693 -0.39440183914975269 0 -0.051493530029743613 -0.41277891791385168 0 -0.041257957344308177 -0.40487627914437913 0 -0.044289202763444772 -0.39135289085216762 0 -0.056230819367541693 -0.39440183914975269 0 -0.056230819367541693 -0.39440183914975269 0 -0.065747409502729032 -0.40953455918739179 0 -0.066117606829746781 -0.37437488941039382 0 -0.04671422923235316 -0.37926911911211442 0 -0.056230819367541693 -0.39440183914975269 0 -0.04671422923235316 -0.37926911911211442 0 -0.044289202763444772 -0.39135289085216762 0 -0.056230819367541693 -0.39440183914975269 0 -0.04671422923235316 -0.37926911911211442 0 -0.056230819367541693 -0.39440183914975269 0 -0.057674512383022389 -0.42734400629007657 0 -0.049601615263317987 -0.44515345339276252 0 -0.057674512383022389 -0.42734400629007657 0 -0.051493530029743613 -0.41277891791385168 0 -0.065747409502729032 -0.40953455918739179 0 -0.057674512383022389 -0.42734400629007657 0 -0.065747409502729032 -0.40953455918739179 0 -0.057674512383022389 -0.42734400629007657 0 -0.051493530029743613 -0.41277891791385168 0 -0.03322823219505102 -0.42129041952379648 0 -0.029305467632274609 -0.40049385546170407 0 -0.041257957344308177 -0.40487627914437913 0 -0.03322823219505102 -0.42129041952379648 0 -0.041257957344308177 -0.40487627914437913 0 -0.051493530029743613 -0.41277891791385168 0 -0.03322823219505102 -0.42129041952379648 0 -0.03322823219505102 -0.42129041952379648 0 -0.02439234541253921 -0.43490569650885758 0 -0.049601615263317987 -0.44515345339276252 0 -0.03322823219505102 -0.42129041952379648 0 -0.049601615263317987 -0.44515345339276252 0 -0.057674512383022389 -0.42734400629007657 0 -0.03322823219505102 -0.42129041952379648 0 -0.049601615263317987 -0.44515345339276252 0 -0.03322823219505102 -0.42129041952379648 0 -0.02439234541253921 -0.43490569650885758 0 -0.010818991714530671 -0.42579448288144173 0 -0.016854849126784088 -0.39742738565483049 0 -0.03322823219505102 -0.42129041952379648 0 -0.03322823219505102 -0.42129041952379648 0 -0.0081630895937607941 -0.41129335178386173 0 -0.010818991714530671 -0.42579448288144173 0 -0.016854849126784088 -0.39742738565483049 0 -0.029305467632274609 -0.40049385546170407 0 -0.03322823219505102 -0.42129041952379648 0 -0.016854849126784088 -0.39742738565483049 0 -0.03322823219505102 -0.42129041952379648 0 -0.0081630895937607941 -0.41129335178386173 0 -0.0081630895937607941 -0.41129335178386173 0 -0.010818991714530671 -0.42579448288144173 0 0.0026957591361241309 -0.41958824334712869 0 -0.02439234541253921 -0.43490569650885758 0 -0.010818991714530671 -0.42579448288144173 0 -0.01027783979290609 -0.4450418277695869 0 -0.010818991714530671 -0.42579448288144173 0 -0.01027783979290609 -0.4450418277695869 0 0.003851027954898749 -0.43172418954792041 0 -0.010818991714530671 -0.42579448288144173 0 0.0026957591361241309 -0.41958824334712869 0 0.003851027954898749 -0.43172418954792041 0 -0.01027783979290609 -0.4450418277695869 0 -0.011038280792740629 -0.46258843223684681 0 0.0031349746952128348 -0.45732154608844711 0 -0.01027783979290609 -0.4450418277695869 0 -0.011038280792740629 -0.46258843223684681 0 -0.02289260566061898 -0.45897742689034388 0 -0.011038280792740629 -0.46258843223684681 0 -0.00094907817261298132 -0.47112804672216879 0 0.0031349746952128348 -0.45732154608844711 0 -0.02289260566061898 -0.45897742689034388 0 -0.029356635895327849 -0.44930438287917762 0 -0.040413005672661102 -0.46542425011239508 0 -0.02289260566061898 -0.45897742689034388 0 -0.023377266149459251 -0.47252824145371342 0 -0.040413005672661102 -0.46542425011239508 0 -0.011038280792740629 -0.46258843223684681 0 -0.02289260566061898 -0.45897742689034388 0 -0.023377266149459251 -0.47252824145371342 0 -0.02439234541253921 -0.43490569650885758 0 -0.01027783979290609 -0.4450418277695869 0 -0.029356635895327849 -0.44930438287917762 0 -0.01027783979290609 -0.4450418277695869 0 -0.02289260566061898 -0.45897742689034388 0 -0.029356635895327849 -0.44930438287917762 0 -0.0023310323066341181 -0.5 0 -0.0043793089323552817 -0.49170101865338262 0 -0.02815109917196898 -0.49861636840837392 0 -0.0043793089323552817 -0.49170101865338262 0 -0.0043176495648967151 -0.48070428616945038 0 0.0053352152350804568 -0.4807791696356124 0 -0.0043793089323552817 -0.49170101865338262 0 -0.0106231170010091 -0.48419136288379427 0 -0.0043176495648967151 -0.48070428616945038 0 -0.0043793089323552817 -0.49170101865338262 0 -0.0106231170010091 -0.48419136288379427 0 -0.017950876149337221 -0.4893641285520216 0 -0.0106231170010091 -0.48419136288379427 0 -0.01097195895358667 -0.47572183295229409 0 -0.019957514846631629 -0.48311391022826639 0 -0.0106231170010091 -0.48419136288379427 0 -0.0043176495648967151 -0.48070428616945038 0 -0.01097195895358667 -0.47572183295229409 0 -0.011038280792740629 -0.46258843223684681 0 -0.00094907817261298132 -0.47112804672216879 0 -0.01097195895358667 -0.47572183295229409 0 -0.0043176495648967151 -0.48070428616945038 0 -0.00094907817261298132 -0.47112804672216879 0 -0.01097195895358667 -0.47572183295229409 0 -0.011038280792740629 -0.46258843223684681 0 -0.01097195895358667 -0.47572183295229409 0 -0.023377266149459251 -0.47252824145371342 0 -0.023377266149459251 -0.47252824145371342 0 -0.019957514846631629 -0.48311391022826639 0 -0.031224396082004221 -0.48569504683202769 0 -0.01097195895358667 -0.47572183295229409 0 -0.023377266149459251 -0.47252824145371342 0 -0.019957514846631629 -0.48311391022826639 0 -0.0023310323066341181 -0.5 0 -0.02815109917196898 -0.49861636840837392 0 -0.031360818006208928 -0.5 0 -0.0043793089323552817 -0.49170101865338262 0 -0.017950876149337221 -0.4893641285520216 0 -0.02815109917196898 -0.49861636840837392 0 -0.0043793089323552817 -0.49170101865338262 0 -0.02815109917196898 -0.49861636840837392 0 -0.0106231170010091 -0.48419136288379427 0 -0.019957514846631629 -0.48311391022826639 0 -0.017950876149337221 -0.4893641285520216 0 -0.019957514846631629 -0.48311391022826639 0 -0.017950876149337221 -0.4893641285520216 0 -0.025597474744393309 -0.49118284869574791 0 -0.019957514846631629 -0.48311391022826639 0 -0.031224396082004221 -0.48569504683202769 0 -0.025597474744393309 -0.49118284869574791 0 -0.025597474744393309 -0.49118284869574791 0 -0.02815109917196898 -0.49861636840837392 0 -0.031360818006208928 -0.5 0 -0.031224396082004221 -0.48569504683202769 0 -0.025597474744393309 -0.49118284869574791 0 -0.031360818006208928 -0.5 0 -0.017950876149337221 -0.4893641285520216 0 -0.025597474744393309 -0.49118284869574791 0 -0.02815109917196898 -0.49861636840837392 0 -0.031360818006208928 -0.5 0 -0.048343055904351132 -0.4819359294639956 0 -0.060390603705783863 -0.5 0 -0.031224396082004221 -0.48569504683202769 0 -0.031360818006208928 -0.5 0 -0.048343055904351132 -0.4819359294639956 0 -0.031224396082004221 -0.48569504683202769 0 -0.040413005672661102 -0.46542425011239508 0 -0.031224396082004221 -0.48569504683202769 0 -0.048343055904351132 -0.4819359294639956 0 -0.040413005672661102 -0.46542425011239508 0 -0.023377266149459251 -0.47252824145371342 0 -0.031224396082004221 -0.48569504683202769 0 -0.040413005672661102 -0.46542425011239508 0 -0.048343055904351132 -0.4819359294639956 0 -0.040413005672661102 -0.46542425011239508 0 -0.061868527913120197 -0.46303160055449383 0 -0.048343055904351132 -0.4819359294639956 0 -0.061868527913120197 -0.46303160055449383 0 -0.067715258758524743 -0.48343239441089819 0 -0.048343055904351132 -0.4819359294639956 0 -0.060390603705783863 -0.5 0 -0.067715258758524743 -0.48343239441089819 0 -0.02439234541253921 -0.43490569650885758 0 -0.029356635895327849 -0.44930438287917762 0 -0.049601615263317987 -0.44515345339276252 0 -0.029356635895327849 -0.44930438287917762 0 -0.040413005672661102 -0.46542425011239508 0 -0.049601615263317987 -0.44515345339276252 0 -0.040413005672661102 -0.46542425011239508 0 -0.049601615263317987 -0.44515345339276252 0 -0.040413005672661102 -0.46542425011239508 0 -0.061868527913120197 -0.46303160055449383 0 -0.049601615263317987 -0.44515345339276252 0 -0.061868527913120197 -0.46303160055449383 0 -0.049601615263317987 -0.44515345339276252 0 -0.057674512383022389 -0.42734400629007657 0 -0.049601615263317987 -0.44515345339276252 0 -0.067687044322660692 -0.44438888407200389 0 -0.061868527913120197 -0.46303160055449383 0 -0.049601615263317987 -0.44515345339276252 0 -0.067687044322660692 -0.44438888407200389 0 -0.067687044322660692 -0.44438888407200389 0 -0.087522951364224152 -0.44416074083195012 0 -0.076635180433477057 -0.42684765000967062 0 -0.067687044322660692 -0.44438888407200389 0 -0.078553716864009776 -0.47219444203600192 0 -0.067687044322660692 -0.44438888407200389 0 -0.080483752515153384 -0.45444307226959779 0 -0.078553716864009776 -0.47219444203600192 0 -0.061868527913120197 -0.46303160055449383 0 -0.067687044322660692 -0.44438888407200389 0 -0.078553716864009776 -0.47219444203600192 0 -0.088171297509719124 -0.45702822213843508 0 -0.078553716864009776 -0.47219444203600192 0 -0.094850460920166413 -0.46755552228499719 0 -0.080483752515153384 -0.45444307226959779 0 -0.088171297509719124 -0.45702822213843508 0 -0.078553716864009776 -0.47219444203600192 0 -0.088171297509719124 -0.45702822213843508 0 -0.092026296169145899 -0.451321693988255 0 -0.09646742034415963 -0.45806785732742278 0 -0.088171297509719124 -0.45702822213843508 0 -0.09646742034415963 -0.45806785732742278 0 -0.094850460920166413 -0.46755552228499719 0 -0.067687044322660692 -0.44438888407200389 0 -0.080483752515153384 -0.45444307226959779 0 -0.087522951364224152 -0.44416074083195012 0 -0.088171297509719124 -0.45702822213843508 0 -0.087522951364224152 -0.44416074083195012 0 -0.088171297509719124 -0.45702822213843508 0 -0.092026296169145899 -0.451321693988255 0 -0.087522951364224152 -0.44416074083195012 0 -0.092026296169145899 -0.451321693988255 0 -0.087522951364224152 -0.44416074083195012 0 -0.080483752515153384 -0.45444307226959779 0 -0.088171297509719124 -0.45702822213843508 0 -0.087522951364224152 -0.44416074083195012 0 -0.060390603705783863 -0.5 0 -0.067715258758524743 -0.48343239441089819 0 -0.089420389405358791 -0.49999999999999978 0 -0.061868527913120197 -0.46303160055449383 0 -0.067715258758524743 -0.48343239441089819 0 -0.078553716864009776 -0.47219444203600192 0 -0.078553716864009776 -0.47219444203600192 0 -0.098208235557426499 -0.48290520710575457 0 -0.094850460920166413 -0.46755552228499719 0 -0.067715258758524743 -0.48343239441089819 0 -0.078553716864009776 -0.47219444203600192 0 -0.089420389405358791 -0.49999999999999978 0 -0.078553716864009776 -0.47219444203600192 0 -0.089420389405358791 -0.49999999999999978 0 -0.078553716864009776 -0.47219444203600192 0 -0.089420389405358791 -0.49999999999999978 0 -0.098208235557426499 -0.48290520710575457 0 -0.098208235557426499 -0.48290520710575457 0 -0.1125398430852395 -0.48112820013538338 0 -0.1148616459058424 -0.5 0 -0.089420389405358791 -0.49999999999999978 0 -0.098208235557426499 -0.48290520710575457 0 -0.1148616459058424 -0.5 0 -0.098208235557426499 -0.48290520710575457 0 -0.1051850434628086 -0.47275710198064308 0 -0.1125398430852395 -0.48112820013538338 0 -0.098208235557426499 -0.48290520710575457 0 -0.1051850434628086 -0.47275710198064308 0 -0.094850460920166413 -0.46755552228499719 0 -0.12704973474613379 -0.46277216333596533 0 -0.13010403334985379 -0.48000251283874379 0 -0.1157083509407465 -0.46985326695645979 0 -0.13010403334985379 -0.48000251283874379 0 -0.1157083509407465 -0.46985326695645979 0 -0.1125398430852395 -0.48112820013538338 0 -0.1051850434628086 -0.47275710198064308 0 -0.1157083509407465 -0.46985326695645979 0 -0.1125398430852395 -0.48112820013538338 0 -0.13010403334985379 -0.48000251283874379 0 -0.1125398430852395 -0.48112820013538338 0 -0.1148616459058424 -0.5 0 -0.10267072031130239 -0.4520905348048061 0 -0.102335674083258 -0.43919792399196639 0 -0.11570487117906469 -0.45324354028800051 0 -0.092026296169145899 -0.451321693988255 0 -0.087522951364224152 -0.44416074083195012 0 -0.102335674083258 -0.43919792399196639 0 -0.092026296169145899 -0.451321693988255 0 -0.10267072031130239 -0.4520905348048061 0 -0.102335674083258 -0.43919792399196639 0 -0.10267072031130239 -0.4520905348048061 0 -0.09646742034415963 -0.45806785732742278 0 -0.1046183268104643 -0.46234331342062063 0 -0.092026296169145899 -0.451321693988255 0 -0.10267072031130239 -0.4520905348048061 0 -0.09646742034415963 -0.45806785732742278 0 -0.1051850434628086 -0.47275710198064308 0 -0.094850460920166413 -0.46755552228499719 0 -0.1046183268104643 -0.46234331342062063 0 -0.09646742034415963 -0.45806785732742278 0 -0.094850460920166413 -0.46755552228499719 0 -0.1046183268104643 -0.46234331342062063 0 -0.1051850434628086 -0.47275710198064308 0 -0.1157083509407465 -0.46985326695645979 0 -0.1046183268104643 -0.46234331342062063 0 -0.10267072031130239 -0.4520905348048061 0 -0.1046183268104643 -0.46234331342062063 0 -0.11570487117906469 -0.45324354028800051 0 -0.12704973474613379 -0.46277216333596533 0 -0.1157083509407465 -0.46985326695645979 0 -0.11570487117906469 -0.45324354028800051 0 -0.1157083509407465 -0.46985326695645979 0 -0.1046183268104643 -0.46234331342062063 0 -0.11570487117906469 -0.45324354028800051 0 -0.13093011984253891 -0.44972195681556543 0 -0.12704973474613379 -0.46277216333596533 0 -0.11570487117906469 -0.45324354028800051 0 -0.13093011984253891 -0.44972195681556543 0 -0.11570487117906469 -0.45324354028800051 0 -0.123519809913229 -0.43733662075251151 0 -0.102335674083258 -0.43919792399196639 0 -0.11570487117906469 -0.45324354028800051 0 -0.123519809913229 -0.43733662075251151 0 -0.102335674083258 -0.43919792399196639 0 -0.123519809913229 -0.43733662075251151 0 -0.1073839645685936 -0.41867419567875119 0 -0.12597911368703019 -0.41952469120143437 0 -0.123519809913229 -0.43733662075251151 0 -0.1073839645685936 -0.41867419567875119 0 -0.102335674083258 -0.43919792399196639 0 -0.1073839645685936 -0.41867419567875119 0 -0.086273448473222103 -0.4193623284343494 0 -0.1073839645685936 -0.41867419567875119 0 -0.1004955064841186 -0.39983262220326049 0 -0.086273448473222103 -0.4193623284343494 0 -0.1073839645685936 -0.41867419567875119 0 -0.11827115974421661 -0.40327967795429231 0 -0.1004955064841186 -0.39983262220326049 0 -0.12597911368703019 -0.41952469120143437 0 -0.1073839645685936 -0.41867419567875119 0 -0.11827115974421661 -0.40327967795429231 0 -0.11827115974421661 -0.40327967795429231 0 -0.11220573075163159 -0.38220411347121069 0 -0.1004955064841186 -0.39983262220326049 0 -0.13724659116883831 -0.38156720383825199 0 -0.1192781490478088 -0.36668410834504778 0 -0.11220573075163159 -0.38220411347121069 0 -0.13724659116883831 -0.38156720383825199 0 -0.11827115974421661 -0.40327967795429231 0 -0.11220573075163159 -0.38220411347121069 0 -0.11220573075163159 -0.38220411347121069 0 -0.093814789784828018 -0.38091150164421111 0 -0.1004955064841186 -0.39983262220326049 0 -0.1016352808315869 -0.36700177770792092 0 -0.11220573075163159 -0.38220411347121069 0 -0.093814789784828018 -0.38091150164421111 0 -0.093814789784828018 -0.38091150164421111 0 -0.1004955064841186 -0.39983262220326049 0 -0.085023945582219762 -0.39456391603674879 0 -0.085023945582219762 -0.39456391603674879 0 -0.074760926096971728 -0.38965003141326948 0 -0.077688182017724178 -0.40799169701628579 0 -0.1004955064841186 -0.39983262220326049 0 -0.085023945582219762 -0.39456391603674879 0 -0.086273448473222103 -0.4193623284343494 0 -0.083774442691217046 -0.36976550363914829 0 -0.093814789784828018 -0.38091150164421111 0 -0.085023945582219762 -0.39456391603674879 0 -0.083774442691217046 -0.36976550363914829 0 -0.085023945582219762 -0.39456391603674879 0 -0.074760926096971728 -0.38965003141326948 0 -0.083774442691217046 -0.36976550363914829 0 -0.085023945582219762 -0.39456391603674879 0 -0.083774442691217046 -0.36976550363914829 0 -0.074760926096971728 -0.38965003141326948 0 -0.066117606829746781 -0.37437488941039382 0 -0.083774442691217046 -0.36976550363914829 0 -0.074760926096971728 -0.38965003141326948 0 -0.066117606829746781 -0.37437488941039382 0 -0.056230819367541693 -0.39440183914975269 0 -0.074760926096971728 -0.38965003141326948 0 -0.074760926096971728 -0.38965003141326948 0 -0.065747409502729032 -0.40953455918739179 0 -0.056230819367541693 -0.39440183914975269 0 -0.074760926096971728 -0.38965003141326948 0 -0.065747409502729032 -0.40953455918739179 0 -0.074760926096971728 -0.38965003141326948 0 -0.077688182017724178 -0.40799169701628579 0 -0.065747409502729032 -0.40953455918739179 0 -0.057674512383022389 -0.42734400629007657 0 -0.065747409502729032 -0.40953455918739179 0 -0.076635180433477057 -0.42684765000967062 0 -0.065747409502729032 -0.40953455918739179 0 -0.076635180433477057 -0.42684765000967062 0 -0.077688182017724178 -0.40799169701628579 0 -0.065747409502729032 -0.40953455918739179 0 -0.076635180433477057 -0.42684765000967062 0 -0.057674512383022389 -0.42734400629007657 0 -0.067687044322660692 -0.44438888407200389 0 -0.076635180433477057 -0.42684765000967062 0 -0.087522951364224152 -0.44416074083195012 0 -0.102335674083258 -0.43919792399196639 0 -0.086273448473222103 -0.4193623284343494 0 -0.087522951364224152 -0.44416074083195012 0 -0.076635180433477057 -0.42684765000967062 0 -0.087522951364224152 -0.44416074083195012 0 -0.086273448473222103 -0.4193623284343494 0 -0.087522951364224152 -0.44416074083195012 0 -0.076635180433477057 -0.42684765000967062 0 -0.086273448473222103 -0.4193623284343494 0 -0.077688182017724178 -0.40799169701628579 0 -0.076635180433477057 -0.42684765000967062 0 -0.086273448473222103 -0.4193623284343494 0 -0.085023945582219762 -0.39456391603674879 0 -0.086273448473222103 -0.4193623284343494 0 -0.085023945582219762 -0.39456391603674879 0 -0.077688182017724178 -0.40799169701628579 0 -0.086273448473222103 -0.4193623284343494 0 -0.088492877882569029 -0.082108210476901852 0 -0.076927128592812144 -0.088910799915979499 0 -0.09750588448509391 -0.094492999713411269 0 -0.088492877882569029 -0.082108210476901852 0 -0.079577064860946206 -0.073577453582062496 0 -0.076927128592812144 -0.088910799915979499 0 -0.079577064860946206 -0.073577453582062496 0 -0.0985919344824224 -0.072778756797164931 0 -0.087769009107716192 -0.046193724725750278 0 -0.088492877882569029 -0.082108210476901852 0 -0.079577064860946206 -0.073577453582062496 0 -0.0985919344824224 -0.072778756797164931 0 -0.079577064860946206 -0.073577453582062496 0 -0.068797467898171552 -0.064113028811232264 0 -0.064240921843242857 -0.078969573753286809 0 -0.068797467898171552 -0.064113028811232264 0 -0.064240921843242857 -0.078969573753286809 0 -0.05461803829180413 -0.069755112608578862 0 -0.064240921843242857 -0.078969573753286809 0 -0.065719917437320752 -0.085301382988547655 0 -0.071622236241637716 -0.082994103557465768 0 -0.079577064860946206 -0.073577453582062496 0 -0.064240921843242857 -0.078969573753286809 0 -0.071622236241637716 -0.082994103557465768 0 -0.079577064860946206 -0.073577453582062496 0 -0.071622236241637716 -0.082994103557465768 0 -0.076927128592812144 -0.088910799915979499 0 -0.076927128592812144 -0.088910799915979499 0 -0.070013937980536456 -0.090181036700446429 0 -0.073360588416105155 -0.101926594449817 0 -0.071622236241637716 -0.082994103557465768 0 -0.076927128592812144 -0.088910799915979499 0 -0.070013937980536456 -0.090181036700446429 0 -0.065719917437320752 -0.085301382988547655 0 -0.070013937980536456 -0.090181036700446429 0 -0.057002573683865979 -0.089060817942991616 0 -0.065719917437320752 -0.085301382988547655 0 -0.071622236241637716 -0.082994103557465768 0 -0.070013937980536456 -0.090181036700446429 0 -0.073360588416105155 -0.101926594449817 0 -0.064648045787775776 -0.1114736180136202 0 -0.083029262804162729 -0.11173362360677321 0 -0.076927128592812144 -0.088910799915979499 0 -0.073360588416105155 -0.101926594449817 0 -0.083029262804162729 -0.11173362360677321 0 -0.070013937980536456 -0.090181036700446429 0 -0.064167586873575405 -0.098824988458513688 0 -0.073360588416105155 -0.101926594449817 0 -0.064167586873575405 -0.098824988458513688 0 -0.073360588416105155 -0.101926594449817 0 -0.064648045787775776 -0.1114736180136202 0 -0.064648045787775776 -0.1114736180136202 0 -0.083029262804162729 -0.11173362360677321 0 -0.072915517223638954 -0.12670463451369329 0 -0.064648045787775776 -0.1114736180136202 0 -0.060928146748241367 -0.123537549367131 0 -0.072915517223638954 -0.12670463451369329 0 -0.083029262804162729 -0.11173362360677321 0 -0.089131397015513494 -0.13455644729756691 0 -0.072915517223638954 -0.12670463451369329 0 -0.083029262804162729 -0.11173362360677321 0 -0.089131397015513494 -0.13455644729756691 0 -0.083029262804162729 -0.11173362360677321 0 -0.099989791654964619 -0.11261170107408 0 -0.089131397015513494 -0.13455644729756691 0 -0.076927128592812144 -0.088910799915979499 0 -0.083029262804162729 -0.11173362360677321 0 -0.076927128592812144 -0.088910799915979499 0 -0.083029262804162729 -0.11173362360677321 0 -0.09750588448509391 -0.094492999713411269 0 -0.083029262804162729 -0.11173362360677321 0 -0.09750588448509391 -0.094492999713411269 0 -0.099989791654964619 -0.11261170107408 0 -0.09750588448509391 -0.094492999713411269 0 -0.099989791654964619 -0.11261170107408 0 -0.11605893441195141 -0.10185107539240761 0 -0.099989791654964619 -0.11261170107408 0 -0.11422347955810171 -0.1204243593602408 0 -0.089131397015513494 -0.13455644729756691 0 -0.11422347955810171 -0.1204243593602408 0 -0.11605893441195141 -0.10185107539240761 0 -0.13931556210068971 -0.10629227142291391 0 -0.099989791654964619 -0.11261170107408 0 -0.11422347955810171 -0.1204243593602408 0 -0.11605893441195141 -0.10185107539240761 0 -0.09750588448509391 -0.094492999713411269 0 -0.11605893441195141 -0.10185107539240761 0 -0.121811479392537 -0.084095963505499416 0 -0.09750588448509391 -0.094492999713411269 0 -0.121811479392537 -0.084095963505499416 0 -0.0985919344824224 -0.072778756797164931 0 -0.088492877882569029 -0.082108210476901852 0 -0.09750588448509391 -0.094492999713411269 0 -0.0985919344824224 -0.072778756797164931 0 -0.121811479392537 -0.084095963505499416 0 -0.0985919344824224 -0.072778756797164931 0 -0.12197003300458489 -0.067133964797042034 0 -0.0985919344824224 -0.072778756797164931 0 -0.12197003300458489 -0.067133964797042034 0 -0.11173313641422659 -0.051099137712197359 0 -0.12197003300458489 -0.067133964797042034 0 -0.11173313641422659 -0.051099137712197359 0 -0.13241258759658719 -0.044529255409706578 0 -0.11719553878173181 -0.037741673539740471 0 -0.12411398995058071 -0.026208981462584841 0 -0.13241258759658719 -0.044529255409706578 0 -0.11173313641422659 -0.051099137712197359 0 -0.11719553878173181 -0.037741673539740471 0 -0.13241258759658719 -0.044529255409706578 0 -0.11719553878173181 -0.037741673539740471 0 -0.1033935341420949 -0.036608907929656417 0 -0.1118019010511415 -0.027957019938586129 0 -0.11173313641422659 -0.051099137712197359 0 -0.11719553878173181 -0.037741673539740471 0 -0.1033935341420949 -0.036608907929656417 0 -0.11173313641422659 -0.051099137712197359 0 -0.1033935341420949 -0.036608907929656417 0 -0.087769009107716192 -0.046193724725750278 0 -0.1033935341420949 -0.036608907929656417 0 -0.091700817231413184 -0.028161456197506499 0 -0.087769009107716192 -0.046193724725750278 0 -0.0985919344824224 -0.072778756797164931 0 -0.11173313641422659 -0.051099137712197359 0 -0.087769009107716192 -0.046193724725750278 0 -0.1152652699767374 -0.0044733142422073097 0 -0.1278640484455188 -0.012334690821253821 0 -0.1273771369441013 0.0023450629401116992 0 -0.1152652699767374 -0.0044733142422073097 0 -0.11303603589243651 -0.016818202060669259 0 -0.1278640484455188 -0.012334690821253821 0 -0.1152652699767374 -0.0044733142422073097 0 -0.11303603589243651 -0.016818202060669259 0 -0.1012139958851531 -0.0082010901258140791 0 -0.11303603589243651 -0.016818202060669259 0 -0.12411398995058071 -0.026208981462584841 0 -0.1278640484455188 -0.012334690821253821 0 -0.11719553878173181 -0.037741673539740471 0 -0.12411398995058071 -0.026208981462584841 0 -0.1118019010511415 -0.027957019938586129 0 -0.11303603589243651 -0.016818202060669259 0 -0.12411398995058071 -0.026208981462584841 0 -0.1118019010511415 -0.027957019938586129 0 -0.1033935341420949 -0.036608907929656417 0 -0.1118019010511415 -0.027957019938586129 0 -0.10074487633177411 -0.021927112774035699 0 -0.1033935341420949 -0.036608907929656417 0 -0.10074487633177411 -0.021927112774035699 0 -0.091700817231413184 -0.028161456197506499 0 -0.10074487633177411 -0.021927112774035699 0 -0.089359217900845153 -0.01537750648633354 0 -0.091700817231413184 -0.028161456197506499 0 -0.11303603589243651 -0.016818202060669259 0 -0.10074487633177411 -0.021927112774035699 0 -0.1012139958851531 -0.0082010901258140791 0 -0.11303603589243651 -0.016818202060669259 0 -0.1118019010511415 -0.027957019938586129 0 -0.10074487633177411 -0.021927112774035699 0 -0.10074487633177411 -0.021927112774035699 0 -0.1012139958851531 -0.0082010901258140791 0 -0.089359217900845153 -0.01537750648633354 0 -0.1012139958851531 -0.0082010901258140791 0 -0.089124004628701792 -0.0040277377021705899 0 -0.097507665945787692 0.0040820149966005574 0 -0.1012139958851531 -0.0082010901258140791 0 -0.097507665945787692 0.0040820149966005574 0 -0.1058521268010089 0.00073384547527136773 0 -0.1152652699767374 -0.0044733142422073097 0 -0.1012139958851531 -0.0082010901258140791 0 -0.1058521268010089 0.00073384547527136773 0 -0.079764572027605563 -0.001208843295517239 0 -0.089124004628701792 -0.0040277377021705899 0 -0.080379206648835008 -0.009775819102595687 0 -0.089124004628701792 -0.0040277377021705899 0 -0.089359217900845153 -0.01537750648633354 0 -0.080379206648835008 -0.009775819102595687 0 -0.1012139958851531 -0.0082010901258140791 0 -0.089124004628701792 -0.0040277377021705899 0 -0.089359217900845153 -0.01537750648633354 0 -0.089359217900845153 -0.01537750648633354 0 -0.080379206648835008 -0.009775819102595687 0 -0.076946083733010012 -0.019608692654335649 0 -0.089359217900845153 -0.01537750648633354 0 -0.091700817231413184 -0.028161456197506499 0 -0.076946083733010012 -0.019608692654335649 0 -0.066439508831189667 -0.02875513821822643 0 -0.076946083733010012 -0.019608692654335649 0 -0.073396792324475907 -0.036549185213838799 0 -0.066439508831189667 -0.02875513821822643 0 -0.068530762808199294 -0.019938962024248611 0 -0.056338296441182101 -0.027044179732367449 0 -0.066439508831189667 -0.02875513821822643 0 -0.068530762808199294 -0.019938962024248611 0 -0.076946083733010012 -0.019608692654335649 0 -0.080379206648835008 -0.009775819102595687 0 -0.076946083733010012 -0.019608692654335649 0 -0.066123158358303874 0.0069763394170788487 0 -0.079764572027605563 -0.001208843295517239 0 -0.080379206648835008 -0.009775819102595687 0 -0.066123158358303874 0.0069763394170788487 0 -0.076946083733010012 -0.019608692654335649 0 -0.059664616745900671 -0.0040500510012267867 0 -0.066123158358303874 0.0069763394170788487 0 -0.068530762808199294 -0.019938962024248611 0 -0.059664616745900671 -0.0040500510012267867 0 -0.068530762808199294 -0.019938962024248611 0 -0.076946083733010012 -0.019608692654335649 0 -0.059664616745900671 -0.0040500510012267867 0 -0.076946083733010012 -0.019608692654335649 0 -0.066123158358303874 0.0069763394170788487 0 -0.079577064860946206 -0.073577453582062496 0 -0.068797467898171552 -0.064113028811232264 0 -0.087769009107716192 -0.046193724725750278 0 -0.0985919344824224 -0.072778756797164931 0 -0.087769009107716192 -0.046193724725750278 0 -0.076946083733010012 -0.019608692654335649 0 -0.087769009107716192 -0.046193724725750278 0 -0.073396792324475907 -0.036549185213838799 0 -0.091700817231413184 -0.028161456197506499 0 -0.076946083733010012 -0.019608692654335649 0 -0.087769009107716192 -0.046193724725750278 0 -0.076946083733010012 -0.019608692654335649 0 -0.087769009107716192 -0.046193724725750278 0 -0.073396792324475907 -0.036549185213838799 0 -0.062271996897588083 -0.052791321925605532 0 -0.056985608849081007 -0.04063467146634165 0 -0.087769009107716192 -0.046193724725750278 0 -0.073396792324475907 -0.036549185213838799 0 -0.062271996897588083 -0.052791321925605532 0 -0.066439508831189667 -0.02875513821822643 0 -0.073396792324475907 -0.036549185213838799 0 -0.056985608849081007 -0.04063467146634165 0 -0.068797467898171552 -0.064113028811232264 0 -0.087769009107716192 -0.046193724725750278 0 -0.062271996897588083 -0.052791321925605532 0 -0.050876123791686781 -0.0557005837010279 0 -0.062271996897588083 -0.052791321925605532 0 -0.05461803829180413 -0.069755112608578862 0 -0.068797467898171552 -0.064113028811232264 0 -0.062271996897588083 -0.052791321925605532 0 -0.05461803829180413 -0.069755112608578862 0 -0.050876123791686781 -0.0557005837010279 0 -0.04125611079489349 -0.061033813963863537 0 -0.05461803829180413 -0.069755112608578862 0 -0.050876123791686781 -0.0557005837010279 0 -0.056985608849081007 -0.04063467146634165 0 -0.043217803893324663 -0.046983348469378128 0 -0.050876123791686781 -0.0557005837010279 0 -0.062271996897588083 -0.052791321925605532 0 -0.056985608849081007 -0.04063467146634165 0 -0.066439508831189667 -0.02875513821822643 0 -0.056985608849081007 -0.04063467146634165 0 -0.056338296441182101 -0.027044179732367449 0 -0.056985608849081007 -0.04063467146634165 0 -0.048013312662868769 -0.034084565957593307 0 -0.056338296441182101 -0.027044179732367449 0 -0.056985608849081007 -0.04063467146634165 0 -0.048013312662868769 -0.034084565957593307 0 -0.043217803893324663 -0.046983348469378128 0 -0.034747022969916552 -0.036023397885302497 0 -0.03178279228815796 -0.053256275703554248 0 -0.043217803893324663 -0.046983348469378128 0 -0.048013312662868769 -0.034084565957593307 0 -0.034747022969916552 -0.036023397885302497 0 -0.043217803893324663 -0.046983348469378128 0 -0.03178279228815796 -0.053256275703554248 0 -0.04125611079489349 -0.061033813963863537 0 -0.027189616291661511 -0.068956488044421491 0 -0.03178279228815796 -0.053256275703554248 0 -0.04125611079489349 -0.061033813963863537 0 -0.043217803893324663 -0.046983348469378128 0 -0.050876123791686781 -0.0557005837010279 0 -0.04125611079489349 -0.061033813963863537 0 -0.043217803893324663 -0.046983348469378128 0 -0.068530762808199294 -0.019938962024248611 0 -0.059664616745900671 -0.0040500510012267867 0 -0.057625718948113309 -0.01560592069947127 0 -0.047617207273071643 -0.0035118018543059538 0 -0.059664616745900671 -0.0040500510012267867 0 -0.057625718948113309 -0.01560592069947127 0 -0.047617207273071643 -0.0035118018543059538 0 -0.057625718948113309 -0.01560592069947127 0 -0.044435943862541481 -0.018862463730406901 0 -0.057625718948113309 -0.01560592069947127 0 -0.056338296441182101 -0.027044179732367449 0 -0.044435943862541481 -0.018862463730406901 0 -0.068530762808199294 -0.019938962024248611 0 -0.057625718948113309 -0.01560592069947127 0 -0.056338296441182101 -0.027044179732367449 0 -0.048013312662868769 -0.034084565957593307 0 -0.056338296441182101 -0.027044179732367449 0 -0.044435943862541481 -0.018862463730406901 0 -0.048013312662868769 -0.034084565957593307 0 -0.034747022969916552 -0.036023397885302497 0 -0.044435943862541481 -0.018862463730406901 0 -0.034747022969916552 -0.036023397885302497 0 -0.044435943862541481 -0.018862463730406901 0 -0.029096019340949839 -0.020089153358083849 0 -0.044435943862541481 -0.018862463730406901 0 -0.037331614038931003 -0.0090830911405071785 0 -0.029096019340949839 -0.020089153358083849 0 -0.047617207273071643 -0.0035118018543059538 0 -0.044435943862541481 -0.018862463730406901 0 -0.037331614038931003 -0.0090830911405071785 0 -0.047617207273071643 -0.0035118018543059538 0 -0.044435943862541481 -0.018862463730406901 0 -0.037331614038931003 -0.0090830911405071785 0 -0.025670282478897081 -0.0054027298625421993 0 -0.03671052455766443 0.0037031618858211421 0 -0.047617207273071643 -0.0035118018543059538 0 -0.037331614038931003 -0.0090830911405071785 0 -0.03671052455766443 0.0037031618858211421 0 -0.025670282478897081 -0.0054027298625421993 0 -0.029096019340949839 -0.020089153358083849 0 -0.01201491237982177 -0.012697106039732861 0 -0.025670282478897081 -0.0054027298625421993 0 -0.01201491237982177 -0.012697106039732861 0 -0.010105069976996849 0.0023765649732562961 0 -0.037331614038931003 -0.0090830911405071785 0 -0.025670282478897081 -0.0054027298625421993 0 -0.029096019340949839 -0.020089153358083849 0 -0.034747022969916552 -0.036023397885302497 0 -0.029096019340949839 -0.020089153358083849 0 -0.01621539074153976 -0.030149579770640821 0 -0.029096019340949839 -0.020089153358083849 0 -0.01621539074153976 -0.030149579770640821 0 -0.01201491237982177 -0.012697106039732861 0 -0.01621539074153976 -0.030149579770640821 0 0.0026421611525163911 -0.019923693291100199 0 0.001114662024295677 -0.034644724797188199 0 -0.01621539074153976 -0.030149579770640821 0 -0.01201491237982177 -0.012697106039732861 0 0.0026421611525163911 -0.019923693291100199 0 -0.01201491237982177 -0.012697106039732861 0 0.0047038114401232534 -0.001040937293712483 0 0.0026421611525163911 -0.019923693291100199 0 -0.01201491237982177 -0.012697106039732861 0 -0.010105069976996849 0.0023765649732562961 0 0.0047038114401232534 -0.001040937293712483 0 -0.03178279228815796 -0.053256275703554248 0 -0.015718878272565229 -0.058792224196781109 0 -0.02130541942185268 -0.044498810144407437 0 -0.03178279228815796 -0.053256275703554248 0 -0.015718878272565229 -0.058792224196781109 0 -0.027189616291661511 -0.068956488044421491 0 -0.034747022969916552 -0.036023397885302497 0 -0.01621539074153976 -0.030149579770640821 0 -0.02130541942185268 -0.044498810144407437 0 -0.034747022969916552 -0.036023397885302497 0 -0.03178279228815796 -0.053256275703554248 0 -0.02130541942185268 -0.044498810144407437 0 -0.01621539074153976 -0.030149579770640821 0 -0.0092606153764647689 -0.044492254616565037 0 0.001114662024295677 -0.034644724797188199 0 -0.0092606153764647689 -0.044492254616565037 0 0.001114662024295677 -0.034644724797188199 0 0.003426744450576454 -0.054815297075420773 0 -0.01621539074153976 -0.030149579770640821 0 -0.02130541942185268 -0.044498810144407437 0 -0.0092606153764647689 -0.044492254616565037 0 -0.015718878272565229 -0.058792224196781109 0 -0.0092606153764647689 -0.044492254616565037 0 0.003426744450576454 -0.054815297075420773 0 -0.015718878272565229 -0.058792224196781109 0 -0.0072319765520409062 -0.068818796064575097 0 0.003426744450576454 -0.054815297075420773 0 -0.015718878272565229 -0.058792224196781109 0 -0.02130541942185268 -0.044498810144407437 0 -0.0092606153764647689 -0.044492254616565037 0 -0.0072319765520409062 -0.068818796064575097 0 -0.0056293594721457006 -0.082036805430144924 0 0.0054575408194632406 -0.073720759659108445 0 -0.0072319765520409062 -0.068818796064575097 0 -0.016531268938654212 -0.068489504758274394 0 -0.015984604638349179 -0.077390510727319894 0 -0.0072319765520409062 -0.068818796064575097 0 -0.0056293594721457006 -0.082036805430144924 0 -0.015984604638349179 -0.077390510727319894 0 -0.015718878272565229 -0.058792224196781109 0 -0.0072319765520409062 -0.068818796064575097 0 -0.016531268938654212 -0.068489504758274394 0 -0.0075898384642912086 -0.092772169897659226 0 -0.0056293594721457006 -0.082036805430144924 0 0.0072012692200917657 -0.09144049599341271 0 -0.0056293594721457006 -0.082036805430144924 0 -0.01562854721774792 -0.088078100238794171 0 -0.015984604638349179 -0.077390510727319894 0 -0.0075898384642912086 -0.092772169897659226 0 -0.0056293594721457006 -0.082036805430144924 0 -0.01562854721774792 -0.088078100238794171 0 -0.0075898384642912086 -0.092772169897659226 0 -0.01562854721774792 -0.088078100238794171 0 -0.015839401072447711 -0.097831294581907868 0 -0.01562854721774792 -0.088078100238794171 0 -0.02305577581672685 -0.083163458542690943 0 -0.024670005891415589 -0.092262667611894875 0 -0.01562854721774792 -0.088078100238794171 0 -0.024670005891415589 -0.092262667611894875 0 -0.015839401072447711 -0.097831294581907868 0 -0.01562854721774792 -0.088078100238794171 0 -0.02305577581672685 -0.083163458542690943 0 -0.015984604638349179 -0.077390510727319894 0 -0.02305577581672685 -0.083163458542690943 0 -0.024670005891415589 -0.092262667611894875 0 -0.031754510724464793 -0.081253108138323094 0 -0.024670005891415589 -0.092262667611894875 0 -0.031754510724464793 -0.081253108138323094 0 -0.03344051123233422 -0.092098432850847969 0 -0.015718878272565229 -0.058792224196781109 0 -0.016531268938654212 -0.068489504758274394 0 -0.027189616291661511 -0.068956488044421491 0 -0.016531268938654212 -0.068489504758274394 0 -0.015984604638349179 -0.077390510727319894 0 -0.027189616291661511 -0.068956488044421491 0 -0.02305577581672685 -0.083163458542690943 0 -0.015984604638349179 -0.077390510727319894 0 -0.027189616291661511 -0.068956488044421491 0 -0.02305577581672685 -0.083163458542690943 0 -0.027189616291661511 -0.068956488044421491 0 -0.031754510724464793 -0.081253108138323094 0 -0.04125611079489349 -0.061033813963863537 0 -0.027189616291661511 -0.068956488044421491 0 -0.04053175759116228 -0.071452392996033218 0 -0.04125611079489349 -0.061033813963863537 0 -0.04053175759116228 -0.071452392996033218 0 -0.05461803829180413 -0.069755112608578862 0 -0.04053175759116228 -0.071452392996033218 0 -0.04331800788480706 -0.080321541169751709 0 -0.05461803829180413 -0.069755112608578862 0 -0.027189616291661511 -0.068956488044421491 0 -0.04053175759116228 -0.071452392996033218 0 -0.031754510724464793 -0.081253108138323094 0 -0.04053175759116228 -0.071452392996033218 0 -0.031754510724464793 -0.081253108138323094 0 -0.04331800788480706 -0.080321541169751709 0 -0.031754510724464793 -0.081253108138323094 0 -0.037920360895102763 -0.086728863392239786 0 -0.04331800788480706 -0.080321541169751709 0 -0.031754510724464793 -0.081253108138323094 0 -0.03344051123233422 -0.092098432850847969 0 -0.037920360895102763 -0.086728863392239786 0 -0.03344051123233422 -0.092098432850847969 0 -0.037920360895102763 -0.086728863392239786 0 -0.039477100495342581 -0.093081883261144749 0 -0.043535591074226332 -0.088659540190963698 0 -0.052607434978589038 -0.084605160310905272 0 -0.044151246104392423 -0.095288874830203096 0 -0.039477100495342581 -0.093081883261144749 0 -0.043535591074226332 -0.088659540190963698 0 -0.044151246104392423 -0.095288874830203096 0 -0.037920360895102763 -0.086728863392239786 0 -0.039477100495342581 -0.093081883261144749 0 -0.043535591074226332 -0.088659540190963698 0 -0.043535591074226332 -0.088659540190963698 0 -0.044151246104392423 -0.095288874830203096 0 -0.037920360895102763 -0.086728863392239786 0 -0.043535591074226332 -0.088659540190963698 0 -0.04331800788480706 -0.080321541169751709 0 -0.043535591074226332 -0.088659540190963698 0 -0.04331800788480706 -0.080321541169751709 0 -0.052607434978589038 -0.084605160310905272 0 -0.04331800788480706 -0.080321541169751709 0 -0.052607434978589038 -0.084605160310905272 0 -0.05461803829180413 -0.069755112608578862 0 -0.070013937980536456 -0.090181036700446429 0 -0.057002573683865979 -0.089060817942991616 0 -0.04460455598339258 -0.10017008709341529 0 -0.052607434978589038 -0.084605160310905272 0 -0.044151246104392423 -0.095288874830203096 0 -0.052607434978589038 -0.084605160310905272 0 -0.057002573683865979 -0.089060817942991616 0 -0.044151246104392423 -0.095288874830203096 0 -0.064240921843242857 -0.078969573753286809 0 -0.065719917437320752 -0.085301382988547655 0 -0.057002573683865979 -0.089060817942991616 0 -0.064240921843242857 -0.078969573753286809 0 -0.052607434978589038 -0.084605160310905272 0 -0.057002573683865979 -0.089060817942991616 0 -0.064240921843242857 -0.078969573753286809 0 -0.052607434978589038 -0.084605160310905272 0 -0.05461803829180413 -0.069755112608578862 0 -0.064648045787775776 -0.1114736180136202 0 -0.054889055151619223 -0.1064960745062641 0 -0.046573596299020338 -0.1213725893565638 0 -0.064648045787775776 -0.1114736180136202 0 -0.060928146748241367 -0.123537549367131 0 -0.046573596299020338 -0.1213725893565638 0 -0.064167586873575405 -0.098824988458513688 0 -0.054889055151619223 -0.1064960745062641 0 -0.04460455598339258 -0.10017008709341529 0 -0.054889055151619223 -0.1064960745062641 0 -0.04460455598339258 -0.10017008709341529 0 -0.046573596299020338 -0.1213725893565638 0 -0.070013937980536456 -0.090181036700446429 0 -0.04460455598339258 -0.10017008709341529 0 -0.070013937980536456 -0.090181036700446429 0 -0.064167586873575405 -0.098824988458513688 0 -0.04460455598339258 -0.10017008709341529 0 -0.064167586873575405 -0.098824988458513688 0 -0.064648045787775776 -0.1114736180136202 0 -0.054889055151619223 -0.1064960745062641 0 -0.057002573683865979 -0.089060817942991616 0 -0.044151246104392423 -0.095288874830203096 0 -0.04460455598339258 -0.10017008709341529 0 -0.04460455598339258 -0.10017008709341529 0 -0.038337793170655582 -0.1026337050414691 0 -0.046573596299020338 -0.1213725893565638 0 -0.039477100495342581 -0.093081883261144749 0 -0.044151246104392423 -0.095288874830203096 0 -0.038337793170655582 -0.1026337050414691 0 -0.044151246104392423 -0.095288874830203096 0 -0.04460455598339258 -0.10017008709341529 0 -0.044151246104392423 -0.095288874830203096 0 -0.038337793170655582 -0.1026337050414691 0 -0.04460455598339258 -0.10017008709341529 0 -0.038337793170655582 -0.1026337050414691 0 -0.044151246104392423 -0.095288874830203096 0 -0.04460455598339258 -0.10017008709341529 0 -0.038337793170655582 -0.1026337050414691 0 -0.03344051123233422 -0.092098432850847969 0 -0.039477100495342581 -0.093081883261144749 0 -0.038337793170655582 -0.1026337050414691 0 -0.03344051123233422 -0.092098432850847969 0 -0.038337793170655582 -0.1026337050414691 0 -0.030143021990877521 -0.097413384547063803 0 -0.038337793170655582 -0.1026337050414691 0 -0.046573596299020338 -0.1213725893565638 0 -0.032898799107638058 -0.1301455039054305 0 -0.04460455598339258 -0.10017008709341529 0 -0.046573596299020338 -0.1213725893565638 0 -0.038337793170655582 -0.1026337050414691 0 -0.02075820173733281 -0.1248441049076035 0 -0.038337793170655582 -0.1026337050414691 0 -0.02075820173733281 -0.1248441049076035 0 -0.032898799107638058 -0.1301455039054305 0 -0.038337793170655582 -0.1026337050414691 0 -0.02075820173733281 -0.1248441049076035 0 -0.013304609286582791 -0.1124748627422944 0 -0.038337793170655582 -0.1026337050414691 0 -0.013304609286582791 -0.1124748627422944 0 -0.038337793170655582 -0.1026337050414691 0 -0.024123777669104458 -0.10265873268404301 0 -0.013304609286582791 -0.1124748627422944 0 -0.038337793170655582 -0.1026337050414691 0 -0.030143021990877521 -0.097413384547063803 0 -0.024123777669104458 -0.10265873268404301 0 -0.024670005891415589 -0.092262667611894875 0 -0.030143021990877521 -0.097413384547063803 0 -0.024123777669104458 -0.10265873268404301 0 -0.024670005891415589 -0.092262667611894875 0 -0.03344051123233422 -0.092098432850847969 0 -0.030143021990877521 -0.097413384547063803 0 -0.024123777669104458 -0.10265873268404301 0 -0.015994782990863529 -0.1079378035875192 0 -0.013304609286582791 -0.1124748627422944 0 -0.024123777669104458 -0.10265873268404301 0 -0.015994782990863529 -0.1079378035875192 0 -0.015839401072447711 -0.097831294581907868 0 -0.024670005891415589 -0.092262667611894875 0 -0.024123777669104458 -0.10265873268404301 0 -0.015839401072447711 -0.097831294581907868 0 -0.0070294542012635762 -0.10327829347153671 0 -0.013304609286582791 -0.1124748627422944 0 0.0046245275045138064 -0.1076828264142336 0 -0.0075898384642912086 -0.092772169897659226 0 -0.015839401072447711 -0.097831294581907868 0 -0.0070294542012635762 -0.10327829347153671 0 -0.015994782990863529 -0.1079378035875192 0 -0.015839401072447711 -0.097831294581907868 0 -0.0070294542012635762 -0.10327829347153671 0 -0.015994782990863529 -0.1079378035875192 0 -0.0070294542012635762 -0.10327829347153671 0 -0.013304609286582791 -0.1124748627422944 0 -0.0075898384642912086 -0.092772169897659226 0 -0.0070294542012635762 -0.10327829347153671 0 0.0072012692200917657 -0.09144049599341271 0 -0.02075820173733281 -0.1248441049076035 0 -0.013304609286582791 -0.1124748627422944 0 -0.00221818493688669 -0.13117245205018849 0 -0.013304609286582791 -0.1124748627422944 0 -0.00221818493688669 -0.13117245205018849 0 0.014197789575412951 -0.12328672932727321 0 -0.013304609286582791 -0.1124748627422944 0 -0.00221818493688669 -0.13117245205018849 0 -0.015994782990863529 -0.1079378035875192 0 -0.013304609286582791 -0.1124748627422944 0 -0.02075820173733281 -0.1248441049076035 0 -0.0137133242766358 -0.14598078836242959 0 -0.0031786103040098569 -0.14705450477373769 0 -0.02075820173733281 -0.1248441049076035 0 -0.0031786103040098569 -0.14705450477373769 0 -0.02075820173733281 -0.1248441049076035 0 -0.00221818493688669 -0.13117245205018849 0 -0.0031786103040098569 -0.14705450477373769 0 -0.02075820173733281 -0.1248441049076035 0 -0.02657462786173766 -0.13400490724319661 0 -0.021326083532184278 -0.14069250208886769 0 -0.02075820173733281 -0.1248441049076035 0 -0.021326083532184278 -0.14069250208886769 0 -0.0137133242766358 -0.14598078836242959 0 -0.02657462786173766 -0.13400490724319661 0 -0.032898799107638058 -0.1301455039054305 0 -0.031315427069795509 -0.14033751807088471 0 -0.02657462786173766 -0.13400490724319661 0 -0.021326083532184278 -0.14069250208886769 0 -0.031315427069795509 -0.14033751807088471 0 -0.02075820173733281 -0.1248441049076035 0 -0.02657462786173766 -0.13400490724319661 0 -0.032898799107638058 -0.1301455039054305 0 -0.026655807174363451 -0.14845120392719069 0 -0.02210874630731275 -0.1561964137015745 0 -0.031495029160766817 -0.15509855920566379 0 -0.026655807174363451 -0.14845120392719069 0 -0.03449156258747036 -0.148917707105098 0 -0.031495029160766817 -0.15509855920566379 0 -0.026655807174363451 -0.14845120392719069 0 -0.021326083532184278 -0.14069250208886769 0 -0.031315427069795509 -0.14033751807088471 0 -0.026655807174363451 -0.14845120392719069 0 -0.031315427069795509 -0.14033751807088471 0 -0.03449156258747036 -0.148917707105098 0 -0.021326083532184278 -0.14069250208886769 0 -0.019449426413567759 -0.15004718796545319 0 -0.0137133242766358 -0.14598078836242959 0 -0.026655807174363451 -0.14845120392719069 0 -0.021326083532184278 -0.14069250208886769 0 -0.019449426413567759 -0.15004718796545319 0 -0.019449426413567759 -0.15004718796545319 0 -0.01542317820397726 -0.15505006264073101 0 -0.0137133242766358 -0.14598078836242959 0 -0.026655807174363451 -0.14845120392719069 0 -0.019449426413567759 -0.15004718796545319 0 -0.02210874630731275 -0.1561964137015745 0 -0.019449426413567759 -0.15004718796545319 0 -0.02210874630731275 -0.1561964137015745 0 -0.01542317820397726 -0.15505006264073101 0 -0.0137133242766358 -0.14598078836242959 0 -0.0031786103040098569 -0.14705450477373769 0 -0.0072073677341612146 -0.1544888065361133 0 -0.01542317820397726 -0.15505006264073101 0 -0.0137133242766358 -0.14598078836242959 0 -0.0072073677341612146 -0.1544888065361133 0 -0.0031786103040098569 -0.14705450477373769 0 -0.0072073677341612146 -0.1544888065361133 0 -0.0025999653858941639 -0.16131422913783491 0 -0.01542317820397726 -0.15505006264073101 0 -0.0084927016390539001 -0.17431231470194719 0 -0.01542317820397726 -0.15505006264073101 0 -0.0025999653858941639 -0.16131422913783491 0 -0.0084927016390539001 -0.17431231470194719 0 -0.01542317820397726 -0.15505006264073101 0 -0.0084927016390539001 -0.17431231470194719 0 -0.018600123305710169 -0.16452936741983731 0 -0.0025999653858941639 -0.16131422913783491 0 -0.0084927016390539001 -0.17431231470194719 0 0.0067086063528142403 -0.16809244781376179 0 -0.0084927016390539001 -0.17431231470194719 0 -0.019446339186483811 -0.17229591455881449 0 -0.018600123305710169 -0.16452936741983731 0 -0.01542317820397726 -0.15505006264073101 0 -0.0072073677341612146 -0.1544888065361133 0 -0.0025999653858941639 -0.16131422913783491 0 -0.0084927016390539001 -0.17431231470194719 0 -0.0015622250741301779 -0.1935745667631632 0 -0.01452589755716127 -0.18854972137590889 0 -0.0084927016390539001 -0.17431231470194719 0 -0.0015622250741301779 -0.1935745667631632 0 -0.0084927016390539001 -0.17431231470194719 0 -0.0015622250741301779 -0.1935745667631632 0 0.0091962193441852118 -0.18107109871456811 0 -0.0084927016390539001 -0.17431231470194719 0 -0.019789997202817391 -0.17944929683230451 0 -0.01452589755716127 -0.18854972137590889 0 -0.019789997202817391 -0.17944929683230451 0 -0.01452589755716127 -0.18854972137590889 0 -0.02459459850908961 -0.18853055632871979 0 -0.0084927016390539001 -0.17431231470194719 0 -0.019789997202817391 -0.17944929683230451 0 -0.019446339186483811 -0.17229591455881449 0 -0.019789997202817391 -0.17944929683230451 0 -0.019446339186483811 -0.17229591455881449 0 -0.025875972540285681 -0.17494695229964419 0 -0.019789997202817391 -0.17944929683230451 0 -0.025875972540285681 -0.17494695229964419 0 -0.028761852805915141 -0.18157091371807699 0 -0.025875972540285681 -0.17494695229964419 0 -0.032240004386850082 -0.17024588421870079 0 -0.032480769472988377 -0.1765838753595764 0 -0.025875972540285681 -0.17494695229964419 0 -0.028761852805915141 -0.18157091371807699 0 -0.032480769472988377 -0.1765838753595764 0 -0.028761852805915141 -0.18157091371807699 0 -0.032920373861235572 -0.18696580359983689 0 -0.02459459850908961 -0.18853055632871979 0 -0.019789997202817391 -0.17944929683230451 0 -0.028761852805915141 -0.18157091371807699 0 -0.02459459850908961 -0.18853055632871979 0 -0.02210874630731275 -0.1561964137015745 0 -0.02334206205745518 -0.16321350683772101 0 -0.018600123305710169 -0.16452936741983731 0 -0.02210874630731275 -0.1561964137015745 0 -0.01542317820397726 -0.15505006264073101 0 -0.018600123305710169 -0.16452936741983731 0 -0.019446339186483811 -0.17229591455881449 0 -0.018600123305710169 -0.16452936741983731 0 -0.024472901244551901 -0.1682416415403396 0 -0.019446339186483811 -0.17229591455881449 0 -0.025875972540285681 -0.17494695229964419 0 -0.024472901244551901 -0.1682416415403396 0 -0.02334206205745518 -0.16321350683772101 0 -0.018600123305710169 -0.16452936741983731 0 -0.024472901244551901 -0.1682416415403396 0 -0.02334206205745518 -0.16321350683772101 0 -0.024472901244551901 -0.1682416415403396 0 -0.028186477372245909 -0.16388660468913291 0 -0.025875972540285681 -0.17494695229964419 0 -0.024472901244551901 -0.1682416415403396 0 -0.032240004386850082 -0.17024588421870079 0 -0.024472901244551901 -0.1682416415403396 0 -0.028186477372245909 -0.16388660468913291 0 -0.032240004386850082 -0.17024588421870079 0 -0.02210874630731275 -0.1561964137015745 0 -0.036601677587355427 -0.1631254910080501 0 -0.02210874630731275 -0.1561964137015745 0 -0.028186477372245909 -0.16388660468913291 0 -0.036601677587355427 -0.1631254910080501 0 -0.02210874630731275 -0.1561964137015745 0 -0.036601677587355427 -0.1631254910080501 0 -0.031495029160766817 -0.15509855920566379 0 -0.02210874630731275 -0.1561964137015745 0 -0.02334206205745518 -0.16321350683772101 0 -0.028186477372245909 -0.16388660468913291 0 -0.036601677587355427 -0.1631254910080501 0 -0.031495029160766817 -0.15509855920566379 0 -0.03757233301838208 -0.1561293615731485 0 -0.036601677587355427 -0.1631254910080501 0 -0.042683024331232992 -0.16071659108817879 0 -0.03757233301838208 -0.1561293615731485 0 -0.036601677587355427 -0.1631254910080501 0 -0.032240004386850082 -0.17024588421870079 0 -0.040990311010288182 -0.1707810542940659 0 -0.028186477372245909 -0.16388660468913291 0 -0.036601677587355427 -0.1631254910080501 0 -0.032240004386850082 -0.17024588421870079 0 -0.036601677587355427 -0.1631254910080501 0 -0.040990311010288182 -0.1707810542940659 0 -0.051094608867397598 -0.17005456831452659 0 -0.036601677587355427 -0.1631254910080501 0 -0.042683024331232992 -0.16071659108817879 0 -0.051094608867397598 -0.17005456831452659 0 -0.036601677587355427 -0.1631254910080501 0 -0.051094608867397598 -0.17005456831452659 0 -0.042683024331232992 -0.16071659108817879 0 -0.03757233301838208 -0.1561293615731485 0 -0.042590371425084809 -0.152788459458752 0 -0.042683024331232992 -0.16071659108817879 0 -0.049852416986034973 -0.1566787242717059 0 -0.042590371425084809 -0.152788459458752 0 -0.042683024331232992 -0.16071659108817879 0 -0.049852416986034973 -0.1566787242717059 0 -0.032920373861235572 -0.18696580359983689 0 -0.035662893679222471 -0.1808176818492459 0 -0.039648887306358682 -0.18457447877016059 0 -0.028761852805915141 -0.18157091371807699 0 -0.032920373861235572 -0.18696580359983689 0 -0.035662893679222471 -0.1808176818492459 0 -0.032240004386850082 -0.17024588421870079 0 -0.040990311010288182 -0.1707810542940659 0 -0.038331319031698619 -0.1753090981098179 0 -0.035662893679222471 -0.1808176818492459 0 -0.038331319031698619 -0.1753090981098179 0 -0.042134054383572032 -0.1794085226548284 0 -0.035662893679222471 -0.1808176818492459 0 -0.032480769472988377 -0.1765838753595764 0 -0.038331319031698619 -0.1753090981098179 0 -0.028761852805915141 -0.18157091371807699 0 -0.035662893679222471 -0.1808176818492459 0 -0.032480769472988377 -0.1765838753595764 0 -0.032240004386850082 -0.17024588421870079 0 -0.032480769472988377 -0.1765838753595764 0 -0.038331319031698619 -0.1753090981098179 0 -0.040990311010288182 -0.1707810542940659 0 -0.045496547127059937 -0.17528527585558801 0 -0.051094608867397598 -0.17005456831452659 0 -0.040990311010288182 -0.1707810542940659 0 -0.038331319031698619 -0.1753090981098179 0 -0.045496547127059937 -0.17528527585558801 0 -0.045496547127059937 -0.17528527585558801 0 -0.042134054383572032 -0.1794085226548284 0 -0.049232931697160941 -0.18142535687920061 0 -0.038331319031698619 -0.1753090981098179 0 -0.045496547127059937 -0.17528527585558801 0 -0.042134054383572032 -0.1794085226548284 0 -0.042134054383572032 -0.1794085226548284 0 -0.039648887306358682 -0.18457447877016059 0 -0.049232931697160941 -0.18142535687920061 0 -0.039648887306358682 -0.18457447877016059 0 -0.049232931697160941 -0.18142535687920061 0 -0.037513132105194948 -0.19164621715467339 0 -0.035662893679222471 -0.1808176818492459 0 -0.042134054383572032 -0.1794085226548284 0 -0.039648887306358682 -0.18457447877016059 0 -0.052530262953744307 -0.18551360121156771 0 -0.064566778430722005 -0.1899668467895553 0 -0.070259181001566293 -0.17921715932508539 0 -0.052530262953744307 -0.18551360121156771 0 -0.051094608867397598 -0.17005456831452659 0 -0.070259181001566293 -0.17921715932508539 0 -0.051094608867397598 -0.17005456831452659 0 -0.070259181001566293 -0.17921715932508539 0 -0.052530262953744307 -0.18551360121156771 0 -0.049232931697160941 -0.18142535687920061 0 -0.051094608867397598 -0.17005456831452659 0 -0.052530262953744307 -0.18551360121156771 0 -0.051094608867397598 -0.17005456831452659 0 -0.045496547127059937 -0.17528527585558801 0 -0.049232931697160941 -0.18142535687920061 0 -0.051094608867397598 -0.17005456831452659 0 -0.051094608867397598 -0.17005456831452659 0 -0.061817946007188637 -0.1647032604190713 0 -0.070259181001566293 -0.17921715932508539 0 -0.049852416986034973 -0.1566787242717059 0 -0.051094608867397598 -0.17005456831452659 0 -0.061817946007188637 -0.1647032604190713 0 -0.042683024331232992 -0.16071659108817879 0 -0.049852416986034973 -0.1566787242717059 0 -0.051094608867397598 -0.17005456831452659 0 -0.049852416986034973 -0.1566787242717059 0 -0.051094608867397598 -0.17005456831452659 0 -0.049852416986034973 -0.1566787242717059 0 -0.061817946007188637 -0.1647032604190713 0 -0.059473492795946999 -0.1512600473178678 0 -0.049852416986034973 -0.1566787242717059 0 -0.059473492795946999 -0.1512600473178678 0 -0.049852416986034973 -0.1566787242717059 0 -0.048542636614648908 -0.14257509161971199 0 -0.042590371425084809 -0.152788459458752 0 -0.049852416986034973 -0.1566787242717059 0 -0.059473492795946999 -0.1512600473178678 0 -0.048542636614648908 -0.14257509161971199 0 -0.049852416986034973 -0.1566787242717059 0 -0.048542636614648908 -0.14257509161971199 0 -0.059473492795946999 -0.1512600473178678 0 -0.048542636614648908 -0.14257509161971199 0 -0.059473492795946999 -0.1512600473178678 0 -0.048542636614648908 -0.14257509161971199 0 -0.061100100412547438 -0.13647315015658409 0 -0.046573596299020338 -0.1213725893565638 0 -0.048542636614648908 -0.14257509161971199 0 -0.061100100412547438 -0.13647315015658409 0 -0.046573596299020338 -0.1213725893565638 0 -0.048542636614648908 -0.14257509161971199 0 -0.060928146748241367 -0.123537549367131 0 -0.046573596299020338 -0.1213725893565638 0 -0.061100100412547438 -0.13647315015658409 0 -0.046573596299020338 -0.1213725893565638 0 -0.048542636614648908 -0.14257509161971199 0 -0.032898799107638058 -0.1301455039054305 0 -0.048542636614648908 -0.14257509161971199 0 -0.032898799107638058 -0.1301455039054305 0 -0.031315427069795509 -0.14033751807088471 0 -0.048542636614648908 -0.14257509161971199 0 -0.032898799107638058 -0.1301455039054305 0 -0.048542636614648908 -0.14257509161971199 0 -0.031315427069795509 -0.14033751807088471 0 -0.03449156258747036 -0.148917707105098 0 -0.03449156258747036 -0.148917707105098 0 -0.03757233301838208 -0.1561293615731485 0 -0.042590371425084809 -0.152788459458752 0 -0.03449156258747036 -0.148917707105098 0 -0.031495029160766817 -0.15509855920566379 0 -0.03757233301838208 -0.1561293615731485 0 -0.048542636614648908 -0.14257509161971199 0 -0.03449156258747036 -0.148917707105098 0 -0.042590371425084809 -0.152788459458752 0 -0.030801127425925001 -0.25680016795848581 0 -0.026871719323301121 -0.24650256912316601 0 -0.018733547469201091 -0.24349008461987329 0 -0.032940321160402269 -0.25029644079438251 0 -0.026871719323301121 -0.24650256912316601 0 -0.030857658388656541 -0.2362056796655021 0 -0.032940321160402269 -0.25029644079438251 0 -0.026871719323301121 -0.24650256912316601 0 -0.026871719323301121 -0.24650256912316601 0 -0.030857658388656541 -0.2362056796655021 0 -0.018733547469201091 -0.24349008461987329 0 -0.018733547469201091 -0.24349008461987329 0 0.0010854142569982001 -0.23807309260292489 0 0.0025328853753160741 -0.24958102673793139 0 -0.018733547469201091 -0.24349008461987329 0 -0.0061584899570064598 -0.22962027277065361 0 0.0010854142569982001 -0.23807309260292489 0 -0.018733547469201091 -0.24349008461987329 0 -0.0061584899570064598 -0.22962027277065361 0 -0.018733547469201091 -0.24349008461987329 0 -0.0061584899570064598 -0.22962027277065361 0 -0.014959502272226489 -0.22084886391346231 0 -0.0061584899570064598 -0.22962027277065361 0 -0.0054289760133702037 -0.21457987404047249 0 0.0064165675551885711 -0.21575046092143421 0 -0.0061584899570064598 -0.22962027277065361 0 -0.014959502272226489 -0.22084886391346231 0 -0.0054289760133702037 -0.21457987404047249 0 -0.018733547469201091 -0.24349008461987329 0 -0.02919644603132129 -0.2221986071991269 0 -0.02714058579554627 -0.22330174697438809 0 -0.018733547469201091 -0.24349008461987329 0 -0.02919644603132129 -0.2221986071991269 0 -0.018733547469201091 -0.24349008461987329 0 -0.014959502272226489 -0.22084886391346231 0 -0.02714058579554627 -0.22330174697438809 0 -0.030857658388656541 -0.2362056796655021 0 -0.018733547469201091 -0.24349008461987329 0 -0.02919644603132129 -0.2221986071991269 0 -0.02919644603132129 -0.2221986071991269 0 -0.02714058579554627 -0.22330174697438809 0 -0.023298310508535151 -0.21367384618425 0 -0.02883797433537726 -0.20835292232393379 0 -0.020914866328615171 -0.2008213059726579 0 -0.039659344593441261 -0.20090712977838049 0 -0.02919644603132129 -0.2221986071991269 0 -0.02883797433537726 -0.20835292232393379 0 -0.023298310508535151 -0.21367384618425 0 -0.02883797433537726 -0.20835292232393379 0 -0.023298310508535151 -0.21367384618425 0 -0.020914866328615171 -0.2008213059726579 0 -0.023298310508535151 -0.21367384618425 0 -0.014351405434837939 -0.2084381568687759 0 -0.020914866328615171 -0.2008213059726579 0 -0.02714058579554627 -0.22330174697438809 0 -0.014351405434837939 -0.2084381568687759 0 -0.014959502272226489 -0.22084886391346231 0 -0.02714058579554627 -0.22330174697438809 0 -0.014351405434837939 -0.2084381568687759 0 -0.02714058579554627 -0.22330174697438809 0 -0.023298310508535151 -0.21367384618425 0 -0.014351405434837939 -0.2084381568687759 0 -0.014959502272226489 -0.22084886391346231 0 -0.0054289760133702037 -0.21457987404047249 0 -0.014351405434837939 -0.2084381568687759 0 -0.0054289760133702037 -0.21457987404047249 0 -0.014351405434837939 -0.2084381568687759 0 -0.0015622250741301779 -0.1935745667631632 0 -0.0054289760133702037 -0.21457987404047249 0 -0.0015622250741301779 -0.1935745667631632 0 0.0064165675551885711 -0.21575046092143421 0 -0.014351405434837939 -0.2084381568687759 0 -0.0015622250741301779 -0.1935745667631632 0 -0.014351405434837939 -0.2084381568687759 0 -0.01223217889679739 -0.19705511845509929 0 -0.0015622250741301779 -0.1935745667631632 0 -0.01223217889679739 -0.19705511845509929 0 -0.0015622250741301779 -0.1935745667631632 0 -0.01452589755716127 -0.18854972137590889 0 -0.020914866328615171 -0.2008213059726579 0 -0.039659344593441261 -0.20090712977838049 0 -0.01452589755716127 -0.18854972137590889 0 -0.020914866328615171 -0.2008213059726579 0 -0.02459459850908961 -0.18853055632871979 0 -0.020914866328615171 -0.2008213059726579 0 -0.030654603298793132 -0.19382629647353339 0 -0.039659344593441261 -0.20090712977838049 0 -0.014351405434837939 -0.2084381568687759 0 -0.01223217889679739 -0.19705511845509929 0 -0.020914866328615171 -0.2008213059726579 0 -0.01223217889679739 -0.19705511845509929 0 -0.01452589755716127 -0.18854972137590889 0 -0.020914866328615171 -0.2008213059726579 0 -0.020914866328615171 -0.2008213059726579 0 -0.030654603298793132 -0.19382629647353339 0 -0.02459459850908961 -0.18853055632871979 0 -0.032920373861235572 -0.18696580359983689 0 -0.030654603298793132 -0.19382629647353339 0 -0.02459459850908961 -0.18853055632871979 0 -0.049232931697160941 -0.18142535687920061 0 -0.037513132105194948 -0.19164621715467339 0 -0.039659344593441261 -0.20090712977838049 0 -0.049232931697160941 -0.18142535687920061 0 -0.039659344593441261 -0.20090712977838049 0 -0.032920373861235572 -0.18696580359983689 0 -0.039648887306358682 -0.18457447877016059 0 -0.037513132105194948 -0.19164621715467339 0 -0.032920373861235572 -0.18696580359983689 0 -0.030654603298793132 -0.19382629647353339 0 -0.037513132105194948 -0.19164621715467339 0 -0.030654603298793132 -0.19382629647353339 0 -0.037513132105194948 -0.19164621715467339 0 -0.039659344593441261 -0.20090712977838049 0 -0.039659344593441261 -0.20090712977838049 0 -0.049171036143441697 -0.20095068018059209 0 -0.052530262953744307 -0.18551360121156771 0 -0.053965917040092279 -0.20097263410860849 0 -0.052530262953744307 -0.18551360121156771 0 -0.049232931697160941 -0.18142535687920061 0 -0.039659344593441261 -0.20090712977838049 0 -0.052530262953744307 -0.18551360121156771 0 -0.053965917040092279 -0.20097263410860849 0 -0.064566778430722005 -0.1899668467895553 0 -0.052530262953744307 -0.18551360121156771 0 -0.039659344593441261 -0.20090712977838049 0 -0.049171036143441697 -0.20095068018059209 0 -0.053965917040092279 -0.20097263410860849 0 -0.049171036143441697 -0.20095068018059209 0 -0.052530262953744307 -0.18551360121156771 0 -0.053965917040092279 -0.20097263410860849 0 -0.049171036143441697 -0.20095068018059209 0 -0.049171036143441697 -0.20095068018059209 0 -0.054685660498906767 -0.208722786400212 0 -0.041055678651922348 -0.2256235604874875 0 -0.053965917040092279 -0.20097263410860849 0 -0.054685660498906767 -0.208722786400212 0 -0.075274492420391248 -0.20107019793555661 0 -0.054685660498906767 -0.208722786400212 0 -0.058782723788501128 -0.22597342721149569 0 -0.066300796797188796 -0.21509277327032089 0 -0.053965917040092279 -0.20097263410860849 0 -0.049171036143441697 -0.20095068018059209 0 -0.054685660498906767 -0.208722786400212 0 -0.053965917040092279 -0.20097263410860849 0 -0.054685660498906767 -0.208722786400212 0 -0.049171036143441697 -0.20095068018059209 0 -0.041055678651922348 -0.2256235604874875 0 -0.02919644603132129 -0.2221986071991269 0 -0.039659344593441261 -0.20090712977838049 0 -0.02919644603132129 -0.2221986071991269 0 -0.02883797433537726 -0.20835292232393379 0 -0.039659344593441261 -0.20090712977838049 0 -0.039659344593441261 -0.20090712977838049 0 -0.049171036143441697 -0.20095068018059209 0 -0.041055678651922348 -0.2256235604874875 0 -0.02919644603132129 -0.2221986071991269 0 -0.039659344593441261 -0.20090712977838049 0 -0.041055678651922348 -0.2256235604874875 0 -0.030857658388656541 -0.2362056796655021 0 -0.02919644603132129 -0.2221986071991269 0 -0.041055678651922348 -0.2256235604874875 0 -0.041055678651922348 -0.2256235604874875 0 -0.058782723788501128 -0.22597342721149569 0 -0.050902643065861071 -0.24349095896983161 0 -0.054685660498906767 -0.208722786400212 0 -0.041055678651922348 -0.2256235604874875 0 -0.058782723788501128 -0.22597342721149569 0 -0.058782723788501128 -0.22597342721149569 0 -0.050902643065861071 -0.24349095896983161 0 -0.077646128541525 -0.24813916513248199 0 -0.032940321160402269 -0.25029644079438251 0 -0.041055678651922348 -0.2256235604874875 0 -0.050902643065861071 -0.24349095896983161 0 -0.032940321160402269 -0.25029644079438251 0 -0.030857658388656541 -0.2362056796655021 0 -0.041055678651922348 -0.2256235604874875 0 -0.032940321160402269 -0.25029644079438251 0 -0.041055678651922348 -0.2256235604874875 0 -0.077646128541525 -0.24813916513248199 0 -0.082279147983734507 -0.22463132376819159 0 -0.088104632666654803 -0.24175912157342011 0 -0.077646128541525 -0.24813916513248199 0 -0.082279147983734507 -0.22463132376819159 0 -0.077646128541525 -0.24813916513248199 0 -0.076460310480956056 -0.22460468153401941 0 -0.058782723788501128 -0.22597342721149569 0 -0.077646128541525 -0.24813916513248199 0 -0.076460310480956056 -0.22460468153401941 0 -0.058782723788501128 -0.22597342721149569 0 -0.076460310480956056 -0.22460468153401941 0 -0.066300796797188796 -0.21509277327032089 0 -0.077646128541525 -0.24813916513248199 0 -0.076460310480956056 -0.22460468153401941 0 -0.082279147983734507 -0.22463132376819159 0 -0.088104632666654803 -0.24175912157342011 0 -0.091210523848666042 -0.22145825259936749 0 -0.096373561920523113 -0.2318247108995648 0 -0.088104632666654803 -0.24175912157342011 0 -0.082279147983734507 -0.22463132376819159 0 -0.091210523848666042 -0.22145825259936749 0 -0.088104632666654803 -0.24175912157342011 0 -0.091210523848666042 -0.22145825259936749 0 -0.082279147983734507 -0.22463132376819159 0 -0.075274492420391248 -0.20107019793555661 0 -0.086912167425944153 -0.20112348240390099 0 -0.082279147983734507 -0.22463132376819159 0 -0.091210523848666042 -0.22145825259936749 0 -0.086912167425944153 -0.20112348240390099 0 -0.091210523848666042 -0.22145825259936749 0 -0.094316415030678002 -0.20115738362531499 0 -0.091210523848666042 -0.22145825259936749 0 -0.086912167425944153 -0.20112348240390099 0 -0.094316415030678002 -0.20115738362531499 0 -0.082279147983734507 -0.22463132376819159 0 -0.086912167425944153 -0.20112348240390099 0 -0.076460310480956056 -0.22460468153401941 0 -0.066300796797188796 -0.21509277327032089 0 -0.075274492420391248 -0.20107019793555661 0 -0.054685660498906767 -0.208722786400212 0 -0.066300796797188796 -0.21509277327032089 0 -0.075274492420391248 -0.20107019793555661 0 -0.076460310480956056 -0.22460468153401941 0 -0.082279147983734507 -0.22463132376819159 0 -0.075274492420391248 -0.20107019793555661 0 -0.076460310480956056 -0.22460468153401941 0 -0.075274492420391248 -0.20107019793555661 0 -0.053965917040092279 -0.20097263410860849 0 -0.075274492420391248 -0.20107019793555661 0 -0.070100108945259781 -0.19629415080948229 0 -0.053965917040092279 -0.20097263410860849 0 -0.070100108945259781 -0.19629415080948229 0 -0.064566778430722005 -0.1899668467895553 0 -0.053965917040092279 -0.20097263410860849 0 -0.075274492420391248 -0.20107019793555661 0 -0.075274492420391248 -0.20107019793555661 0 -0.075113373652805612 -0.19571605274700751 0 -0.079733979793737045 -0.19605477611637959 0 -0.075274492420391248 -0.20107019793555661 0 -0.075113373652805612 -0.19571605274700751 0 -0.070100108945259781 -0.19629415080948229 0 -0.070100108945259781 -0.19629415080948229 0 -0.064566778430722005 -0.1899668467895553 0 -0.075377056328755521 -0.19008301367616509 0 -0.075113373652805612 -0.19571605274700751 0 -0.070100108945259781 -0.19629415080948229 0 -0.075377056328755521 -0.19008301367616509 0 -0.075113373652805612 -0.19571605274700751 0 -0.075377056328755521 -0.19008301367616509 0 -0.079733979793737045 -0.19605477611637959 0 -0.075377056328755521 -0.19008301367616509 0 -0.079733979793737045 -0.19605477611637959 0 -0.089423753135733974 -0.18837975033564619 0 -0.079733979793737045 -0.19605477611637959 0 -0.086912167425944153 -0.20112348240390099 0 -0.089423753135733974 -0.18837975033564619 0 -0.075274492420391248 -0.20107019793555661 0 -0.086912167425944153 -0.20112348240390099 0 -0.075274492420391248 -0.20107019793555661 0 -0.079733979793737045 -0.19605477611637959 0 -0.086912167425944153 -0.20112348240390099 0 -0.086912167425944153 -0.20112348240390099 0 -0.095804572093432044 -0.1914304229002349 0 -0.094316415030678002 -0.20115738362531499 0 -0.086912167425944153 -0.20112348240390099 0 -0.094316415030678002 -0.20115738362531499 0 -0.086912167425944153 -0.20112348240390099 0 -0.089423753135733974 -0.18837975033564619 0 -0.086912167425944153 -0.20112348240390099 0 -0.089423753135733974 -0.18837975033564619 0 -0.095804572093432044 -0.1914304229002349 0 -0.089423753135733974 -0.18837975033564619 0 -0.095804572093432044 -0.1914304229002349 0 -0.090500110278716836 -0.18291833725845449 0 -0.089423753135733974 -0.18837975033564619 0 -0.095804572093432044 -0.1914304229002349 0 -0.095804572093432044 -0.1914304229002349 0 -0.1055884512206339 -0.19610810014299959 0 -0.099028938128851704 -0.1826882615985625 0 -0.095804572093432044 -0.1914304229002349 0 -0.1055884512206339 -0.19610810014299959 0 -0.095804572093432044 -0.1914304229002349 0 -0.099726318276372988 -0.19712665769699661 0 -0.1055884512206339 -0.19610810014299959 0 -0.094316415030678002 -0.20115738362531499 0 -0.099726318276372988 -0.19712665769699661 0 -0.1069539478940484 -0.20121524606085259 0 -0.095804572093432044 -0.1914304229002349 0 -0.094316415030678002 -0.20115738362531499 0 -0.095804572093432044 -0.1914304229002349 0 -0.094316415030678002 -0.20115738362531499 0 -0.099726318276372988 -0.19712665769699661 0 -0.094316415030678002 -0.20115738362531499 0 -0.1069539478940484 -0.20121524606085259 0 -0.1006154135170836 -0.20550376286944089 0 -0.094316415030678002 -0.20115738362531499 0 -0.1069539478940484 -0.20121524606085259 0 -0.099726318276372988 -0.19712665769699661 0 -0.1069539478940484 -0.20121524606085259 0 -0.1055884512206339 -0.19610810014299959 0 -0.1069539478940484 -0.20121524606085259 0 -0.1055884512206339 -0.19610810014299959 0 -0.1143022105317214 -0.19176920984990589 0 -0.1234142843990034 -0.20129061165398179 0 -0.118443644943155 -0.18313735869921541 0 -0.1234142843990034 -0.20129061165398179 0 -0.118443644943155 -0.18313735869921541 0 -0.12836978379805469 -0.19505845874684749 0 -0.1055884512206339 -0.19610810014299959 0 -0.1143022105317214 -0.19176920984990589 0 -0.1095912747331507 -0.1796343382558257 0 -0.1234142843990034 -0.20129061165398179 0 -0.118443644943155 -0.18313735869921541 0 -0.1234142843990034 -0.20129061165398179 0 -0.11636069704563699 -0.20125831597190941 0 -0.12446659453658469 -0.2051337493999616 0 -0.1143022105317214 -0.19176920984990589 0 -0.1234142843990034 -0.20129061165398179 0 -0.11636069704563699 -0.20125831597190941 0 -0.1234142843990034 -0.20129061165398179 0 -0.11636069704563699 -0.20125831597190941 0 -0.1055884512206339 -0.19610810014299959 0 -0.1143022105317214 -0.19176920984990589 0 -0.11636069704563699 -0.20125831597190941 0 -0.1055884512206339 -0.19610810014299959 0 -0.11636069704563699 -0.20125831597190941 0 -0.1069539478940484 -0.20121524606085259 0 -0.11636069704563699 -0.20125831597190941 0 -0.116503442890511 -0.20615462214379501 0 -0.1069539478940484 -0.20121524606085259 0 -0.1055884512206339 -0.19610810014299959 0 -0.11636069704563699 -0.20125831597190941 0 -0.1069539478940484 -0.20121524606085259 0 -0.11636069704563699 -0.20125831597190941 0 -0.1069539478940484 -0.20121524606085259 0 -0.1182325320857732 -0.21701117714245771 0 -0.1146322195844853 -0.229933041338924 0 -0.1069539478940484 -0.20121524606085259 0 -0.1146322195844853 -0.229933041338924 0 -0.12446659453658469 -0.2051337493999616 0 -0.1182325320857732 -0.21701117714245771 0 -0.12964778408632779 -0.2240559515308029 0 -0.1069539478940484 -0.20121524606085259 0 -0.116503442890511 -0.20615462214379501 0 -0.1182325320857732 -0.21701117714245771 0 -0.116503442890511 -0.20615462214379501 0 -0.12446659453658469 -0.2051337493999616 0 -0.1182325320857732 -0.21701117714245771 0 -0.11636069704563699 -0.20125831597190941 0 -0.116503442890511 -0.20615462214379501 0 -0.12446659453658469 -0.2051337493999616 0 -0.11636069704563699 -0.20125831597190941 0 -0.12446659453658469 -0.2051337493999616 0 -0.1234142843990034 -0.20129061165398179 0 -0.12446659453658469 -0.2051337493999616 0 -0.1069539478940484 -0.20121524606085259 0 -0.1039432587622498 -0.21234961129803451 0 -0.1146322195844853 -0.229933041338924 0 -0.091210523848666042 -0.22145825259936749 0 -0.094316415030678002 -0.20115738362531499 0 -0.098742607236989521 -0.21208478243994361 0 -0.1039432587622498 -0.21234961129803451 0 -0.098742607236989521 -0.21208478243994361 0 -0.10362742502627011 -0.2199549018075595 0 -0.1069539478940484 -0.20121524606085259 0 -0.1039432587622498 -0.21234961129803451 0 -0.1006154135170836 -0.20550376286944089 0 -0.1039432587622498 -0.21234961129803451 0 -0.1006154135170836 -0.20550376286944089 0 -0.098742607236989521 -0.21208478243994361 0 -0.094316415030678002 -0.20115738362531499 0 -0.1006154135170836 -0.20550376286944089 0 -0.098742607236989521 -0.21208478243994361 0 -0.091210523848666042 -0.22145825259936749 0 -0.098742607236989521 -0.21208478243994361 0 -0.10362742502627011 -0.2199549018075595 0 -0.096373561920523113 -0.2318247108995648 0 -0.10362742502627011 -0.2199549018075595 0 -0.1025516661405015 -0.24412656761791199 0 -0.1039432587622498 -0.21234961129803451 0 -0.10362742502627011 -0.2199549018075595 0 -0.1146322195844853 -0.229933041338924 0 -0.10362742502627011 -0.2199549018075595 0 -0.1025516661405015 -0.24412656761791199 0 -0.10362742502627011 -0.2199549018075595 0 -0.11057817055071439 -0.23713955200355691 0 -0.1025516661405015 -0.24412656761791199 0 -0.091210523848666042 -0.22145825259936749 0 -0.096373561920523113 -0.2318247108995648 0 -0.10362742502627011 -0.2199549018075595 0 -0.10362742502627011 -0.2199549018075595 0 -0.1146322195844853 -0.229933041338924 0 -0.11057817055071439 -0.23713955200355691 0 -0.1182325320857732 -0.21701117714245771 0 -0.1146322195844853 -0.229933041338924 0 -0.12964778408632779 -0.2240559515308029 0 -0.1146322195844853 -0.229933041338924 0 -0.12594535918601221 -0.23537450645762351 0 -0.12964778408632779 -0.2240559515308029 0 -0.1146322195844853 -0.229933041338924 0 -0.11057817055071439 -0.23713955200355691 0 -0.11992695639240671 -0.24305274461581289 0 -0.1146322195844853 -0.229933041338924 0 -0.11992695639240671 -0.24305274461581289 0 -0.12594535918601221 -0.23537450645762351 0 -0.11992695639240671 -0.24305274461581289 0 -0.12594535918601221 -0.23537450645762351 0 -0.1270777831465402 -0.24161244513161839 0 -0.11057817055071439 -0.23713955200355691 0 -0.11992695639240671 -0.24305274461581289 0 -0.1121525856099083 -0.24863050463757599 0 -0.1183855941197941 -0.25651062511641259 0 -0.11992695639240671 -0.24305274461581289 0 -0.1121525856099083 -0.24863050463757599 0 -0.1097432552782682 -0.2572086698476283 0 -0.1121525856099083 -0.24863050463757599 0 -0.1025516661405015 -0.24412656761791199 0 -0.11057817055071439 -0.23713955200355691 0 -0.1121525856099083 -0.24863050463757599 0 -0.1025516661405015 -0.24412656761791199 0 -0.088104632666654803 -0.24175912157342011 0 -0.096373561920523113 -0.2318247108995648 0 -0.1025516661405015 -0.24412656761791199 0 -0.093680051977193257 -0.25300014610948141 0 -0.088104632666654803 -0.24175912157342011 0 -0.1025516661405015 -0.24412656761791199 0 -0.091208904987890735 -0.14232661368977559 0 -0.087323419063827665 -0.1566704494577609 0 -0.098398678104261977 -0.16921735691638781 0 -0.081276062778159672 -0.14883202435870879 0 -0.08710950077230438 -0.14178266396580899 0 -0.074302444905730333 -0.14290824730771751 0 -0.081276062778159672 -0.14883202435870879 0 -0.091208904987890735 -0.14232661368977559 0 -0.087323419063827665 -0.1566704494577609 0 -0.081276062778159672 -0.14883202435870879 0 -0.08710950077230438 -0.14178266396580899 0 -0.091208904987890735 -0.14232661368977559 0 -0.08710950077230438 -0.14178266396580899 0 -0.091208904987890735 -0.14232661368977559 0 -0.091208904987890735 -0.14232661368977559 0 -0.089131397015513494 -0.13455644729756691 0 -0.089131397015513494 -0.13455644729756691 0 -0.072915517223638954 -0.12670463451369329 0 -0.074302444905730333 -0.14290824730771751 0 -0.08710950077230438 -0.14178266396580899 0 -0.091208904987890735 -0.14232661368977559 0 -0.089131397015513494 -0.13455644729756691 0 -0.08710950077230438 -0.14178266396580899 0 -0.089131397015513494 -0.13455644729756691 0 -0.074302444905730333 -0.14290824730771751 0 -0.089131397015513494 -0.13455644729756691 0 -0.074302444905730333 -0.14290824730771751 0 -0.061100100412547438 -0.13647315015658409 0 -0.072915517223638954 -0.12670463451369329 0 -0.074302444905730333 -0.14290824730771751 0 -0.060928146748241367 -0.123537549367131 0 -0.061100100412547438 -0.13647315015658409 0 -0.072915517223638954 -0.12670463451369329 0 -0.059473492795946999 -0.1512600473178678 0 -0.081276062778159672 -0.14883202435870879 0 -0.074302444905730333 -0.14290824730771751 0 -0.059473492795946999 -0.1512600473178678 0 -0.081276062778159672 -0.14883202435870879 0 -0.078410030384998497 -0.16630580286617139 0 -0.059473492795946999 -0.1512600473178678 0 -0.074302444905730333 -0.14290824730771751 0 -0.059473492795946999 -0.1512600473178678 0 -0.061100100412547438 -0.13647315015658409 0 -0.074302444905730333 -0.14290824730771751 0 -0.061817946007188637 -0.1647032604190713 0 -0.070259181001566293 -0.17921715932508539 0 -0.078410030384998497 -0.16630580286617139 0 -0.059473492795946999 -0.1512600473178678 0 -0.078410030384998497 -0.16630580286617139 0 -0.061817946007188637 -0.1647032604190713 0 -0.059473492795946999 -0.1512600473178678 0 -0.078410030384998497 -0.16630580286617139 0 -0.064566778430722005 -0.1899668467895553 0 -0.075377056328755521 -0.19008301367616509 0 -0.070259181001566293 -0.17921715932508539 0 -0.070259181001566293 -0.17921715932508539 0 -0.08402443889557612 -0.1788939005998389 0 -0.078410030384998497 -0.16630580286617139 0 -0.089423753135733974 -0.18837975033564619 0 -0.070259181001566293 -0.17921715932508539 0 -0.075377056328755521 -0.19008301367616509 0 -0.089423753135733974 -0.18837975033564619 0 -0.070259181001566293 -0.17921715932508539 0 -0.078410030384998497 -0.16630580286617139 0 -0.098398678104261977 -0.16921735691638781 0 -0.097346567974052028 -0.18135155841447259 0 -0.078410030384998497 -0.16630580286617139 0 -0.097346567974052028 -0.18135155841447259 0 -0.08402443889557612 -0.1788939005998389 0 -0.078410030384998497 -0.16630580286617139 0 -0.097346567974052028 -0.18135155841447259 0 -0.089423753135733974 -0.18837975033564619 0 -0.070259181001566293 -0.17921715932508539 0 -0.08402443889557612 -0.1788939005998389 0 -0.089423753135733974 -0.18837975033564619 0 -0.08402443889557612 -0.1788939005998389 0 -0.090500110278716836 -0.18291833725845449 0 -0.08402443889557612 -0.1788939005998389 0 -0.090500110278716836 -0.18291833725845449 0 -0.097346567974052028 -0.18135155841447259 0 -0.089423753135733974 -0.18837975033564619 0 -0.090500110278716836 -0.18291833725845449 0 -0.081276062778159672 -0.14883202435870879 0 -0.078410030384998497 -0.16630580286617139 0 -0.087323419063827665 -0.1566704494577609 0 -0.078410030384998497 -0.16630580286617139 0 -0.087323419063827665 -0.1566704494577609 0 -0.098398678104261977 -0.16921735691638781 0 -0.098398678104261977 -0.16921735691638781 0 -0.1095912747331507 -0.1796343382558257 0 -0.1134730054873082 -0.16498410574444861 0 -0.098398678104261977 -0.16921735691638781 0 -0.1134730054873082 -0.16498410574444861 0 -0.1057127461594554 -0.15566112818699529 0 -0.1055884512206339 -0.19610810014299959 0 -0.098398678104261977 -0.16921735691638781 0 -0.099028938128851704 -0.1826882615985625 0 -0.1055884512206339 -0.19610810014299959 0 -0.098398678104261977 -0.16921735691638781 0 -0.1055884512206339 -0.19610810014299959 0 -0.098398678104261977 -0.16921735691638781 0 -0.1095912747331507 -0.1796343382558257 0 -0.095804572093432044 -0.1914304229002349 0 -0.097346567974052028 -0.18135155841447259 0 -0.099028938128851704 -0.1826882615985625 0 -0.095804572093432044 -0.1914304229002349 0 -0.090500110278716836 -0.18291833725845449 0 -0.097346567974052028 -0.18135155841447259 0 -0.095804572093432044 -0.1914304229002349 0 -0.097346567974052028 -0.18135155841447259 0 -0.097346567974052028 -0.18135155841447259 0 -0.099028938128851704 -0.1826882615985625 0 -0.098398678104261977 -0.16921735691638781 0 -0.097346567974052028 -0.18135155841447259 0 -0.099028938128851704 -0.1826882615985625 0 -0.118443644943155 -0.18313735869921541 0 -0.1134730054873082 -0.16498410574444861 0 -0.1288769000074067 -0.1787922372229141 0 -0.118443644943155 -0.18313735869921541 0 -0.1134730054873082 -0.16498410574444861 0 -0.1095912747331507 -0.1796343382558257 0 -0.118443644943155 -0.18313735869921541 0 -0.1134730054873082 -0.16498410574444861 0 -0.1143022105317214 -0.19176920984990589 0 -0.1095912747331507 -0.1796343382558257 0 -0.118443644943155 -0.18313735869921541 0 -0.1134730054873082 -0.16498410574444861 0 -0.1197703960583608 -0.14611643639736929 0 -0.1290470673658046 -0.1573335562640088 0 -0.1134730054873082 -0.16498410574444861 0 -0.1197703960583608 -0.14611643639736929 0 -0.1057127461594554 -0.15566112818699529 0 -0.091208904987890735 -0.14232661368977559 0 -0.1197703960583608 -0.14611643639736929 0 -0.1055319536065798 -0.13433424813048789 0 -0.091208904987890735 -0.14232661368977559 0 -0.1197703960583608 -0.14611643639736929 0 -0.091208904987890735 -0.14232661368977559 0 -0.098398678104261977 -0.16921735691638781 0 -0.091208904987890735 -0.14232661368977559 0 -0.1197703960583608 -0.14611643639736929 0 -0.1057127461594554 -0.15566112818699529 0 -0.091208904987890735 -0.14232661368977559 0 -0.098398678104261977 -0.16921735691638781 0 -0.1057127461594554 -0.15566112818699529 0 -0.11422347955810171 -0.1204243593602408 0 -0.089131397015513494 -0.13455644729756691 0 -0.1055319536065798 -0.13433424813048789 0 -0.091208904987890735 -0.14232661368977559 0 -0.089131397015513494 -0.13455644729756691 0 -0.1055319536065798 -0.13433424813048789 0 -0.11422347955810171 -0.1204243593602408 0 -0.089131397015513494 -0.13455644729756691 0 -0.11422347955810171 -0.1204243593602408 0 -0.1197703960583608 -0.14611643639736929 0 -0.13445671698849809 -0.1291024538471422 0 -0.11422347955810171 -0.1204243593602408 0 -0.1197703960583608 -0.14611643639736929 0 -0.1055319536065798 -0.13433424813048789 0 -0.1483318871288308 -0.14990625910496369 0 -0.16449988742022109 -0.13664022397910389 0 -0.1531014227808439 -0.1221458571451004 0 -0.13445671698849809 -0.1291024538471422 0 -0.1483318871288308 -0.14990625910496369 0 -0.1531014227808439 -0.1221458571451004 0 -0.1197703960583608 -0.14611643639736929 0 -0.1483318871288308 -0.14990625910496369 0 -0.1197703960583608 -0.14611643639736929 0 -0.13445671698849809 -0.1291024538471422 0 -0.1483318871288308 -0.14990625910496369 0 -0.1197703960583608 -0.14611643639736929 0 -0.1483318871288308 -0.14990625910496369 0 -0.1290470673658046 -0.1573335562640088 0 -0.1134730054873082 -0.16498410574444861 0 -0.13461298078871861 -0.16832742380925381 0 -0.1288769000074067 -0.1787922372229141 0 -0.1134730054873082 -0.16498410574444861 0 -0.1290470673658046 -0.1573335562640088 0 -0.13461298078871861 -0.16832742380925381 0 -0.1483318871288308 -0.14990625910496369 0 -0.1290470673658046 -0.1573335562640088 0 -0.13461298078871861 -0.16832742380925381 0 -0.1288769000074067 -0.1787922372229141 0 -0.13667151748925299 -0.18732448341615179 0 -0.12964513627792831 -0.18854704193980709 0 -0.118443644943155 -0.18313735869921541 0 -0.1288769000074067 -0.1787922372229141 0 -0.12964513627792831 -0.18854704193980709 0 -0.13461298078871861 -0.16832742380925381 0 -0.1288769000074067 -0.1787922372229141 0 -0.13971937495991149 -0.1792470101286355 0 -0.13971937495991149 -0.1792470101286355 0 -0.13667151748925299 -0.18732448341615179 0 -0.14496415935730611 -0.1865433765957375 0 -0.1288769000074067 -0.1787922372229141 0 -0.13971937495991149 -0.1792470101286355 0 -0.13667151748925299 -0.18732448341615179 0 -0.13461298078871861 -0.16832742380925381 0 -0.13971937495991149 -0.1792470101286355 0 -0.15185728900885839 -0.17281716391360821 0 -0.13971937495991149 -0.1792470101286355 0 -0.14496415935730611 -0.1865433765957375 0 -0.15185728900885839 -0.17281716391360821 0 -0.14496415935730611 -0.1865433765957375 0 -0.15185728900885839 -0.17281716391360821 0 -0.15433817598466459 -0.18776234762491931 0 -0.1483318871288308 -0.14990625910496369 0 -0.13461298078871861 -0.16832742380925381 0 -0.15185728900885839 -0.17281716391360821 0 -0.1483318871288308 -0.14990625910496369 0 -0.15185728900885839 -0.17281716391360821 0 -0.1768933781993007 -0.15369608181255809 0 -0.15185728900885839 -0.17281716391360821 0 -0.16517877359736971 -0.18077311964873491 0 -0.1768933781993007 -0.15369608181255809 0 -0.16517877359736971 -0.18077311964873491 0 -0.15433817598466459 -0.18776234762491931 0 -0.16707343948115469 -0.19329854854562631 0 -0.15185728900885839 -0.17281716391360821 0 -0.16517877359736971 -0.18077311964873491 0 -0.15433817598466459 -0.18776234762491931 0 -0.16517877359736971 -0.18077311964873491 0 -0.17993745220376059 -0.17895489523397801 0 -0.16707343948115469 -0.19329854854562631 0 -0.16517877359736971 -0.18077311964873491 0 -0.17993745220376059 -0.17895489523397801 0 -0.1768933781993007 -0.15369608181255809 0 -0.17993745220376059 -0.17895489523397801 0 -0.1768933781993007 -0.15369608181255809 0 -0.19905977422349169 -0.1755558360643551 0 -0.1768933781993007 -0.15369608181255809 0 -0.17856324423929071 -0.13411692648003359 0 -0.16449988742022109 -0.13664022397910389 0 -0.1768933781993007 -0.15369608181255809 0 -0.17856324423929071 -0.13411692648003359 0 -0.1900158864605431 -0.1418606691544825 0 -0.17856324423929071 -0.13411692648003359 0 -0.1912596026832544 -0.12883579632457359 0 -0.1900158864605431 -0.1418606691544825 0 -0.17856324423929071 -0.13411692648003359 0 -0.1912596026832544 -0.12883579632457359 0 -0.18212358698306741 -0.12142770117184561 0 -0.17856324423929071 -0.13411692648003359 0 -0.18212358698306741 -0.12142770117184561 0 -0.16904936396502779 -0.1225698900008125 0 -0.16449988742022109 -0.13664022397910389 0 -0.16904936396502779 -0.1225698900008125 0 -0.1531014227808439 -0.1221458571451004 0 -0.17856324423929071 -0.13411692648003359 0 -0.16449988742022109 -0.13664022397910389 0 -0.16904936396502779 -0.1225698900008125 0 -0.1483318871288308 -0.14990625910496369 0 -0.1768933781993007 -0.15369608181255809 0 -0.1483318871288308 -0.14990625910496369 0 -0.1768933781993007 -0.15369608181255809 0 -0.16449988742022109 -0.13664022397910389 0 -0.15566934165753701 -0.24482136105764621 0 -0.13482897363606841 -0.24297815366164491 0 -0.14564999181442231 -0.22989611270817639 0 -0.15566934165753701 -0.24482136105764621 0 -0.14564999181442231 -0.22989611270817639 0 -0.16429012863802009 -0.23491512272004891 0 -0.15821309250511281 -0.26118480488572993 0 -0.15566934165753701 -0.24482136105764621 0 -0.13482897363606841 -0.24297815366164491 0 -0.1283361407779757 -0.25159171728621699 0 -0.13482897363606841 -0.24297815366164491 0 -0.1310987251445577 -0.2446583467236331 0 -0.1283361407779757 -0.25159171728621699 0 -0.1310987251445577 -0.2446583467236331 0 -0.1270777831465402 -0.24161244513161839 0 -0.1283361407779757 -0.25159171728621699 0 -0.11992695639240671 -0.24305274461581289 0 -0.1270777831465402 -0.24161244513161839 0 -0.13482897363606841 -0.24297815366164491 0 -0.1310987251445577 -0.2446583467236331 0 -0.1270777831465402 -0.24161244513161839 0 -0.13482897363606841 -0.24297815366164491 0 -0.12594535918601221 -0.23537450645762351 0 -0.1270777831465402 -0.24161244513161839 0 -0.13482897363606841 -0.24297815366164491 0 -0.12964778408632779 -0.2240559515308029 0 -0.14564999181442231 -0.22989611270817639 0 -0.13482897363606841 -0.24297815366164491 0 -0.12594535918601221 -0.23537450645762351 0 -0.12964778408632779 -0.2240559515308029 0 -0.13482897363606841 -0.24297815366164491 0 -0.12964778408632779 -0.2240559515308029 0 -0.12964778408632779 -0.2240559515308029 0 -0.14564999181442231 -0.22989611270817639 0 -0.13906082520362789 -0.21424948005767519 0 -0.14564999181442231 -0.22989611270817639 0 -0.1532157355819776 -0.21469763412746851 0 -0.16429012863802009 -0.23491512272004891 0 -0.14564999181442231 -0.22989611270817639 0 -0.1532157355819776 -0.21469763412746851 0 -0.13906082520362789 -0.21424948005767519 0 -0.1532157355819776 -0.21469763412746851 0 -0.1421413425259351 -0.1944801455348881 0 -0.14344356041104711 -0.20138231805780499 0 -0.1532157355819776 -0.21469763412746851 0 -0.1421413425259351 -0.1944801455348881 0 -0.1532157355819776 -0.21469763412746851 0 -0.13906082520362789 -0.21424948005767519 0 -0.14344356041104711 -0.20138231805780499 0 -0.12964778408632779 -0.2240559515308029 0 -0.13906082520362789 -0.21424948005767519 0 -0.12775347419704111 -0.20670520812175669 0 -0.12446659453658469 -0.2051337493999616 0 -0.12964778408632779 -0.2240559515308029 0 -0.12775347419704111 -0.20670520812175669 0 -0.12446659453658469 -0.2051337493999616 0 -0.12964778408632779 -0.2240559515308029 0 -0.1234142843990034 -0.20129061165398179 0 -0.12775347419704111 -0.20670520812175669 0 -0.1342433848347403 -0.2059710501757869 0 -0.1234142843990034 -0.20129061165398179 0 -0.12446659453658469 -0.2051337493999616 0 -0.12775347419704111 -0.20670520812175669 0 -0.12446659453658469 -0.2051337493999616 0 -0.12775347419704111 -0.20670520812175669 0 -0.13906082520362789 -0.21424948005767519 0 -0.12775347419704111 -0.20670520812175669 0 -0.1342433848347403 -0.2059710501757869 0 -0.13906082520362789 -0.21424948005767519 0 -0.1342433848347403 -0.2059710501757869 0 -0.14344356041104711 -0.20138231805780499 0 -0.13448747671815081 -0.19705371152474219 0 -0.1421413425259351 -0.1944801455348881 0 -0.14344356041104711 -0.20138231805780499 0 -0.1234142843990034 -0.20129061165398179 0 -0.1342433848347403 -0.2059710501757869 0 -0.14344356041104711 -0.20138231805780499 0 -0.1234142843990034 -0.20129061165398179 0 -0.13448747671815081 -0.19705371152474219 0 -0.14344356041104711 -0.20138231805780499 0 -0.1234142843990034 -0.20129061165398179 0 -0.14344356041104711 -0.20138231805780499 0 -0.1234142843990034 -0.20129061165398179 0 -0.13448747671815081 -0.19705371152474219 0 -0.12836978379805469 -0.19505845874684749 0 -0.118443644943155 -0.18313735869921541 0 -0.12836978379805469 -0.19505845874684749 0 -0.12964513627792831 -0.18854704193980709 0 -0.12836978379805469 -0.19505845874684749 0 -0.12964513627792831 -0.18854704193980709 0 -0.1350684124567138 -0.19305702363018909 0 -0.13448747671815081 -0.19705371152474219 0 -0.12836978379805469 -0.19505845874684749 0 -0.1350684124567138 -0.19305702363018909 0 -0.13667151748925299 -0.18732448341615179 0 -0.12964513627792831 -0.18854704193980709 0 -0.1350684124567138 -0.19305702363018909 0 -0.13448747671815081 -0.19705371152474219 0 -0.1350684124567138 -0.19305702363018909 0 -0.1421413425259351 -0.1944801455348881 0 -0.13667151748925299 -0.18732448341615179 0 -0.1350684124567138 -0.19305702363018909 0 -0.1421413425259351 -0.1944801455348881 0 -0.1532157355819776 -0.21469763412746851 0 -0.1421413425259351 -0.1944801455348881 0 -0.15666351948114629 -0.1995899832452937 0 -0.13667151748925299 -0.18732448341615179 0 -0.14496415935730611 -0.1865433765957375 0 -0.1421413425259351 -0.1944801455348881 0 -0.14496415935730611 -0.1865433765957375 0 -0.1421413425259351 -0.1944801455348881 0 -0.15433817598466459 -0.18776234762491931 0 -0.1421413425259351 -0.1944801455348881 0 -0.15433817598466459 -0.18776234762491931 0 -0.15666351948114629 -0.1995899832452937 0 -0.15433817598466459 -0.18776234762491931 0 -0.15666351948114629 -0.1995899832452937 0 -0.16707343948115469 -0.19329854854562631 0 -0.15666351948114629 -0.1995899832452937 0 -0.16707343948115469 -0.19329854854562631 0 -0.16732224548458891 -0.20842311436722119 0 -0.16707343948115469 -0.19329854854562631 0 -0.17975878066101059 -0.20042989322362739 0 -0.16732224548458891 -0.20842311436722119 0 -0.17993745220376059 -0.17895489523397801 0 -0.17975878066101059 -0.20042989322362739 0 -0.19266467917721081 -0.1936257676085566 0 -0.17993745220376059 -0.17895489523397801 0 -0.16707343948115469 -0.19329854854562631 0 -0.17975878066101059 -0.20042989322362739 0 -0.17975878066101059 -0.20042989322362739 0 -0.18070391625864071 -0.21863984915545301 0 -0.19253239785726259 -0.2093467412910768 0 -0.17975878066101059 -0.20042989322362739 0 -0.18070391625864071 -0.21863984915545301 0 -0.16732224548458891 -0.20842311436722119 0 -0.1532157355819776 -0.21469763412746851 0 -0.15666351948114629 -0.1995899832452937 0 -0.16732224548458891 -0.20842311436722119 0 -0.1532157355819776 -0.21469763412746851 0 -0.16732224548458891 -0.20842311436722119 0 -0.16429012863802009 -0.23491512272004891 0 -0.1532157355819776 -0.21469763412746851 0 -0.16429012863802009 -0.23491512272004891 0 -0.18070391625864071 -0.21863984915545301 0 -0.16732224548458891 -0.20842311436722119 0 -0.16429012863802009 -0.23491512272004891 0 -0.18070391625864071 -0.21863984915545301 0 -0.18601458812680871 -0.23629827425452701 0 -0.16429012863802009 -0.23491512272004891 0 -0.18070391625864071 -0.21863984915545301 0 -0.18601458812680871 -0.23629827425452701 0 -0.19270158591305361 -0.22296204550849591 0 -0.17536452169406261 -0.25513261131262932 0 -0.18601458812680871 -0.23629827425452701 0 -0.1971211098569064 -0.2485562144643311 0 -0.17536452169406261 -0.25513261131262932 0 -0.18601458812680871 -0.23629827425452701 0 -0.16429012863802009 -0.23491512272004891 0 -0.17536452169406261 -0.25513261131262932 0 -0.16429012863802009 -0.23491512272004891 0 -0.17536452169406261 -0.25513261131262932 0 -0.15566934165753701 -0.24482136105764621 0 -0.16429012863802009 -0.23491512272004891 0 -0.2040044810152343 -0.23377727090047351 0 -0.22181314593257209 -0.22697511150882529 0 -0.22025275826160279 -0.2471257797298928 0 -0.1971211098569064 -0.2485562144643311 0 -0.2040044810152343 -0.23377727090047351 0 -0.22025275826160279 -0.2471257797298928 0 -0.18601458812680871 -0.23629827425452701 0 -0.1971211098569064 -0.2485562144643311 0 -0.2040044810152343 -0.23377727090047351 0 -0.18601458812680871 -0.23629827425452701 0 -0.19270158591305361 -0.22296204550849591 0 -0.2040044810152343 -0.23377727090047351 0 -0.19270158591305361 -0.22296204550849591 0 -0.20646661184779291 -0.2209366033754204 0 -0.2040044810152343 -0.23377727090047351 0 -0.20646661184779291 -0.2209366033754204 0 -0.2040044810152343 -0.23377727090047351 0 -0.22181314593257209 -0.22697511150882529 0 -0.20646661184779291 -0.2209366033754204 0 -0.22181314593257209 -0.22697511150882529 0 -0.20646661184779291 -0.2209366033754204 0 -0.21966781828876961 -0.21222017746694699 0 -0.22181314593257209 -0.22697511150882529 0 -0.20646661184779291 -0.2209366033754204 0 -0.20611948272011121 -0.20304611138236681 0 -0.21966781828876961 -0.21222017746694699 0 -0.20611948272011121 -0.20304611138236681 0 -0.21897926871800019 -0.19669337567287831 0 -0.21966781828876961 -0.21222017746694699 0 -0.20646661184779291 -0.2209366033754204 0 -0.19253239785726259 -0.2093467412910768 0 -0.20611948272011121 -0.20304611138236681 0 -0.19270158591305361 -0.22296204550849591 0 -0.20646661184779291 -0.2209366033754204 0 -0.19253239785726259 -0.2093467412910768 0 -0.18070391625864071 -0.21863984915545301 0 -0.19270158591305361 -0.22296204550849591 0 -0.19253239785726259 -0.2093467412910768 0 -0.19266467917721081 -0.1936257676085566 0 -0.20611948272011121 -0.20304611138236681 0 -0.2083219237785757 -0.1873320277690235 0 -0.17975878066101059 -0.20042989322362739 0 -0.19253239785726259 -0.2093467412910768 0 -0.19266467917721081 -0.1936257676085566 0 -0.19253239785726259 -0.2093467412910768 0 -0.19266467917721081 -0.1936257676085566 0 -0.20611948272011121 -0.20304611138236681 0 -0.20611948272011121 -0.20304611138236681 0 -0.21897926871800019 -0.19669337567287831 0 -0.2083219237785757 -0.1873320277690235 0 -0.21897926871800019 -0.19669337567287831 0 -0.23230424975577199 -0.20503470769258789 0 -0.23313215691775949 -0.18450877018534409 0 -0.2448317244682672 -0.19494017856122331 0 -0.23230424975577199 -0.20503470769258789 0 -0.23313215691775949 -0.18450877018534409 0 -0.2448317244682672 -0.19494017856122331 0 -0.24405101732391901 -0.2151790953022156 0 -0.23230424975577199 -0.20503470769258789 0 -0.2448317244682672 -0.19494017856122331 0 -0.24405101732391901 -0.2151790953022156 0 -0.24405101732391901 -0.2151790953022156 0 -0.23230424975577199 -0.20503470769258789 0 -0.23232415075836929 -0.22063515516960361 0 -0.23230424975577199 -0.20503470769258789 0 -0.21966781828876961 -0.21222017746694699 0 -0.23232415075836929 -0.22063515516960361 0 -0.21897926871800019 -0.19669337567287831 0 -0.23230424975577199 -0.20503470769258789 0 -0.21966781828876961 -0.21222017746694699 0 -0.21966781828876961 -0.21222017746694699 0 -0.22181314593257209 -0.22697511150882529 0 -0.23232415075836929 -0.22063515516960361 0 -0.22181314593257209 -0.22697511150882529 0 -0.23232415075836929 -0.22063515516960361 0 -0.2371596800173508 -0.23301361964223161 0 -0.22181314593257209 -0.22697511150882529 0 -0.2371596800173508 -0.23301361964223161 0 -0.24405101732391901 -0.2151790953022156 0 -0.24327031017957049 -0.23541801204320789 0 -0.24405101732391901 -0.2151790953022156 0 -0.24327031017957049 -0.23541801204320789 0 -0.25588924886857078 -0.22577026586403889 0 -0.24405101732391901 -0.2151790953022156 0 -0.23232415075836929 -0.22063515516960361 0 -0.23916826383476761 -0.23133706037317611 0 -0.24405101732391901 -0.2151790953022156 0 -0.23916826383476761 -0.23133706037317611 0 -0.24327031017957049 -0.23541801204320789 0 -0.23916826383476761 -0.23133706037317611 0 -0.2371596800173508 -0.23301361964223161 0 -0.24327031017957049 -0.23541801204320789 0 -0.2371596800173508 -0.23301361964223161 0 -0.24327031017957049 -0.23541801204320789 0 -0.23232415075836929 -0.22063515516960361 0 -0.23916826383476761 -0.23133706037317611 0 -0.2371596800173508 -0.23301361964223161 0 -0.23916826383476761 -0.23133706037317611 0 -0.2371596800173508 -0.23301361964223161 0 -0.24233717299785959 -0.25960849866204011 0 -0.24327031017957049 -0.23541801204320789 0 -0.23442911476228809 -0.24683612341654529 0 -0.24233717299785959 -0.25960849866204011 0 -0.24327031017957049 -0.23541801204320789 0 -0.25018128361314113 -0.24746468840205441 0 -0.2371596800173508 -0.23301361964223161 0 -0.24327031017957049 -0.23541801204320789 0 -0.23442911476228809 -0.24683612341654529 0 -0.24233717299785959 -0.25960849866204011 0 -0.24327031017957049 -0.23541801204320789 0 -0.2371596800173508 -0.23301361964223161 0 -0.22025275826160279 -0.2471257797298928 0 -0.2371596800173508 -0.23301361964223161 0 -0.23442911476228809 -0.24683612341654529 0 -0.22025275826160279 -0.2471257797298928 0 -0.22181314593257209 -0.22697511150882529 0 -0.2371596800173508 -0.23301361964223161 0 -0.22025275826160279 -0.2471257797298928 0 -0.21260261997950849 -0.1372892749024191 0 -0.20545486926977061 -0.1574859045201529 0 -0.21260261997950849 -0.1372892749024191 0 -0.20545486926977061 -0.1574859045201529 0 -0.22601880180638709 -0.14497793796819641 0 -0.21260261997950849 -0.1372892749024191 0 -0.20085213665154589 -0.13643960324073179 0 -0.20545486926977061 -0.1574859045201529 0 -0.21260261997950849 -0.1372892749024191 0 -0.2197503706892443 -0.1170926452846846 0 -0.20366324778073339 -0.1226314006036201 0 -0.21260261997950849 -0.1372892749024191 0 -0.2197503706892443 -0.1170926452846846 0 -0.21260261997950849 -0.1372892749024191 0 -0.20085213665154589 -0.13643960324073179 0 -0.20366324778073339 -0.1226314006036201 0 -0.20085213665154589 -0.13643960324073179 0 -0.1912596026832544 -0.12883579632457359 0 -0.20366324778073339 -0.1226314006036201 0 -0.20085213665154589 -0.13643960324073179 0 -0.1912596026832544 -0.12883579632457359 0 -0.1900158864605431 -0.1418606691544825 0 -0.1768933781993007 -0.15369608181255809 0 -0.1900158864605431 -0.1418606691544825 0 -0.20545486926977061 -0.1574859045201529 0 -0.1768933781993007 -0.15369608181255809 0 -0.20545486926977061 -0.1574859045201529 0 -0.20085213665154589 -0.13643960324073179 0 -0.1900158864605431 -0.1418606691544825 0 -0.20545486926977061 -0.1574859045201529 0 -0.1768933781993007 -0.15369608181255809 0 -0.19905977422349169 -0.1755558360643551 0 -0.20545486926977061 -0.1574859045201529 0 -0.19905977422349169 -0.1755558360643551 0 -0.20545486926977061 -0.1574859045201529 0 -0.19266467917721081 -0.1936257676085566 0 -0.19905977422349169 -0.1755558360643551 0 -0.19266467917721081 -0.1936257676085566 0 -0.19905977422349169 -0.1755558360643551 0 -0.2083219237785757 -0.1873320277690235 0 -0.17993745220376059 -0.17895489523397801 0 -0.19266467917721081 -0.1936257676085566 0 -0.19905977422349169 -0.1755558360643551 0 -0.21897926871800019 -0.19669337567287831 0 -0.2083219237785757 -0.1873320277690235 0 -0.21860002285518379 -0.17692462022396371 0 -0.19905977422349169 -0.1755558360643551 0 -0.2083219237785757 -0.1873320277690235 0 -0.21860002285518379 -0.17692462022396371 0 -0.19905977422349169 -0.1755558360643551 0 -0.21860002285518379 -0.17692462022396371 0 -0.20545486926977061 -0.1574859045201529 0 -0.21860002285518379 -0.17692462022396371 0 -0.20545486926977061 -0.1574859045201529 0 -0.2334194436613071 -0.16119652238585741 0 -0.20545486926977061 -0.1574859045201529 0 -0.2334194436613071 -0.16119652238585741 0 -0.21860002285518379 -0.17692462022396371 0 -0.2334194436613071 -0.16119652238585741 0 -0.23313215691775949 -0.18450877018534409 0 -0.21897926871800019 -0.19669337567287831 0 -0.21860002285518379 -0.17692462022396371 0 -0.23313215691775949 -0.18450877018534409 0 -0.2448317244682672 -0.19494017856122331 0 -0.24561243161261531 -0.1747012618202311 0 -0.2448317244682672 -0.19494017856122331 0 -0.23313215691775949 -0.18450877018534409 0 -0.24561243161261531 -0.1747012618202311 0 -0.2334194436613071 -0.16119652238585741 0 -0.23313215691775949 -0.18450877018534409 0 -0.24561243161261531 -0.1747012618202311 0 -0.2334194436613071 -0.16119652238585741 0 -0.24768759332024501 -0.15288591991307249 0 -0.26138401805284373 -0.16490714025156239 0 -0.2334194436613071 -0.16119652238585741 0 -0.24561243161261531 -0.1747012618202311 0 -0.26138401805284373 -0.16490714025156239 0 -0.2334194436613071 -0.16119652238585741 0 -0.26138401805284373 -0.16490714025156239 0 -0.24768759332024501 -0.15288591991307249 0 -0.24035206963199701 -0.13773520297616959 0 -0.25066558347885931 -0.13251764995053431 0 -0.23716828236838119 -0.14842713651880179 0 -0.22601880180638709 -0.14497793796819641 0 -0.24035206963199701 -0.13773520297616959 0 -0.24768759332024501 -0.15288591991307249 0 -0.23716828236838119 -0.14842713651880179 0 -0.24035206963199701 -0.13773520297616959 0 -0.2334194436613071 -0.16119652238585741 0 -0.24768759332024501 -0.15288591991307249 0 -0.23716828236838119 -0.14842713651880179 0 -0.20545486926977061 -0.1574859045201529 0 -0.2334194436613071 -0.16119652238585741 0 -0.22601880180638709 -0.14497793796819641 0 -0.2334194436613071 -0.16119652238585741 0 -0.23716828236838119 -0.14842713651880179 0 -0.22601880180638709 -0.14497793796819641 0 -0.21260261997950849 -0.1372892749024191 0 -0.22701037204806629 -0.12800517972509859 0 -0.2197503706892443 -0.1170926452846846 0 -0.22601880180638709 -0.14497793796819641 0 -0.22701037204806629 -0.12800517972509859 0 -0.24035206963199701 -0.13773520297616959 0 -0.21260261997950849 -0.1372892749024191 0 -0.22601880180638709 -0.14497793796819641 0 -0.22701037204806629 -0.12800517972509859 0 -0.22701037204806629 -0.12800517972509859 0 -0.23833475363582929 -0.12699719077821001 0 -0.24035206963199701 -0.13773520297616959 0 -0.23833475363582929 -0.12699719077821001 0 -0.24035206963199701 -0.13773520297616959 0 -0.25066558347885931 -0.13251764995053431 0 -0.23833475363582929 -0.12699719077821001 0 -0.2466021228926524 -0.1215603100838341 0 -0.25066558347885931 -0.13251764995053431 0 -0.2466021228926524 -0.1215603100838341 0 -0.23420880670407421 -0.115344861449812 0 -0.25028307647261949 -0.1119170655065333 0 -0.23833475363582929 -0.12699719077821001 0 -0.2466021228926524 -0.1215603100838341 0 -0.23420880670407421 -0.115344861449812 0 -0.23975108867161321 -0.096745383671773488 0 -0.23420880670407421 -0.115344861449812 0 -0.25028307647261949 -0.1119170655065333 0 -0.23975108867161321 -0.096745383671773488 0 -0.25028307647261949 -0.1119170655065333 0 -0.25454071313255938 -0.097810231909066098 0 -0.23975108867161321 -0.096745383671773488 0 -0.22550089202944229 -0.1008440162637169 0 -0.23125141336964011 -0.084595387242749231 0 -0.23975108867161321 -0.096745383671773488 0 -0.22550089202944229 -0.1008440162637169 0 -0.23420880670407421 -0.115344861449812 0 -0.22550089202944229 -0.1008440162637169 0 -0.23125141336964011 -0.084595387242749231 0 -0.20770402821161371 -0.098985744105056478 0 -0.22550089202944229 -0.1008440162637169 0 -0.2197503706892443 -0.1170926452846846 0 -0.22550089202944229 -0.1008440162637169 0 -0.2197503706892443 -0.1170926452846846 0 -0.23420880670407421 -0.115344861449812 0 -0.22701037204806629 -0.12800517972509859 0 -0.2197503706892443 -0.1170926452846846 0 -0.22701037204806629 -0.12800517972509859 0 -0.2197503706892443 -0.1170926452846846 0 -0.23420880670407421 -0.115344861449812 0 -0.22701037204806629 -0.12800517972509859 0 -0.23833475363582929 -0.12699719077821001 0 -0.23420880670407421 -0.115344861449812 0 -0.24621250417125429 -0.067242688607955695 0 -0.2359213828018043 -0.071399957410672343 0 -0.2460442741291925 -0.056732515276429897 0 -0.24101683233652779 -0.07862751170581421 0 -0.252754029676304 -0.071454636367457428 0 -0.24621250417125429 -0.067242688607955695 0 -0.24101683233652779 -0.07862751170581421 0 -0.252754029676304 -0.071454636367457428 0 -0.2359213828018043 -0.071399957410672343 0 -0.24101683233652779 -0.07862751170581421 0 -0.24621250417125429 -0.067242688607955695 0 -0.2359213828018043 -0.071399957410672343 0 -0.24101683233652779 -0.07862751170581421 0 -0.24101683233652779 -0.07862751170581421 0 -0.25454071313255938 -0.097810231909066098 0 -0.23975108867161321 -0.096745383671773488 0 -0.24101683233652779 -0.07862751170581421 0 -0.25454071313255938 -0.097810231909066098 0 -0.23975108867161321 -0.096745383671773488 0 -0.24101683233652779 -0.07862751170581421 0 -0.23125141336964011 -0.084595387242749231 0 -0.24101683233652779 -0.07862751170581421 0 -0.23125141336964011 -0.084595387242749231 0 -0.2359213828018043 -0.071399957410672343 0 -0.24101683233652779 -0.07862751170581421 0 -0.23125141336964011 -0.084595387242749231 0 -0.23125141336964011 -0.084595387242749231 0 -0.2244703125416819 -0.072794076224461268 0 -0.21310247649950159 -0.079773441579648038 0 -0.23125141336964011 -0.084595387242749231 0 -0.20770402821161371 -0.098985744105056478 0 -0.22550089202944229 -0.1008440162637169 0 -0.23125141336964011 -0.084595387242749231 0 -0.2359213828018043 -0.071399957410672343 0 -0.2235514570548072 -0.053854045248439182 0 -0.2244703125416819 -0.072794076224461268 0 -0.21482267827762841 -0.069082647852091478 0 -0.2235514570548072 -0.053854045248439182 0 -0.2359213828018043 -0.071399957410672343 0 -0.2244703125416819 -0.072794076224461268 0 -0.2235514570548072 -0.053854045248439182 0 -0.2359213828018043 -0.071399957410672343 0 -0.23125141336964011 -0.084595387242749231 0 -0.2244703125416819 -0.072794076224461268 0 -0.2359213828018043 -0.071399957410672343 0 -0.23125141336964011 -0.084595387242749231 0 -0.20472732395068391 -0.070425609547595483 0 -0.21310247649950159 -0.079773441579648038 0 -0.1942101978544846 -0.078703118630565005 0 -0.21482267827762841 -0.069082647852091478 0 -0.20472732395068391 -0.070425609547595483 0 -0.20783277774853701 -0.056374475910446593 0 -0.2244703125416819 -0.072794076224461268 0 -0.21482267827762841 -0.069082647852091478 0 -0.21310247649950159 -0.079773441579648038 0 -0.21482267827762841 -0.069082647852091478 0 -0.20472732395068391 -0.070425609547595483 0 -0.21310247649950159 -0.079773441579648038 0 -0.23125141336964011 -0.084595387242749231 0 -0.21310247649950159 -0.079773441579648038 0 -0.20770402821161371 -0.098985744105056478 0 -0.21310247649950159 -0.079773441579648038 0 -0.1942101978544846 -0.078703118630565005 0 -0.20770402821161371 -0.098985744105056478 0 -0.1942101978544846 -0.078703118630565005 0 -0.20770402821161371 -0.098985744105056478 0 -0.1942101978544846 -0.078703118630565005 0 -0.20770402821161371 -0.098985744105056478 0 -0.19331927689223261 -0.094690670375105077 0 -0.1942101978544846 -0.078703118630565005 0 -0.19331927689223261 -0.094690670375105077 0 -0.1804061946459036 -0.0975656506999769 0 -0.1942101978544846 -0.078703118630565005 0 -0.1807163674973549 -0.058420493156073998 0 -0.19569491766720151 -0.061370611856350392 0 -0.20472732395068391 -0.070425609547595483 0 -0.1942101978544846 -0.078703118630565005 0 -0.19569491766720151 -0.061370611856350392 0 -0.20472732395068391 -0.070425609547595483 0 -0.19569491766720151 -0.061370611856350392 0 -0.20783277774853701 -0.056374475910446593 0 -0.2197503706892443 -0.1170926452846846 0 -0.20366324778073339 -0.1226314006036201 0 -0.20770402821161371 -0.098985744105056478 0 -0.22550089202944229 -0.1008440162637169 0 -0.2197503706892443 -0.1170926452846846 0 -0.20770402821161371 -0.098985744105056478 0 -0.2197503706892443 -0.1170926452846846 0 -0.20770402821161371 -0.098985744105056478 0 -0.20770402821161371 -0.098985744105056478 0 -0.19331927689223261 -0.094690670375105077 0 -0.18400427859456039 -0.1134692144457318 0 -0.20770402821161371 -0.098985744105056478 0 -0.18400427859456039 -0.1134692144457318 0 -0.20770402821161371 -0.098985744105056478 0 -0.19170728544238649 -0.1194909919475228 0 -0.18400427859456039 -0.1134692144457318 0 -0.20366324778073339 -0.1226314006036201 0 -0.20770402821161371 -0.098985744105056478 0 -0.19170728544238649 -0.1194909919475228 0 -0.1912596026832544 -0.12883579632457359 0 -0.20366324778073339 -0.1226314006036201 0 -0.19170728544238649 -0.1194909919475228 0 -0.1912596026832544 -0.12883579632457359 0 -0.19170728544238649 -0.1194909919475228 0 -0.18212358698306741 -0.12142770117184561 0 -0.18212358698306741 -0.12142770117184561 0 -0.18400427859456039 -0.1134692144457318 0 -0.1804061946459036 -0.0975656506999769 0 -0.18212358698306741 -0.12142770117184561 0 -0.17231042801981861 -0.11010941660198729 0 -0.1804061946459036 -0.0975656506999769 0 -0.19170728544238649 -0.1194909919475228 0 -0.18212358698306741 -0.12142770117184561 0 -0.18400427859456039 -0.1134692144457318 0 -0.18212358698306741 -0.12142770117184561 0 -0.1804061946459036 -0.0975656506999769 0 -0.18212358698306741 -0.12142770117184561 0 -0.17231042801981861 -0.11010941660198729 0 -0.16904936396502779 -0.1225698900008125 0 -0.16904936396502779 -0.1225698900008125 0 -0.16303186383997401 -0.11054530689275879 0 -0.1531014227808439 -0.1221458571451004 0 -0.16303186383997401 -0.11054530689275879 0 -0.1531014227808439 -0.1221458571451004 0 -0.15302467802266631 -0.099964594768007481 0 -0.17231042801981861 -0.11010941660198729 0 -0.16904936396502779 -0.1225698900008125 0 -0.16303186383997401 -0.11054530689275879 0 -0.16694113066512001 -0.098438534244542714 0 -0.1583311292500037 -0.086155785580523059 0 -0.15302467802266631 -0.099964594768007481 0 -0.16303186383997401 -0.11054530689275879 0 -0.16694113066512001 -0.098438534244542714 0 -0.15302467802266631 -0.099964594768007481 0 -0.17231042801981861 -0.11010941660198729 0 -0.16303186383997401 -0.11054530689275879 0 -0.16694113066512001 -0.098438534244542714 0 -0.16694113066512001 -0.098438534244542714 0 -0.1804061946459036 -0.0975656506999769 0 -0.1699979234477183 -0.086164615643162509 0 -0.19331927689223261 -0.094690670375105077 0 -0.18400427859456039 -0.1134692144457318 0 -0.1804061946459036 -0.0975656506999769 0 -0.17231042801981861 -0.11010941660198729 0 -0.16694113066512001 -0.098438534244542714 0 -0.1804061946459036 -0.0975656506999769 0 -0.1942101978544846 -0.078703118630565005 0 -0.1804061946459036 -0.0975656506999769 0 -0.17868880230873979 -0.073703600228108263 0 -0.1804061946459036 -0.0975656506999769 0 -0.17868880230873979 -0.073703600228108263 0 -0.1804061946459036 -0.0975656506999769 0 -0.17868880230873979 -0.073703600228108263 0 -0.1699979234477183 -0.086164615643162509 0 -0.1942101978544846 -0.078703118630565005 0 -0.17868880230873979 -0.073703600228108263 0 -0.1807163674973549 -0.058420493156073998 0 -0.1942101978544846 -0.078703118630565005 0 -0.1807163674973549 -0.058420493156073998 0 -0.17868880230873979 -0.073703600228108263 0 -0.16456215259537851 -0.07423447470758808 0 -0.1687761726195266 -0.062055246708151823 0 -0.16456215259537851 -0.07423447470758808 0 -0.1601060057786266 -0.063048208625582775 0 -0.1687761726195266 -0.062055246708151823 0 -0.17868880230873979 -0.073703600228108263 0 -0.16456215259537851 -0.07423447470758808 0 -0.1699979234477183 -0.086164615643162509 0 -0.16456215259537851 -0.07423447470758808 0 -0.1601060057786266 -0.063048208625582775 0 -0.15147288216765581 -0.074279391460000108 0 -0.16694113066512001 -0.098438534244542714 0 -0.1699979234477183 -0.086164615643162509 0 -0.1583311292500037 -0.086155785580523059 0 -0.16456215259537851 -0.07423447470758808 0 -0.1699979234477183 -0.086164615643162509 0 -0.1583311292500037 -0.086155785580523059 0 -0.16456215259537851 -0.07423447470758808 0 -0.1583311292500037 -0.086155785580523059 0 -0.15147288216765581 -0.074279391460000108 0 -0.1583311292500037 -0.086155785580523059 0 -0.1406917504718985 -0.083199174386461974 0 -0.15147288216765581 -0.074279391460000108 0 -0.1583311292500037 -0.086155785580523059 0 -0.1406917504718985 -0.083199174386461974 0 -0.15302467802266631 -0.099964594768007481 0 -0.1601060057786266 -0.063048208625582775 0 -0.15147288216765581 -0.074279391460000108 0 -0.14916280428309589 -0.053864076679432472 0 -0.15147288216765581 -0.074279391460000108 0 -0.13891648936515211 -0.064472249171247775 0 -0.14916280428309589 -0.053864076679432472 0 -0.1406917504718985 -0.083199174386461974 0 -0.15147288216765581 -0.074279391460000108 0 -0.13891648936515211 -0.064472249171247775 0 -0.12197003300458489 -0.067133964797042034 0 -0.1406917504718985 -0.083199174386461974 0 -0.13891648936515211 -0.064472249171247775 0 -0.121811479392537 -0.084095963505499416 0 -0.12197003300458489 -0.067133964797042034 0 -0.1406917504718985 -0.083199174386461974 0 -0.121811479392537 -0.084095963505499416 0 -0.1406917504718985 -0.083199174386461974 0 -0.13931556210068971 -0.10629227142291391 0 -0.11605893441195141 -0.10185107539240761 0 -0.121811479392537 -0.084095963505499416 0 -0.13931556210068971 -0.10629227142291391 0 -0.11422347955810171 -0.1204243593602408 0 -0.13931556210068971 -0.10629227142291391 0 -0.11422347955810171 -0.1204243593602408 0 -0.13445671698849809 -0.1291024538471422 0 -0.13931556210068971 -0.10629227142291391 0 -0.13445671698849809 -0.1291024538471422 0 -0.13931556210068971 -0.10629227142291391 0 -0.1531014227808439 -0.1221458571451004 0 -0.13931556210068971 -0.10629227142291391 0 -0.1531014227808439 -0.1221458571451004 0 -0.15302467802266631 -0.099964594768007481 0 -0.1406917504718985 -0.083199174386461974 0 -0.13931556210068971 -0.10629227142291391 0 -0.15302467802266631 -0.099964594768007481 0 -0.14079925107272581 -0.02334449083682992 0 -0.15349169287978739 -0.035208883327978051 0 -0.15939520176274349 -0.015620398581745401 0 -0.14079925107272581 -0.02334449083682992 0 -0.14275634286812811 -0.006203461430080404 0 -0.15939520176274349 -0.015620398581745401 0 -0.14275634286812811 -0.006203461430080404 0 -0.15939520176274349 -0.015620398581745401 0 -0.15796117991031841 -0.00029962151665172479 0 -0.14079925107272581 -0.02334449083682992 0 -0.14275634286812811 -0.006203461430080404 0 -0.1278640484455188 -0.012334690821253821 0 -0.14275634286812811 -0.006203461430080404 0 -0.1278640484455188 -0.012334690821253821 0 -0.1273771369441013 0.0023450629401116992 0 -0.12411398995058071 -0.026208981462584841 0 -0.14079925107272581 -0.02334449083682992 0 -0.1278640484455188 -0.012334690821253821 0 -0.12411398995058071 -0.026208981462584841 0 -0.14079925107272581 -0.02334449083682992 0 -0.13241258759658719 -0.044529255409706578 0 -0.13891648936515211 -0.064472249171247775 0 -0.13241258759658719 -0.044529255409706578 0 -0.14916280428309589 -0.053864076679432472 0 -0.12197003300458489 -0.067133964797042034 0 -0.13891648936515211 -0.064472249171247775 0 -0.13241258759658719 -0.044529255409706578 0 -0.14079925107272581 -0.02334449083682992 0 -0.13241258759658719 -0.044529255409706578 0 -0.15349169287978739 -0.035208883327978051 0 -0.14916280428309589 -0.053864076679432472 0 -0.15349169287978739 -0.035208883327978051 0 -0.16249228466986629 -0.048723367468166891 0 -0.13241258759658719 -0.044529255409706578 0 -0.14916280428309589 -0.053864076679432472 0 -0.15349169287978739 -0.035208883327978051 0 -0.15349169287978739 -0.035208883327978051 0 -0.16249228466986629 -0.048723367468166891 0 -0.17525401763441231 -0.025979499284370731 0 -0.16249228466986629 -0.048723367468166891 0 -0.17697140997157609 -0.049841549756239563 0 -0.17525401763441231 -0.025979499284370731 0 -0.1601060057786266 -0.063048208625582775 0 -0.14916280428309589 -0.053864076679432472 0 -0.16249228466986629 -0.048723367468166891 0 -0.1601060057786266 -0.063048208625582775 0 -0.16249228466986629 -0.048723367468166891 0 -0.1687761726195266 -0.062055246708151823 0 -0.16249228466986629 -0.048723367468166891 0 -0.1687761726195266 -0.062055246708151823 0 -0.17697140997157609 -0.049841549756239563 0 -0.17868880230873979 -0.073703600228108263 0 -0.17697140997157609 -0.049841549756239563 0 -0.17868880230873979 -0.073703600228108263 0 -0.17697140997157609 -0.049841549756239563 0 -0.1807163674973549 -0.058420493156073998 0 -0.17868880230873979 -0.073703600228108263 0 -0.1687761726195266 -0.062055246708151823 0 -0.17697140997157609 -0.049841549756239563 0 -0.17697140997157609 -0.049841549756239563 0 -0.187061179232277 -0.050545000195171969 0 -0.1807163674973549 -0.058420493156073998 0 -0.17697140997157609 -0.049841549756239563 0 -0.17525401763441231 -0.025979499284370731 0 -0.17697140997157609 -0.049841549756239563 0 -0.1844822702309237 -0.037308153316215523 0 -0.17525401763441231 -0.025979499284370731 0 -0.17697140997157609 -0.049841549756239563 0 -0.187061179232277 -0.050545000195171969 0 -0.1844822702309237 -0.037308153316215523 0 -0.1844822702309237 -0.037308153316215523 0 -0.17525401763441231 -0.025979499284370731 0 -0.19881160556081021 -0.01876222092397466 0 -0.17525401763441231 -0.025979499284370731 0 -0.17967452986780849 -0.0030086181600807401 0 -0.19881160556081021 -0.01876222092397466 0 -0.15349169287978739 -0.035208883327978051 0 -0.17525401763441231 -0.025979499284370731 0 -0.15939520176274349 -0.015620398581745401 0 -0.17525401763441231 -0.025979499284370731 0 -0.15939520176274349 -0.015620398581745401 0 -0.17967452986780849 -0.0030086181600807401 0 -0.15939520176274349 -0.015620398581745401 0 -0.15796117991031841 -0.00029962151665172479 0 -0.17967452986780849 -0.0030086181600807401 0 -0.17967452986780849 -0.0030086181600807401 0 -0.19881160556081021 -0.01876222092397466 0 -0.20680301002479959 -0.0020434230711429339 0 -0.1844822702309237 -0.037308153316215523 0 -0.19881160556081021 -0.01876222092397466 0 -0.19797908447346779 -0.034540675054344362 0 -0.19881160556081021 -0.01876222092397466 0 -0.19797908447346779 -0.034540675054344362 0 -0.2111815313078087 -0.036308133086206937 0 -0.19881160556081021 -0.01876222092397466 0 -0.2111815313078087 -0.036308133086206937 0 -0.19881160556081021 -0.01876222092397466 0 -0.2111815313078087 -0.036308133086206937 0 -0.21993326537292579 -0.016570742696256829 0 -0.19881160556081021 -0.01876222092397466 0 -0.20680301002479959 -0.0020434230711429339 0 -0.21993326537292579 -0.016570742696256829 0 -0.20680301002479959 -0.0020434230711429339 0 -0.21993326537292579 -0.016570742696256829 0 -0.22850437187820721 0.00061554774341724197 0 -0.187061179232277 -0.050545000195171969 0 -0.1807163674973549 -0.058420493156073998 0 -0.19569491766720151 -0.061370611856350392 0 -0.187061179232277 -0.050545000195171969 0 -0.19569491766720151 -0.061370611856350392 0 -0.1974409307943287 -0.045784192890980333 0 -0.19569491766720151 -0.061370611856350392 0 -0.1974409307943287 -0.045784192890980333 0 -0.20783277774853701 -0.056374475910446593 0 -0.187061179232277 -0.050545000195171969 0 -0.1844822702309237 -0.037308153316215523 0 -0.1974409307943287 -0.045784192890980333 0 -0.1844822702309237 -0.037308153316215523 0 -0.1974409307943287 -0.045784192890980333 0 -0.19797908447346779 -0.034540675054344362 0 -0.1974409307943287 -0.045784192890980333 0 -0.19797908447346779 -0.034540675054344362 0 -0.2111815313078087 -0.036308133086206937 0 -0.1974409307943287 -0.045784192890980333 0 -0.2111815313078087 -0.036308133086206937 0 -0.20783277774853701 -0.056374475910446593 0 -0.2111815313078087 -0.036308133086206937 0 -0.2235514570548072 -0.053854045248439182 0 -0.21482267827762841 -0.069082647852091478 0 -0.20783277774853701 -0.056374475910446593 0 -0.2235514570548072 -0.053854045248439182 0 -0.2111815313078087 -0.036308133086206937 0 -0.20783277774853701 -0.056374475910446593 0 -0.2235514570548072 -0.053854045248439182 0 -0.2359213828018043 -0.071399957410672343 0 -0.2235514570548072 -0.053854045248439182 0 -0.23385975453729951 -0.05448316257834377 0 -0.2235514570548072 -0.053854045248439182 0 -0.23385975453729951 -0.05448316257834377 0 -0.23195090370150159 -0.044148728843497582 0 -0.2111815313078087 -0.036308133086206937 0 -0.23195090370150159 -0.044148728843497582 0 -0.2330954250503823 -0.030605580137893669 0 -0.2111815313078087 -0.036308133086206937 0 -0.2235514570548072 -0.053854045248439182 0 -0.23195090370150159 -0.044148728843497582 0 -0.2440152745910836 -0.048529918810766987 0 -0.25210916638036568 -0.025659880210862549 0 -0.23195090370150159 -0.044148728843497582 0 -0.2440152745910836 -0.048529918810766987 0 -0.2330954250503823 -0.030605580137893669 0 -0.2440152745910836 -0.048529918810766987 0 -0.2330954250503823 -0.030605580137893669 0 -0.25210916638036568 -0.025659880210862549 0 -0.2359213828018043 -0.071399957410672343 0 -0.2440152745910836 -0.048529918810766987 0 -0.2460442741291925 -0.056732515276429897 0 -0.2359213828018043 -0.071399957410672343 0 -0.2440152745910836 -0.048529918810766987 0 -0.2359213828018043 -0.071399957410672343 0 -0.23385975453729951 -0.05448316257834377 0 -0.2440152745910836 -0.048529918810766987 0 -0.23385975453729951 -0.05448316257834377 0 -0.23195090370150159 -0.044148728843497582 0 -0.2440152745910836 -0.048529918810766987 0 -0.2440152745910836 -0.048529918810766987 0 -0.2460442741291925 -0.056732515276429897 0 -0.25586239660102372 -0.042106716883949957 0 -0.21993326537292579 -0.016570742696256829 0 -0.2409228609234593 -0.01213331886889705 0 -0.22850437187820721 0.00061554774341724197 0 -0.21993326537292579 -0.016570742696256829 0 -0.2330954250503823 -0.030605580137893669 0 -0.2409228609234593 -0.01213331886889705 0 -0.2111815313078087 -0.036308133086206937 0 -0.21993326537292579 -0.016570742696256829 0 -0.2330954250503823 -0.030605580137893669 0 -0.2330954250503823 -0.030605580137893669 0 -0.2409228609234593 -0.01213331886889705 0 -0.25210916638036568 -0.025659880210862549 0 -0.2409228609234593 -0.01213331886889705 0 -0.25132042997239518 0.0027134119798401068 0 -0.22850437187820721 0.00061554774341724197 0 -0.2409228609234593 -0.01213331886889705 0 -0.26431478179583978 -0.01186883573312463 0 -0.25132042997239518 0.0027134119798401068 0 -0.2409228609234593 -0.01213331886889705 0 -0.26431478179583978 -0.01186883573312463 0 -0.25210916638036568 -0.025659880210862549 0 -0.26431478179583978 -0.01186883573312463 0 -0.25210916638036568 -0.025659880210862549 0 -0.26885463380623098 -0.032431385670777198 0 -0.26431478179583978 -0.01186883573312463 0 -0.28272693982295583 -0.022072801118422261 0 -0.26885463380623098 -0.032431385670777198 0 -0.26431478179583978 -0.01186883573312463 0 -0.2820771903446922 -0.0013122005201030101 0 -0.28272693982295583 -0.022072801118422261 0 -0.26431478179583978 -0.01186883573312463 0 -0.2820771903446922 -0.0013122005201030101 0 -0.26646431581863778 0.01029557754540468 0 -0.2820771903446922 -0.0013122005201030101 0 -0.29531588189047731 -0.01459302740547606 0 -0.28272693982295583 -0.022072801118422261 0 -0.2820771903446922 -0.0013122005201030101 0 -0.29531588189047731 -0.01459302740547606 0 -0.30047775033007851 -0.00039401612408775783 0 -0.28272693982295583 -0.022072801118422261 0 -0.29548818451705972 -0.026431314805352931 0 -0.29006158744840338 -0.043009214960059237 0 -0.29531588189047731 -0.01459302740547606 0 -0.28272693982295583 -0.022072801118422261 0 -0.29548818451705972 -0.026431314805352931 0 -0.30546101391149699 -0.021623392358951481 0 -0.31536924438116293 -0.015921951660718081 0 -0.31269309410946189 -0.035953378537937578 0 -0.29531588189047731 -0.01459302740547606 0 -0.29548818451705972 -0.026431314805352931 0 -0.30546101391149699 -0.021623392358951481 0 -0.29548818451705972 -0.026431314805352931 0 -0.30546101391149699 -0.021623392358951481 0 -0.30306546886548719 -0.032455918975325043 0 -0.30546101391149699 -0.021623392358951481 0 -0.31269309410946189 -0.035953378537937578 0 -0.30546101391149699 -0.021623392358951481 0 -0.30306546886548719 -0.032455918975325043 0 -0.31269309410946189 -0.035953378537937578 0 -0.30546101391149699 -0.021623392358951481 0 -0.30702321298661528 -0.0098616365840560535 0 -0.31536924438116293 -0.015921951660718081 0 -0.30702321298661528 -0.0098616365840560535 0 -0.30047775033007851 -0.00039401612408775783 0 -0.31849217441985911 0.0032242046289520012 0 -0.29531588189047731 -0.01459302740547606 0 -0.30702321298661528 -0.0098616365840560535 0 -0.30047775033007851 -0.00039401612408775783 0 -0.29531588189047731 -0.01459302740547606 0 -0.30546101391149699 -0.021623392358951481 0 -0.30702321298661528 -0.0098616365840560535 0 -0.30785263576887473 -0.062005008750064983 0 -0.31269309410946189 -0.035953378537937578 0 -0.30785263576887473 -0.062005008750064983 0 -0.29006158744840338 -0.043009214960059237 0 -0.31269309410946189 -0.035953378537937578 0 -0.30306546886548719 -0.032455918975325043 0 -0.29006158744840338 -0.043009214960059237 0 -0.31269309410946189 -0.035953378537937578 0 -0.29006158744840338 -0.043009214960059237 0 -0.31269309410946189 -0.035953378537937578 0 -0.29548818451705972 -0.026431314805352931 0 -0.30306546886548719 -0.032455918975325043 0 -0.29006158744840338 -0.043009214960059237 0 -0.30785263576887473 -0.062005008750064983 0 -0.29006158744840338 -0.043009214960059237 0 -0.29043964680931811 -0.063340758069959313 0 -0.29006158744840338 -0.043009214960059237 0 -0.27571433008302992 -0.061323808156972907 0 -0.29043964680931811 -0.063340758069959313 0 -0.27571433008302992 -0.061323808156972907 0 -0.26805293078879788 -0.049870865118244581 0 -0.25908974683711639 -0.062912752445689821 0 -0.29006158744840338 -0.043009214960059237 0 -0.27571433008302992 -0.061323808156972907 0 -0.26805293078879788 -0.049870865118244581 0 -0.28272693982295583 -0.022072801118422261 0 -0.29006158744840338 -0.043009214960059237 0 -0.26885463380623098 -0.032431385670777198 0 -0.29006158744840338 -0.043009214960059237 0 -0.26805293078879788 -0.049870865118244581 0 -0.29006158744840338 -0.043009214960059237 0 -0.26805293078879788 -0.049870865118244581 0 -0.26885463380623098 -0.032431385670777198 0 -0.2440152745910836 -0.048529918810766987 0 -0.25210916638036568 -0.025659880210862549 0 -0.25586239660102372 -0.042106716883949957 0 -0.26805293078879788 -0.049870865118244581 0 -0.26885463380623098 -0.032431385670777198 0 -0.25586239660102372 -0.042106716883949957 0 -0.25210916638036568 -0.025659880210862549 0 -0.26885463380623098 -0.032431385670777198 0 -0.25586239660102372 -0.042106716883949957 0 -0.2460442741291925 -0.056732515276429897 0 -0.26805293078879788 -0.049870865118244581 0 -0.2460442741291925 -0.056732515276429897 0 -0.26805293078879788 -0.049870865118244581 0 -0.25908974683711639 -0.062912752445689821 0 -0.2460442741291925 -0.056732515276429897 0 -0.26805293078879788 -0.049870865118244581 0 -0.25586239660102372 -0.042106716883949957 0 -0.24621250417125429 -0.067242688607955695 0 -0.2460442741291925 -0.056732515276429897 0 -0.25908974683711639 -0.062912752445689821 0 -0.24621250417125429 -0.067242688607955695 0 -0.25908974683711639 -0.062912752445689821 0 -0.252754029676304 -0.071454636367457428 0 -0.24101683233652779 -0.07862751170581421 0 -0.252754029676304 -0.071454636367457428 0 -0.26402766811367417 -0.083484384069295273 0 -0.25908974683711639 -0.062912752445689821 0 -0.252754029676304 -0.071454636367457428 0 -0.26621243399467659 -0.070844567870559746 0 -0.252754029676304 -0.071454636367457428 0 -0.26402766811367417 -0.083484384069295273 0 -0.26621243399467659 -0.070844567870559746 0 -0.24101683233652779 -0.07862751170581421 0 -0.26402766811367417 -0.083484384069295273 0 -0.25454071313255938 -0.097810231909066098 0 -0.26402766811367417 -0.083484384069295273 0 -0.27094601368544552 -0.10060299140421709 0 -0.28369928052750421 -0.089996057638050242 0 -0.26402766811367417 -0.083484384069295273 0 -0.27947639526325851 -0.075047258313383283 0 -0.28369928052750421 -0.089996057638050242 0 -0.27571433008302992 -0.061323808156972907 0 -0.25908974683711639 -0.062912752445689821 0 -0.26621243399467659 -0.070844567870559746 0 -0.27571433008302992 -0.061323808156972907 0 -0.27947639526325851 -0.075047258313383283 0 -0.26621243399467659 -0.070844567870559746 0 -0.26402766811367417 -0.083484384069295273 0 -0.27947639526325851 -0.075047258313383283 0 -0.26621243399467659 -0.070844567870559746 0 -0.25700205454408459 -0.1228995308742117 0 -0.25028307647261949 -0.1119170655065333 0 -0.26806459392859111 -0.11699295211231781 0 -0.25700205454408459 -0.1228995308742117 0 -0.26806459392859111 -0.11699295211231781 0 -0.26633673802341562 -0.13121143084146969 0 -0.2466021228926524 -0.1215603100838341 0 -0.25700205454408459 -0.1228995308742117 0 -0.25028307647261949 -0.1119170655065333 0 -0.25454071313255938 -0.097810231909066098 0 -0.27094601368544552 -0.10060299140421709 0 -0.26806459392859111 -0.11699295211231781 0 -0.25028307647261949 -0.1119170655065333 0 -0.25454071313255938 -0.097810231909066098 0 -0.26806459392859111 -0.11699295211231781 0 -0.25454071313255938 -0.097810231909066098 0 -0.26806459392859111 -0.11699295211231781 0 -0.26402766811367417 -0.083484384069295273 0 -0.25454071313255938 -0.097810231909066098 0 -0.27094601368544552 -0.10060299140421709 0 -0.27094601368544552 -0.10060299140421709 0 -0.28498588272658609 -0.10953694176986691 0 -0.28369928052750421 -0.089996057638050242 0 -0.27094601368544552 -0.10060299140421709 0 -0.26806459392859111 -0.11699295211231781 0 -0.28498588272658609 -0.10953694176986691 0 -0.26806459392859111 -0.11699295211231781 0 -0.28498588272658609 -0.10953694176986691 0 -0.26633673802341562 -0.13121143084146969 0 -0.28498588272658609 -0.10953694176986691 0 -0.26633673802341562 -0.13121143084146969 0 -0.28390483366507108 -0.12795146285425149 0 -0.28498588272658609 -0.10953694176986691 0 -0.26633673802341562 -0.13121143084146969 0 -0.28498588272658609 -0.10953694176986691 0 -0.29939047470698632 -0.1138850881088251 0 -0.28390483366507108 -0.12795146285425149 0 -0.28498588272658609 -0.10953694176986691 0 -0.29939047470698632 -0.1138850881088251 0 -0.30363502742975002 -0.087862452698258112 0 -0.28498588272658609 -0.10953694176986691 0 -0.28369928052750421 -0.089996057638050242 0 -0.30363502742975002 -0.087862452698258112 0 -0.28498588272658609 -0.10953694176986691 0 -0.30363502742975002 -0.087862452698258112 0 -0.31112038415555038 -0.105912916312301 0 -0.30363502742975002 -0.087862452698258112 0 -0.31872509099925939 -0.09489525911115787 0 -0.29939047470698632 -0.1138850881088251 0 -0.30363502742975002 -0.087862452698258112 0 -0.31112038415555038 -0.105912916312301 0 -0.29939047470698632 -0.1138850881088251 0 -0.30363502742975002 -0.087862452698258112 0 -0.31112038415555038 -0.105912916312301 0 -0.29939047470698632 -0.1138850881088251 0 -0.3108150907057583 -0.123289039988229 0 -0.27571433008302992 -0.061323808156972907 0 -0.27947639526325851 -0.075047258313383283 0 -0.29043964680931811 -0.063340758069959313 0 -0.27947639526325851 -0.075047258313383283 0 -0.29326350469267087 -0.075637034816957854 0 -0.29043964680931811 -0.063340758069959313 0 -0.27947639526325851 -0.075047258313383283 0 -0.29326350469267087 -0.075637034816957854 0 -0.28369928052750421 -0.089996057638050242 0 -0.29326350469267087 -0.075637034816957854 0 -0.28369928052750421 -0.089996057638050242 0 -0.30363502742975002 -0.087862452698258112 0 -0.30363502742975002 -0.087862452698258112 0 -0.3147457864693044 -0.074949258596716542 0 -0.31872509099925939 -0.09489525911115787 0 -0.30363502742975002 -0.087862452698258112 0 -0.3147457864693044 -0.074949258596716542 0 -0.30785263576887473 -0.062005008750064983 0 -0.29326350469267087 -0.075637034816957854 0 -0.30363502742975002 -0.087862452698258112 0 -0.30785263576887473 -0.062005008750064983 0 -0.30363502742975002 -0.087862452698258112 0 -0.3147457864693044 -0.074949258596716542 0 -0.30785263576887473 -0.062005008750064983 0 -0.29326350469267087 -0.075637034816957854 0 -0.29043964680931811 -0.063340758069959313 0 -0.30785263576887473 -0.062005008750064983 0 -0.30363502742975002 -0.087862452698258112 0 -0.3147457864693044 -0.074949258596716542 0 -0.3258565455088529 -0.062036064495169851 0 -0.3147457864693044 -0.074949258596716542 0 -0.33306166037992252 -0.0763126202985034 0 -0.3258565455088529 -0.062036064495169851 0 -0.30785263576887473 -0.062005008750064983 0 -0.3147457864693044 -0.074949258596716542 0 -0.3258565455088529 -0.062036064495169851 0 -0.3147457864693044 -0.074949258596716542 0 -0.32890001459834822 -0.087516828956376788 0 -0.31872509099925939 -0.09489525911115787 0 -0.3147457864693044 -0.074949258596716542 0 -0.32890001459834822 -0.087516828956376788 0 -0.33306166037992252 -0.0763126202985034 0 -0.32890001459834822 -0.087516828956376788 0 -0.34026677525099192 -0.090589176101837157 0 -0.33306166037992252 -0.0763126202985034 0 -0.34026677525099192 -0.090589176101837157 0 -0.33306166037992252 -0.0763126202985034 0 -0.34026677525099192 -0.090589176101837157 0 -0.33306166037992252 -0.0763126202985034 0 -0.34512097989852569 -0.077376017677512551 0 -0.3363426704622316 -0.065040097883454634 0 -0.33306166037992252 -0.0763126202985034 0 -0.34512097989852569 -0.077376017677512551 0 -0.3363426704622316 -0.065040097883454634 0 -0.34775082305034588 -0.06364522302323769 0 -0.34512097989852569 -0.077376017677512551 0 -0.33306166037992252 -0.0763126202985034 0 -0.3258565455088529 -0.062036064495169851 0 -0.3363426704622316 -0.065040097883454634 0 -0.33306166037992252 -0.0763126202985034 0 -0.3258565455088529 -0.062036064495169851 0 -0.31112038415555038 -0.105912916312301 0 -0.3108150907057583 -0.123289039988229 0 -0.32269556115348802 -0.1134475374517785 0 -0.32269556115348802 -0.1134475374517785 0 -0.33213803149032362 -0.1206207689722909 0 -0.32288905220234743 -0.1288405143651869 0 -0.3108150907057583 -0.123289039988229 0 -0.32269556115348802 -0.1134475374517785 0 -0.32288905220234743 -0.1288405143651869 0 -0.32269556115348802 -0.1134475374517785 0 -0.31872509099925939 -0.09489525911115787 0 -0.33360553934550968 -0.1041906416325506 0 -0.31112038415555038 -0.105912916312301 0 -0.32269556115348802 -0.1134475374517785 0 -0.31872509099925939 -0.09489525911115787 0 -0.32890001459834822 -0.087516828956376788 0 -0.31872509099925939 -0.09489525911115787 0 -0.33360553934550968 -0.1041906416325506 0 -0.3434725512788051 -0.1026137903417853 0 -0.33360553934550968 -0.1041906416325506 0 -0.3466874303271234 -0.11958926053505441 0 -0.32890001459834822 -0.087516828956376788 0 -0.34026677525099192 -0.090589176101837157 0 -0.33360553934550968 -0.1041906416325506 0 -0.34026677525099192 -0.090589176101837157 0 -0.3434725512788051 -0.1026137903417853 0 -0.33360553934550968 -0.1041906416325506 0 -0.33360553934550968 -0.1041906416325506 0 -0.33213803149032362 -0.1206207689722909 0 -0.3466874303271234 -0.11958926053505441 0 -0.32269556115348802 -0.1134475374517785 0 -0.33360553934550968 -0.1041906416325506 0 -0.33213803149032362 -0.1206207689722909 0 -0.3466874303271234 -0.11958926053505441 0 -0.36980343247362518 -0.1100922289949047 0 -0.35999293180258313 -0.1258522389537349 0 -0.3466874303271234 -0.11958926053505441 0 -0.35333046019159542 -0.096086083097699004 0 -0.36980343247362518 -0.1100922289949047 0 -0.3434725512788051 -0.1026137903417853 0 -0.3466874303271234 -0.11958926053505441 0 -0.35333046019159542 -0.096086083097699004 0 -0.3466874303271234 -0.11958926053505441 0 -0.35333046019159542 -0.096086083097699004 0 -0.34026677525099192 -0.090589176101837157 0 -0.3434725512788051 -0.1026137903417853 0 -0.35333046019159542 -0.096086083097699004 0 -0.35333046019159542 -0.096086083097699004 0 -0.36980343247362518 -0.1100922289949047 0 -0.37347114863240299 -0.089088331268139143 0 -0.36980343247362518 -0.1100922289949047 0 -0.35999293180258313 -0.1258522389537349 0 -0.37152802352755399 -0.13164580699010159 0 -0.36980343247362518 -0.1100922289949047 0 -0.37152802352755399 -0.13164580699010159 0 -0.38235470820745771 -0.123978498660336 0 -0.34775082305034588 -0.06364522302323769 0 -0.35997349005606738 -0.07258290566034345 0 -0.36099236519079719 -0.058965157594587259 0 -0.34775082305034588 -0.06364522302323769 0 -0.34512097989852569 -0.077376017677512551 0 -0.35997349005606738 -0.07258290566034345 0 -0.35333046019159542 -0.096086083097699004 0 -0.35997349005606738 -0.07258290566034345 0 -0.35333046019159542 -0.096086083097699004 0 -0.34512097989852569 -0.077376017677512551 0 -0.35997349005606738 -0.07258290566034345 0 -0.34026677525099192 -0.090589176101837157 0 -0.35333046019159542 -0.096086083097699004 0 -0.34512097989852569 -0.077376017677512551 0 -0.35333046019159542 -0.096086083097699004 0 -0.37347114863240299 -0.089088331268139143 0 -0.35997349005606738 -0.07258290566034345 0 -0.37347114863240299 -0.089088331268139143 0 -0.35997349005606738 -0.07258290566034345 0 -0.37513495807632252 -0.068027960422620465 0 -0.35997349005606738 -0.07258290566034345 0 -0.36099236519079719 -0.058965157594587259 0 -0.37513495807632252 -0.068027960422620465 0 -0.37357085562444819 -0.050327950541553881 0 -0.36099236519079719 -0.058965157594587259 0 -0.37513495807632252 -0.068027960422620465 0 -0.37357085562444819 -0.050327950541553881 0 -0.36080282922430701 -0.047544586661118063 0 -0.36099236519079719 -0.058965157594587259 0 -0.34775082305034588 -0.06364522302323769 0 -0.36099236519079719 -0.058965157594587259 0 -0.34872123511329239 -0.051662319258650009 0 -0.36080282922430701 -0.047544586661118063 0 -0.36099236519079719 -0.058965157594587259 0 -0.34872123511329239 -0.051662319258650009 0 -0.34775082305034588 -0.06364522302323769 0 -0.34872123511329239 -0.051662319258650009 0 -0.33906118872719399 -0.055758100993783748 0 -0.35023980363822049 -0.040197400203048239 0 -0.3638826905141766 -0.035463803005797899 0 -0.34258176142245139 -0.029723406047678591 0 -0.35023980363822049 -0.040197400203048239 0 -0.34258176142245139 -0.029723406047678591 0 -0.35023980363822049 -0.040197400203048239 0 -0.34258176142245139 -0.029723406047678591 0 -0.33960488145915169 -0.038902248398748569 0 -0.34872123511329239 -0.051662319258650009 0 -0.35023980363822049 -0.040197400203048239 0 -0.33950963895876157 -0.046563850177851397 0 -0.36080282922430701 -0.047544586661118063 0 -0.35023980363822049 -0.040197400203048239 0 -0.3638826905141766 -0.035463803005797899 0 -0.36080282922430701 -0.047544586661118063 0 -0.34872123511329239 -0.051662319258650009 0 -0.35023980363822049 -0.040197400203048239 0 -0.37357085562444819 -0.050327950541553881 0 -0.3638826905141766 -0.035463803005797899 0 -0.38712728366555788 -0.02974425569958293 0 -0.37357085562444819 -0.050327950541553881 0 -0.36080282922430701 -0.047544586661118063 0 -0.3638826905141766 -0.035463803005797899 0 -0.3638826905141766 -0.035463803005797899 0 -0.36897360951007507 -0.015245218881805699 0 -0.38712728366555788 -0.02974425569958293 0 -0.36897360951007507 -0.015245218881805699 0 -0.38465333842141641 -0.0066435457767305304 0 -0.36979036210562988 0.0025511841975563729 0 -0.36897360951007507 -0.015245218881805699 0 -0.35319748844548088 -0.0026450940697062141 0 -0.36979036210562988 0.0025511841975563729 0 -0.36897360951007507 -0.015245218881805699 0 -0.35319748844548088 -0.0026450940697062141 0 -0.36897360951007507 -0.015245218881805699 0 -0.35319748844548088 -0.0026450940697062141 0 -0.34557514790129729 -0.01385186480739395 0 -0.35319748844548088 -0.0026450940697062141 0 -0.34557514790129729 -0.01385186480739395 0 -0.33742136738088668 0.0099550307423931228 0 -0.36897360951007507 -0.015245218881805699 0 -0.34557514790129729 -0.01385186480739395 0 -0.34258176142245139 -0.029723406047678591 0 -0.3638826905141766 -0.035463803005797899 0 -0.36897360951007507 -0.015245218881805699 0 -0.34258176142245139 -0.029723406047678591 0 -0.36897360951007507 -0.015245218881805699 0 -0.34258176142245139 -0.029723406047678591 0 -0.34258176142245139 -0.029723406047678591 0 -0.33053696792115572 -0.013249600709362951 0 -0.34557514790129729 -0.01385186480739395 0 -0.34258176142245139 -0.029723406047678591 0 -0.33053696792115572 -0.013249600709362951 0 -0.34258176142245139 -0.029723406047678591 0 -0.33123792958382192 -0.02655418191443467 0 -0.33053696792115572 -0.013249600709362951 0 -0.33123792958382192 -0.02655418191443467 0 -0.33053696792115572 -0.013249600709362951 0 -0.32518110448499649 -0.02265309324021984 0 -0.33123792958382192 -0.02655418191443467 0 -0.32494971957893121 -0.032132124138264453 0 -0.33294009451157502 -0.035012685436647553 0 -0.34258176142245139 -0.029723406047678591 0 -0.33123792958382192 -0.02655418191443467 0 -0.33294009451157502 -0.035012685436647553 0 -0.33053696792115572 -0.013249600709362951 0 -0.31849217441985911 0.0032242046289520012 0 -0.33742136738088668 0.0099550307423931228 0 -0.34557514790129729 -0.01385186480739395 0 -0.33053696792115572 -0.013249600709362951 0 -0.33742136738088668 0.0099550307423931228 0 -0.30702321298661528 -0.0098616365840560535 0 -0.31536924438116293 -0.015921951660718081 0 -0.31849217441985911 0.0032242046289520012 0 -0.31536924438116293 -0.015921951660718081 0 -0.31849217441985911 0.0032242046289520012 0 -0.33053696792115572 -0.013249600709362951 0 -0.31849217441985911 0.0032242046289520012 0 -0.33053696792115572 -0.013249600709362951 0 -0.31536924438116293 -0.015921951660718081 0 -0.31849217441985911 0.0032242046289520012 0 -0.31536924438116293 -0.015921951660718081 0 -0.31269309410946189 -0.035953378537937578 0 -0.31536924438116293 -0.015921951660718081 0 -0.3196636581113782 -0.026330909640423061 0 -0.31269309410946189 -0.035953378537937578 0 -0.33123792958382192 -0.02655418191443467 0 -0.32518110448499649 -0.02265309324021984 0 -0.32494971957893121 -0.032132124138264453 0 -0.32518110448499649 -0.02265309324021984 0 -0.3196636581113782 -0.026330909640423061 0 -0.32494971957893121 -0.032132124138264453 0 -0.33053696792115572 -0.013249600709362951 0 -0.32518110448499649 -0.02265309324021984 0 -0.31536924438116293 -0.015921951660718081 0 -0.32518110448499649 -0.02265309324021984 0 -0.31536924438116293 -0.015921951660718081 0 -0.3196636581113782 -0.026330909640423061 0 -0.31269309410946189 -0.035953378537937578 0 -0.32494971957893121 -0.032132124138264453 0 -0.3196636581113782 -0.026330909640423061 0 -0.31269309410946189 -0.035953378537937578 0 -0.32494971957893121 -0.032132124138264453 0 -0.32589239144387999 -0.038804272667940308 0 -0.32494971957893121 -0.032132124138264453 0 -0.33294009451157502 -0.035012685436647553 0 -0.31269309410946189 -0.035953378537937578 0 -0.32589239144387999 -0.038804272667940308 0 -0.32494971957893121 -0.032132124138264453 0 -0.31269309410946189 -0.035953378537937578 0 -0.32589239144387999 -0.038804272667940308 0 -0.32612594025468172 -0.0479092750983348 0 -0.31269309410946189 -0.035953378537937578 0 -0.3258565455088529 -0.062036064495169851 0 -0.32612594025468172 -0.0479092750983348 0 -0.30785263576887473 -0.062005008750064983 0 -0.31269309410946189 -0.035953378537937578 0 -0.3258565455088529 -0.062036064495169851 0 -0.31269309410946189 -0.035953378537937578 0 -0.3258565455088529 -0.062036064495169851 0 -0.3258565455088529 -0.062036064495169851 0 -0.32612594025468172 -0.0479092750983348 0 -0.32948021068586231 -0.057824552786275359 0 -0.3258565455088529 -0.062036064495169851 0 -0.32948021068586231 -0.057824552786275359 0 -0.33273312926745618 -0.050000536382928867 0 -0.32948021068586231 -0.057824552786275359 0 -0.33906118872719399 -0.055758100993783748 0 -0.32612594025468172 -0.0479092750983348 0 -0.33273312926745618 -0.050000536382928867 0 -0.32948021068586231 -0.057824552786275359 0 -0.32612594025468172 -0.0479092750983348 0 -0.33273312926745618 -0.050000536382928867 0 -0.33275310876475001 -0.043013900128517107 0 -0.3363426704622316 -0.065040097883454634 0 -0.32948021068586231 -0.057824552786275359 0 -0.33906118872719399 -0.055758100993783748 0 -0.3363426704622316 -0.065040097883454634 0 -0.3258565455088529 -0.062036064495169851 0 -0.32948021068586231 -0.057824552786275359 0 -0.3363426704622316 -0.065040097883454634 0 -0.34775082305034588 -0.06364522302323769 0 -0.33906118872719399 -0.055758100993783748 0 -0.34872123511329239 -0.051662319258650009 0 -0.33906118872719399 -0.055758100993783748 0 -0.33950963895876157 -0.046563850177851397 0 -0.33273312926745618 -0.050000536382928867 0 -0.33906118872719399 -0.055758100993783748 0 -0.33950963895876157 -0.046563850177851397 0 -0.35023980363822049 -0.040197400203048239 0 -0.33950963895876157 -0.046563850177851397 0 -0.33960488145915169 -0.038902248398748569 0 -0.33950963895876157 -0.046563850177851397 0 -0.33960488145915169 -0.038902248398748569 0 -0.33275310876475001 -0.043013900128517107 0 -0.34258176142245139 -0.029723406047678591 0 -0.33294009451157502 -0.035012685436647553 0 -0.34258176142245139 -0.029723406047678591 0 -0.33960488145915169 -0.038902248398748569 0 -0.33294009451157502 -0.035012685436647553 0 -0.32589239144387999 -0.038804272667940308 0 -0.33294009451157502 -0.035012685436647553 0 -0.33275310876475001 -0.043013900128517107 0 -0.33960488145915169 -0.038902248398748569 0 -0.33294009451157502 -0.035012685436647553 0 -0.33275310876475001 -0.043013900128517107 0 -0.32589239144387999 -0.038804272667940308 0 -0.32612594025468172 -0.0479092750983348 0 -0.33275310876475001 -0.043013900128517107 0 -0.33273312926745618 -0.050000536382928867 0 -0.33950963895876157 -0.046563850177851397 0 -0.33275310876475001 -0.043013900128517107 0 -0.3072444938386063 -0.24298546540808871 0 -0.29465074886808879 -0.2402547820199166 0 -0.31547147842988582 -0.2330670094454039 0 -0.29465074886808879 -0.2402547820199166 0 -0.31547147842988582 -0.2330670094454039 0 -0.31283906540333922 -0.25031215033235238 0 -0.3072444938386063 -0.24298546540808871 0 -0.31547147842988582 -0.2330670094454039 0 -0.29948497002523827 -0.2483657822867901 0 -0.3072444938386063 -0.24298546540808871 0 -0.29465074886808879 -0.2402547820199166 0 -0.29948497002523827 -0.2483657822867901 0 -0.3072444938386063 -0.24298546540808871 0 -0.30623861516307299 -0.24935013043731349 0 -0.31283906540333922 -0.25031215033235238 0 -0.3072444938386063 -0.24298546540808871 0 -0.30623861516307299 -0.24935013043731349 0 -0.30340245666429422 -0.2199120115188499 0 -0.29465074886808879 -0.2402547820199166 0 -0.31547147842988582 -0.2330670094454039 0 -0.30340245666429422 -0.2199120115188499 0 -0.31790591229007997 -0.21133065133653661 0 -0.31547147842988582 -0.2330670094454039 0 -0.30340245666429422 -0.2199120115188499 0 -0.29465074886808879 -0.2402547820199166 0 -0.28241226381596191 -0.21797562975109799 0 -0.29465074886808879 -0.2402547820199166 0 -0.27816771109320582 -0.2439982651616662 0 -0.28241226381596191 -0.21797562975109799 0 -0.29465074886808879 -0.2402547820199166 0 -0.27383001930629169 -0.24744255459442921 0 -0.28942662192718172 -0.25357945894426132 0 -0.29465074886808879 -0.2402547820199166 0 -0.27383001930629169 -0.24744255459442921 0 -0.29465074886808879 -0.2402547820199166 0 -0.27816771109320582 -0.2439982651616662 0 -0.27383001930629169 -0.24744255459442921 0 -0.28942662192718172 -0.25357945894426132 0 -0.29948497002523827 -0.2483657822867901 0 -0.29465074886808879 -0.2402547820199166 0 -0.27816771109320582 -0.2439982651616662 0 -0.27383001930629169 -0.24744255459442921 0 -0.26926560585898118 -0.2360615599669478 0 -0.27383001930629169 -0.24744255459442921 0 -0.26926560585898118 -0.2360615599669478 0 -0.25855016474293108 -0.24143028331881861 0 -0.27383001930629169 -0.24744255459442921 0 -0.25855016474293108 -0.24143028331881861 0 -0.2565674865322034 -0.25340195958415102 0 -0.27383001930629169 -0.24744255459442921 0 -0.25855016474293108 -0.24143028331881861 0 -0.26926560585898118 -0.2360615599669478 0 -0.25855016474293108 -0.24143028331881861 0 -0.25588924886857078 -0.22577026586403889 0 -0.24327031017957049 -0.23541801204320789 0 -0.25855016474293108 -0.24143028331881861 0 -0.24327031017957049 -0.23541801204320789 0 -0.25855016474293108 -0.24143028331881861 0 -0.25018128361314113 -0.24746468840205441 0 -0.2565674865322034 -0.25340195958415102 0 -0.25855016474293108 -0.24143028331881861 0 -0.25018128361314113 -0.24746468840205441 0 -0.24327031017957049 -0.23541801204320789 0 -0.25855016474293108 -0.24143028331881861 0 -0.25588924886857078 -0.22577026586403889 0 -0.26926560585898118 -0.2360615599669478 0 -0.25588924886857078 -0.22577026586403889 0 -0.26783798195298542 -0.22189041659364681 0 -0.27816771109320582 -0.2439982651616662 0 -0.26926560585898118 -0.2360615599669478 0 -0.28241226381596191 -0.21797562975109799 0 -0.26926560585898118 -0.2360615599669478 0 -0.26783798195298542 -0.22189041659364681 0 -0.28241226381596191 -0.21797562975109799 0 -0.27816771109320582 -0.2439982651616662 0 -0.28241226381596191 -0.21797562975109799 0 -0.26378480926842768 -0.2077542107925027 0 -0.286656816538718 -0.19195299434052959 0 -0.28241226381596191 -0.21797562975109799 0 -0.26783798195298542 -0.22189041659364681 0 -0.26378480926842768 -0.2077542107925027 0 -0.28241226381596191 -0.21797562975109799 0 -0.25588924886857078 -0.22577026586403889 0 -0.26783798195298542 -0.22189041659364681 0 -0.26378480926842768 -0.2077542107925027 0 -0.2448317244682672 -0.19494017856122331 0 -0.24405101732391901 -0.2151790953022156 0 -0.26378480926842768 -0.2077542107925027 0 -0.24405101732391901 -0.2151790953022156 0 -0.25588924886857078 -0.22577026586403889 0 -0.26378480926842768 -0.2077542107925027 0 -0.2448317244682672 -0.19494017856122331 0 -0.26378480926842768 -0.2077542107925027 0 -0.26312512204060101 -0.18530650416748581 0 -0.26378480926842768 -0.2077542107925027 0 -0.286656816538718 -0.19195299434052959 0 -0.26312512204060101 -0.18530650416748581 0 -0.286656816538718 -0.19195299434052959 0 -0.28241226381596191 -0.21797562975109799 0 -0.30591086076688379 -0.19847336016990141 0 -0.286656816538718 -0.19195299434052959 0 -0.28241226381596191 -0.21797562975109799 0 -0.30340245666429422 -0.2199120115188499 0 -0.28241226381596191 -0.21797562975109799 0 -0.30591086076688379 -0.19847336016990141 0 -0.30340245666429422 -0.2199120115188499 0 -0.30591086076688379 -0.19847336016990141 0 -0.31790591229007997 -0.21133065133653661 0 -0.286656816538718 -0.19195299434052959 0 -0.30591086076688379 -0.19847336016990141 0 -0.31180552805921091 -0.17430838359622669 0 -0.31180552805921091 -0.17430838359622669 0 -0.29090136926147409 -0.16593035892996141 0 -0.30878195228896921 -0.15303576335633209 0 -0.286656816538718 -0.19195299434052959 0 -0.29090136926147409 -0.16593035892996141 0 -0.286656816538718 -0.19195299434052959 0 -0.31180552805921091 -0.17430838359622669 0 -0.29090136926147409 -0.16593035892996141 0 -0.286656816538718 -0.19195299434052959 0 -0.29090136926147409 -0.16593035892996141 0 -0.27584707269233227 -0.1739466899300364 0 -0.27584707269233227 -0.1739466899300364 0 -0.26312512204060101 -0.18530650416748581 0 -0.26138401805284373 -0.16490714025156239 0 -0.286656816538718 -0.19195299434052959 0 -0.27584707269233227 -0.1739466899300364 0 -0.26312512204060101 -0.18530650416748581 0 -0.2448317244682672 -0.19494017856122331 0 -0.24561243161261531 -0.1747012618202311 0 -0.26312512204060101 -0.18530650416748581 0 -0.24561243161261531 -0.1747012618202311 0 -0.26312512204060101 -0.18530650416748581 0 -0.26138401805284373 -0.16490714025156239 0 -0.27584707269233227 -0.1739466899300364 0 -0.26138401805284373 -0.16490714025156239 0 -0.27641132505293098 -0.14990407015019561 0 -0.29090136926147409 -0.16593035892996141 0 -0.27584707269233227 -0.1739466899300364 0 -0.27641132505293098 -0.14990407015019561 0 -0.27641132505293098 -0.14990407015019561 0 -0.26295491861235881 -0.14972714028907499 0 -0.26633673802341562 -0.13121143084146969 0 -0.26138401805284373 -0.16490714025156239 0 -0.27641132505293098 -0.14990407015019561 0 -0.26295491861235881 -0.14972714028907499 0 -0.24768759332024501 -0.15288591991307249 0 -0.26633673802341562 -0.13121143084146969 0 -0.24768759332024501 -0.15288591991307249 0 -0.26295491861235881 -0.14972714028907499 0 -0.26633673802341562 -0.13121143084146969 0 -0.24768759332024501 -0.15288591991307249 0 -0.26138401805284373 -0.16490714025156239 0 -0.26295491861235881 -0.14972714028907499 0 -0.25700205454408459 -0.1228995308742117 0 -0.25066558347885931 -0.13251764995053431 0 -0.26633673802341562 -0.13121143084146969 0 -0.24768759332024501 -0.15288591991307249 0 -0.25066558347885931 -0.13251764995053431 0 -0.26633673802341562 -0.13121143084146969 0 -0.2466021228926524 -0.1215603100838341 0 -0.25700205454408459 -0.1228995308742117 0 -0.25066558347885931 -0.13251764995053431 0 -0.27641132505293098 -0.14990407015019561 0 -0.26633673802341562 -0.13121143084146969 0 -0.28390483366507108 -0.12795146285425149 0 -0.27641132505293098 -0.14990407015019561 0 -0.29514592198423018 -0.13990772351939329 0 -0.28390483366507108 -0.12795146285425149 0 -0.29939047470698632 -0.1138850881088251 0 -0.29514592198423018 -0.13990772351939329 0 -0.28390483366507108 -0.12795146285425149 0 -0.29090136926147409 -0.16593035892996141 0 -0.27641132505293098 -0.14990407015019561 0 -0.29514592198423018 -0.13990772351939329 0 -0.29090136926147409 -0.16593035892996141 0 -0.29514592198423018 -0.13990772351939329 0 -0.29514592198423018 -0.13990772351939329 0 -0.30878195228896921 -0.15303576335633209 0 -0.31204687939749698 -0.1371714365216575 0 -0.29090136926147409 -0.16593035892996141 0 -0.29514592198423018 -0.13990772351939329 0 -0.30878195228896921 -0.15303576335633209 0 -0.3108150907057583 -0.123289039988229 0 -0.29514592198423018 -0.13990772351939329 0 -0.31204687939749698 -0.1371714365216575 0 -0.29939047470698632 -0.1138850881088251 0 -0.3108150907057583 -0.123289039988229 0 -0.29514592198423018 -0.13990772351939329 0 -0.29939047470698632 -0.1138850881088251 0 -0.29514592198423018 -0.13990772351939329 0 -0.32288905220234743 -0.1288405143651869 0 -0.32258299715563782 -0.14068177926995709 0 -0.33321030378869931 -0.13646686722665249 0 -0.3108150907057583 -0.123289039988229 0 -0.31204687939749698 -0.1371714365216575 0 -0.32288905220234743 -0.1288405143651869 0 -0.31204687939749698 -0.1371714365216575 0 -0.32288905220234743 -0.1288405143651869 0 -0.32258299715563782 -0.14068177926995709 0 -0.30878195228896921 -0.15303576335633209 0 -0.32482557091518699 -0.15217937608711771 0 -0.32258299715563782 -0.14068177926995709 0 -0.30878195228896921 -0.15303576335633209 0 -0.31204687939749698 -0.1371714365216575 0 -0.32258299715563782 -0.14068177926995709 0 -0.32482557091518699 -0.15217937608711771 0 -0.32258299715563782 -0.14068177926995709 0 -0.33321030378869931 -0.13646686722665249 0 -0.32482557091518699 -0.15217937608711771 0 -0.34004440046265172 -0.14309243797241011 0 -0.33321030378869931 -0.13646686722665249 0 -0.34004440046265172 -0.14309243797241011 0 -0.35498504575946821 -0.15757720561970059 0 -0.3332048416520596 -0.1672909388971599 0 -0.34004440046265172 -0.14309243797241011 0 -0.3332048416520596 -0.1672909388971599 0 -0.32482557091518699 -0.15217937608711771 0 -0.34004440046265172 -0.14309243797241011 0 -0.3332048416520596 -0.1672909388971599 0 -0.3466874303271234 -0.11958926053505441 0 -0.34004440046265172 -0.14309243797241011 0 -0.33213803149032362 -0.1206207689722909 0 -0.32288905220234743 -0.1288405143651869 0 -0.33321030378869931 -0.13646686722665249 0 -0.33213803149032362 -0.1206207689722909 0 -0.3466874303271234 -0.11958926053505441 0 -0.33321030378869931 -0.13646686722665249 0 -0.3466874303271234 -0.11958926053505441 0 -0.34004440046265172 -0.14309243797241011 0 -0.33321030378869931 -0.13646686722665249 0 -0.34004440046265172 -0.14309243797241011 0 -0.33321030378869931 -0.13646686722665249 0 -0.3466874303271234 -0.11958926053505441 0 -0.35676717686891291 -0.14006723761877321 0 -0.35999293180258313 -0.1258522389537349 0 -0.3466874303271234 -0.11958926053505441 0 -0.34004440046265172 -0.14309243797241011 0 -0.35676717686891291 -0.14006723761877321 0 -0.35676717686891291 -0.14006723761877321 0 -0.37152802352755399 -0.13164580699010159 0 -0.37069541475874412 -0.1487336244607225 0 -0.35676717686891291 -0.14006723761877321 0 -0.35999293180258313 -0.1258522389537349 0 -0.37152802352755399 -0.13164580699010159 0 -0.35676717686891291 -0.14006723761877321 0 -0.37069541475874412 -0.1487336244607225 0 -0.35498504575946821 -0.15757720561970059 0 -0.37069541475874412 -0.1487336244607225 0 -0.35498504575946821 -0.15757720561970059 0 -0.37692746124962329 -0.16011968929401549 0 -0.37152802352755399 -0.13164580699010159 0 -0.37069541475874412 -0.1487336244607225 0 -0.38190833683646341 -0.1417380771930716 0 -0.34004440046265172 -0.14309243797241011 0 -0.35676717686891291 -0.14006723761877321 0 -0.35498504575946821 -0.15757720561970059 0 -0.34004440046265172 -0.14309243797241011 0 -0.35498504575946821 -0.15757720561970059 0 -0.35102499454429859 -0.17065527247529391 0 -0.35498504575946821 -0.15757720561970059 0 -0.36992569105628492 -0.1720619732669908 0 -0.35102499454429859 -0.17065527247529391 0 -0.35498504575946821 -0.15757720561970059 0 -0.3332048416520596 -0.1672909388971599 0 -0.35498504575946821 -0.15757720561970059 0 -0.36992569105628492 -0.1720619732669908 0 -0.37692746124962329 -0.16011968929401549 0 -0.35498504575946821 -0.15757720561970059 0 -0.36992569105628492 -0.1720619732669908 0 -0.36802329911298681 -0.18587483615006681 0 -0.36992569105628492 -0.1720619732669908 0 -0.38452179946839471 -0.1862127167391712 0 -0.36802329911298681 -0.18587483615006681 0 -0.36992569105628492 -0.1720619732669908 0 -0.34598439970938172 -0.18569097211732419 0 -0.35102499454429859 -0.17065527247529391 0 -0.36992569105628492 -0.1720619732669908 0 -0.34598439970938172 -0.18569097211732419 0 -0.36992569105628492 -0.1720619732669908 0 -0.34598439970938172 -0.18569097211732419 0 -0.35102499454429859 -0.17065527247529391 0 -0.34598439970938172 -0.18569097211732419 0 -0.3332048416520596 -0.1672909388971599 0 -0.34598439970938172 -0.18569097211732419 0 -0.3332048416520596 -0.1672909388971599 0 -0.32636528284146782 -0.19148943982190991 0 -0.3332048416520596 -0.1672909388971599 0 -0.32636528284146782 -0.19148943982190991 0 -0.31180552805921091 -0.17430838359622669 0 -0.32482557091518699 -0.15217937608711771 0 -0.3332048416520596 -0.1672909388971599 0 -0.31180552805921091 -0.17430838359622669 0 -0.30878195228896921 -0.15303576335633209 0 -0.32482557091518699 -0.15217937608711771 0 -0.31180552805921091 -0.17430838359622669 0 -0.3332048416520596 -0.1672909388971599 0 -0.32636528284146782 -0.19148943982190991 0 -0.30591086076688379 -0.19847336016990141 0 -0.32636528284146782 -0.19148943982190991 0 -0.31790591229007997 -0.21133065133653661 0 -0.30591086076688379 -0.19847336016990141 0 -0.31180552805921091 -0.17430838359622669 0 -0.32636528284146782 -0.19148943982190991 0 -0.32636528284146782 -0.19148943982190991 0 -0.31790591229007997 -0.21133065133653661 0 -0.33039187961118982 -0.20742389982875531 0 -0.31790591229007997 -0.21133065133653661 0 -0.33039187961118982 -0.20742389982875531 0 -0.32870803705144969 -0.21844997174213321 0 -0.33039187961118982 -0.20742389982875531 0 -0.32870803705144969 -0.21844997174213321 0 -0.33850246058748812 -0.21389845468103499 0 -0.32870803705144969 -0.21844997174213321 0 -0.33850246058748812 -0.21389845468103499 0 -0.33596699493009807 -0.21993263715474329 0 -0.33850246058748812 -0.21389845468103499 0 -0.34687159193856038 -0.2183762197826761 0 -0.3403652740897718 -0.22150288532491411 0 -0.33850246058748812 -0.21389845468103499 0 -0.3403652740897718 -0.22150288532491411 0 -0.33596699493009807 -0.21993263715474329 0 -0.33039187961118982 -0.20742389982875531 0 -0.33850246058748812 -0.21389845468103499 0 -0.34047770528546362 -0.2019509815621614 0 -0.33850246058748812 -0.21389845468103499 0 -0.34047770528546362 -0.2019509815621614 0 -0.34737571748628571 -0.2101963969508848 0 -0.34598439970938172 -0.18569097211732419 0 -0.32636528284146782 -0.19148943982190991 0 -0.34047770528546362 -0.2019509815621614 0 -0.32636528284146782 -0.19148943982190991 0 -0.33039187961118982 -0.20742389982875531 0 -0.34047770528546362 -0.2019509815621614 0 -0.34598439970938172 -0.18569097211732419 0 -0.35303310702934909 -0.20231631441727971 0 -0.36343771537771569 -0.19566750525459251 0 -0.34598439970938172 -0.18569097211732419 0 -0.34047770528546362 -0.2019509815621614 0 -0.35303310702934909 -0.20231631441727971 0 -0.36802329911298681 -0.18587483615006681 0 -0.34598439970938172 -0.18569097211732419 0 -0.36343771537771569 -0.19566750525459251 0 -0.35303310702934909 -0.20231631441727971 0 -0.36343771537771569 -0.19566750525459251 0 -0.36388592792924168 -0.20758305467352059 0 -0.36343771537771569 -0.19566750525459251 0 -0.37301156641091737 -0.20337184000283479 0 -0.36388592792924168 -0.20758305467352059 0 -0.36343771537771569 -0.19566750525459251 0 -0.37438048369549509 -0.19384422148204511 0 -0.37301156641091737 -0.20337184000283479 0 -0.36802329911298681 -0.18587483615006681 0 -0.36343771537771569 -0.19566750525459251 0 -0.37438048369549509 -0.19384422148204511 0 -0.37273312771996808 -0.21396345107145709 0 -0.37301156641091737 -0.20337184000283479 0 -0.36388592792924168 -0.20758305467352059 0 -0.37273312771996808 -0.21396345107145709 0 -0.36388592792924168 -0.20758305467352059 0 -0.36460053442081081 -0.21946742083422599 0 -0.36388592792924168 -0.20758305467352059 0 -0.35626724818121019 -0.21440977701126371 0 -0.36460053442081081 -0.21946742083422599 0 -0.35626724818121019 -0.21440977701126371 0 -0.34687159193856038 -0.2183762197826761 0 -0.35361393690670712 -0.22275298964725909 0 -0.35303310702934909 -0.20231631441727971 0 -0.36388592792924168 -0.20758305467352059 0 -0.35626724818121019 -0.21440977701126371 0 -0.35303310702934909 -0.20231631441727971 0 -0.35626724818121019 -0.21440977701126371 0 -0.34737571748628571 -0.2101963969508848 0 -0.34047770528546362 -0.2019509815621614 0 -0.35303310702934909 -0.20231631441727971 0 -0.34737571748628571 -0.2101963969508848 0 -0.33850246058748812 -0.21389845468103499 0 -0.34737571748628571 -0.2101963969508848 0 -0.34687159193856038 -0.2183762197826761 0 -0.35626724818121019 -0.21440977701126371 0 -0.34737571748628571 -0.2101963969508848 0 -0.34687159193856038 -0.2183762197826761 0 -0.34687159193856038 -0.2183762197826761 0 -0.3448729074691318 -0.22568858673477191 0 -0.3403652740897718 -0.22150288532491411 0 -0.34687159193856038 -0.2183762197826761 0 -0.3448729074691318 -0.22568858673477191 0 -0.35361393690670712 -0.22275298964725909 0 -0.3448729074691318 -0.22568858673477191 0 -0.35311939258201253 -0.23120947699362049 0 -0.35361393690670712 -0.22275298964725909 0 -0.3448729074691318 -0.22568858673477191 0 -0.35311939258201253 -0.23120947699362049 0 -0.3466300329275056 -0.23782645962689411 0 -0.35311939258201253 -0.23120947699362049 0 -0.35361393690670712 -0.22275298964725909 0 -0.36278739720748587 -0.22937453583313699 0 -0.35311939258201253 -0.23120947699362049 0 -0.36278739720748587 -0.22937453583313699 0 -0.35743223323550471 -0.2390192939344549 0 -0.35626724818121019 -0.21440977701126371 0 -0.35361393690670712 -0.22275298964725909 0 -0.36460053442081081 -0.21946742083422599 0 -0.36460053442081081 -0.21946742083422599 0 -0.36278739720748587 -0.22937453583313699 0 -0.37306962678156358 -0.22430756502184571 0 -0.35361393690670712 -0.22275298964725909 0 -0.36460053442081081 -0.21946742083422599 0 -0.36278739720748587 -0.22937453583313699 0 -0.36278739720748587 -0.22937453583313699 0 -0.37393716339703942 -0.23401667981853819 0 -0.37306962678156358 -0.22430756502184571 0 -0.36278739720748587 -0.22937453583313699 0 -0.37393716339703942 -0.23401667981853819 0 -0.36594725961251939 -0.23889039006825119 0 -0.37273312771996808 -0.21396345107145709 0 -0.36460053442081081 -0.21946742083422599 0 -0.37306962678156358 -0.22430756502184571 0 -0.37393540655460039 -0.25504906339868932 0 -0.37362469669529808 -0.24416340610428999 0 -0.363557814049559 -0.2486896754833777 0 -0.37362469669529808 -0.24416340610428999 0 -0.36594725961251939 -0.23889039006825119 0 -0.363557814049559 -0.2486896754833777 0 -0.37393716339703942 -0.23401667981853819 0 -0.37362469669529808 -0.24416340610428999 0 -0.36594725961251939 -0.23889039006825119 0 -0.36278739720748587 -0.22937453583313699 0 -0.36594725961251939 -0.23889039006825119 0 -0.35743223323550471 -0.2390192939344549 0 -0.36594725961251939 -0.23889039006825119 0 -0.363557814049559 -0.2486896754833777 0 -0.35743223323550471 -0.2390192939344549 0 -0.363557814049559 -0.2486896754833777 0 -0.35255150303394622 -0.24812522560144931 0 -0.35743223323550471 -0.2390192939344549 0 -0.35311939258201253 -0.23120947699362049 0 -0.35743223323550471 -0.2390192939344549 0 -0.3466300329275056 -0.23782645962689411 0 -0.35255150303394622 -0.24812522560144931 0 -0.35743223323550471 -0.2390192939344549 0 -0.3466300329275056 -0.23782645962689411 0 -0.35255150303394622 -0.24812522560144931 0 -0.3466300329275056 -0.23782645962689411 0 -0.3420777495351906 -0.24844208584564559 0 -0.33131030172746923 -0.25321851497678438 0 -0.33373364759712132 -0.2373308373461466 0 -0.32202724095639168 -0.2495658441092535 0 -0.33131030172746923 -0.25321851497678438 0 -0.33373364759712132 -0.2373308373461466 0 -0.33131030172746923 -0.25321851497678438 0 -0.3420777495351906 -0.24844208584564559 0 -0.33373364759712132 -0.2373308373461466 0 -0.3466300329275056 -0.23782645962689411 0 -0.3420777495351906 -0.24844208584564559 0 -0.33373364759712132 -0.2373308373461466 0 -0.3448729074691318 -0.22568858673477191 0 -0.33373364759712132 -0.2373308373461466 0 -0.33513500532203722 -0.22814340766163391 0 -0.3448729074691318 -0.22568858673477191 0 -0.33373364759712132 -0.2373308373461466 0 -0.3448729074691318 -0.22568858673477191 0 -0.3466300329275056 -0.23782645962689411 0 -0.33373364759712132 -0.2373308373461466 0 -0.3362922079916828 -0.22587923687089109 0 -0.33513500532203722 -0.22814340766163391 0 -0.31547147842988582 -0.2330670094454039 0 -0.3448729074691318 -0.22568858673477191 0 -0.3362922079916828 -0.22587923687089109 0 -0.33513500532203722 -0.22814340766163391 0 -0.3448729074691318 -0.22568858673477191 0 -0.3403652740897718 -0.22150288532491411 0 -0.3362922079916828 -0.22587923687089109 0 -0.3403652740897718 -0.22150288532491411 0 -0.3362922079916828 -0.22587923687089109 0 -0.33596699493009807 -0.21993263715474329 0 -0.32870803705144969 -0.21844997174213321 0 -0.3362922079916828 -0.22587923687089109 0 -0.33596699493009807 -0.21993263715474329 0 -0.33373364759712132 -0.2373308373461466 0 -0.33513500532203722 -0.22814340766163391 0 -0.31790591229007997 -0.21133065133653661 0 -0.32870803705144969 -0.21844997174213321 0 -0.31547147842988582 -0.2330670094454039 0 -0.3362922079916828 -0.22587923687089109 0 -0.31547147842988582 -0.2330670094454039 0 -0.32870803705144969 -0.21844997174213321 0 -0.3362922079916828 -0.22587923687089109 0 -0.31547147842988582 -0.2330670094454039 0 -0.33373364759712132 -0.2373308373461466 0 -0.33513500532203722 -0.22814340766163391 0 -0.31547147842988582 -0.2330670094454039 0 -0.33373364759712132 -0.2373308373461466 0 -0.31547147842988582 -0.2330670094454039 0 -0.32202724095639168 -0.2495658441092535 0 -0.31283906540333922 -0.25031215033235238 0 -0.31547147842988582 -0.2330670094454039 0 -0.32202724095639168 -0.2495658441092535 0 -0.33373364759712132 -0.2373308373461466 0 -0.32202724095639168 -0.2495658441092535 0 -0.42931567121415071 -0.25028064732030619 0 -0.41974440223132548 -0.2277223948390894 0 -0.42931567121415071 -0.25028064732030619 0 -0.43665732485841618 -0.24137016429136929 0 -0.41974440223132548 -0.2277223948390894 0 -0.43487007995442373 -0.25384069753834382 0 -0.42931567121415071 -0.25028064732030619 0 -0.43665732485841618 -0.24137016429136929 0 -0.43665732485841618 -0.24137016429136929 0 -0.41974440223132548 -0.2277223948390894 0 -0.44277641758923081 -0.23102430468348881 0 -0.43377720402095787 -0.21991138490827611 0 -0.41974440223132548 -0.2277223948390894 0 -0.44277641758923081 -0.23102430468348881 0 -0.43377720402095787 -0.21991138490827611 0 -0.41974440223132548 -0.2277223948390894 0 -0.42075205755079043 -0.21398522646416529 0 -0.41974440223132548 -0.2277223948390894 0 -0.40847937369743209 -0.24258689873782929 0 -0.40379864078896821 -0.22147517947459039 0 -0.42931567121415071 -0.25028064732030619 0 -0.41974440223132548 -0.2277223948390894 0 -0.40847937369743209 -0.24258689873782929 0 -0.3945867816951415 -0.25828321704239809 0 -0.40847937369743209 -0.24258689873782929 0 -0.3933004523496676 -0.24484402304582939 0 -0.40847937369743209 -0.24258689873782929 0 -0.3933004523496676 -0.24484402304582939 0 -0.39478669289115392 -0.23309544567896751 0 -0.3933004523496676 -0.24484402304582939 0 -0.38349803953804651 -0.2389949919606586 0 -0.38258347849844832 -0.24967798674395081 0 -0.3933004523496676 -0.24484402304582939 0 -0.38349803953804651 -0.2389949919606586 0 -0.39478669289115392 -0.23309544567896751 0 -0.37393716339703942 -0.23401667981853819 0 -0.37362469669529808 -0.24416340610428999 0 -0.38349803953804651 -0.2389949919606586 0 -0.37393540655460039 -0.25504906339868932 0 -0.37362469669529808 -0.24416340610428999 0 -0.38258347849844832 -0.24967798674395081 0 -0.37362469669529808 -0.24416340610428999 0 -0.38349803953804651 -0.2389949919606586 0 -0.38258347849844832 -0.24967798674395081 0 -0.37306962678156358 -0.22430756502184571 0 -0.38469596054732291 -0.22836918992304631 0 -0.38295547739377761 -0.21861943378263729 0 -0.37273312771996808 -0.21396345107145709 0 -0.37306962678156358 -0.22430756502184571 0 -0.38295547739377761 -0.21861943378263729 0 -0.37393716339703942 -0.23401667981853819 0 -0.38349803953804651 -0.2389949919606586 0 -0.38469596054732291 -0.22836918992304631 0 -0.37393716339703942 -0.23401667981853819 0 -0.37306962678156358 -0.22430756502184571 0 -0.38469596054732291 -0.22836918992304631 0 -0.38349803953804651 -0.2389949919606586 0 -0.38469596054732291 -0.22836918992304631 0 -0.39478669289115392 -0.23309544567896751 0 -0.38469596054732291 -0.22836918992304631 0 -0.39264909581396568 -0.2229573829789786 0 -0.38295547739377761 -0.21861943378263729 0 -0.39264909581396568 -0.2229573829789786 0 -0.39478669289115392 -0.23309544567896751 0 -0.40379864078896821 -0.22147517947459039 0 -0.40847937369743209 -0.24258689873782929 0 -0.39478669289115392 -0.23309544567896751 0 -0.40379864078896821 -0.22147517947459039 0 -0.40847937369743209 -0.24258689873782929 0 -0.40379864078896821 -0.22147517947459039 0 -0.39264909581396568 -0.2229573829789786 0 -0.40379864078896821 -0.22147517947459039 0 -0.39247153470499518 -0.2129117927155128 0 -0.38469596054732291 -0.22836918992304631 0 -0.39264909581396568 -0.2229573829789786 0 -0.39478669289115392 -0.23309544567896751 0 -0.40379864078896821 -0.22147517947459039 0 -0.39911790788050461 -0.2003634602113514 0 -0.40379864078896821 -0.22147517947459039 0 -0.39247153470499518 -0.2129117927155128 0 -0.39911790788050461 -0.2003634602113514 0 -0.40379864078896821 -0.22147517947459039 0 -0.40520524043689871 -0.20626505254016059 0 -0.39911790788050461 -0.2003634602113514 0 -0.40520524043689871 -0.20626505254016059 0 -0.39911790788050461 -0.2003634602113514 0 -0.41017313324850019 -0.2051641423578727 0 -0.40520524043689871 -0.20626505254016059 0 -0.39911790788050461 -0.2003634602113514 0 -0.39247153470499518 -0.2129117927155128 0 -0.38971867217429529 -0.20303686442097379 0 -0.39911790788050461 -0.2003634602113514 0 -0.39247153470499518 -0.2129117927155128 0 -0.38295547739377761 -0.21861943378263729 0 -0.38211351879485039 -0.2092072209849834 0 -0.39264909581396568 -0.2229573829789786 0 -0.39247153470499518 -0.2129117927155128 0 -0.38295547739377761 -0.21861943378263729 0 -0.38211351879485039 -0.2092072209849834 0 -0.38151862494823319 -0.19996558655041019 0 -0.38971867217429529 -0.20303686442097379 0 -0.39247153470499518 -0.2129117927155128 0 -0.38211351879485039 -0.2092072209849834 0 -0.38971867217429529 -0.20303686442097379 0 -0.37273312771996808 -0.21396345107145709 0 -0.37301156641091737 -0.20337184000283479 0 -0.38211351879485039 -0.2092072209849834 0 -0.37301156641091737 -0.20337184000283479 0 -0.38211351879485039 -0.2092072209849834 0 -0.38151862494823319 -0.19996558655041019 0 -0.37273312771996808 -0.21396345107145709 0 -0.38295547739377761 -0.21861943378263729 0 -0.38211351879485039 -0.2092072209849834 0 -0.36802329911298681 -0.18587483615006681 0 -0.37438048369549509 -0.19384422148204511 0 -0.38452179946839471 -0.1862127167391712 0 -0.38151862494823319 -0.19996558655041019 0 -0.38971867217429529 -0.20303686442097379 0 -0.38452179946839471 -0.1862127167391712 0 -0.37438048369549509 -0.19384422148204511 0 -0.38151862494823319 -0.19996558655041019 0 -0.38452179946839471 -0.1862127167391712 0 -0.37438048369549509 -0.19384422148204511 0 -0.37301156641091737 -0.20337184000283479 0 -0.38151862494823319 -0.19996558655041019 0 -0.39911790788050461 -0.2003634602113514 0 -0.39550730918059213 -0.18407841519480589 0 -0.38452179946839471 -0.1862127167391712 0 -0.39911790788050461 -0.2003634602113514 0 -0.40135005364381798 -0.19305297691017151 0 -0.39550730918059213 -0.18407841519480589 0 -0.39911790788050461 -0.2003634602113514 0 -0.39550730918059213 -0.18407841519480589 0 -0.38971867217429529 -0.20303686442097379 0 -0.39911790788050461 -0.2003634602113514 0 -0.38452179946839471 -0.1862127167391712 0 -0.41017313324850019 -0.2051641423578727 0 -0.40060186426567512 -0.18260588987665591 0 -0.40135005364381798 -0.19305297691017151 0 -0.41017313324850019 -0.2051641423578727 0 -0.40060186426567512 -0.18260588987665591 0 -0.39911790788050461 -0.2003634602113514 0 -0.38452179946839471 -0.1862127167391712 0 -0.39911790788050461 -0.2003634602113514 0 -0.40135005364381798 -0.19305297691017151 0 -0.41017313324850019 -0.2051641423578727 0 -0.40882722491020068 -0.19324634934951379 0 -0.40670914653930851 -0.1871811045826946 0 -0.40060186426567512 -0.18260588987665591 0 -0.40882722491020068 -0.19324634934951379 0 -0.41182634361573828 -0.18846823012601879 0 -0.40670914653930851 -0.1871811045826946 0 -0.40882722491020068 -0.19324634934951379 0 -0.41017313324850019 -0.2051641423578727 0 -0.40060186426567512 -0.18260588987665591 0 -0.40882722491020068 -0.19324634934951379 0 -0.41332632127240471 -0.19520135196246871 0 -0.41182634361573828 -0.18846823012601879 0 -0.41182634361573828 -0.18846823012601879 0 -0.42015528071935893 -0.19373976728588371 0 -0.42086010939994178 -0.18624419393877539 0 -0.41332632127240471 -0.19520135196246871 0 -0.41182634361573828 -0.18846823012601879 0 -0.42015528071935893 -0.19373976728588371 0 -0.42015528071935893 -0.19373976728588371 0 -0.41596892406105851 -0.2005599774501266 0 -0.4250272884910265 -0.2012921483654643 0 -0.41596892406105851 -0.2005599774501266 0 -0.41798035083784391 -0.20525037365940721 0 -0.4250272884910265 -0.2012921483654643 0 -0.41332632127240471 -0.19520135196246871 0 -0.42015528071935893 -0.19373976728588371 0 -0.41596892406105851 -0.2005599774501266 0 -0.41596892406105851 -0.2005599774501266 0 -0.41190905555667651 -0.19876129696974801 0 -0.41017313324850019 -0.2051641423578727 0 -0.40882722491020068 -0.19324634934951379 0 -0.41190905555667651 -0.19876129696974801 0 -0.41017313324850019 -0.2051641423578727 0 -0.40882722491020068 -0.19324634934951379 0 -0.41332632127240471 -0.19520135196246871 0 -0.41190905555667651 -0.19876129696974801 0 -0.41332632127240471 -0.19520135196246871 0 -0.41596892406105851 -0.2005599774501266 0 -0.41190905555667651 -0.19876129696974801 0 -0.41974440223132548 -0.2277223948390894 0 -0.40379864078896821 -0.22147517947459039 0 -0.41017313324850019 -0.2051641423578727 0 -0.41974440223132548 -0.2277223948390894 0 -0.41017313324850019 -0.2051641423578727 0 -0.42075205755079043 -0.21398522646416529 0 -0.40379864078896821 -0.22147517947459039 0 -0.40520524043689871 -0.20626505254016059 0 -0.41017313324850019 -0.2051641423578727 0 -0.41974440223132548 -0.2277223948390894 0 -0.41017313324850019 -0.2051641423578727 0 -0.41017313324850019 -0.2051641423578727 0 -0.42075205755079043 -0.21398522646416529 0 -0.41798035083784391 -0.20525037365940721 0 -0.42075205755079043 -0.21398522646416529 0 -0.41798035083784391 -0.20525037365940721 0 -0.4250272884910265 -0.2012921483654643 0 -0.41596892406105851 -0.2005599774501266 0 -0.41017313324850019 -0.2051641423578727 0 -0.41798035083784391 -0.20525037365940721 0 -0.42075205755079043 -0.21398522646416529 0 -0.43601245252430942 -0.20793643678791121 0 -0.4250272884910265 -0.2012921483654643 0 -0.43377720402095787 -0.21991138490827611 0 -0.42075205755079043 -0.21398522646416529 0 -0.43601245252430942 -0.20793643678791121 0 -0.42704416580793209 -0.1915833167308334 0 -0.4250272884910265 -0.2012921483654643 0 -0.43829012180726529 -0.19322062900912909 0 -0.43601245252430942 -0.20793643678791121 0 -0.4250272884910265 -0.2012921483654643 0 -0.43829012180726529 -0.19322062900912909 0 -0.42704416580793209 -0.1915833167308334 0 -0.43088802862206788 -0.18341984505491449 0 -0.43829012180726529 -0.19322062900912909 0 -0.42015528071935893 -0.19373976728588371 0 -0.42704416580793209 -0.1915833167308334 0 -0.42086010939994178 -0.18624419393877539 0 -0.42015528071935893 -0.19373976728588371 0 -0.42704416580793209 -0.1915833167308334 0 -0.4250272884910265 -0.2012921483654643 0 -0.4285734277027195 -0.1734756855885477 0 -0.43088802862206788 -0.18341984505491449 0 -0.41995474680429618 -0.17713819565942951 0 -0.42704416580793209 -0.1915833167308334 0 -0.43088802862206788 -0.18341984505491449 0 -0.42086010939994178 -0.18624419393877539 0 -0.43088802862206788 -0.18341984505491449 0 -0.41995474680429618 -0.17713819565942951 0 -0.42086010939994178 -0.18624419393877539 0 -0.43088802862206788 -0.18341984505491449 0 -0.44104422433457419 -0.1777922577957152 0 -0.43829012180726529 -0.19322062900912909 0 -0.4285734277027195 -0.1734756855885477 0 -0.43088802862206788 -0.18341984505491449 0 -0.44104422433457419 -0.1777922577957152 0 -0.4285734277027195 -0.1734756855885477 0 -0.4344270590450659 -0.1609053943072484 0 -0.44104422433457419 -0.1777922577957152 0 -0.4285734277027195 -0.1734756855885477 0 -0.4344270590450659 -0.1609053943072484 0 -0.4151480566294905 -0.1680004084026471 0 -0.4151480566294905 -0.1680004084026471 0 -0.40323096316088519 -0.16793215078578741 0 -0.41306883257355248 -0.1475019853524365 0 -0.4344270590450659 -0.1609053943072484 0 -0.4151480566294905 -0.1680004084026471 0 -0.41306883257355248 -0.1475019853524365 0 -0.4151480566294905 -0.1680004084026471 0 -0.40690801218449152 -0.1762036959065488 0 -0.40323096316088519 -0.16793215078578741 0 -0.4151480566294905 -0.1680004084026471 0 -0.40690801218449152 -0.1762036959065488 0 -0.4136865446123984 -0.1757543503219206 0 -0.40690801218449152 -0.1762036959065488 0 -0.4136865446123984 -0.1757543503219206 0 -0.41273536283131562 -0.1816751013190569 0 -0.4151480566294905 -0.1680004084026471 0 -0.4136865446123984 -0.1757543503219206 0 -0.41995474680429618 -0.17713819565942951 0 -0.4285734277027195 -0.1734756855885477 0 -0.4151480566294905 -0.1680004084026471 0 -0.41995474680429618 -0.17713819565942951 0 -0.4136865446123984 -0.1757543503219206 0 -0.41995474680429618 -0.17713819565942951 0 -0.41273536283131562 -0.1816751013190569 0 -0.41995474680429618 -0.17713819565942951 0 -0.42086010939994178 -0.18624419393877539 0 -0.41273536283131562 -0.1816751013190569 0 -0.41182634361573828 -0.18846823012601879 0 -0.42086010939994178 -0.18624419393877539 0 -0.41273536283131562 -0.1816751013190569 0 -0.41182634361573828 -0.18846823012601879 0 -0.41273536283131562 -0.1816751013190569 0 -0.4077561458873058 -0.18322680436219499 0 -0.40690801218449152 -0.1762036959065488 0 -0.41273536283131562 -0.1816751013190569 0 -0.4077561458873058 -0.18322680436219499 0 -0.41182634361573828 -0.18846823012601879 0 -0.4077561458873058 -0.18322680436219499 0 -0.40670914653930851 -0.1871811045826946 0 -0.39550730918059213 -0.18407841519480589 0 -0.38736231178750308 -0.177259124355894 0 -0.39189671048067998 -0.1677933701782604 0 -0.40135005364381798 -0.19305297691017151 0 -0.40060186426567512 -0.18260588987665591 0 -0.39550730918059213 -0.18407841519480589 0 -0.4077561458873058 -0.18322680436219499 0 -0.40670914653930851 -0.1871811045826946 0 -0.40060186426567512 -0.18260588987665591 0 -0.39550730918059213 -0.18407841519480589 0 -0.39189671048067998 -0.1677933701782604 0 -0.40060186426567512 -0.18260588987665591 0 -0.39550730918059213 -0.18407841519480589 0 -0.39189671048067998 -0.1677933701782604 0 -0.40690801218449152 -0.1762036959065488 0 -0.4077561458873058 -0.18322680436219499 0 -0.40060186426567512 -0.18260588987665591 0 -0.40690801218449152 -0.1762036959065488 0 -0.40060186426567512 -0.18260588987665591 0 -0.40323096316088519 -0.16793215078578741 0 -0.36992569105628492 -0.1720619732669908 0 -0.38736231178750308 -0.177259124355894 0 -0.39189671048067998 -0.1677933701782604 0 -0.36992569105628492 -0.1720619732669908 0 -0.38452179946839471 -0.1862127167391712 0 -0.38736231178750308 -0.177259124355894 0 -0.39550730918059213 -0.18407841519480589 0 -0.38452179946839471 -0.1862127167391712 0 -0.38736231178750308 -0.177259124355894 0 -0.36992569105628492 -0.1720619732669908 0 -0.38452179946839471 -0.1862127167391712 0 -0.36992569105628492 -0.1720619732669908 0 -0.37692746124962329 -0.16011968929401549 0 -0.39103059528285172 -0.16004763739543851 0 -0.36992569105628492 -0.1720619732669908 0 -0.39189671048067998 -0.1677933701782604 0 -0.39103059528285172 -0.16004763739543851 0 -0.36992569105628492 -0.1720619732669908 0 -0.39103059528285172 -0.16004763739543851 0 -0.37692746124962329 -0.16011968929401549 0 -0.39103059528285172 -0.16004763739543851 0 -0.38828980922767731 -0.15358795645443499 0 -0.39103059528285172 -0.16004763739543851 0 -0.38828980922767731 -0.15358795645443499 0 -0.40060186426567512 -0.18260588987665591 0 -0.39103059528285172 -0.16004763739543851 0 -0.40323096316088519 -0.16793215078578741 0 -0.40060186426567512 -0.18260588987665591 0 -0.39189671048067998 -0.1677933701782604 0 -0.39103059528285172 -0.16004763739543851 0 -0.40060186426567512 -0.18260588987665591 0 -0.39103059528285172 -0.16004763739543851 0 -0.39103059528285172 -0.16004763739543851 0 -0.40323096316088519 -0.16793215078578741 0 -0.41306883257355248 -0.1475019853524365 0 -0.39103059528285172 -0.16004763739543851 0 -0.39795981207507403 -0.14502431583870179 0 -0.41306883257355248 -0.1475019853524365 0 -0.39795981207507403 -0.14502431583870179 0 -0.40633267592073652 -0.13102661860532899 0 -0.41306883257355248 -0.1475019853524365 0 -0.39103059528285172 -0.16004763739543851 0 -0.41306883257355248 -0.1475019853524365 0 -0.39103059528285172 -0.16004763739543851 0 -0.39795981207507403 -0.14502431583870179 0 -0.38828980922767731 -0.15358795645443499 0 -0.39795981207507403 -0.14502431583870179 0 -0.38828980922767731 -0.15358795645443499 0 -0.38190833683646341 -0.1417380771930716 0 -0.38828980922767731 -0.15358795645443499 0 -0.38190833683646341 -0.1417380771930716 0 -0.37945525551812698 -0.15104483685056111 0 -0.37069541475874412 -0.1487336244607225 0 -0.38190833683646341 -0.1417380771930716 0 -0.37945525551812698 -0.15104483685056111 0 -0.37692746124962329 -0.16011968929401549 0 -0.38828980922767731 -0.15358795645443499 0 -0.37945525551812698 -0.15104483685056111 0 -0.37069541475874412 -0.1487336244607225 0 -0.37692746124962329 -0.16011968929401549 0 -0.37945525551812698 -0.15104483685056111 0 -0.37152802352755399 -0.13164580699010159 0 -0.38190833683646341 -0.1417380771930716 0 -0.38235470820745771 -0.123978498660336 0 -0.38190833683646341 -0.1417380771930716 0 -0.39228294530364349 -0.13316426080004001 0 -0.38235470820745771 -0.123978498660336 0 -0.39228294530364349 -0.13316426080004001 0 -0.40633267592073652 -0.13102661860532899 0 -0.39306930808202878 -0.1142539450673672 0 -0.39795981207507403 -0.14502431583870179 0 -0.38190833683646341 -0.1417380771930716 0 -0.39228294530364349 -0.13316426080004001 0 -0.39795981207507403 -0.14502431583870179 0 -0.39228294530364349 -0.13316426080004001 0 -0.40633267592073652 -0.13102661860532899 0 -0.40633267592073652 -0.13102661860532899 0 -0.42371591628165239 -0.12841039464220819 0 -0.41294233195137359 -0.116724400289887 0 -0.40633267592073652 -0.13102661860532899 0 -0.41306883257355248 -0.1475019853524365 0 -0.42371591628165239 -0.12841039464220819 0 -0.4344270590450659 -0.1609053943072484 0 -0.41306883257355248 -0.1475019853524365 0 -0.43782831476482847 -0.1415704877041897 0 -0.41306883257355248 -0.1475019853524365 0 -0.42371591628165239 -0.12841039464220819 0 -0.43782831476482847 -0.1415704877041897 0 -0.42371591628165239 -0.12841039464220819 0 -0.43782831476482847 -0.1415704877041897 0 -0.44295770465017009 -0.12292285668534771 0 -0.43782831476482847 -0.1415704877041897 0 -0.45407528277834919 -0.1346042898317954 0 -0.44295770465017009 -0.12292285668534771 0 -0.43782831476482847 -0.1415704877041897 0 -0.45305184803309972 -0.15210272433296521 0 -0.45407528277834919 -0.1346042898317954 0 -0.4344270590450659 -0.1609053943072484 0 -0.43782831476482847 -0.1415704877041897 0 -0.45305184803309972 -0.15210272433296521 0 -0.45305184803309972 -0.15210272433296521 0 -0.45407528277834919 -0.1346042898317954 0 -0.47213782278640881 -0.13623393318828281 0 -0.45305184803309972 -0.15210272433296521 0 -0.47213782278640881 -0.13623393318828281 0 -0.46702369577757719 -0.16066454859793791 0 -0.45407528277834919 -0.1346042898317954 0 -0.47213782278640881 -0.13623393318828281 0 -0.46296805171726468 -0.11640170438458371 0 -0.47213782278640881 -0.13623393318828281 0 -0.5 -0.14556247672259531 0 -0.48245330698995931 -0.121898764666846 0 -0.5 -0.14556247672259531 0 -0.48245330698995931 -0.121898764666846 0 -0.50000000000000089 -0.1198938119733675 0 -0.47213782278640881 -0.13623393318828281 0 -0.5 -0.14556247672259531 0 -0.48142521519093828 -0.15645589086587239 0 -0.47213782278640881 -0.13623393318828281 0 -0.48142521519093828 -0.15645589086587239 0 -0.47213782278640881 -0.13623393318828281 0 -0.48142521519093828 -0.15645589086587239 0 -0.46702369577757719 -0.16066454859793791 0 -0.48142521519093828 -0.15645589086587239 0 -0.47632052375980027 -0.17461649056753861 0 -0.46702369577757719 -0.16066454859793791 0 -0.48142521519093828 -0.15645589086587239 0 -0.49071260759546798 -0.17667784854346191 0 -0.47632052375980027 -0.17461649056753861 0 -0.47632052375980027 -0.17461649056753861 0 -0.46570520523623959 -0.1757931846103527 0 -0.46702369577757719 -0.16066454859793791 0 -0.48142521519093828 -0.15645589086587239 0 -0.49071260759546798 -0.17667784854346191 0 -0.5 -0.14556247672259531 0 -0.48142521519093828 -0.15645589086587239 0 -0.5 -0.17123114147182319 0 -0.48142521519093828 -0.15645589086587239 0 -0.5 -0.17123114147182319 0 -0.49071260759546798 -0.17667784854346191 0 -0.49071260759546798 -0.17667784854346191 0 -0.49999999999999861 -0.19689980622105099 0 -0.5 -0.17123114147182319 0 -0.49071260759546798 -0.17667784854346191 0 -0.49999999999999861 -0.19689980622105099 0 -0.49071260759546798 -0.17667784854346191 0 -0.47632052375980027 -0.17461649056753861 0 -0.47993034859498662 -0.18922987045237161 0 -0.47632052375980027 -0.17461649056753861 0 -0.46763136520864318 -0.18653340036078911 0 -0.46570520523623959 -0.1757931846103527 0 -0.47632052375980027 -0.17461649056753861 0 -0.46763136520864318 -0.18653340036078911 0 -0.47993034859498662 -0.18922987045237161 0 -0.46570520523623959 -0.1757931846103527 0 -0.45350155965897682 -0.1687850680226157 0 -0.45596312027128949 -0.18794868189772959 0 -0.46763136520864318 -0.18653340036078911 0 -0.46570520523623959 -0.1757931846103527 0 -0.45596312027128949 -0.18794868189772959 0 -0.45305184803309972 -0.15210272433296521 0 -0.46702369577757719 -0.16066454859793791 0 -0.45350155965897682 -0.1687850680226157 0 -0.46570520523623959 -0.1757931846103527 0 -0.46702369577757719 -0.16066454859793791 0 -0.45350155965897682 -0.1687850680226157 0 -0.4344270590450659 -0.1609053943072484 0 -0.45305184803309972 -0.15210272433296521 0 -0.45350155965897682 -0.1687850680226157 0 -0.4344270590450659 -0.1609053943072484 0 -0.45350155965897682 -0.1687850680226157 0 -0.44104422433457419 -0.1777922577957152 0 -0.45350155965897682 -0.1687850680226157 0 -0.44104422433457419 -0.1777922577957152 0 -0.45596312027128949 -0.18794868189772959 0 -0.44104422433457419 -0.1777922577957152 0 -0.43829012180726529 -0.19322062900912909 0 -0.45596312027128949 -0.18794868189772959 0 -0.45013906333809789 -0.2009404811944836 0 -0.43829012180726529 -0.19322062900912909 0 -0.45596312027128949 -0.18794868189772959 0 -0.43601245252430942 -0.20793643678791121 0 -0.45013906333809789 -0.2009404811944836 0 -0.43829012180726529 -0.19322062900912909 0 -0.43377720402095787 -0.21991138490827611 0 -0.43601245252430942 -0.20793643678791121 0 -0.45297794936819918 -0.2159919965998246 0 -0.43601245252430942 -0.20793643678791121 0 -0.45013906333809789 -0.2009404811944836 0 -0.45297794936819918 -0.2159919965998246 0 -0.45013906333809789 -0.2009404811944836 0 -0.45297794936819918 -0.2159919965998246 0 -0.46745167271942573 -0.1996046616778234 0 -0.45297794936819918 -0.2159919965998246 0 -0.46745167271942573 -0.1996046616778234 0 -0.46956062781061803 -0.21704188818370149 0 -0.45013906333809789 -0.2009404811944836 0 -0.46745167271942573 -0.1996046616778234 0 -0.45596312027128949 -0.18794868189772959 0 -0.46763136520864318 -0.18653340036078911 0 -0.46745167271942573 -0.1996046616778234 0 -0.45596312027128949 -0.18794868189772959 0 -0.46745167271942573 -0.1996046616778234 0 -0.47993034859498662 -0.18922987045237161 0 -0.48475058775642699 -0.21058337118561141 0 -0.46763136520864318 -0.18653340036078911 0 -0.46745167271942573 -0.1996046616778234 0 -0.47993034859498662 -0.18922987045237161 0 -0.47993034859498662 -0.18922987045237161 0 -0.49999999999999861 -0.19689980622105099 0 -0.48475058775642699 -0.21058337118561141 0 -0.49071260759546798 -0.17667784854346191 0 -0.47993034859498662 -0.18922987045237161 0 -0.49999999999999861 -0.19689980622105099 0 -0.49999999999999861 -0.19689980622105099 0 -0.48475058775642699 -0.21058337118561141 0 -0.50000000000000355 -0.22426693615016591 0 -0.46745167271942573 -0.1996046616778234 0 -0.48475058775642699 -0.21058337118561141 0 -0.46956062781061803 -0.21704188818370149 0 -0.46956062781061803 -0.21704188818370149 0 -0.47829002665147741 -0.2341248566128927 0 -0.46279731583591321 -0.22891002208815581 0 -0.48475058775642699 -0.21058337118561141 0 -0.46956062781061803 -0.21704188818370149 0 -0.47829002665147741 -0.2341248566128927 0 -0.47829002665147741 -0.2341248566128927 0 -0.49757451855253881 -0.23053548086278239 0 -0.50000000000000355 -0.22426693615016591 0 -0.48475058775642699 -0.21058337118561141 0 -0.47829002665147741 -0.2341248566128927 0 -0.50000000000000355 -0.22426693615016591 0 -0.47829002665147741 -0.2341248566128927 0 -0.50000000000000355 -0.22426693615016591 0 -0.47829002665147741 -0.2341248566128927 0 -0.49757451855253881 -0.23053548086278239 0 -0.47793059070477772 -0.24540990329775009 0 -0.5 -0.25006354863638108 0 -0.49757451855253881 -0.23053548086278239 0 -0.49068252501969761 -0.24549971615663649 0 -0.49757451855253881 -0.23053548086278239 0 -0.49068252501969761 -0.24549971615663649 0 -0.47793059070477772 -0.24540990329775009 0 -0.49757451855253881 -0.23053548086278239 0 -0.47793059070477772 -0.24540990329775009 0 -0.5 -0.25006354863638108 0 -0.49757451855253881 -0.23053548086278239 0 -0.50000000000000355 -0.22426693615016591 0 -0.4872249908214738 -0.25598993182963242 0 -0.49068252501969761 -0.24549971615663649 0 -0.47793059070477772 -0.24540990329775009 0 -0.47829002665147741 -0.2341248566128927 0 -0.47793059070477772 -0.24540990329775009 0 -0.45658005330295048 -0.2439827770756183 0 -0.45658005330295048 -0.2439827770756183 0 -0.46279731583591321 -0.22891002208815581 0 -0.44277641758923081 -0.23102430468348881 0 -0.47829002665147741 -0.2341248566128927 0 -0.45658005330295048 -0.2439827770756183 0 -0.45828666285701658 -0.26028432573271792 0 -0.47793059070477772 -0.24540990329775009 0 -0.45658005330295048 -0.2439827770756183 0 -0.47829002665147741 -0.2341248566128927 0 -0.45658005330295048 -0.2439827770756183 0 -0.46279731583591321 -0.22891002208815581 0 -0.45297794936819918 -0.2159919965998246 0 -0.46956062781061803 -0.21704188818370149 0 -0.46279731583591321 -0.22891002208815581 0 -0.45297794936819918 -0.2159919965998246 0 -0.46279731583591321 -0.22891002208815581 0 -0.44277641758923081 -0.23102430468348881 0 -0.43377720402095787 -0.21991138490827611 0 -0.45297794936819918 -0.2159919965998246 0 -0.44277641758923081 -0.23102430468348881 0 -0.43487007995442373 -0.25384069753834382 0 -0.45658005330295048 -0.2439827770756183 0 -0.43487007995442373 -0.25384069753834382 0 -0.43665732485841618 -0.24137016429136929 0 -0.45658005330295048 -0.2439827770756183 0 -0.43665732485841618 -0.24137016429136929 0 -0.45658005330295048 -0.2439827770756183 0 -0.44277641758923081 -0.23102430468348881 0 -0.42837915354319411 -0.040827216461995969 0 -0.4199205163048339 -0.024265820886729 0 -0.40528095782104068 -0.044243292517360297 0 -0.42343463197652342 -0.05874232933513765 0 -0.42837915354319411 -0.040827216461995969 0 -0.40528095782104068 -0.044243292517360297 0 -0.42343463197652342 -0.05874232933513765 0 -0.40528095782104068 -0.044243292517360297 0 -0.42343463197652342 -0.05874232933513765 0 -0.40528095782104068 -0.044243292517360297 0 -0.40670414160736479 -0.063195666982337848 0 -0.42343463197652342 -0.05874232933513765 0 -0.42837915354319411 -0.040827216461995969 0 -0.44094154444346079 -0.04995238034171972 0 -0.42343463197652342 -0.05874232933513765 0 -0.44158830613200611 -0.073241366152915127 0 -0.44094154444346079 -0.04995238034171972 0 -0.42837915354319411 -0.040827216461995969 0 -0.4342900889778567 -0.026770694848987801 0 -0.4453801544960031 -0.037531923181514312 0 -0.4342900889778567 -0.026770694848987801 0 -0.43033724725149269 -0.0037964727450953309 0 -0.4199205163048339 -0.024265820886729 0 -0.4342900889778567 -0.026770694848987801 0 -0.43033724725149269 -0.0037964727450953309 0 -0.44743337329375982 -0.027432040969604381 0 -0.42837915354319411 -0.040827216461995969 0 -0.4342900889778567 -0.026770694848987801 0 -0.4199205163048339 -0.024265820886729 0 -0.43033724725149269 -0.0037964727450953309 0 -0.4131572459017161 -0.004875649818797438 0 -0.4199205163048339 -0.024265820886729 0 -0.4131572459017161 -0.004875649818797438 0 -0.4199205163048339 -0.024265820886729 0 -0.40195427741026962 -0.018113178269922089 0 -0.4199205163048339 -0.024265820886729 0 -0.40195427741026962 -0.018113178269922089 0 -0.40528095782104068 -0.044243292517360297 0 -0.40195427741026962 -0.018113178269922089 0 -0.38465333842141641 -0.0066435457767305304 0 -0.38712728366555788 -0.02974425569958293 0 -0.40195427741026962 -0.018113178269922089 0 -0.38712728366555788 -0.02974425569958293 0 -0.40528095782104068 -0.044243292517360297 0 -0.40195427741026962 -0.018113178269922089 0 -0.38465333842141641 -0.0066435457767305304 0 -0.40033306733275759 0.0019581273283447299 0 -0.4131572459017161 -0.004875649818797438 0 -0.40195427741026962 -0.018113178269922089 0 -0.40033306733275759 0.0019581273283447299 0 -0.38465333842141641 -0.0066435457767305304 0 -0.40033306733275759 0.0019581273283447299 0 -0.36897360951007507 -0.015245218881805699 0 -0.38465333842141641 -0.0066435457767305304 0 -0.36897360951007507 -0.015245218881805699 0 -0.38465333842141641 -0.0066435457767305304 0 -0.38712728366555788 -0.02974425569958293 0 -0.36897360951007507 -0.015245218881805699 0 -0.38712728366555788 -0.02974425569958293 0 -0.37357085562444819 -0.050327950541553881 0 -0.38712728366555788 -0.02974425569958293 0 -0.39147992867528753 -0.058279446621744307 0 -0.38712728366555788 -0.02974425569958293 0 -0.40528095782104068 -0.044243292517360297 0 -0.38712728366555788 -0.02974425569958293 0 -0.40528095782104068 -0.044243292517360297 0 -0.39147992867528753 -0.058279446621744307 0 -0.40528095782104068 -0.044243292517360297 0 -0.39147992867528753 -0.058279446621744307 0 -0.40670414160736479 -0.063195666982337848 0 -0.37357085562444819 -0.050327950541553881 0 -0.39147992867528753 -0.058279446621744307 0 -0.37513495807632252 -0.068027960422620465 0 -0.39147992867528753 -0.058279446621744307 0 -0.37513495807632252 -0.068027960422620465 0 -0.3944429598887787 -0.078419500118194568 0 -0.37347114863240299 -0.089088331268139143 0 -0.37513495807632252 -0.068027960422620465 0 -0.3944429598887787 -0.078419500118194568 0 -0.37347114863240299 -0.089088331268139143 0 -0.3944429598887787 -0.078419500118194568 0 -0.38844874713165228 -0.097169733216879689 0 -0.3944429598887787 -0.078419500118194568 0 -0.38844874713165228 -0.097169733216879689 0 -0.40907098738890341 -0.097978282768044114 0 -0.39147992867528753 -0.058279446621744307 0 -0.3944429598887787 -0.078419500118194568 0 -0.40670414160736479 -0.063195666982337848 0 -0.3944429598887787 -0.078419500118194568 0 -0.41749625226094061 -0.077358517460495352 0 -0.40670414160736479 -0.063195666982337848 0 -0.39228294530364349 -0.13316426080004001 0 -0.38235470820745771 -0.123978498660336 0 -0.39306930808202878 -0.1142539450673672 0 -0.36980343247362518 -0.1100922289949047 0 -0.38235470820745771 -0.123978498660336 0 -0.39306930808202878 -0.1142539450673672 0 -0.36980343247362518 -0.1100922289949047 0 -0.37347114863240299 -0.089088331268139143 0 -0.38844874713165228 -0.097169733216879689 0 -0.36980343247362518 -0.1100922289949047 0 -0.38844874713165228 -0.097169733216879689 0 -0.39306930808202878 -0.1142539450673672 0 -0.38844874713165228 -0.097169733216879689 0 -0.39306930808202878 -0.1142539450673672 0 -0.40907098738890341 -0.097978282768044114 0 -0.39306930808202878 -0.1142539450673672 0 -0.41294233195137359 -0.116724400289887 0 -0.40907098738890341 -0.097978282768044114 0 -0.40633267592073652 -0.13102661860532899 0 -0.39306930808202878 -0.1142539450673672 0 -0.41294233195137359 -0.116724400289887 0 -0.41294233195137359 -0.116724400289887 0 -0.40907098738890341 -0.097978282768044114 0 -0.42916563782925382 -0.1107160192160596 0 -0.42916563782925382 -0.1107160192160596 0 -0.42904349786494111 -0.093106334976964328 0 -0.44668080241849201 -0.10304266906569499 0 -0.40907098738890341 -0.097978282768044114 0 -0.42916563782925382 -0.1107160192160596 0 -0.42904349786494111 -0.093106334976964328 0 -0.42371591628165239 -0.12841039464220819 0 -0.42916563782925382 -0.1107160192160596 0 -0.44295770465017009 -0.12292285668534771 0 -0.42371591628165239 -0.12841039464220819 0 -0.41294233195137359 -0.116724400289887 0 -0.42916563782925382 -0.1107160192160596 0 -0.42343463197652342 -0.05874232933513765 0 -0.41749625226094061 -0.077358517460495352 0 -0.40670414160736479 -0.063195666982337848 0 -0.40907098738890341 -0.097978282768044114 0 -0.41749625226094061 -0.077358517460495352 0 -0.42904349786494111 -0.093106334976964328 0 -0.3944429598887787 -0.078419500118194568 0 -0.40907098738890341 -0.097978282768044114 0 -0.41749625226094061 -0.077358517460495352 0 -0.41749625226094061 -0.077358517460495352 0 -0.42904349786494111 -0.093106334976964328 0 -0.44158830613200611 -0.073241366152915127 0 -0.42904349786494111 -0.093106334976964328 0 -0.44158830613200611 -0.073241366152915127 0 -0.42343463197652342 -0.05874232933513765 0 -0.44158830613200611 -0.073241366152915127 0 -0.42343463197652342 -0.05874232933513765 0 -0.41749625226094061 -0.077358517460495352 0 -0.44158830613200611 -0.073241366152915127 0 -0.44158830613200611 -0.073241366152915127 0 -0.46118581313569179 -0.071431252447136412 0 -0.45067286806919349 -0.058855770468984832 0 -0.44158830613200611 -0.073241366152915127 0 -0.45067286806919349 -0.058855770468984832 0 -0.44158830613200611 -0.073241366152915127 0 -0.44459286929252761 -0.089545637905493386 0 -0.46105887075467122 -0.088792181426399025 0 -0.42904349786494111 -0.093106334976964328 0 -0.44158830613200611 -0.073241366152915127 0 -0.44459286929252761 -0.089545637905493386 0 -0.44158830613200611 -0.073241366152915127 0 -0.46105887075467122 -0.088792181426399025 0 -0.46105887075467122 -0.088792181426399025 0 -0.46118581313569179 -0.071431252447136412 0 -0.48115195350555812 -0.076249636056848105 0 -0.44158830613200611 -0.073241366152915127 0 -0.46105887075467122 -0.088792181426399025 0 -0.46118581313569179 -0.071431252447136412 0 -0.44295770465017009 -0.12292285668534771 0 -0.44668080241849201 -0.10304266906569499 0 -0.46296805171726468 -0.11640170438458371 0 -0.42916563782925382 -0.1107160192160596 0 -0.44295770465017009 -0.12292285668534771 0 -0.44668080241849201 -0.10304266906569499 0 -0.44459286929252761 -0.089545637905493386 0 -0.46105887075467122 -0.088792181426399025 0 -0.44668080241849201 -0.10304266906569499 0 -0.42904349786494111 -0.093106334976964328 0 -0.44459286929252761 -0.089545637905493386 0 -0.44668080241849201 -0.10304266906569499 0 -0.46105887075467122 -0.088792181426399025 0 -0.46296805171726468 -0.11640170438458371 0 -0.48052943537733628 -0.1043429966998831 0 -0.46105887075467122 -0.088792181426399025 0 -0.44668080241849201 -0.10304266906569499 0 -0.46296805171726468 -0.11640170438458371 0 -0.45407528277834919 -0.1346042898317954 0 -0.44295770465017009 -0.12292285668534771 0 -0.46296805171726468 -0.11640170438458371 0 -0.46296805171726468 -0.11640170438458371 0 -0.48245330698995931 -0.121898764666846 0 -0.48052943537733628 -0.1043429966998831 0 -0.47213782278640881 -0.13623393318828281 0 -0.46296805171726468 -0.11640170438458371 0 -0.48245330698995931 -0.121898764666846 0 -0.46105887075467122 -0.088792181426399025 0 -0.48052943537733628 -0.1043429966998831 0 -0.48052943537733628 -0.1043429966998831 0 -0.50000000000000089 -0.1198938119733675 0 -0.5 -0.090898883536528308 0 -0.48245330698995931 -0.121898764666846 0 -0.48052943537733628 -0.1043429966998831 0 -0.50000000000000089 -0.1198938119733675 0 -0.48052943537733628 -0.1043429966998831 0 -0.50000000000000089 -0.1198938119733675 0 -0.46118581313569179 -0.071431252447136412 0 -0.48115195350555812 -0.076249636056848105 0 -0.46833584839527592 -0.05632992550213807 0 -0.48115195350555812 -0.076249636056848105 0 -0.48490864188954641 -0.055044389119401932 0 -0.46833584839527592 -0.05632992550213807 0 -0.46105887075467122 -0.088792181426399025 0 -0.48052943537733628 -0.1043429966998831 0 -0.48115195350555812 -0.076249636056848105 0 -0.48052943537733628 -0.1043429966998831 0 -0.48115195350555812 -0.076249636056848105 0 -0.5 -0.090898883536528308 0 -0.48115195350555812 -0.076249636056848105 0 -0.5 -0.090898883536528308 0 -0.5 -0.061903955099689163 0 -0.48115195350555812 -0.076249636056848105 0 -0.5 -0.061903955099689163 0 -0.48490864188954641 -0.055044389119401932 0 -0.5 -0.061903955099689163 0 -0.48490864188954641 -0.055044389119401932 0 -0.5 -0.032909026662849998 0 -0.48490864188954641 -0.055044389119401932 0 -0.5 -0.032909026662849998 0 -0.47623700986288742 -0.042296174380792313 0 -0.47623700986288742 -0.042296174380792313 0 -0.45975743000638192 -0.044470174785055258 0 -0.47133789178420182 -0.026132268992706809 0 -0.5 -0.032909026662849998 0 -0.47623700986288742 -0.042296174380792313 0 -0.47133789178420182 -0.026132268992706809 0 -0.48490864188954641 -0.055044389119401932 0 -0.47623700986288742 -0.042296174380792313 0 -0.46833584839527592 -0.05632992550213807 0 -0.46118581313569179 -0.071431252447136412 0 -0.46833584839527592 -0.05632992550213807 0 -0.45067286806919349 -0.058855770468984832 0 -0.47623700986288742 -0.042296174380792313 0 -0.46833584839527592 -0.05632992550213807 0 -0.45975743000638192 -0.044470174785055258 0 -0.46833584839527592 -0.05632992550213807 0 -0.45975743000638192 -0.044470174785055258 0 -0.45067286806919349 -0.058855770468984832 0 -0.45975743000638192 -0.044470174785055258 0 -0.45067286806919349 -0.058855770468984832 0 -0.46833584839527592 -0.05632992550213807 0 -0.45975743000638192 -0.044470174785055258 0 -0.45964620516156041 -0.031574428691672249 0 -0.45975743000638192 -0.044470174785055258 0 -0.44743337329375982 -0.027432040969604381 0 -0.45975743000638192 -0.044470174785055258 0 -0.44743337329375982 -0.027432040969604381 0 -0.45975743000638192 -0.044470174785055258 0 -0.47133789178420182 -0.026132268992706809 0 -0.45964620516156041 -0.031574428691672249 0 -0.45975743000638192 -0.044470174785055258 0 -0.47133789178420182 -0.026132268992706809 0 -0.45975743000638192 -0.044470174785055258 0 -0.4453801544960031 -0.037531923181514312 0 -0.44743337329375982 -0.027432040969604381 0 -0.45975743000638192 -0.044470174785055258 0 -0.4453801544960031 -0.037531923181514312 0 -0.44094154444346079 -0.04995238034171972 0 -0.42837915354319411 -0.040827216461995969 0 -0.4453801544960031 -0.037531923181514312 0 -0.44094154444346079 -0.04995238034171972 0 -0.4453801544960031 -0.037531923181514312 0 -0.44743337329375982 -0.027432040969604381 0 -0.44158830613200611 -0.073241366152915127 0 -0.44094154444346079 -0.04995238034171972 0 -0.45067286806919349 -0.058855770468984832 0 -0.45975743000638192 -0.044470174785055258 0 -0.44094154444346079 -0.04995238034171972 0 -0.45067286806919349 -0.058855770468984832 0 -0.43033724725149269 -0.0037964727450953309 0 -0.45268467479845531 -0.00160063580491273 0 -0.44743337329375982 -0.027432040969604381 0 -0.45268467479845531 -0.00160063580491273 0 -0.44743337329375982 -0.027432040969604381 0 -0.43033724725149269 -0.0037964727450953309 0 -0.44743337329375982 -0.027432040969604381 0 -0.4342900889778567 -0.026770694848987801 0 -0.4453801544960031 -0.037531923181514312 0 -0.44743337329375982 -0.027432040969604381 0 -0.45964620516156041 -0.031574428691672249 0 -0.44743337329375982 -0.027432040969604381 0 -0.46065164258955998 -0.015998841515816709 0 -0.45964620516156041 -0.031574428691672249 0 -0.46065164258955998 -0.015998841515816709 0 -0.47133789178420182 -0.026132268992706809 0 -0.45268467479845531 -0.00160063580491273 0 -0.46065164258955998 -0.015998841515816709 0 -0.47044579822050858 0.003730308873902122 0 -0.45268467479845531 -0.00160063580491273 0 -0.44743337329375982 -0.027432040969604381 0 -0.46065164258955998 -0.015998841515816709 0 -0.46065164258955998 -0.015998841515816709 0 -0.48291835356202167 -0.0077943632003582772 0 -0.47044579822050858 0.003730308873902122 0 -0.46065164258955998 -0.015998841515816709 0 -0.48291835356202167 -0.0077943632003582772 0 -0.47133789178420182 -0.026132268992706809 0 -0.48291835356202167 -0.0077943632003582772 0 -0.47133789178420182 -0.026132268992706809 0 -0.5 -0.032909026662849998 0 -0.48291835356202167 -0.0077943632003582772 0 -0.47133789178420182 -0.026132268992706809 0 -0.5 -0.032909026662849998 0 -0.48291835356202167 -0.0077943632003582772 0 -0.5 -0.0039140982260107426 0 -0.48291835356202167 -0.0077943632003582772 0 -0.5 -0.0039140982260107426 0 -0.48656778433615411 0.0071434676601368312 0 -0.5 -0.0039140982260107426 0 -0.48656778433615411 0.0071434676601368312 0 -0.5 0.02508083021082835 0 -0.5 0.02508083021082835 0 -0.47947476989823978 0.0186146606423227 0 -0.48053744464613157 0.038241937480116027 0 -0.48656778433615411 0.0071434676601368312 0 -0.5 0.02508083021082835 0 -0.47947476989823978 0.0186146606423227 0 -0.47947476989823978 0.0186146606423227 0 -0.48053744464613157 0.038241937480116027 0 -0.45793597630314969 0.024230769359779091 0 -0.48656778433615411 0.0071434676601368312 0 -0.47947476989823978 0.0186146606423227 0 -0.47044579822050858 0.003730308873902122 0 -0.48291835356202167 -0.0077943632003582772 0 -0.48656778433615411 0.0071434676601368312 0 -0.47044579822050858 0.003730308873902122 0 -0.47947476989823978 0.0186146606423227 0 -0.47044579822050858 0.003730308873902122 0 -0.45793597630314969 0.024230769359779091 0 -0.5 0.05407575864766756 0 -0.48053744464613157 0.038241937480116027 0 -0.48160115767747708 0.06010989829645641 0 -0.5 0.02508083021082835 0 -0.5 0.05407575864766756 0 -0.48053744464613157 0.038241937480116027 0 -0.48053744464613157 0.038241937480116027 0 -0.48160115767747708 0.06010989829645641 0 -0.4631872778078443 0.050062174524471058 0 -0.48160115767747708 0.06010989829645641 0 -0.4631872778078443 0.050062174524471058 0 -0.46843857931253879 0.07589357968916309 0 -0.4631872778078443 0.050062174524471058 0 -0.4467001814262947 0.061097152827744368 0 -0.46843857931253879 0.07589357968916309 0 -0.48053744464613157 0.038241937480116027 0 -0.4631872778078443 0.050062174524471058 0 -0.45793597630314969 0.024230769359779091 0 -0.4631872778078443 0.050062174524471058 0 -0.45793597630314969 0.024230769359779091 0 -0.4631872778078443 0.050062174524471058 0 -0.44755765064800451 0.039790068000500847 0 -0.45793597630314969 0.024230769359779091 0 -0.44755765064800451 0.039790068000500847 0 -0.43523671041618939 0.023434885238954581 0 -0.43070758581248142 0.047053180835022322 0 -0.4631872778078443 0.050062174524471058 0 -0.44755765064800451 0.039790068000500847 0 -0.4467001814262947 0.061097152827744368 0 -0.44755765064800451 0.039790068000500847 0 -0.4467001814262947 0.061097152827744368 0 -0.43070758581248142 0.047053180835022322 0 -0.45268467479845531 -0.00160063580491273 0 -0.45793597630314969 0.024230769359779091 0 -0.45268467479845531 -0.00160063580491273 0 -0.47044579822050858 0.003730308873902122 0 -0.45793597630314969 0.024230769359779091 0 -0.44755765064800451 0.039790068000500847 0 -0.45793597630314969 0.024230769359779091 0 -0.43523671041618939 0.023434885238954581 0 -0.45268467479845531 -0.00160063580491273 0 -0.45793597630314969 0.024230769359779091 0 -0.43523671041618939 0.023434885238954581 0 -0.43033724725149269 -0.0037964727450953309 0 -0.45268467479845531 -0.00160063580491273 0 -0.43523671041618939 0.023434885238954581 0 -0.43033724725149269 -0.0037964727450953309 0 -0.41324112120922679 0.019839095479414509 0 -0.43523671041618939 0.023434885238954581 0 -0.4131572459017161 -0.004875649818797438 0 -0.41324112120922679 0.019839095479414509 0 -0.40033306733275759 0.0019581273283447299 0 -0.43033724725149269 -0.0037964727450953309 0 -0.4131572459017161 -0.004875649818797438 0 -0.41324112120922679 0.019839095479414509 0 -0.43033724725149269 -0.0037964727450953309 0 -0.41324112120922679 0.019839095479414509 0 -0.41324112120922679 0.019839095479414509 0 -0.43523671041618939 0.023434885238954581 0 -0.4159879611894004 0.038538653043845933 0 -0.43523671041618939 0.023434885238954581 0 -0.43070758581248142 0.047053180835022322 0 -0.4159879611894004 0.038538653043845933 0 -0.4467001814262947 0.061097152827744368 0 -0.43070758581248142 0.047053180835022322 0 -0.43187545736445182 0.065921103617004775 0 -0.43070758581248142 0.047053180835022322 0 -0.41322656597679058 0.058941655142102069 0 -0.43187545736445182 0.065921103617004775 0 -0.43070758581248142 0.047053180835022322 0 -0.41322656597679058 0.058941655142102069 0 -0.4159879611894004 0.038538653043845933 0 -0.41322656597679058 0.058941655142102069 0 -0.4159879611894004 0.038538653043845933 0 -0.39614499516696089 0.04347466370392436 0 -0.41324112120922679 0.019839095479414509 0 -0.4159879611894004 0.038538653043845933 0 -0.39614499516696089 0.04347466370392436 0 -0.41324112120922679 0.019839095479414509 0 -0.39614499516696089 0.04347466370392436 0 -0.39614499516696089 0.04347466370392436 0 -0.37904886912469499 0.067110231928434197 0 -0.39695674231957478 0.074929810419583368 0 -0.41322656597679058 0.058941655142102069 0 -0.39614499516696089 0.04347466370392436 0 -0.39695674231957478 0.074929810419583368 0 -0.39614499516696089 0.04347466370392436 0 -0.37904886912469499 0.067110231928434197 0 -0.39614499516696089 0.04347466370392436 0 -0.37830855690199738 0.048851891747440382 0 -0.37904886912469499 0.067110231928434197 0 -0.37830855690199738 0.048851891747440382 0 -0.37904886912469499 0.067110231928434197 0 -0.37119345183321822 0.058853827639881867 0 -0.39614499516696089 0.04347466370392436 0 -0.37753126207020948 0.034899308803226177 0 -0.39262774316901877 0.02112007510405265 0 -0.39614499516696089 0.04347466370392436 0 -0.37830855690199738 0.048851891747440382 0 -0.37753126207020948 0.034899308803226177 0 -0.38389636562500351 0.0078670615218947963 0 -0.39262774316901877 0.02112007510405265 0 -0.37274578052696178 0.01868977009819147 0 -0.37753126207020948 0.034899308803226177 0 -0.39262774316901877 0.02112007510405265 0 -0.37274578052696178 0.01868977009819147 0 -0.38465333842141641 -0.0066435457767305304 0 -0.38389636562500351 0.0078670615218947963 0 -0.40033306733275759 0.0019581273283447299 0 -0.38389636562500351 0.0078670615218947963 0 -0.37274578052696178 0.01868977009819147 0 -0.36979036210562988 0.0025511841975563729 0 -0.38465333842141641 -0.0066435457767305304 0 -0.38389636562500351 0.0078670615218947963 0 -0.36979036210562988 0.0025511841975563729 0 -0.38389636562500351 0.0078670615218947963 0 -0.40033306733275759 0.0019581273283447299 0 -0.39262774316901877 0.02112007510405265 0 -0.41324112120922679 0.019839095479414509 0 -0.40033306733275759 0.0019581273283447299 0 -0.39262774316901877 0.02112007510405265 0 -0.41324112120922679 0.019839095479414509 0 -0.39614499516696089 0.04347466370392436 0 -0.39262774316901877 0.02112007510405265 0 -0.38940712396436111 0.098535478259042519 0 -0.39976920250104669 0.086913075381088473 0 -0.40655062222011962 0.096340958868671334 0 -0.39063101314785642 0.1199442217017349 0 -0.40655062222011962 0.096340958868671334 0 -0.40795026737523371 0.1101441825861223 0 -0.39063101314785642 0.1199442217017349 0 -0.38940712396436111 0.098535478259042519 0 -0.40655062222011962 0.096340958868671334 0 -0.39063101314785642 0.1199442217017349 0 -0.40655062222011962 0.096340958868671334 0 -0.39063101314785642 0.1199442217017349 0 -0.40795026737523371 0.1101441825861223 0 -0.40406865080306442 0.1250183431131778 0 -0.39063101314785642 0.1199442217017349 0 -0.37896648635229202 0.10715504183998489 0 -0.36716541190589658 0.118616890008602 0 -0.39063101314785642 0.1199442217017349 0 -0.37896648635229202 0.10715504183998489 0 -0.38940712396436111 0.098535478259042519 0 -0.37896648635229202 0.10715504183998489 0 -0.38940712396436111 0.098535478259042519 0 -0.37643332436138899 0.09558572737664002 0 -0.38119130922167832 0.078766060501995444 0 -0.3856317933390121 0.08567132342606161 0 -0.39695674231957478 0.074929810419583368 0 -0.37643332436138899 0.09558572737664002 0 -0.3856317933390121 0.08567132342606161 0 -0.37016311523106599 0.083751267223082917 0 -0.38119130922167832 0.078766060501995444 0 -0.3856317933390121 0.08567132342606161 0 -0.37016311523106599 0.083751267223082917 0 -0.38940712396436111 0.098535478259042519 0 -0.37643332436138899 0.09558572737664002 0 -0.3856317933390121 0.08567132342606161 0 -0.39695674231957478 0.074929810419583368 0 -0.37201358599706058 0.070711840939253895 0 -0.38119130922167832 0.078766060501995444 0 -0.39695674231957478 0.074929810419583368 0 -0.37201358599706058 0.070711840939253895 0 -0.37904886912469499 0.067110231928434197 0 -0.39695674231957478 0.074929810419583368 0 -0.37201358599706058 0.070711840939253895 0 -0.39695674231957478 0.074929810419583368 0 -0.39976920250104669 0.086913075381088473 0 -0.42189989864208899 0.079147779899912826 0 -0.38940712396436111 0.098535478259042519 0 -0.3856317933390121 0.08567132342606161 0 -0.39976920250104669 0.086913075381088473 0 -0.3856317933390121 0.08567132342606161 0 -0.39695674231957478 0.074929810419583368 0 -0.39976920250104669 0.086913075381088473 0 -0.42189989864208899 0.079147779899912826 0 -0.41823283762125668 0.10021421029095 0 -0.40655062222011962 0.096340958868671334 0 -0.39976920250104669 0.086913075381088473 0 -0.42189989864208899 0.079147779899912826 0 -0.40655062222011962 0.096340958868671334 0 -0.39695674231957478 0.074929810419583368 0 -0.42189989864208899 0.079147779899912826 0 -0.41322656597679058 0.058941655142102069 0 -0.39695674231957478 0.074929810419583368 0 -0.42189989864208899 0.079147779899912826 0 -0.43187545736445182 0.065921103617004775 0 -0.42189989864208899 0.079147779899912826 0 -0.44684305496460319 0.083365749380242285 0 -0.41322656597679058 0.058941655142102069 0 -0.43187545736445182 0.065921103617004775 0 -0.42189989864208899 0.079147779899912826 0 -0.42189989864208899 0.079147779899912826 0 -0.43230900050581528 0.10074033507248679 0 -0.44684305496460319 0.083365749380242285 0 -0.42189989864208899 0.079147779899912826 0 -0.43230900050581528 0.10074033507248679 0 -0.41823283762125668 0.10021421029095 0 -0.42189989864208899 0.079147779899912826 0 -0.44684305496460319 0.083365749380242285 0 -0.43230900050581528 0.10074033507248679 0 -0.41823283762125668 0.10021421029095 0 -0.42245439936302609 0.1146977950275566 0 -0.41823283762125668 0.10021421029095 0 -0.40795026737523371 0.1101441825861223 0 -0.42245439936302609 0.1146977950275566 0 -0.41823283762125668 0.10021421029095 0 -0.40655062222011962 0.096340958868671334 0 -0.40795026737523371 0.1101441825861223 0 -0.40795026737523371 0.1101441825861223 0 -0.42245439936302609 0.1146977950275566 0 -0.41854804079657681 0.1335618185962307 0 -0.40795026737523371 0.1101441825861223 0 -0.41854804079657681 0.1335618185962307 0 -0.40795026737523371 0.1101441825861223 0 -0.41854804079657681 0.1335618185962307 0 -0.40406865080306442 0.1250183431131778 0 -0.4361514068569779 0.1212930370016405 0 -0.42245439936302609 0.1146977950275566 0 -0.41854804079657681 0.1335618185962307 0 -0.43230900050581528 0.10074033507248679 0 -0.4361514068569779 0.1212930370016405 0 -0.42245439936302609 0.1146977950275566 0 -0.4361514068569779 0.1212930370016405 0 -0.45131059104818438 0.10389771754541841 0 -0.45603072582896947 0.12415654782577901 0 -0.43230900050581528 0.10074033507248679 0 -0.4361514068569779 0.1212930370016405 0 -0.45131059104818438 0.10389771754541841 0 -0.43230900050581528 0.10074033507248679 0 -0.45131059104818438 0.10389771754541841 0 -0.44684305496460319 0.083365749380242285 0 -0.45131059104818438 0.10389771754541841 0 -0.46040635620489312 0.091287960740373597 0 -0.47503319949424611 0.10199479634667059 0 -0.45131059104818438 0.10389771754541841 0 -0.45603072582896947 0.12415654782577901 0 -0.47503319949424611 0.10199479634667059 0 -0.4467001814262947 0.061097152827744368 0 -0.43187545736445182 0.065921103617004775 0 -0.44684305496460319 0.083365749380242285 0 -0.45131059104818438 0.10389771754541841 0 -0.44684305496460319 0.083365749380242285 0 -0.46040635620489312 0.091287960740373597 0 -0.46040635620489312 0.091287960740373597 0 -0.46843857931253879 0.07589357968916309 0 -0.47503319949424611 0.10199479634667059 0 -0.44684305496460319 0.083365749380242285 0 -0.46040635620489312 0.091287960740373597 0 -0.46843857931253879 0.07589357968916309 0 -0.4631872778078443 0.050062174524471058 0 -0.46843857931253879 0.07589357968916309 0 -0.4467001814262947 0.061097152827744368 0 -0.44684305496460319 0.083365749380242285 0 -0.46843857931253879 0.07589357968916309 0 -0.48160115767747708 0.06010989829645641 0 -0.46843857931253879 0.07589357968916309 0 -0.5 0.083070687084506711 0 -0.46843857931253879 0.07589357968916309 0 -0.5 0.083070687084506711 0 -0.47503319949424611 0.10199479634667059 0 -0.5 0.05407575864766756 0 -0.48160115767747708 0.06010989829645641 0 -0.5 0.083070687084506711 0 -0.45603072582896947 0.12415654782577901 0 -0.47503319949424611 0.10199479634667059 0 -0.47840746745339868 0.1318715347448986 0 -0.5 0.083070687084506711 0 -0.47503319949424611 0.10199479634667059 0 -0.5 0.11206561552134579 0 -0.47503319949424611 0.10199479634667059 0 -0.5 0.11206561552134579 0 -0.47840746745339868 0.1318715347448986 0 -0.5 0.11206561552134579 0 -0.47840746745339868 0.1318715347448986 0 -0.5 0.14106054395818479 0 -0.47840746745339868 0.1318715347448986 0 -0.4813713775429343 0.15534342778339541 0 -0.45584990199199521 0.14839652371063539 0 -0.47840746745339868 0.1318715347448986 0 -0.4813713775429343 0.15534342778339541 0 -0.5 0.14106054395818479 0 -0.4813713775429343 0.15534342778339541 0 -0.5 0.14106054395818479 0 -0.5 0.17005547239502389 0 -0.4813713775429343 0.15534342778339541 0 -0.5 0.17005547239502389 0 -0.47888983910924399 0.1833910978263659 0 -0.5 0.17005547239502389 0 -0.47888983910924399 0.1833910978263659 0 -0.49999999999999639 0.19905040083186301 0 -0.4813713775429343 0.15534342778339541 0 -0.47888983910924399 0.1833910978263659 0 -0.46013732273498392 0.17116473448995881 0 -0.4813713775429343 0.15534342778339541 0 -0.47888983910924399 0.1833910978263659 0 -0.4813713775429343 0.15534342778339541 0 -0.46013732273498392 0.17116473448995881 0 -0.45584990199199521 0.14839652371063539 0 -0.47888983910924399 0.1833910978263659 0 -0.46013732273498392 0.17116473448995881 0 -0.4553652866229031 0.19812390853730849 0 -0.46013732273498392 0.17116473448995881 0 -0.43974358763926291 0.18039709061644729 0 -0.4553652866229031 0.19812390853730849 0 -0.46013732273498392 0.17116473448995881 0 -0.45584990199199521 0.14839652371063539 0 -0.42914581421791992 0.156979454606339 0 -0.46013732273498392 0.17116473448995881 0 -0.43974358763926291 0.18039709061644729 0 -0.42914581421791992 0.156979454606339 0 -0.43890233478009338 0.1378395493323826 0 -0.45584990199199521 0.14839652371063539 0 -0.42914581421791992 0.156979454606339 0 -0.4361514068569779 0.1212930370016405 0 -0.45603072582896947 0.12415654782577901 0 -0.43890233478009338 0.1378395493323826 0 -0.45603072582896947 0.12415654782577901 0 -0.43890233478009338 0.1378395493323826 0 -0.45584990199199521 0.14839652371063539 0 -0.45603072582896947 0.12415654782577901 0 -0.47840746745339868 0.1318715347448986 0 -0.45584990199199521 0.14839652371063539 0 -0.48510068849613291 0.2464952989699998 0 -0.5 0.22952651967534751 0 -0.5 0.27058277969487637 0 -0.48510068849613291 0.2464952989699998 0 -0.47450648191078398 0.23293413722231679 0 -0.4662317729600568 0.24711617116125539 0 -0.48510068849613291 0.2464952989699998 0 -0.5 0.22952651967534751 0 -0.47450648191078398 0.23293413722231679 0 -0.5 0.22952651967534751 0 -0.47450648191078398 0.23293413722231679 0 -0.47640830067555312 0.21143876786933641 0 -0.47450648191078398 0.23293413722231679 0 -0.47640830067555312 0.21143876786933641 0 -0.47640830067555312 0.21143876786933641 0 -0.49999999999999639 0.19905040083186301 0 -0.5 0.22952651967534751 0 -0.47640830067555312 0.21143876786933641 0 -0.49999999999999639 0.19905040083186301 0 -0.47888983910924399 0.1833910978263659 0 -0.47640830067555312 0.21143876786933641 0 -0.49999999999999639 0.19905040083186301 0 -0.47888983910924399 0.1833910978263659 0 -0.47640830067555312 0.21143876786933641 0 -0.47888983910924399 0.1833910978263659 0 -0.47640830067555312 0.21143876786933641 0 -0.4553652866229031 0.19812390853730849 0 -0.43974358763926291 0.18039709061644729 0 -0.4553652866229031 0.19812390853730849 0 -0.43067986422853077 0.20940139548392031 0 -0.4553652866229031 0.19812390853730849 0 -0.45283971357182312 0.22381499832142371 0 -0.43067986422853077 0.20940139548392031 0 -0.47640830067555312 0.21143876786933641 0 -0.4553652866229031 0.19812390853730849 0 -0.45283971357182312 0.22381499832142371 0 -0.47640830067555312 0.21143876786933641 0 -0.45283971357182312 0.22381499832142371 0 -0.47450648191078398 0.23293413722231679 0 -0.45283971357182312 0.22381499832142371 0 -0.45078000859246359 0.24156244513336969 0 -0.47450648191078398 0.23293413722231679 0 -0.47640830067555312 0.21143876786933641 0 -0.45283971357182312 0.22381499832142371 0 -0.45283971357182312 0.22381499832142371 0 -0.43294786837480398 0.2404538296894207 0 -0.42927112646809362 0.23619122877351181 0 -0.45283971357182312 0.22381499832142371 0 -0.42927112646809362 0.23619122877351181 0 -0.45283971357182312 0.22381499832142371 0 -0.42927112646809362 0.23619122877351181 0 -0.43067986422853077 0.20940139548392031 0 -0.45283971357182312 0.22381499832142371 0 -0.45078000859246359 0.24156244513336969 0 -0.43294786837480398 0.2404538296894207 0 -0.43294786837480398 0.2404538296894207 0 -0.44957601688056159 0.25938839971938082 0 -0.45078000859246359 0.24156244513336969 0 -0.43294786837480398 0.2404538296894207 0 -0.44957601688056159 0.25938839971938082 0 -0.45078000859246359 0.24156244513336969 0 -0.4662317729600568 0.24711617116125539 0 -0.44957601688056159 0.25938839971938082 0 -0.47450648191078398 0.23293413722231679 0 -0.45078000859246359 0.24156244513336969 0 -0.4662317729600568 0.24711617116125539 0 -0.42927112646809362 0.23619122877351181 0 -0.40439403923729561 0.237116777479636 0 -0.40570253936436479 0.24856745922560119 0 -0.42927112646809362 0.23619122877351181 0 -0.40570253936436479 0.24856745922560119 0 -0.43294786837480398 0.2404538296894207 0 -0.42927112646809362 0.23619122877351181 0 -0.40570253936436479 0.24856745922560119 0 -0.42927112646809362 0.23619122877351181 0 -0.41099867150134572 0.22378265931279079 0 -0.43067986422853077 0.20940139548392031 0 -0.42927112646809362 0.23619122877351181 0 -0.41099867150134572 0.22378265931279079 0 -0.40439403923729561 0.237116777479636 0 -0.40693149157881192 0.20854646138297669 0 -0.43067986422853077 0.20940139548392031 0 -0.41468845130467291 0.19268004053423909 0 -0.41099867150134572 0.22378265931279079 0 -0.40693149157881192 0.20854646138297669 0 -0.43067986422853077 0.20940139548392031 0 -0.43974358763926291 0.18039709061644729 0 -0.43067986422853077 0.20940139548392031 0 -0.41468845130467291 0.19268004053423909 0 -0.40693149157881192 0.20854646138297669 0 -0.41468845130467291 0.19268004053423909 0 -0.3971577940731173 0.19827573187671929 0 -0.41468845130467291 0.19268004053423909 0 -0.3971577940731173 0.19827573187671929 0 -0.39721082993519219 0.18448993107768991 0 -0.3971577940731173 0.19827573187671929 0 -0.38589476142810619 0.19424352100093389 0 -0.39721082993519219 0.18448993107768991 0 -0.38589476142810619 0.19424352100093389 0 -0.37633455857784293 0.18261391494179069 0 -0.37360736010814782 0.20134128663860251 0 -0.38589476142810619 0.19424352100093389 0 -0.388204088430469 0.2080493245121296 0 -0.37360736010814782 0.20134128663860251 0 -0.3971577940731173 0.19827573187671929 0 -0.38589476142810619 0.19424352100093389 0 -0.388204088430469 0.2080493245121296 0 -0.388204088430469 0.2080493245121296 0 -0.37752279527241261 0.21261086987475841 0 -0.37360736010814782 0.20134128663860251 0 -0.388204088430469 0.2080493245121296 0 -0.39698893960476778 0.22105750592270679 0 -0.38334950790794681 0.2216260941536595 0 -0.388204088430469 0.2080493245121296 0 -0.37752279527241261 0.21261086987475841 0 -0.38334950790794681 0.2216260941536595 0 -0.40693149157881192 0.20854646138297669 0 -0.3971577940731173 0.19827573187671929 0 -0.388204088430469 0.2080493245121296 0 -0.40693149157881192 0.20854646138297669 0 -0.388204088430469 0.2080493245121296 0 -0.39698893960476778 0.22105750592270679 0 -0.41099867150134572 0.22378265931279079 0 -0.40693149157881192 0.20854646138297669 0 -0.39698893960476778 0.22105750592270679 0 -0.41099867150134572 0.22378265931279079 0 -0.39817935363044121 0.2307605800777236 0 -0.39698893960476778 0.22105750592270679 0 -0.41099867150134572 0.22378265931279079 0 -0.39817935363044121 0.2307605800777236 0 -0.40439403923729561 0.237116777479636 0 -0.39817935363044121 0.2307605800777236 0 -0.39698893960476778 0.22105750592270679 0 -0.38938082192181989 0.23429513208400299 0 -0.39698893960476778 0.22105750592270679 0 -0.38334950790794681 0.2216260941536595 0 -0.38938082192181989 0.23429513208400299 0 -0.37752279527241261 0.21261086987475841 0 -0.38334950790794681 0.2216260941536595 0 -0.37349668708843092 0.2226496950895116 0 -0.38334950790794681 0.2216260941536595 0 -0.37780308712422273 0.23309721308500589 0 -0.37349668708843092 0.2226496950895116 0 -0.38334950790794681 0.2216260941536595 0 -0.37780308712422273 0.23309721308500589 0 -0.38938082192181989 0.23429513208400299 0 -0.37780308712422273 0.23309721308500589 0 -0.38938082192181989 0.23429513208400299 0 -0.38455494932564349 0.24416718140159829 0 -0.38938082192181989 0.23429513208400299 0 -0.38455494932564349 0.24416718140159829 0 -0.39556747567899392 0.24292135359640349 0 -0.37780308712422273 0.23309721308500589 0 -0.37552267705158737 0.2431978490864326 0 -0.38455494932564349 0.24416718140159829 0 -0.37552267705158737 0.2431978490864326 0 -0.38455494932564349 0.24416718140159829 0 -0.37675611103540763 0.25409865512553548 0 -0.38455494932564349 0.24416718140159829 0 -0.39556747567899392 0.24292135359640349 0 -0.38900306751682168 0.25733661077056619 0 -0.39556747567899392 0.24292135359640349 0 -0.40570253936436479 0.24856745922560119 0 -0.38900306751682168 0.25733661077056619 0 -0.39817935363044121 0.2307605800777236 0 -0.38938082192181989 0.23429513208400299 0 -0.39556747567899392 0.24292135359640349 0 -0.39817935363044121 0.2307605800777236 0 -0.39556747567899392 0.24292135359640349 0 -0.40439403923729561 0.237116777479636 0 -0.39556747567899392 0.24292135359640349 0 -0.40439403923729561 0.237116777479636 0 -0.40570253936436479 0.24856745922560119 0 -0.40439403923729561 0.237116777479636 0 -0.40570253936436479 0.24856745922560119 0 -0.41854804079657681 0.1335618185962307 0 -0.42914581421791992 0.156979454606339 0 -0.40043471814444209 0.15516303321545699 0 -0.41854804079657681 0.1335618185962307 0 -0.39914528189259102 0.13642314956862331 0 -0.40406865080306442 0.1250183431131778 0 -0.4361514068569779 0.1212930370016405 0 -0.43890233478009338 0.1378395493323826 0 -0.41854804079657681 0.1335618185962307 0 -0.41854804079657681 0.1335618185962307 0 -0.42914581421791992 0.156979454606339 0 -0.43890233478009338 0.1378395493323826 0 -0.41854804079657681 0.1335618185962307 0 -0.42914581421791992 0.156979454606339 0 -0.43974358763926291 0.18039709061644729 0 -0.42914581421791992 0.156979454606339 0 -0.43974358763926291 0.18039709061644729 0 -0.42914581421791992 0.156979454606339 0 -0.41320507520050959 0.17295104721716609 0 -0.43974358763926291 0.18039709061644729 0 -0.41468845130467291 0.19268004053423909 0 -0.41320507520050959 0.17295104721716609 0 -0.41468845130467291 0.19268004053423909 0 -0.41320507520050959 0.17295104721716609 0 -0.39721082993519219 0.18448993107768991 0 -0.42914581421791992 0.156979454606339 0 -0.41320507520050959 0.17295104721716609 0 -0.40043471814444209 0.15516303321545699 0 -0.41320507520050959 0.17295104721716609 0 -0.39020731289493082 0.17075062011690681 0 -0.40043471814444209 0.15516303321545699 0 -0.41320507520050959 0.17295104721716609 0 -0.39721082993519219 0.18448993107768991 0 -0.39020731289493082 0.17075062011690681 0 -0.38589476142810619 0.19424352100093389 0 -0.39721082993519219 0.18448993107768991 0 -0.37633455857784293 0.18261391494179069 0 -0.39721082993519219 0.18448993107768991 0 -0.37633455857784293 0.18261391494179069 0 -0.39020731289493082 0.17075062011690681 0 -0.37604315808934557 0.1616159605326225 0 -0.39020731289493082 0.17075062011690681 0 -0.40043471814444209 0.15516303321545699 0 -0.37633455857784293 0.18261391494179069 0 -0.37604315808934557 0.1616159605326225 0 -0.39020731289493082 0.17075062011690681 0 -0.37604315808934557 0.1616159605326225 0 -0.40043471814444209 0.15516303321545699 0 -0.37471140407559322 0.1435474845347986 0 -0.40043471814444209 0.15516303321545699 0 -0.39914528189259102 0.13642314956862331 0 -0.37471140407559322 0.1435474845347986 0 -0.41854804079657681 0.1335618185962307 0 -0.40043471814444209 0.15516303321545699 0 -0.39914528189259102 0.13642314956862331 0 -0.39063101314785642 0.1199442217017349 0 -0.39914528189259102 0.13642314956862331 0 -0.40406865080306442 0.1250183431131778 0 -0.39063101314785642 0.1199442217017349 0 -0.37471140407559322 0.1435474845347986 0 -0.39063101314785642 0.1199442217017349 0 -0.39914528189259102 0.13642314956862331 0 -0.37471140407559322 0.1435474845347986 0 -0.39063101314785642 0.1199442217017349 0 -0.37471140407559322 0.1435474845347986 0 -0.36716541190589658 0.118616890008602 0 -0.35994195951422209 0.1344452768815545 0 -0.37471140407559322 0.1435474845347986 0 -0.36716541190589658 0.118616890008602 0 -0.35994195951422209 0.1344452768815545 0 -0.36716541190589658 0.118616890008602 0 -0.35352278934268327 0.12307152153672141 0 -0.34641309729257957 0.13731862859844601 0 -0.34013489564456101 0.1359120708212119 0 -0.34492978578452338 0.1096826786703838 0 -0.35994195951422209 0.1344452768815545 0 -0.34641309729257957 0.13731862859844601 0 -0.35352278934268327 0.12307152153672141 0 -0.35994195951422209 0.1344452768815545 0 -0.34641309729257957 0.13731862859844601 0 -0.35789709495435779 0.14967185972920441 0 -0.34641309729257957 0.13731862859844601 0 -0.34789640880063583 0.16495457852650819 0 -0.34475730797662613 0.16425129963789131 0 -0.34641309729257957 0.13731862859844601 0 -0.34789640880063583 0.16495457852650819 0 -0.34641309729257957 0.13731862859844601 0 -0.35789709495435779 0.14967185972920441 0 -0.34789640880063583 0.16495457852650819 0 -0.34641309729257957 0.13731862859844601 0 -0.34475730797662613 0.16425129963789131 0 -0.34013489564456101 0.1359120708212119 0 -0.35994195951422209 0.1344452768815545 0 -0.35789709495435779 0.14967185972920441 0 -0.37471140407559322 0.1435474845347986 0 -0.37471140407559322 0.1435474845347986 0 -0.35879179500333003 0.16715074736786231 0 -0.35789709495435779 0.14967185972920441 0 -0.37471140407559322 0.1435474845347986 0 -0.35879179500333003 0.16715074736786231 0 -0.37604315808934557 0.1616159605326225 0 -0.37471140407559322 0.1435474845347986 0 -0.35879179500333003 0.16715074736786231 0 -0.37604315808934557 0.1616159605326225 0 -0.36770080355277779 0.17295393471821821 0 -0.35879179500333003 0.16715074736786231 0 -0.37633455857784293 0.18261391494179069 0 -0.37604315808934557 0.1616159605326225 0 -0.36770080355277779 0.17295393471821821 0 -0.37633455857784293 0.18261391494179069 0 -0.36024484160731629 0.17922248672973989 0 -0.36412185028301147 0.19234279238731111 0 -0.37633455857784293 0.18261391494179069 0 -0.36770080355277779 0.17295393471821821 0 -0.36024484160731629 0.17922248672973989 0 -0.36770080355277779 0.17295393471821821 0 -0.36024484160731629 0.17922248672973989 0 -0.35879179500333003 0.16715074736786231 0 -0.34475730797662613 0.16425129963789131 0 -0.34937972030869158 0.1925905284545705 0 -0.34475730797662613 0.16425129963789131 0 -0.33955964773429331 0.17429409395644799 0 -0.34937972030869158 0.1925905284545705 0 -0.34789640880063583 0.16495457852650819 0 -0.34937972030869158 0.1925905284545705 0 -0.36024484160731629 0.17922248672973989 0 -0.34789640880063583 0.16495457852650819 0 -0.34937972030869158 0.1925905284545705 0 -0.34789640880063583 0.16495457852650819 0 -0.34475730797662613 0.16425129963789131 0 -0.34937972030869158 0.1925905284545705 0 -0.35789709495435779 0.14967185972920441 0 -0.35879179500333003 0.16715074736786231 0 -0.34789640880063583 0.16495457852650819 0 -0.36024484160731629 0.17922248672973989 0 -0.35879179500333003 0.16715074736786231 0 -0.34789640880063583 0.16495457852650819 0 -0.34475730797662613 0.16425129963789131 0 -0.33718479128260948 0.15937809544746401 0 -0.33738994680948231 0.15124435901621999 0 -0.34475730797662613 0.16425129963789131 0 -0.33718479128260948 0.15937809544746401 0 -0.33813633189250208 0.16634522180797001 0 -0.34475730797662613 0.16425129963789131 0 -0.33813633189250208 0.16634522180797001 0 -0.33955964773429331 0.17429409395644799 0 -0.33813633189250208 0.16634522180797001 0 -0.33104358057647992 0.16745739819007679 0 -0.33955964773429331 0.17429409395644799 0 -0.33718479128260948 0.15937809544746401 0 -0.33813633189250208 0.16634522180797001 0 -0.33104358057647992 0.16745739819007679 0 -0.33718479128260948 0.15937809544746401 0 -0.33104358057647992 0.16745739819007679 0 -0.33026858376101731 0.15190637449176561 0 -0.33104358057647992 0.16745739819007679 0 -0.33403331992976748 0.18227938602527921 0 -0.31962491903722229 0.18594758427241961 0 -0.33955964773429331 0.17429409395644799 0 -0.33403331992976748 0.18227938602527921 0 -0.34937972030869158 0.1925905284545705 0 -0.33104358057647992 0.16745739819007679 0 -0.33955964773429331 0.17429409395644799 0 -0.33403331992976748 0.18227938602527921 0 -0.31962491903722229 0.18594758427241961 0 -0.31796283648197832 0.1633337389314328 0 -0.30596240671843039 0.18080678990447141 0 -0.31962491903722229 0.18594758427241961 0 -0.31796283648197832 0.1633337389314328 0 -0.33104358057647992 0.16745739819007679 0 -0.31962491903722229 0.18594758427241961 0 -0.31796283648197832 0.1633337389314328 0 -0.33104358057647992 0.16745739819007679 0 -0.31796283648197832 0.1633337389314328 0 -0.33026858376101731 0.15190637449176561 0 -0.31796283648197832 0.1633337389314328 0 -0.31630075392673418 0.14071989359044609 0 -0.31796283648197832 0.1633337389314328 0 -0.31630075392673418 0.14071989359044609 0 -0.33026858376101731 0.15190637449176561 0 -0.31630075392673418 0.14071989359044609 0 -0.32855297285770901 0.13997743418302819 0 -0.33026858376101731 0.15190637449176561 0 -0.31630075392673418 0.14071989359044609 0 -0.30835875028686138 0.12836861128214669 0 -0.32196666651361477 0.12487749701900901 0 -0.31630075392673418 0.14071989359044609 0 -0.32855297285770901 0.13997743418302819 0 -0.32196666651361477 0.12487749701900901 0 -0.32855297285770901 0.13997743418302819 0 -0.33106980320980312 0.1246503866679774 0 -0.32196666651361477 0.12487749701900901 0 -0.32855297285770901 0.13997743418302819 0 -0.34013489564456101 0.1359120708212119 0 -0.3346041553825978 0.14477395468276741 0 -0.32855297285770901 0.13997743418302819 0 -0.34013489564456101 0.1359120708212119 0 -0.33106980320980312 0.1246503866679774 0 -0.34475730797662613 0.16425129963789131 0 -0.34013489564456101 0.1359120708212119 0 -0.34013489564456101 0.1359120708212119 0 -0.33738994680948231 0.15124435901621999 0 -0.3346041553825978 0.14477395468276741 0 -0.34475730797662613 0.16425129963789131 0 -0.34013489564456101 0.1359120708212119 0 -0.33738994680948231 0.15124435901621999 0 -0.33718479128260948 0.15937809544746401 0 -0.33738994680948231 0.15124435901621999 0 -0.33026858376101731 0.15190637449176561 0 -0.33738994680948231 0.15124435901621999 0 -0.33026858376101731 0.15190637449176561 0 -0.3346041553825978 0.14477395468276741 0 -0.32855297285770901 0.13997743418302819 0 -0.33026858376101731 0.15190637449176561 0 -0.3346041553825978 0.14477395468276741 0 -0.35208907389890948 0.24306917690434299 0 -0.33787454055877381 0.24529314191448051 0 -0.34142207509263922 0.25572960106260723 0 -0.35208907389890948 0.24306917690434299 0 -0.34508884738596168 0.2342440782649087 0 -0.33787454055877381 0.24529314191448051 0 -0.35689366634974828 0.23865726176967661 0 -0.35926376548055328 0.2486735779402334 0 -0.35208907389890948 0.24306917690434299 0 -0.35926376548055328 0.2486735779402334 0 -0.36665925593476811 0.2402392529692276 0 -0.36723308052532222 0.25309369692869038 0 -0.35689366634974828 0.23865726176967661 0 -0.35926376548055328 0.2486735779402334 0 -0.36665925593476811 0.2402392529692276 0 -0.37552267705158737 0.2431978490864326 0 -0.36665925593476811 0.2402392529692276 0 -0.36723308052532222 0.25309369692869038 0 -0.37780308712422273 0.23309721308500589 0 -0.37552267705158737 0.2431978490864326 0 -0.36665925593476811 0.2402392529692276 0 -0.37780308712422273 0.23309721308500589 0 -0.36665925593476811 0.2402392529692276 0 -0.36843053074319038 0.2307028505946831 0 -0.3637449320256837 0.23462317477255459 0 -0.36665925593476811 0.2402392529692276 0 -0.36843053074319038 0.2307028505946831 0 -0.35689366634974828 0.23865726176967661 0 -0.3637449320256837 0.23462317477255459 0 -0.36304404037139409 0.23042929735762199 0 -0.35689366634974828 0.23865726176967661 0 -0.3637449320256837 0.23462317477255459 0 -0.36665925593476811 0.2402392529692276 0 -0.35689366634974828 0.23865726176967661 0 -0.36304404037139409 0.23042929735762199 0 -0.36041387714694573 0.22521835140317789 0 -0.36304404037139409 0.23042929735762199 0 -0.36843053074319038 0.2307028505946831 0 -0.36573719559140289 0.222944848248018 0 -0.3637449320256837 0.23462317477255459 0 -0.36304404037139409 0.23042929735762199 0 -0.36843053074319038 0.2307028505946831 0 -0.37780308712422273 0.23309721308500589 0 -0.36843053074319038 0.2307028505946831 0 -0.37349668708843092 0.2226496950895116 0 -0.36843053074319038 0.2307028505946831 0 -0.37349668708843092 0.2226496950895116 0 -0.36573719559140289 0.222944848248018 0 -0.37349668708843092 0.2226496950895116 0 -0.36573719559140289 0.222944848248018 0 -0.36813700589141007 0.21491629458094519 0 -0.36304404037139409 0.23042929735762199 0 -0.36573719559140289 0.222944848248018 0 -0.36041387714694573 0.22521835140317789 0 -0.36573719559140289 0.222944848248018 0 -0.36041387714694573 0.22521835140317789 0 -0.36096209089537368 0.21759825830877291 0 -0.36041387714694573 0.22521835140317789 0 -0.35785158193032179 0.22427444164843771 0 -0.36096209089537368 0.21759825830877291 0 -0.35689366634974828 0.23865726176967661 0 -0.35785158193032179 0.22427444164843771 0 -0.35313669332921982 0.21562389511212349 0 -0.35785158193032179 0.22427444164843771 0 -0.35313669332921982 0.21562389511212349 0 -0.36096209089537368 0.21759825830877291 0 -0.35689366634974828 0.23865726176967661 0 -0.35313669332921982 0.21562389511212349 0 -0.35208907389890948 0.24306917690434299 0 -0.34508884738596168 0.2342440782649087 0 -0.35073439710380072 0.2178298526794567 0 -0.34508884738596168 0.2342440782649087 0 -0.35073439710380072 0.2178298526794567 0 -0.33965737798236312 0.2307841415613546 0 -0.35208907389890948 0.24306917690434299 0 -0.35073439710380072 0.2178298526794567 0 -0.35689366634974828 0.23865726176967661 0 -0.35073439710380072 0.2178298526794567 0 -0.35313669332921982 0.21562389511212349 0 -0.35689366634974828 0.23865726176967661 0 -0.35208907389890948 0.24306917690434299 0 -0.35073439710380072 0.2178298526794567 0 -0.35689366634974828 0.23865726176967661 0 -0.36041387714694573 0.22521835140317789 0 -0.35785158193032179 0.22427444164843771 0 -0.35073439710380072 0.2178298526794567 0 -0.34937972030869158 0.1925905284545705 0 -0.35313669332921982 0.21562389511212349 0 -0.36104277081305908 0.20594574517185199 0 -0.34937972030869158 0.1925905284545705 0 -0.35073439710380072 0.2178298526794567 0 -0.35313669332921982 0.21562389511212349 0 -0.34937972030869158 0.1925905284545705 0 -0.35313669332921982 0.21562389511212349 0 -0.34937972030869158 0.1925905284545705 0 -0.35073439710380072 0.2178298526794567 0 -0.34937972030869158 0.1925905284545705 0 -0.34310613959102931 0.2055031457500841 0 -0.35073439710380072 0.2178298526794567 0 -0.34310613959102931 0.2055031457500841 0 -0.34102096872395049 0.21330790674795511 0 -0.35073439710380072 0.2178298526794567 0 -0.34102096872395049 0.21330790674795511 0 -0.34050958406480097 0.2204489809667724 0 -0.35313669332921982 0.21562389511212349 0 -0.36096209089537368 0.21759825830877291 0 -0.36104277081305908 0.20594574517185199 0 -0.36573719559140289 0.222944848248018 0 -0.36096209089537368 0.21759825830877291 0 -0.36813700589141007 0.21491629458094519 0 -0.36096209089537368 0.21759825830877291 0 -0.36813700589141007 0.21491629458094519 0 -0.36104277081305908 0.20594574517185199 0 -0.37752279527241261 0.21261086987475841 0 -0.37349668708843092 0.2226496950895116 0 -0.36813700589141007 0.21491629458094519 0 -0.37752279527241261 0.21261086987475841 0 -0.36813700589141007 0.21491629458094519 0 -0.37360736010814782 0.20134128663860251 0 -0.36813700589141007 0.21491629458094519 0 -0.36104277081305908 0.20594574517185199 0 -0.37360736010814782 0.20134128663860251 0 -0.37633455857784293 0.18261391494179069 0 -0.37360736010814782 0.20134128663860251 0 -0.36412185028301147 0.19234279238731111 0 -0.36104277081305908 0.20594574517185199 0 -0.37360736010814782 0.20134128663860251 0 -0.36412185028301147 0.19234279238731111 0 -0.36024484160731629 0.17922248672973989 0 -0.36412185028301147 0.19234279238731111 0 -0.34937972030869158 0.1925905284545705 0 -0.36104277081305908 0.20594574517185199 0 -0.36412185028301147 0.19234279238731111 0 -0.34937972030869158 0.1925905284545705 0 -0.33403331992976748 0.18227938602527921 0 -0.34937972030869158 0.1925905284545705 0 -0.33132558757267788 0.19645560619981381 0 -0.34937972030869158 0.1925905284545705 0 -0.33132558757267788 0.19645560619981381 0 -0.34310613959102931 0.2055031457500841 0 -0.33132558757267788 0.19645560619981381 0 -0.33206760714527173 0.20694684499318661 0 -0.34310613959102931 0.2055031457500841 0 -0.33403331992976748 0.18227938602527921 0 -0.31962491903722229 0.18594758427241961 0 -0.33132558757267788 0.19645560619981381 0 -0.31962491903722229 0.18594758427241961 0 -0.33132558757267788 0.19645560619981381 0 -0.32128700159246643 0.2085614296134064 0 -0.31962491903722229 0.18594758427241961 0 -0.32128700159246643 0.2085614296134064 0 -0.31094130810426679 0.20146887601233149 0 -0.31962491903722229 0.18594758427241961 0 -0.32128700159246643 0.2085614296134064 0 -0.32128700159246643 0.2085614296134064 0 -0.30991457648112369 0.2265504040794763 0 -0.30833129431909739 0.21334832502430981 0 -0.32128700159246643 0.2085614296134064 0 -0.30833129431909739 0.21334832502430981 0 -0.31094130810426679 0.20146887601233149 0 -0.32128700159246643 0.2085614296134064 0 -0.334517009846864 0.21514148884522391 0 -0.33414886994078158 0.22469785659874761 0 -0.334517009846864 0.21514148884522391 0 -0.33206760714527173 0.20694684499318661 0 -0.34102096872395049 0.21330790674795511 0 -0.33132558757267788 0.19645560619981381 0 -0.32128700159246643 0.2085614296134064 0 -0.33206760714527173 0.20694684499318661 0 -0.32128700159246643 0.2085614296134064 0 -0.334517009846864 0.21514148884522391 0 -0.33206760714527173 0.20694684499318661 0 -0.33206760714527173 0.20694684499318661 0 -0.34310613959102931 0.2055031457500841 0 -0.34102096872395049 0.21330790674795511 0 -0.334517009846864 0.21514148884522391 0 -0.34102096872395049 0.21330790674795511 0 -0.34050958406480097 0.2204489809667724 0 -0.33965737798236312 0.2307841415613546 0 -0.33414886994078158 0.22469785659874761 0 -0.32294908414771051 0.231175274954393 0 -0.34050958406480097 0.2204489809667724 0 -0.33965737798236312 0.2307841415613546 0 -0.33414886994078158 0.22469785659874761 0 -0.334517009846864 0.21514148884522391 0 -0.34050958406480097 0.2204489809667724 0 -0.33414886994078158 0.22469785659874761 0 -0.35073439710380072 0.2178298526794567 0 -0.34050958406480097 0.2204489809667724 0 -0.33965737798236312 0.2307841415613546 0 -0.32128700159246643 0.2085614296134064 0 -0.33414886994078158 0.22469785659874761 0 -0.32294908414771051 0.231175274954393 0 -0.32128700159246643 0.2085614296134064 0 -0.32294908414771051 0.231175274954393 0 -0.32128700159246643 0.2085614296134064 0 -0.32294908414771051 0.231175274954393 0 -0.30991457648112369 0.2265504040794763 0 -0.32294908414771051 0.231175274954393 0 -0.30659471691689572 0.242716670786389 0 -0.30991457648112369 0.2265504040794763 0 -0.32294908414771051 0.231175274954393 0 -0.30659471691689572 0.242716670786389 0 -0.32493898666941562 0.25370598596143412 0 -0.33965737798236312 0.2307841415613546 0 -0.32294908414771051 0.231175274954393 0 -0.33787454055877381 0.24529314191448051 0 -0.32294908414771051 0.231175274954393 0 -0.33787454055877381 0.24529314191448051 0 -0.32493898666941562 0.25370598596143412 0 -0.34508884738596168 0.2342440782649087 0 -0.33965737798236312 0.2307841415613546 0 -0.33787454055877381 0.24529314191448051 0 -0.28392805579818597 0.24584677119781029 0 -0.30659471691689572 0.242716670786389 0 -0.29475597619187288 0.23283261746471121 0 -0.28392805579818597 0.24584677119781029 0 -0.29475597619187288 0.23283261746471121 0 -0.28109078806307641 0.23123665432302171 0 -0.30991457648112369 0.2265504040794763 0 -0.2995127007984647 0.22240216811521779 0 -0.29475597619187288 0.23283261746471121 0 -0.30659471691689572 0.242716670786389 0 -0.30991457648112369 0.2265504040794763 0 -0.29475597619187288 0.23283261746471121 0 -0.30991457648112369 0.2265504040794763 0 -0.2995127007984647 0.22240216811521779 0 -0.30833129431909739 0.21334832502430981 0 -0.2995127007984647 0.22240216811521779 0 -0.29475597619187288 0.23283261746471121 0 -0.28658767146556752 0.2208426317688808 0 -0.29475597619187288 0.23283261746471121 0 -0.28658767146556752 0.2208426317688808 0 -0.28109078806307641 0.23123665432302171 0 -0.28658767146556752 0.2208426317688808 0 -0.28549164962408852 0.20589081089837991 0 -0.27599235506858921 0.213338138612501 0 -0.2995127007984647 0.22240216811521779 0 -0.28658767146556752 0.2208426317688808 0 -0.29782091388006071 0.2077851852193662 0 -0.28658767146556752 0.2208426317688808 0 -0.28549164962408852 0.20589081089837991 0 -0.29782091388006071 0.2077851852193662 0 -0.2995127007984647 0.22240216811521779 0 -0.30833129431909739 0.21334832502430981 0 -0.29782091388006071 0.2077851852193662 0 -0.30833129431909739 0.21334832502430981 0 -0.29782091388006071 0.2077851852193662 0 -0.31094130810426679 0.20146887601233149 0 -0.31094130810426679 0.20146887601233149 0 -0.28918285092023371 0.18809301854234381 0 -0.30596240671843039 0.18080678990447141 0 -0.31094130810426679 0.20146887601233149 0 -0.28918285092023371 0.18809301854234381 0 -0.31962491903722229 0.18594758427241961 0 -0.31094130810426679 0.20146887601233149 0 -0.30596240671843039 0.18080678990447141 0 -0.29782091388006071 0.2077851852193662 0 -0.31094130810426679 0.20146887601233149 0 -0.28918285092023371 0.18809301854234381 0 -0.28549164962408852 0.20589081089837991 0 -0.28918285092023371 0.18809301854234381 0 -0.27469451239495962 0.19856643751398209 0 -0.28549164962408852 0.20589081089837991 0 -0.29782091388006071 0.2077851852193662 0 -0.28918285092023371 0.18809301854234381 0 -0.27469451239495962 0.19856643751398209 0 -0.25846339158769432 0.19477026040294029 0 -0.26742439373620053 0.1747171610723561 0 -0.27469451239495962 0.19856643751398209 0 -0.25846339158769432 0.19477026040294029 0 -0.26373521695980739 0.20854805576629271 0 -0.25846339158769432 0.19477026040294029 0 -0.25264776582176801 0.2054066783297176 0 -0.24512564856919611 0.1966003761625241 0 -0.25846339158769432 0.19477026040294029 0 -0.26373521695980739 0.20854805576629271 0 -0.25264776582176801 0.2054066783297176 0 -0.26373521695980739 0.20854805576629271 0 -0.25264776582176801 0.2054066783297176 0 -0.25326648915379463 0.21765104414027969 0 -0.26373521695980739 0.20854805576629271 0 -0.25326648915379463 0.21765104414027969 0 -0.26696116117740232 0.2188897629996385 0 -0.26373521695980739 0.20854805576629271 0 -0.27599235506858921 0.213338138612501 0 -0.26696116117740232 0.2188897629996385 0 -0.27469451239495962 0.19856643751398209 0 -0.26373521695980739 0.20854805576629271 0 -0.27599235506858921 0.213338138612501 0 -0.28549164962408852 0.20589081089837991 0 -0.27469451239495962 0.19856643751398209 0 -0.27599235506858921 0.213338138612501 0 -0.28658767146556752 0.2208426317688808 0 -0.27599235506858921 0.213338138612501 0 -0.27366575233363138 0.22408994750137051 0 -0.28658767146556752 0.2208426317688808 0 -0.27366575233363138 0.22408994750137051 0 -0.28109078806307641 0.23123665432302171 0 -0.27366575233363138 0.22408994750137051 0 -0.28109078806307641 0.23123665432302171 0 -0.26613842301448931 0.22948780180005629 0 -0.27366575233363138 0.22408994750137051 0 -0.26613842301448931 0.22948780180005629 0 -0.27599235506858921 0.213338138612501 0 -0.27366575233363138 0.22408994750137051 0 -0.26696116117740232 0.2188897629996385 0 -0.27366575233363138 0.22408994750137051 0 -0.26613842301448931 0.22948780180005629 0 -0.26696116117740232 0.2188897629996385 0 -0.25326648915379463 0.21765104414027969 0 -0.26613842301448931 0.22948780180005629 0 -0.25326648915379463 0.21765104414027969 0 -0.26613842301448931 0.22948780180005629 0 -0.26696116117740232 0.2188897629996385 0 -0.26613842301448931 0.22948780180005629 0 -0.25250373055295899 0.22903132158689779 0 -0.2468893326351202 0.24329134098969171 0 -0.25326648915379463 0.21765104414027969 0 -0.26613842301448931 0.22948780180005629 0 -0.25250373055295899 0.22903132158689779 0 -0.26613842301448931 0.22948780180005629 0 -0.2468893326351202 0.24329134098969171 0 -0.26613842301448931 0.22948780180005629 0 -0.26514282027817931 0.24842266601513599 0 -0.2468893326351202 0.24329134098969171 0 -0.28392805579818597 0.24584677119781029 0 -0.26613842301448931 0.22948780180005629 0 -0.26514282027817931 0.24842266601513599 0 -0.28392805579818597 0.24584677119781029 0 -0.26613842301448931 0.22948780180005629 0 -0.28392805579818597 0.24584677119781029 0 -0.28109078806307641 0.23123665432302171 0 -0.26613842301448931 0.22948780180005629 0 -0.29674228528268098 0.14167201189203629 0 -0.29210011904845101 0.16519073176382951 0 -0.2788144627000812 0.14703818685698561 0 -0.29674228528268098 0.14167201189203629 0 -0.2788144627000812 0.14703818685698561 0 -0.2804226891664876 0.12940513594623221 0 -0.29674228528268098 0.14167201189203629 0 -0.2804226891664876 0.12940513594623221 0 -0.29563289833704792 0.1211109261551389 0 -0.29674228528268098 0.14167201189203629 0 -0.30835875028686138 0.12836861128214669 0 -0.29563289833704792 0.1211109261551389 0 -0.31630075392673418 0.14071989359044609 0 -0.29674228528268098 0.14167201189203629 0 -0.30835875028686138 0.12836861128214669 0 -0.31796283648197832 0.1633337389314328 0 -0.31630075392673418 0.14071989359044609 0 -0.29674228528268098 0.14167201189203629 0 -0.31796283648197832 0.1633337389314328 0 -0.30596240671843039 0.18080678990447141 0 -0.29210011904845101 0.16519073176382951 0 -0.31796283648197832 0.1633337389314328 0 -0.29674228528268098 0.14167201189203629 0 -0.29210011904845101 0.16519073176382951 0 -0.28918285092023371 0.18809301854234381 0 -0.30596240671843039 0.18080678990447141 0 -0.29210011904845101 0.16519073176382951 0 -0.28918285092023371 0.18809301854234381 0 -0.29210011904845101 0.16519073176382951 0 -0.26742439373620053 0.1747171610723561 0 -0.29210011904845101 0.16519073176382951 0 -0.26645859331151961 0.15770478106228089 0 -0.2788144627000812 0.14703818685698561 0 -0.29210011904845101 0.16519073176382951 0 -0.26645859331151961 0.15770478106228089 0 -0.26742439373620053 0.1747171610723561 0 -0.28918285092023371 0.18809301854234381 0 -0.27469451239495962 0.19856643751398209 0 -0.26742439373620053 0.1747171610723561 0 -0.28918285092023371 0.18809301854234381 0 -0.26742439373620053 0.1747171610723561 0 -0.25846339158769432 0.19477026040294029 0 -0.26742439373620053 0.1747171610723561 0 -0.2425545525554833 0.18325607046718431 0 -0.26742439373620053 0.1747171610723561 0 -0.24566593655216731 0.1613413036023684 0 -0.2425545525554833 0.18325607046718431 0 -0.26742439373620053 0.1747171610723561 0 -0.24566593655216731 0.1613413036023684 0 -0.26645859331151961 0.15770478106228089 0 -0.26742439373620053 0.1747171610723561 0 -0.24566593655216731 0.1613413036023684 0 -0.26645859331151961 0.15770478106228089 0 -0.26077588748637798 0.14053443996503889 0 -0.24566593655216731 0.1613413036023684 0 -0.26645859331151961 0.15770478106228089 0 -0.2788144627000812 0.14703818685698561 0 -0.26077588748637798 0.14053443996503889 0 -0.2788144627000812 0.14703818685698561 0 -0.2804226891664876 0.12940513594623221 0 -0.26077588748637798 0.14053443996503889 0 -0.2804226891664876 0.12940513594623221 0 -0.26077588748637798 0.14053443996503889 0 -0.26620622488190782 0.1187168322113534 0 -0.26077588748637798 0.14053443996503889 0 -0.25033803458298193 0.12914144363467839 0 -0.2394413917758374 0.14053574488666021 0 -0.26077588748637798 0.14053443996503889 0 -0.25033803458298193 0.12914144363467839 0 -0.26620622488190782 0.1187168322113534 0 -0.25033803458298193 0.12914144363467839 0 -0.25364395357421121 0.10678394025260531 0 -0.26620622488190782 0.1187168322113534 0 -0.25364395357421121 0.10678394025260531 0 -0.26910496068450029 0.10059928658519129 0 -0.26340159681891351 0.087305486383429762 0 -0.25364395357421121 0.10678394025260531 0 -0.26910496068450029 0.10059928658519129 0 -0.26620622488190782 0.1187168322113534 0 -0.26910496068450029 0.10059928658519129 0 -0.28436437631082973 0.10735841859683989 0 -0.28176033911896858 0.090840469038767704 0 -0.26910496068450029 0.10059928658519129 0 -0.26620622488190782 0.1187168322113534 0 -0.28436437631082973 0.10735841859683989 0 -0.2804226891664876 0.12940513594623221 0 -0.26620622488190782 0.1187168322113534 0 -0.28436437631082973 0.10735841859683989 0 -0.2804226891664876 0.12940513594623221 0 -0.29563289833704792 0.1211109261551389 0 -0.28436437631082973 0.10735841859683989 0 -0.29563289833704792 0.1211109261551389 0 -0.28436437631082973 0.10735841859683989 0 -0.30333203744139958 0.1018092028156232 0 -0.28436437631082973 0.10735841859683989 0 -0.30333203744139958 0.1018092028156232 0 -0.29505738772415852 0.092466809089677027 0 -0.28436437631082973 0.10735841859683989 0 -0.29505738772415852 0.092466809089677027 0 -0.28176033911896858 0.090840469038767704 0 -0.30333203744139958 0.1018092028156232 0 -0.31115114737422961 0.1134627277541034 0 -0.31621893882499519 0.096173217231134644 0 -0.29563289833704792 0.1211109261551389 0 -0.30333203744139958 0.1018092028156232 0 -0.31115114737422961 0.1134627277541034 0 -0.30835875028686138 0.12836861128214669 0 -0.29563289833704792 0.1211109261551389 0 -0.31115114737422961 0.1134627277541034 0 -0.2988364877494265 0.069896585727329402 0 -0.3095990562077543 0.082833834969606807 0 -0.31708477734686968 0.066938799678275263 0 -0.2988364877494265 0.069896585727329402 0 -0.30266664287706341 0.054708362279179482 0 -0.31708477734686968 0.066938799678275263 0 -0.2988364877494265 0.069896585727329402 0 -0.28935545939309398 0.062964548691125152 0 -0.30266664287706341 0.054708362279179482 0 -0.30333203744139958 0.1018092028156232 0 -0.3095990562077543 0.082833834969606807 0 -0.31621893882499519 0.096173217231134644 0 -0.30333203744139958 0.1018092028156232 0 -0.3095990562077543 0.082833834969606807 0 -0.29505738772415852 0.092466809089677027 0 -0.3095990562077543 0.082833834969606807 0 -0.29687345717375091 0.081902945336330912 0 -0.29505738772415852 0.092466809089677027 0 -0.2988364877494265 0.069896585727329402 0 -0.3095990562077543 0.082833834969606807 0 -0.29687345717375091 0.081902945336330912 0 -0.29687345717375091 0.081902945336330912 0 -0.28176033911896858 0.090840469038767704 0 -0.2804463735768567 0.075556206852953223 0 -0.29687345717375091 0.081902945336330912 0 -0.29505738772415852 0.092466809089677027 0 -0.28176033911896858 0.090840469038767704 0 -0.2988364877494265 0.069896585727329402 0 -0.28935545939309398 0.062964548691125152 0 -0.2804463735768567 0.075556206852953223 0 -0.2988364877494265 0.069896585727329402 0 -0.29687345717375091 0.081902945336330912 0 -0.2804463735768567 0.075556206852953223 0 -0.28935545939309398 0.062964548691125152 0 -0.28020443427428848 0.065937434716272045 0 -0.28232948387749679 0.060243429622273227 0 -0.28935545939309398 0.062964548691125152 0 -0.28020443427428848 0.065937434716272045 0 -0.2804463735768567 0.075556206852953223 0 -0.2804463735768567 0.075556206852953223 0 -0.26340159681891351 0.087305486383429762 0 -0.26195798501385009 0.070226375813507561 0 -0.28020443427428848 0.065937434716272045 0 -0.26195798501385009 0.070226375813507561 0 -0.2800946942601637 0.055740888585776333 0 -0.28020443427428848 0.065937434716272045 0 -0.2804463735768567 0.075556206852953223 0 -0.26195798501385009 0.070226375813507561 0 -0.26195798501385009 0.070226375813507561 0 -0.2800946942601637 0.055740888585776333 0 -0.26910496068450029 0.10059928658519129 0 -0.28176033911896858 0.090840469038767704 0 -0.26340159681891351 0.087305486383429762 0 -0.28176033911896858 0.090840469038767704 0 -0.2804463735768567 0.075556206852953223 0 -0.26340159681891351 0.087305486383429762 0 -0.26340159681891351 0.087305486383429762 0 -0.26195798501385009 0.070226375813507561 0 -0.24382127576753621 0.084711863041238192 0 -0.25364395357421121 0.10678394025260531 0 -0.26340159681891351 0.087305486383429762 0 -0.24382127576753621 0.084711863041238192 0 -0.26195798501385009 0.070226375813507561 0 -0.24382127576753621 0.084711863041238192 0 -0.26195798501385009 0.070226375813507561 0 -0.26253060434091768 0.04486583530805522 0 -0.24534917185526489 0.049526218608574313 0 -0.26253060434091768 0.04486583530805522 0 -0.25642639863326749 0.02710060176493858 0 -0.24534917185526489 0.049526218608574313 0 -0.26253060434091768 0.04486583530805522 0 -0.27431483662099609 0.037465275048419483 0 -0.25642639863326749 0.02710060176493858 0 -0.26253060434091768 0.04486583530805522 0 -0.27431483662099609 0.037465275048419483 0 -0.2800946942601637 0.055740888585776333 0 -0.26195798501385009 0.070226375813507561 0 -0.26253060434091768 0.04486583530805522 0 -0.2800946942601637 0.055740888585776333 0 -0.28020443427428848 0.065937434716272045 0 -0.2800946942601637 0.055740888585776333 0 -0.28232948387749679 0.060243429622273227 0 -0.26431478179583978 -0.01186883573312463 0 -0.25132042997239518 0.0027134119798401068 0 -0.26646431581863778 0.01029557754540468 0 -0.25132042997239518 0.0027134119798401068 0 -0.25642639863326749 0.02710060176493858 0 -0.26646431581863778 0.01029557754540468 0 -0.27431483662099609 0.037465275048419483 0 -0.25642639863326749 0.02710060176493858 0 -0.27962863155723588 0.021383722316491719 0 -0.25642639863326749 0.02710060176493858 0 -0.27962863155723588 0.021383722316491719 0 -0.26646431581863778 0.01029557754540468 0 -0.2820771903446922 -0.0013122005201030101 0 -0.27962863155723588 0.021383722316491719 0 -0.26646431581863778 0.01029557754540468 0 -0.2820771903446922 -0.0013122005201030101 0 -0.30047775033007851 -0.00039401612408775783 0 -0.29196914664965867 0.01010181790504874 0 -0.2820771903446922 -0.0013122005201030101 0 -0.27962863155723588 0.021383722316491719 0 -0.29196914664965867 0.01010181790504874 0 -0.27962863155723588 0.021383722316491719 0 -0.29196914664965867 0.01010181790504874 0 -0.3056930143666281 0.020729765947894 0 -0.27962863155723588 0.021383722316491719 0 -0.3056930143666281 0.020729765947894 0 -0.2928938543133956 0.038235327266834943 0 -0.3056930143666281 0.020729765947894 0 -0.2928938543133956 0.038235327266834943 0 -0.3056930143666281 0.020729765947894 0 -0.30086997028822832 0.039148022070134687 0 -0.32164524631629432 0.022555155554494829 0 -0.30086997028822832 0.039148022070134687 0 -0.32164524631629432 0.022555155554494829 0 -0.3056930143666281 0.020729765947894 0 -0.31849217441985911 0.0032242046289520012 0 -0.30047775033007851 -0.00039401612408775783 0 -0.3056930143666281 0.020729765947894 0 -0.31849217441985911 0.0032242046289520012 0 -0.30047775033007851 -0.00039401612408775783 0 -0.29196914664965867 0.01010181790504874 0 -0.3056930143666281 0.020729765947894 0 -0.2800946942601637 0.055740888585776333 0 -0.30086997028822832 0.039148022070134687 0 -0.28935545939309398 0.062964548691125152 0 -0.2800946942601637 0.055740888585776333 0 -0.30266664287706341 0.054708362279179482 0 -0.2800946942601637 0.055740888585776333 0 -0.2928938543133956 0.038235327266834943 0 -0.2800946942601637 0.055740888585776333 0 -0.30086997028822832 0.039148022070134687 0 -0.30266664287706341 0.054708362279179482 0 -0.28935545939309398 0.062964548691125152 0 -0.2800946942601637 0.055740888585776333 0 -0.28232948387749679 0.060243429622273227 0 -0.2800946942601637 0.055740888585776333 0 -0.2928938543133956 0.038235327266834943 0 -0.30086997028822832 0.039148022070134687 0 -0.27431483662099609 0.037465275048419483 0 -0.27962863155723588 0.021383722316491719 0 -0.2928938543133956 0.038235327266834943 0 -0.27431483662099609 0.037465275048419483 0 -0.2800946942601637 0.055740888585776333 0 -0.2928938543133956 0.038235327266834943 0 -0.3056930143666281 0.020729765947894 0 -0.2928938543133956 0.038235327266834943 0 -0.30086997028822832 0.039148022070134687 0 -0.30086997028822832 0.039148022070134687 0 -0.30266664287706341 0.054708362279179482 0 -0.3262676586483656 0.050894384371173287 0 -0.30266664287706341 0.054708362279179482 0 -0.3262676586483656 0.050894384371173287 0 -0.31708477734686968 0.066938799678275263 0 -0.3262676586483656 0.050894384371173287 0 -0.32164524631629432 0.022555155554494829 0 -0.30086997028822832 0.039148022070134687 0 -0.3262676586483656 0.050894384371173287 0 -0.32164524631629432 0.022555155554494829 0 -0.3262676586483656 0.050894384371173287 0 -0.32164524631629432 0.022555155554494829 0 -0.34047985126035502 0.026774828886197279 0 -0.3419631627684111 0.054410778814259472 0 -0.34047985126035502 0.026774828886197279 0 -0.3262676586483656 0.050894384371173287 0 -0.3419631627684111 0.054410778814259472 0 -0.34047985126035502 0.026774828886197279 0 -0.3262676586483656 0.050894384371173287 0 -0.3419631627684111 0.054410778814259472 0 -0.33089007098043072 0.079233613187852742 0 -0.3056930143666281 0.020729765947894 0 -0.31849217441985911 0.0032242046289520012 0 -0.32164524631629432 0.022555155554494829 0 -0.31849217441985911 0.0032242046289520012 0 -0.32164524631629432 0.022555155554494829 0 -0.33742136738088668 0.0099550307423931228 0 -0.31849217441985911 0.0032242046289520012 0 -0.32164524631629432 0.022555155554494829 0 -0.32164524631629432 0.022555155554494829 0 -0.33742136738088668 0.0099550307423931228 0 -0.32164524631629432 0.022555155554494829 0 -0.34047985126035502 0.026774828886197279 0 -0.33742136738088668 0.0099550307423931228 0 -0.35319748844548088 -0.0026450940697062141 0 -0.33742136738088668 0.0099550307423931228 0 -0.35319748844548088 -0.0026450940697062141 0 -0.33742136738088668 0.0099550307423931228 0 -0.35568472126330458 0.01398178967161531 0 -0.34047985126035502 0.026774828886197279 0 -0.35568472126330458 0.01398178967161531 0 -0.36050468596179641 0.029201478886372499 0 -0.34047985126035502 0.026774828886197279 0 -0.33742136738088668 0.0099550307423931228 0 -0.35568472126330458 0.01398178967161531 0 -0.35568472126330458 0.01398178967161531 0 -0.36050468596179641 0.029201478886372499 0 -0.37274578052696178 0.01868977009819147 0 -0.37753126207020948 0.034899308803226177 0 -0.36050468596179641 0.029201478886372499 0 -0.37274578052696178 0.01868977009819147 0 -0.35319748844548088 -0.0026450940697062141 0 -0.35568472126330458 0.01398178967161531 0 -0.36979036210562988 0.0025511841975563729 0 -0.35568472126330458 0.01398178967161531 0 -0.37274578052696178 0.01868977009819147 0 -0.36979036210562988 0.0025511841975563729 0 -0.35367539322405089 0.052192583201526178 0 -0.35229578078182711 0.042127528613546239 0 -0.36485581069452189 0.048057973279375742 0 -0.35367539322405089 0.052192583201526178 0 -0.36174043644781612 0.059537200304905107 0 -0.34707042967454638 0.066493871458924422 0 -0.3419631627684111 0.054410778814259472 0 -0.35367539322405089 0.052192583201526178 0 -0.34707042967454638 0.066493871458924422 0 -0.3419631627684111 0.054410778814259472 0 -0.35367539322405089 0.052192583201526178 0 -0.35229578078182711 0.042127528613546239 0 -0.34047985126035502 0.026774828886197279 0 -0.36050468596179641 0.029201478886372499 0 -0.35229578078182711 0.042127528613546239 0 -0.3419631627684111 0.054410778814259472 0 -0.34047985126035502 0.026774828886197279 0 -0.35229578078182711 0.042127528613546239 0 -0.36050468596179641 0.029201478886372499 0 -0.35229578078182711 0.042127528613546239 0 -0.36485581069452189 0.048057973279375742 0 -0.37753126207020948 0.034899308803226177 0 -0.36050468596179641 0.029201478886372499 0 -0.36485581069452189 0.048057973279375742 0 -0.37830855690199738 0.048851891747440382 0 -0.37753126207020948 0.034899308803226177 0 -0.36485581069452189 0.048057973279375742 0 -0.37830855690199738 0.048851891747440382 0 -0.36485581069452189 0.048057973279375742 0 -0.37119345183321822 0.058853827639881867 0 -0.35367539322405089 0.052192583201526178 0 -0.36485581069452189 0.048057973279375742 0 -0.36174043644781612 0.059537200304905107 0 -0.36485581069452189 0.048057973279375742 0 -0.36174043644781612 0.059537200304905107 0 -0.37119345183321822 0.058853827639881867 0 -0.37201358599706058 0.070711840939253895 0 -0.36026946930678239 0.075913175113325196 0 -0.34707042967454638 0.066493871458924422 0 -0.37904886912469499 0.067110231928434197 0 -0.37119345183321822 0.058853827639881867 0 -0.37201358599706058 0.070711840939253895 0 -0.37201358599706058 0.070711840939253895 0 -0.34707042967454638 0.066493871458924422 0 -0.36174043644781612 0.059537200304905107 0 -0.37119345183321822 0.058853827639881867 0 -0.37201358599706058 0.070711840939253895 0 -0.36174043644781612 0.059537200304905107 0 -0.37201358599706058 0.070711840939253895 0 -0.34707042967454638 0.066493871458924422 0 -0.37201358599706058 0.070711840939253895 0 -0.36026946930678239 0.075913175113325196 0 -0.37016311523106599 0.083751267223082917 0 -0.38119130922167832 0.078766060501995444 0 -0.37201358599706058 0.070711840939253895 0 -0.37016311523106599 0.083751267223082917 0 -0.3419631627684111 0.054410778814259472 0 -0.34707042967454638 0.066493871458924422 0 -0.34344647427646718 0.082046728742321648 0 -0.36026946930678239 0.075913175113325196 0 -0.35274187612612162 0.077211514003190262 0 -0.34707042967454638 0.066493871458924422 0 -0.35274187612612162 0.077211514003190262 0 -0.34707042967454638 0.066493871458924422 0 -0.34344647427646718 0.082046728742321648 0 -0.35295667425925747 0.085123838591775802 0 -0.35001973748798287 0.095551702326820934 0 -0.34344647427646718 0.082046728742321648 0 -0.35274187612612162 0.077211514003190262 0 -0.35295667425925747 0.085123838591775802 0 -0.34344647427646718 0.082046728742321648 0 -0.35274187612612162 0.077211514003190262 0 -0.35295667425925747 0.085123838591775802 0 -0.35935833950511731 0.08139738194217451 0 -0.35295667425925747 0.085123838591775802 0 -0.35935833950511731 0.08139738194217451 0 -0.35921694390059838 0.089411865944371699 0 -0.36026946930678239 0.075913175113325196 0 -0.35274187612612162 0.077211514003190262 0 -0.35935833950511731 0.08139738194217451 0 -0.35295667425925747 0.085123838591775802 0 -0.35921694390059838 0.089411865944371699 0 -0.35001973748798287 0.095551702326820934 0 -0.35921694390059838 0.089411865944371699 0 -0.37016311523106599 0.083751267223082917 0 -0.36611800641667808 0.094109198156665408 0 -0.36026946930678239 0.075913175113325196 0 -0.35935833950511731 0.08139738194217451 0 -0.37016311523106599 0.083751267223082917 0 -0.35935833950511731 0.08139738194217451 0 -0.35921694390059838 0.089411865944371699 0 -0.37016311523106599 0.083751267223082917 0 -0.37643332436138899 0.09558572737664002 0 -0.37016311523106599 0.083751267223082917 0 -0.36611800641667808 0.094109198156665408 0 -0.37643332436138899 0.09558572737664002 0 -0.36831342086492491 0.1042920553550029 0 -0.36611800641667808 0.094109198156665408 0 -0.37896648635229202 0.10715504183998489 0 -0.37643332436138899 0.09558572737664002 0 -0.36831342086492491 0.1042920553550029 0 -0.36831342086492491 0.1042920553550029 0 -0.35948680904503588 0.10793893666500461 0 -0.35938862515943509 0.099383552161339872 0 -0.35921694390059838 0.089411865944371699 0 -0.35938862515943509 0.099383552161339872 0 -0.36611800641667808 0.094109198156665408 0 -0.36831342086492491 0.1042920553550029 0 -0.35938862515943509 0.099383552161339872 0 -0.36611800641667808 0.094109198156665408 0 -0.37896648635229202 0.10715504183998489 0 -0.36831342086492491 0.1042920553550029 0 -0.36716541190589658 0.118616890008602 0 -0.36831342086492491 0.1042920553550029 0 -0.35948680904503588 0.10793893666500461 0 -0.36716541190589658 0.118616890008602 0 -0.35948680904503588 0.10793893666500461 0 -0.36716541190589658 0.118616890008602 0 -0.35375916145188291 0.11350041634001019 0 -0.34641309729257957 0.13731862859844601 0 -0.34492978578452338 0.1096826786703838 0 -0.34641309729257957 0.13731862859844601 0 -0.35352278934268327 0.12307152153672141 0 -0.34492978578452338 0.1096826786703838 0 -0.36716541190589658 0.118616890008602 0 -0.35352278934268327 0.12307152153672141 0 -0.35375916145188291 0.11350041634001019 0 -0.35375916145188291 0.11350041634001019 0 -0.34492978578452338 0.1096826786703838 0 -0.35317683324139082 0.10499755452017361 0 -0.35352278934268327 0.12307152153672141 0 -0.35375916145188291 0.11350041634001019 0 -0.34492978578452338 0.1096826786703838 0 -0.34492978578452338 0.1096826786703838 0 -0.35001973748798287 0.095551702326820934 0 -0.34344647427646718 0.082046728742321648 0 -0.34492978578452338 0.1096826786703838 0 -0.34344647427646718 0.082046728742321648 0 -0.35921694390059838 0.089411865944371699 0 -0.35938862515943509 0.099383552161339872 0 -0.35001973748798287 0.095551702326820934 0 -0.35938862515943509 0.099383552161339872 0 -0.35317683324139082 0.10499755452017361 0 -0.35001973748798287 0.095551702326820934 0 -0.35948680904503588 0.10793893666500461 0 -0.35938862515943509 0.099383552161339872 0 -0.35317683324139082 0.10499755452017361 0 -0.35948680904503588 0.10793893666500461 0 -0.35375916145188291 0.11350041634001019 0 -0.35317683324139082 0.10499755452017361 0 -0.34492978578452338 0.1096826786703838 0 -0.35317683324139082 0.10499755452017361 0 -0.35001973748798287 0.095551702326820934 0 -0.33551248331249578 0.10757284200453231 0 -0.32636827877939262 0.096437598311714251 0 -0.33089007098043072 0.079233613187852742 0 -0.34492978578452338 0.1096826786703838 0 -0.33551248331249578 0.10757284200453231 0 -0.34344647427646718 0.082046728742321648 0 -0.34013489564456101 0.1359120708212119 0 -0.33551248331249578 0.10757284200453231 0 -0.33106980320980312 0.1246503866679774 0 -0.33551248331249578 0.10757284200453231 0 -0.33106980320980312 0.1246503866679774 0 -0.3276422557938925 0.11637059862038419 0 -0.34013489564456101 0.1359120708212119 0 -0.33551248331249578 0.10757284200453231 0 -0.34013489564456101 0.1359120708212119 0 -0.34492978578452338 0.1096826786703838 0 -0.33551248331249578 0.10757284200453231 0 -0.33551248331249578 0.10757284200453231 0 -0.3276422557938925 0.11637059862038419 0 -0.32202007013965611 0.108381668790018 0 -0.31115114737422961 0.1134627277541034 0 -0.32196666651361477 0.12487749701900901 0 -0.32202007013965611 0.108381668790018 0 -0.32196666651361477 0.12487749701900901 0 -0.3276422557938925 0.11637059862038419 0 -0.32202007013965611 0.108381668790018 0 -0.33106980320980312 0.1246503866679774 0 -0.32196666651361477 0.12487749701900901 0 -0.3276422557938925 0.11637059862038419 0 -0.30835875028686138 0.12836861128214669 0 -0.31115114737422961 0.1134627277541034 0 -0.32196666651361477 0.12487749701900901 0 -0.31115114737422961 0.1134627277541034 0 -0.32202007013965611 0.108381668790018 0 -0.31621893882499519 0.096173217231134644 0 -0.32636827877939262 0.096437598311714251 0 -0.32202007013965611 0.108381668790018 0 -0.31621893882499519 0.096173217231134644 0 -0.33551248331249578 0.10757284200453231 0 -0.32636827877939262 0.096437598311714251 0 -0.32202007013965611 0.108381668790018 0 -0.32636827877939262 0.096437598311714251 0 -0.3206518095107353 0.086423961441370711 0 -0.33089007098043072 0.079233613187852742 0 -0.3095990562077543 0.082833834969606807 0 -0.31621893882499519 0.096173217231134644 0 -0.3206518095107353 0.086423961441370711 0 -0.32636827877939262 0.096437598311714251 0 -0.31621893882499519 0.096173217231134644 0 -0.3206518095107353 0.086423961441370711 0 -0.3206518095107353 0.086423961441370711 0 -0.3195564285114475 0.078857552319276381 0 -0.33089007098043072 0.079233613187852742 0 -0.3095990562077543 0.082833834969606807 0 -0.3206518095107353 0.086423961441370711 0 -0.3195564285114475 0.078857552319276381 0 -0.3095990562077543 0.082833834969606807 0 -0.3195564285114475 0.078857552319276381 0 -0.31708477734686968 0.066938799678275263 0 -0.3262676586483656 0.050894384371173287 0 -0.31708477734686968 0.066938799678275263 0 -0.33089007098043072 0.079233613187852742 0 -0.3195564285114475 0.078857552319276381 0 -0.31708477734686968 0.066938799678275263 0 -0.33089007098043072 0.079233613187852742 0 -0.3262676586483656 0.050894384371173287 0 -0.33089007098043072 0.079233613187852742 0 -0.3419631627684111 0.054410778814259472 0 -0.34344647427646718 0.082046728742321648 0 -0.3419631627684111 0.054410778814259472 0 -0.34344647427646718 0.082046728742321648 0 -0.33089007098043072 0.079233613187852742 0 -0.33551248331249578 0.10757284200453231 0 -0.34344647427646718 0.082046728742321648 0 -0.33089007098043072 0.079233613187852742 0 -0.33551248331249578 0.10757284200453231 0 -0.33089007098043072 0.079233613187852742 0 -0.38413367002432852 0.48466820949397371 0 -0.39197467039505129 0.46611734068214988 0 -0.41460981883164078 0.48516798004791117 0 -0.3981750166650535 0.50000000000000056 0 -0.38413367002432852 0.48466820949397371 0 -0.41460981883164078 0.48516798004791117 0 -0.3981750166650535 0.50000000000000056 0 -0.38413367002432852 0.48466820949397371 0 -0.37107410569903487 0.5 0 -0.39197467039505129 0.46611734068214988 0 -0.36482960672615539 0.47476559140937902 0 -0.38413367002432852 0.48466820949397371 0 -0.39197467039505129 0.46611734068214988 0 -0.36580706476392733 0.47631646954851292 0 -0.38785270990024268 0.44600589254376838 0 -0.39197467039505129 0.46611734068214988 0 -0.37006527051019528 0.45259743283909409 0 -0.39197467039505129 0.46611734068214988 0 -0.37006527051019528 0.45259743283909409 0 -0.36482960672615539 0.47476559140937902 0 -0.38785270990024268 0.44600589254376838 0 -0.37388199021079188 0.43349662060099697 0 -0.37006527051019528 0.45259743283909409 0 -0.38785270990024268 0.44600589254376838 0 -0.40320620376676342 0.45007503942677379 0 -0.39595691431975 0.42995942871021692 0 -0.38785270990024268 0.44600589254376838 0 -0.40320620376676342 0.45007503942677379 0 -0.39197467039505129 0.46611734068214988 0 -0.40320620376676342 0.45007503942677379 0 -0.39197467039505129 0.46611734068214988 0 -0.41277096383307582 0.46532813801804862 0 -0.40320620376676342 0.45007503942677379 0 -0.42781315099835598 0.44205737320498029 0 -0.39595691431975 0.42995942871021692 0 -0.40320620376676342 0.45007503942677379 0 -0.41277096383307582 0.46532813801804862 0 -0.42781315099835598 0.44205737320498029 0 -0.42781315099835598 0.44205737320498029 0 -0.43466730821188831 0.46706657063262308 0 -0.44460389203804629 0.44806533343805571 0 -0.42781315099835598 0.44205737320498029 0 -0.4310446209982266 0.47033596009582029 0 -0.42781315099835598 0.44205737320498029 0 -0.43466730821188831 0.46706657063262308 0 -0.4310446209982266 0.47033596009582029 0 -0.41277096383307582 0.46532813801804862 0 -0.42781315099835598 0.44205737320498029 0 -0.4310446209982266 0.47033596009582029 0 -0.43466730821188831 0.46706657063262308 0 -0.4310446209982266 0.47033596009582029 0 -0.4310446209982266 0.47033596009582029 0 -0.43443441043131342 0.50000000000000755 0 -0.4447827686264566 0.47926022536349122 0 -0.4310446209982266 0.47033596009582029 0 -0.41460981883164078 0.48516798004791117 0 -0.4310446209982266 0.47033596009582029 0 -0.41460981883164078 0.48516798004791117 0 -0.42409839095234109 0.48887598503593521 0 -0.43466730821188831 0.46706657063262308 0 -0.4310446209982266 0.47033596009582029 0 -0.4447827686264566 0.47926022536349122 0 -0.39197467039505129 0.46611734068214988 0 -0.41277096383307582 0.46532813801804862 0 -0.41460981883164078 0.48516798004791117 0 -0.41277096383307582 0.46532813801804862 0 -0.4310446209982266 0.47033596009582029 0 -0.41460981883164078 0.48516798004791117 0 -0.3981750166650535 0.50000000000000056 0 -0.41460981883164078 0.48516798004791117 0 -0.3981750166650535 0.50000000000000056 0 -0.41460981883164078 0.48516798004791117 0 -0.41630471354818338 0.5 0 -0.41460981883164078 0.48516798004791117 0 -0.41630471354818338 0.5 0 -0.42409839095234109 0.48887598503593521 0 -0.41630471354818338 0.5 0 -0.43443441043131342 0.50000000000000755 0 -0.42409839095234109 0.48887598503593521 0 -0.4310446209982266 0.47033596009582029 0 -0.43443441043131342 0.50000000000000755 0 -0.4310446209982266 0.47033596009582029 0 -0.43443441043131342 0.50000000000000755 0 -0.42409839095234109 0.48887598503593521 0 -0.43443441043131342 0.50000000000000755 0 -0.4447827686264566 0.47926022536349122 0 -0.4595127163698095 0.50000000000000022 0 -0.5 0.5 0 -0.47335596745111108 0.44169355163120572 0 -0.5 0.40038011321019712 0 -0.43466730821188831 0.46706657063262308 0 -0.4447827686264566 0.47926022536349122 0 -0.44899911668232212 0.46303481381032341 0 -0.4447827686264566 0.47926022536349122 0 -0.46015144363500948 0.47359397987248231 0 -0.44899911668232212 0.46303481381032341 0 -0.4447827686264566 0.47926022536349122 0 -0.46015144363500948 0.47359397987248231 0 -0.4595127163698095 0.50000000000000022 0 -0.46015144363500948 0.47359397987248231 0 -0.4595127163698095 0.50000000000000022 0 -0.46015144363500948 0.47359397987248231 0 -0.4595127163698095 0.50000000000000022 0 -0.5 0.5 0 -0.46015144363500948 0.47359397987248231 0 -0.5 0.5 0 -0.47335596745111108 0.44169355163120572 0 -0.46015144363500948 0.47359397987248231 0 -0.47335596745111108 0.44169355163120572 0 -0.46079017090020952 0.44718795974496428 0 -0.46079017090020952 0.44718795974496428 0 -0.44460389203804629 0.44806533343805571 0 -0.45590269758544211 0.43346995798949911 0 -0.47335596745111108 0.44169355163120572 0 -0.46079017090020952 0.44718795974496428 0 -0.45590269758544211 0.43346995798949911 0 -0.46015144363500948 0.47359397987248231 0 -0.46079017090020952 0.44718795974496428 0 -0.44899911668232212 0.46303481381032341 0 -0.46015144363500948 0.47359397987248231 0 -0.46079017090020952 0.44718795974496428 0 -0.43466730821188831 0.46706657063262308 0 -0.44899911668232212 0.46303481381032341 0 -0.44460389203804629 0.44806533343805571 0 -0.42781315099835598 0.44205737320498029 0 -0.44460389203804629 0.44806533343805571 0 -0.44268906624812487 0.42665452579602331 0 -0.46079017090020952 0.44718795974496428 0 -0.44899911668232212 0.46303481381032341 0 -0.44460389203804629 0.44806533343805571 0 -0.44460389203804629 0.44806533343805571 0 -0.44268906624812487 0.42665452579602331 0 -0.45590269758544211 0.43346995798949911 0 -0.44268906624812487 0.42665452579602331 0 -0.45186506472241439 0.42144574071262142 0 -0.45590269758544211 0.43346995798949911 0 -0.44268906624812487 0.42665452579602331 0 -0.45186506472241439 0.42144574071262142 0 -0.44576315445017062 0.40546276927260178 0 -0.44268906624812487 0.42665452579602331 0 -0.44576315445017062 0.40546276927260178 0 -0.42458168099848842 0.41377878631413989 0 -0.46310534060592018 0.42019570979236182 0 -0.47346151536459102 0.41731684507507272 0 -0.46374026742882618 0.39151162716981691 0 -0.45186506472241439 0.42144574071262142 0 -0.46310534060592018 0.42019570979236182 0 -0.44576315445017062 0.40546276927260178 0 -0.47335596745111108 0.44169355163120572 0 -0.46310534060592018 0.42019570979236182 0 -0.45590269758544211 0.43346995798949911 0 -0.45186506472241439 0.42144574071262142 0 -0.46310534060592018 0.42019570979236182 0 -0.45590269758544211 0.43346995798949911 0 -0.47335596745111108 0.44169355163120572 0 -0.46310534060592018 0.42019570979236182 0 -0.47346151536459102 0.41731684507507272 0 -0.47335596745111108 0.44169355163120572 0 -0.47346151536459102 0.41731684507507272 0 -0.5 0.40038011321019712 0 -0.47346151536459102 0.41731684507507272 0 -0.5 0.40038011321019712 0 -0.47533567507008778 0.39330498401591851 0 -0.47346151536459102 0.41731684507507272 0 -0.47533567507008778 0.39330498401591851 0 -0.47346151536459102 0.41731684507507272 0 -0.47533567507008778 0.39330498401591851 0 -0.46374026742882618 0.39151162716981691 0 -0.5 0.40038011321019712 0 -0.47533567507008778 0.39330498401591851 0 -0.47720983477558448 0.36929312295676431 0 -0.47533567507008778 0.39330498401591851 0 -0.47720983477558448 0.36929312295676431 0 -0.47533567507008778 0.39330498401591851 0 -0.46374026742882618 0.39151162716981691 0 -0.47720983477558448 0.36929312295676431 0 -0.46374026742882618 0.39151162716981691 0 -0.45297946443592813 0.37787116286410599 0 -0.46437519425173218 0.36282754454727217 0 -0.46374026742882618 0.39151162716981691 0 -0.45297946443592813 0.37787116286410599 0 -0.44807155782876301 0.39051600802545461 0 -0.46374026742882618 0.39151162716981691 0 -0.46437519425173218 0.36282754454727217 0 -0.46310534060592018 0.42019570979236182 0 -0.46374026742882618 0.39151162716981691 0 -0.46310534060592018 0.42019570979236182 0 -0.46374026742882618 0.39151162716981691 0 -0.44576315445017062 0.40546276927260178 0 -0.46374026742882618 0.39151162716981691 0 -0.44576315445017062 0.40546276927260178 0 -0.44807155782876301 0.39051600802545461 0 -0.44576315445017062 0.40546276927260178 0 -0.44807155782876301 0.39051600802545461 0 -0.43603237714897469 0.39502180629923989 0 -0.45297946443592813 0.37787116286410599 0 -0.44807155782876301 0.39051600802545461 0 -0.44039528146883089 0.37985126846070372 0 -0.44807155782876301 0.39051600802545461 0 -0.44039528146883089 0.37985126846070372 0 -0.43603237714897469 0.39502180629923989 0 -0.44039528146883089 0.37985126846070372 0 -0.42135021099862069 0.38550019942329938 0 -0.43603237714897469 0.39502180629923989 0 -0.44039528146883089 0.37985126846070372 0 -0.42135021099862069 0.38550019942329938 0 -0.43330693618304927 0.36743111704715392 0 -0.42135021099862069 0.38550019942329938 0 -0.3928737426436214 0.38288862872844909 0 -0.41811874099875312 0.35722161253245888 0 -0.42135021099862069 0.38550019942329938 0 -0.42458168099848842 0.41377878631413989 0 -0.40302940150938782 0.40252809503019821 0 -0.44576315445017062 0.40546276927260178 0 -0.43603237714897469 0.39502180629923989 0 -0.42458168099848842 0.41377878631413989 0 -0.42135021099862069 0.38550019942329938 0 -0.42458168099848842 0.41377878631413989 0 -0.42135021099862069 0.38550019942329938 0 -0.43603237714897469 0.39502180629923989 0 -0.42458168099848842 0.41377878631413989 0 -0.42781315099835598 0.44205737320498029 0 -0.42458168099848842 0.41377878631413989 0 -0.39595691431975 0.42995942871021692 0 -0.42781315099835598 0.44205737320498029 0 -0.44268906624812487 0.42665452579602331 0 -0.42458168099848842 0.41377878631413989 0 -0.42781315099835598 0.44205737320498029 0 -0.42458168099848842 0.41377878631413989 0 -0.42458168099848842 0.41377878631413989 0 -0.39595691431975 0.42995942871021692 0 -0.40302940150938782 0.40252809503019821 0 -0.39595691431975 0.42995942871021692 0 -0.38133644129271771 0.41060795377957438 0 -0.40302940150938782 0.40252809503019821 0 -0.39595691431975 0.42995942871021692 0 -0.38133644129271771 0.41060795377957438 0 -0.37388199021079188 0.43349662060099697 0 -0.38785270990024268 0.44600589254376838 0 -0.39595691431975 0.42995942871021692 0 -0.37388199021079188 0.43349662060099697 0 -0.39595691431975 0.42995942871021692 0 -0.38133644129271771 0.41060795377957438 0 -0.38133644129271771 0.41060795377957438 0 -0.3928737426436214 0.38288862872844909 0 -0.36671596826568531 0.39125647884893172 0 -0.3928737426436214 0.38288862872844909 0 -0.37126589511329411 0.37377724987418581 0 -0.36671596826568531 0.39125647884893172 0 -0.42135021099862069 0.38550019942329938 0 -0.3928737426436214 0.38288862872844909 0 -0.40302940150938782 0.40252809503019821 0 -0.38133644129271771 0.41060795377957438 0 -0.3928737426436214 0.38288862872844909 0 -0.40302940150938782 0.40252809503019821 0 -0.39068435811404417 0.36093702398180222 0 -0.39395667907880888 0.34326368506717603 0 -0.41811874099875312 0.35722161253245888 0 -0.3928737426436214 0.38288862872844909 0 -0.39068435811404417 0.36093702398180222 0 -0.41811874099875312 0.35722161253245888 0 -0.3928737426436214 0.38288862872844909 0 -0.39068435811404417 0.36093702398180222 0 -0.37126589511329411 0.37377724987418581 0 -0.39068435811404417 0.36093702398180222 0 -0.37302608715873109 0.35758434449273291 0 -0.37126589511329411 0.37377724987418581 0 -0.39395667907880888 0.34326368506717603 0 -0.37302608715873109 0.35758434449273291 0 -0.39068435811404417 0.36093702398180222 0 -0.39395667907880888 0.34326368506717603 0 -0.37302608715873109 0.35758434449273291 0 -0.37563375498023588 0.33893957100260502 0 -0.39395667907880888 0.34326368506717603 0 -0.37302608715873109 0.35758434449273291 0 -0.37563375498023588 0.33893957100260502 0 -0.3809584867257152 0.31995934924364311 0 -0.39395667907880888 0.34326368506717603 0 -0.3809584867257152 0.31995934924364311 0 -0.40019053093036899 0.31727751782089808 0 -0.39395667907880888 0.34326368506717603 0 -0.40019053093036899 0.31727751782089808 0 -0.39395667907880888 0.34326368506717603 0 -0.414887270998886 0.32894302564161831 0 -0.39395667907880888 0.34326368506717603 0 -0.414887270998886 0.32894302564161831 0 -0.414887270998886 0.32894302564161831 0 -0.41811874099875312 0.35722161253245888 0 -0.39395667907880888 0.34326368506717603 0 -0.414887270998886 0.32894302564161831 0 -0.41811874099875312 0.35722161253245888 0 -0.414887270998886 0.32894302564161831 0 -0.4287524947490482 0.33739992334137159 0 -0.41811874099875312 0.35722161253245888 0 -0.414887270998886 0.32894302564161831 0 -0.42784370751339318 0.3200782636988328 0 -0.41182569378737999 0.30215117016961263 0 -0.414887270998886 0.32894302564161831 0 -0.41182569378737999 0.30215117016961263 0 -0.40019053093036899 0.31727751782089808 0 -0.414887270998886 0.32894302564161831 0 -0.41182569378737999 0.30215117016961263 0 -0.414887270998886 0.32894302564161831 0 -0.42784370751339318 0.3200782636988328 0 -0.42784370751339318 0.3200782636988328 0 -0.44080014402789969 0.3112135017560464 0 -0.414887270998886 0.32894302564161831 0 -0.42784370751339318 0.3200782636988328 0 -0.4287524947490482 0.33739992334137159 0 -0.42784370751339318 0.3200782636988328 0 -0.4287524947490482 0.33739992334137159 0 -0.44455732798665581 0.33082357613192309 0 -0.4287524947490482 0.33739992334137159 0 -0.43835542624755341 0.34993313870202492 0 -0.44455732798665581 0.33082357613192309 0 -0.4287524947490482 0.33739992334137159 0 -0.41811874099875312 0.35722161253245888 0 -0.43835542624755341 0.34993313870202492 0 -0.41811874099875312 0.35722161253245888 0 -0.43330693618304927 0.36743111704715392 0 -0.43835542624755341 0.34993313870202492 0 -0.42135021099862069 0.38550019942329938 0 -0.41811874099875312 0.35722161253245888 0 -0.42135021099862069 0.38550019942329938 0 -0.41811874099875312 0.35722161253245888 0 -0.43330693618304927 0.36743111704715392 0 -0.44039528146883089 0.37985126846070372 0 -0.43330693618304927 0.36743111704715392 0 -0.44831502120148831 0.36464936611728249 0 -0.5 0.40038011321019712 0 -0.47720983477558448 0.36929312295676431 0 -0.5 0.32588146503443682 0 -0.43330693618304927 0.36743111704715392 0 -0.44831502120148831 0.36464936611728249 0 -0.43835542624755341 0.34993313870202492 0 -0.45297946443592813 0.37787116286410599 0 -0.44039528146883089 0.37985126846070372 0 -0.44831502120148831 0.36464936611728249 0 -0.44831502120148831 0.36464936611728249 0 -0.45212261815241361 0.34847541748464589 0 -0.43835542624755341 0.34993313870202492 0 -0.46437519425173218 0.36282754454727217 0 -0.46501012107463818 0.3341434619247271 0 -0.45212261815241361 0.34847541748464589 0 -0.46437519425173218 0.36282754454727217 0 -0.46501012107463818 0.3341434619247271 0 -0.44831502120148831 0.36464936611728249 0 -0.45212261815241361 0.34847541748464589 0 -0.46437519425173218 0.36282754454727217 0 -0.45297946443592813 0.37787116286410599 0 -0.44831502120148831 0.36464936611728249 0 -0.46437519425173218 0.36282754454727217 0 -0.46374026742882618 0.39151162716981691 0 -0.46437519425173218 0.36282754454727217 0 -0.47720983477558448 0.36929312295676431 0 -0.47720983477558448 0.36929312295676431 0 -0.4790839944810813 0.34528126189761021 0 -0.5 0.32588146503443682 0 -0.46437519425173218 0.36282754454727217 0 -0.47720983477558448 0.36929312295676431 0 -0.4790839944810813 0.34528126189761021 0 -0.46437519425173218 0.36282754454727217 0 -0.4790839944810813 0.34528126189761021 0 -0.46501012107463818 0.3341434619247271 0 -0.47720983477558448 0.36929312295676431 0 -0.4790839944810813 0.34528126189761021 0 -0.5 0.32588146503443682 0 -0.48095815418657811 0.32126940083845601 0 -0.48438341280173691 0.2990237851864897 0 -0.4790839944810813 0.34528126189761021 0 -0.5 0.32588146503443682 0 -0.48095815418657811 0.32126940083845601 0 -0.4790839944810813 0.34528126189761021 0 -0.48095815418657811 0.32126940083845601 0 -0.4790839944810813 0.34528126189761021 0 -0.48095815418657811 0.32126940083845601 0 -0.46501012107463818 0.3341434619247271 0 -0.48095815418657811 0.32126940083845601 0 -0.46501012107463818 0.3341434619247271 0 -0.46564504789754418 0.30545937930218209 0 -0.46501012107463818 0.3341434619247271 0 -0.46564504789754418 0.30545937930218209 0 -0.45334860311094782 0.31584311053598302 0 -0.46501012107463818 0.3341434619247271 0 -0.44455732798665581 0.33082357613192309 0 -0.45334860311094782 0.31584311053598302 0 -0.46501012107463818 0.3341434619247271 0 -0.46564504789754418 0.30545937930218209 0 -0.45212261815241361 0.34847541748464589 0 -0.46501012107463818 0.3341434619247271 0 -0.44455732798665581 0.33082357613192309 0 -0.45212261815241361 0.34847541748464589 0 -0.43835542624755341 0.34993313870202492 0 -0.44455732798665581 0.33082357613192309 0 -0.45334860311094782 0.31584311053598302 0 -0.44455732798665581 0.33082357613192309 0 -0.44080014402789969 0.3112135017560464 0 -0.42784370751339318 0.3200782636988328 0 -0.44455732798665581 0.33082357613192309 0 -0.44080014402789969 0.3112135017560464 0 -0.45334860311094782 0.31584311053598302 0 -0.44080014402789969 0.3112135017560464 0 -0.45212090372732222 0.29751224224269018 0 -0.44080014402789969 0.3112135017560464 0 -0.45212090372732222 0.29751224224269018 0 -0.43098419661848369 0.29848737705662681 0 -0.45212090372732222 0.29751224224269018 0 -0.44106680473088589 0.27968718865599468 0 -0.43098419661848369 0.29848737705662681 0 -0.45212090372732222 0.29751224224269018 0 -0.46878861662768212 0.293945894508436 0 -0.46620416538631942 0.27832296974934079 0 -0.45212090372732222 0.29751224224269018 0 -0.46620416538631942 0.27832296974934079 0 -0.44106680473088589 0.27968718865599468 0 -0.45334860311094782 0.31584311053598302 0 -0.45212090372732222 0.29751224224269018 0 -0.46564504789754418 0.30545937930218209 0 -0.45212090372732222 0.29751224224269018 0 -0.46564504789754418 0.30545937930218209 0 -0.46878861662768212 0.293945894508436 0 -0.48095815418657811 0.32126940083845601 0 -0.46564504789754418 0.30545937930218209 0 -0.47422271850004488 0.30257989257828583 0 -0.48095815418657811 0.32126940083845601 0 -0.48283231389207593 0.29725753977930192 0 -0.48095815418657811 0.32126940083845601 0 -0.48283231389207593 0.29725753977930192 0 -0.48438341280173691 0.2990237851864897 0 -0.48095815418657811 0.32126940083845601 0 -0.48283231389207593 0.29725753977930192 0 -0.47422271850004488 0.30257989257828583 0 -0.5 0.32588146503443682 0 -0.48438341280173691 0.2990237851864897 0 -0.5 0.27058277969487637 0 -0.48283231389207593 0.29725753977930192 0 -0.48438341280173691 0.2990237851864897 0 -0.48283231389207593 0.29725753977930192 0 -0.47422271850004488 0.30257989257828583 0 -0.46878861662768212 0.293945894508436 0 -0.46564504789754418 0.30545937930218209 0 -0.47422271850004488 0.30257989257828583 0 -0.46878861662768212 0.293945894508436 0 -0.48283231389207593 0.29725753977930192 0 -0.46620416538631942 0.27832296974934079 0 -0.4832665619079245 0.29169392479429618 0 -0.48272378290968532 0.2745465744653578 0 -0.46620416538631942 0.27832296974934079 0 -0.48283231389207593 0.29725753977930192 0 -0.46878861662768212 0.293945894508436 0 -0.46620416538631942 0.27832296974934079 0 -0.48283231389207593 0.29725753977930192 0 -0.4832665619079245 0.29169392479429618 0 -0.46620416538631942 0.27832296974934079 0 -0.48283231389207593 0.29725753977930192 0 -0.4832665619079245 0.29169392479429618 0 -0.48438341280173691 0.2990237851864897 0 -0.48283231389207593 0.29725753977930192 0 -0.4832665619079245 0.29169392479429618 0 -0.4832665619079245 0.29169392479429618 0 -0.48438341280173691 0.2990237851864897 0 -0.5 0.27058277969487637 0 -0.48510068849613291 0.2464952989699998 0 -0.5 0.27058277969487637 0 -0.47736829551405641 0.25971614189080378 0 -0.4832665619079245 0.29169392479429618 0 -0.5 0.27058277969487637 0 -0.48272378290968532 0.2745465744653578 0 -0.5 0.27058277969487637 0 -0.48272378290968532 0.2745465744653578 0 -0.47736829551405641 0.25971614189080378 0 -0.48272378290968532 0.2745465744653578 0 -0.47736829551405641 0.25971614189080378 0 -0.46620416538631942 0.27832296974934079 0 -0.48510068849613291 0.2464952989699998 0 -0.4662317729600568 0.24711617116125539 0 -0.47736829551405641 0.25971614189080378 0 -0.4662317729600568 0.24711617116125539 0 -0.47736829551405641 0.25971614189080378 0 -0.44957601688056159 0.25938839971938082 0 -0.47736829551405641 0.25971614189080378 0 -0.46620416538631942 0.27832296974934079 0 -0.44957601688056159 0.25938839971938082 0 -0.46620416538631942 0.27832296974934079 0 -0.44957601688056159 0.25938839971938082 0 -0.46620416538631942 0.27832296974934079 0 -0.44106680473088589 0.27968718865599468 0 -0.44957601688056159 0.25938839971938082 0 -0.44106680473088589 0.27968718865599468 0 -0.44957601688056159 0.25938839971938082 0 -0.42702456861835142 0.26373592368695459 0 -0.43294786837480398 0.2404538296894207 0 -0.44957601688056159 0.25938839971938082 0 -0.42702456861835142 0.26373592368695459 0 -0.43294786837480398 0.2404538296894207 0 -0.40570253936436479 0.24856745922560119 0 -0.42702456861835142 0.26373592368695459 0 -0.40570253936436479 0.24856745922560119 0 -0.40876411657587441 0.27535931469760672 0 -0.40570253936436479 0.24856745922560119 0 -0.42702456861835142 0.26373592368695459 0 -0.40876411657587441 0.27535931469760672 0 -0.42702456861835142 0.26373592368695459 0 -0.40876411657587441 0.27535931469760672 0 -0.42393307606619501 0.28388419485335897 0 -0.44106680473088589 0.27968718865599468 0 -0.42702456861835142 0.26373592368695459 0 -0.42393307606619501 0.28388419485335897 0 -0.44106680473088589 0.27968718865599468 0 -0.42393307606619501 0.28388419485335897 0 -0.43098419661848369 0.29848737705662681 0 -0.42393307606619501 0.28388419485335897 0 -0.43098419661848369 0.29848737705662681 0 -0.41182569378737999 0.30215117016961263 0 -0.42784370751339318 0.3200782636988328 0 -0.44080014402789969 0.3112135017560464 0 -0.43098419661848369 0.29848737705662681 0 -0.42784370751339318 0.3200782636988328 0 -0.43098419661848369 0.29848737705662681 0 -0.41182569378737999 0.30215117016961263 0 -0.40876411657587441 0.27535931469760672 0 -0.42393307606619501 0.28388419485335897 0 -0.41182569378737999 0.30215117016961263 0 -0.40876411657587441 0.27535931469760672 0 -0.41182569378737999 0.30215117016961263 0 -0.40876411657587441 0.27535931469760672 0 -0.41182569378737999 0.30215117016961263 0 -0.38942632587964537 0.29641120061531351 0 -0.40876411657587441 0.27535931469760672 0 -0.38942632587964537 0.29641120061531351 0 -0.38778179087320769 0.27529621765694001 0 -0.40019053093036899 0.31727751782089808 0 -0.41182569378737999 0.30215117016961263 0 -0.38942632587964537 0.29641120061531351 0 -0.3809584867257152 0.31995934924364311 0 -0.38942632587964537 0.29641120061531351 0 -0.36990774782730562 0.30465198401604282 0 -0.3809584867257152 0.31995934924364311 0 -0.40019053093036899 0.31727751782089808 0 -0.38942632587964537 0.29641120061531351 0 -0.38942632587964537 0.29641120061531351 0 -0.38778179087320769 0.27529621765694001 0 -0.37124129201382 0.2841753332327091 0 -0.38942632587964537 0.29641120061531351 0 -0.37124129201382 0.2841753332327091 0 -0.36990774782730562 0.30465198401604282 0 -0.38778179087320769 0.27529621765694001 0 -0.37230359566927929 0.26610576231553251 0 -0.37124129201382 0.2841753332327091 0 -0.38778179087320769 0.27529621765694001 0 -0.38900306751682168 0.25733661077056619 0 -0.37230359566927929 0.26610576231553251 0 -0.38900306751682168 0.25733661077056619 0 -0.37230359566927929 0.26610576231553251 0 -0.37675611103540763 0.25409865512553548 0 -0.38900306751682168 0.25733661077056619 0 -0.37230359566927929 0.26610576231553251 0 -0.38455494932564349 0.24416718140159829 0 -0.37675611103540763 0.25409865512553548 0 -0.38900306751682168 0.25733661077056619 0 -0.40570253936436479 0.24856745922560119 0 -0.40876411657587441 0.27535931469760672 0 -0.38900306751682168 0.25733661077056619 0 -0.40570253936436479 0.24856745922560119 0 -0.38900306751682168 0.25733661077056619 0 -0.40876411657587441 0.27535931469760672 0 -0.38778179087320769 0.27529621765694001 0 -0.38900306751682168 0.25733661077056619 0 -0.35344375069401829 0.26830850112922933 0 -0.35479842748912699 0.29354782535411539 0 -0.33783775680192157 0.27023153782616838 0 -0.35344375069401829 0.26830850112922933 0 -0.35479842748912699 0.29354782535411539 0 -0.35926376548055328 0.2486735779402334 0 -0.35208907389890948 0.24306917690434299 0 -0.35344375069401829 0.26830850112922933 0 -0.35208907389890948 0.24306917690434299 0 -0.35344375069401829 0.26830850112922933 0 -0.34142207509263922 0.25572960106260723 0 -0.35208907389890948 0.24306917690434299 0 -0.35344375069401829 0.26830850112922933 0 -0.35344375069401829 0.26830850112922933 0 -0.33783775680192157 0.27023153782616838 0 -0.34142207509263922 0.25572960106260723 0 -0.35344375069401829 0.26830850112922933 0 -0.36723308052532222 0.25309369692869038 0 -0.37230359566927929 0.26610576231553251 0 -0.35926376548055328 0.2486735779402334 0 -0.35344375069401829 0.26830850112922933 0 -0.36723308052532222 0.25309369692869038 0 -0.37552267705158737 0.2431978490864326 0 -0.37675611103540763 0.25409865512553548 0 -0.36723308052532222 0.25309369692869038 0 -0.37675611103540763 0.25409865512553548 0 -0.36723308052532222 0.25309369692869038 0 -0.37230359566927929 0.26610576231553251 0 -0.35344375069401829 0.26830850112922933 0 -0.37230359566927929 0.26610576231553251 0 -0.37124129201382 0.2841753332327091 0 -0.37124129201382 0.2841753332327091 0 -0.36990774782730562 0.30465198401604282 0 -0.35479842748912699 0.29354782535411539 0 -0.35344375069401829 0.26830850112922933 0 -0.37124129201382 0.2841753332327091 0 -0.35479842748912699 0.29354782535411539 0 -0.36990774782730562 0.30465198401604282 0 -0.35479842748912699 0.29354782535411539 0 -0.35615310428423591 0.31878714957900162 0 -0.35479842748912699 0.29354782535411539 0 -0.35615310428423591 0.31878714957900162 0 -0.35479842748912699 0.29354782535411539 0 -0.33790089425573833 0.30106400074382289 0 -0.35615310428423591 0.31878714957900162 0 -0.35479842748912699 0.29354782535411539 0 -0.32994760687178648 0.28429515218691809 0 -0.33783775680192157 0.27023153782616838 0 -0.35479842748912699 0.29354782535411539 0 -0.32994760687178648 0.28429515218691809 0 -0.33790089425573833 0.30106400074382289 0 -0.33790089425573833 0.30106400074382289 0 -0.31376474629655843 0.30225304786416751 0 -0.33257481532433891 0.31836647764434117 0 -0.32994760687178648 0.28429515218691809 0 -0.33790089425573833 0.30106400074382289 0 -0.31376474629655843 0.30225304786416751 0 -0.32994760687178648 0.28429515218691809 0 -0.31376474629655843 0.30225304786416751 0 -0.30745975664346697 0.28108303278283259 0 -0.32994760687178648 0.28429515218691809 0 -0.32025265357816562 0.27050697347699348 0 -0.30745975664346697 0.28108303278283259 0 -0.32994760687178648 0.28429515218691809 0 -0.32025265357816562 0.27050697347699348 0 -0.33783775680192157 0.27023153782616838 0 -0.33783775680192157 0.27023153782616838 0 -0.34142207509263922 0.25572960106260723 0 -0.32493898666941562 0.25370598596143412 0 -0.33787454055877381 0.24529314191448051 0 -0.34142207509263922 0.25572960106260723 0 -0.32493898666941562 0.25370598596143412 0 -0.32025265357816562 0.27050697347699348 0 -0.32493898666941562 0.25370598596143412 0 -0.3017176885818823 0.26220574059556451 0 -0.32025265357816562 0.27050697347699348 0 -0.33783775680192157 0.27023153782616838 0 -0.32493898666941562 0.25370598596143412 0 -0.28392805579818597 0.24584677119781029 0 -0.30659471691689572 0.242716670786389 0 -0.3017176885818823 0.26220574059556451 0 -0.30659471691689572 0.242716670786389 0 -0.32493898666941562 0.25370598596143412 0 -0.3017176885818823 0.26220574059556451 0 -0.32025265357816562 0.27050697347699348 0 -0.3017176885818823 0.26220574059556451 0 -0.30745975664346697 0.28108303278283259 0 -0.3017176885818823 0.26220574059556451 0 -0.30745975664346697 0.28108303278283259 0 -0.28581088023419748 0.27213864639403801 0 -0.28392805579818597 0.24584677119781029 0 -0.3017176885818823 0.26220574059556451 0 -0.28392805579818597 0.24584677119781029 0 -0.3017176885818823 0.26220574059556451 0 -0.28581088023419748 0.27213864639403801 0 -0.28392805579818597 0.24584677119781029 0 -0.28581088023419748 0.27213864639403801 0 -0.26655259030946182 0.26726307071448002 0 -0.28392805579818597 0.24584677119781029 0 -0.26514282027817931 0.24842266601513599 0 -0.26655259030946182 0.26726307071448002 0 -0.28581088023419748 0.27213864639403801 0 -0.26655259030946182 0.26726307071448002 0 -0.26709784128719349 0.28662765883125513 0 -0.26655259030946182 0.26726307071448002 0 -0.26709784128719349 0.28662765883125513 0 -0.24190471242523851 0.27972751922608308 0 -0.26655259030946182 0.26726307071448002 0 -0.24943129659764751 0.26000894523212309 0 -0.24190471242523851 0.27972751922608308 0 -0.26514282027817931 0.24842266601513599 0 -0.26655259030946182 0.26726307071448002 0 -0.24943129659764751 0.26000894523212309 0 -0.26514282027817931 0.24842266601513599 0 -0.24943129659764751 0.26000894523212309 0 -0.2468893326351202 0.24329134098969171 0 -0.25616918259472732 0.30236015827283808 0 -0.26709784128719349 0.28662765883125513 0 -0.24190471242523851 0.27972751922608308 0 -0.28581088023419748 0.27213864639403801 0 -0.26709784128719349 0.28662765883125513 0 -0.29016097772449478 0.2935014559625142 0 -0.26709784128719349 0.28662765883125513 0 -0.27491611994182802 0.30516871221215541 0 -0.29016097772449478 0.2935014559625142 0 -0.25616918259472732 0.30236015827283808 0 -0.27491611994182802 0.30516871221215541 0 -0.27043365276421599 0.32499279731959319 0 -0.25616918259472732 0.30236015827283808 0 -0.26709784128719349 0.28662765883125513 0 -0.27491611994182802 0.30516871221215541 0 -0.27491611994182802 0.30516871221215541 0 -0.29016097772449478 0.2935014559625142 0 -0.29169578744288521 0.31398791816734961 0 -0.30745975664346697 0.28108303278283259 0 -0.28581088023419748 0.27213864639403801 0 -0.29016097772449478 0.2935014559625142 0 -0.31376474629655843 0.30225304786416751 0 -0.30745975664346697 0.28108303278283259 0 -0.29016097772449478 0.2935014559625142 0 -0.31376474629655843 0.30225304786416751 0 -0.29016097772449478 0.2935014559625142 0 -0.29169578744288521 0.31398791816734961 0 -0.31376474629655843 0.30225304786416751 0 -0.31074538478735791 0.32738191455196902 0 -0.29169578744288521 0.31398791816734961 0 -0.31074538478735791 0.32738191455196902 0 -0.29170910681836448 0.3316805874579164 0 -0.29169578744288521 0.31398791816734961 0 -0.31074538478735791 0.32738191455196902 0 -0.30097258616365841 0.34441487088432199 0 -0.31556783578130437 0.34561409599239279 0 -0.31074538478735791 0.32738191455196902 0 -0.29170910681836448 0.3316805874579164 0 -0.30097258616365841 0.34441487088432199 0 -0.29170910681836448 0.3316805874579164 0 -0.28469812293370489 0.34762543636634829 0 -0.30097258616365841 0.34441487088432199 0 -0.29170910681836448 0.3316805874579164 0 -0.27043365276421599 0.32499279731959319 0 -0.28469812293370489 0.34762543636634829 0 -0.29170910681836448 0.3316805874579164 0 -0.29169578744288521 0.31398791816734961 0 -0.27043365276421599 0.32499279731959319 0 -0.27491611994182802 0.30516871221215541 0 -0.29169578744288521 0.31398791816734961 0 -0.27043365276421599 0.32499279731959319 0 -0.27043365276421599 0.32499279731959319 0 -0.26243222306204511 0.35090504016953772 0 -0.28469812293370489 0.34762543636634829 0 -0.27043365276421599 0.32499279731959319 0 -0.28469812293370489 0.34762543636634829 0 -0.27043365276421599 0.32499279731959319 0 -0.25002058798003007 0.3320526588471332 0 -0.26243222306204511 0.35090504016953772 0 -0.25616918259472732 0.30236015827283808 0 -0.27043365276421599 0.32499279731959319 0 -0.25616918259472732 0.30236015827283808 0 -0.27043365276421599 0.32499279731959319 0 -0.25002058798003007 0.3320526588471332 0 -0.25717133997193298 0.37426095615225607 0 -0.26243222306204511 0.35090504016953772 0 -0.27169383631612543 0.36953364855257259 0 -0.25717133997193298 0.37426095615225607 0 -0.26243222306204511 0.35090504016953772 0 -0.24481421723968019 0.36490975255658048 0 -0.27524778858216448 0.35766291394235578 0 -0.28324842690769031 0.36508823660180101 0 -0.28469812293370489 0.34762543636634829 0 -0.26243222306204511 0.35090504016953772 0 -0.27524778858216448 0.35766291394235578 0 -0.27169383631612543 0.36953364855257259 0 -0.26243222306204511 0.35090504016953772 0 -0.27524778858216448 0.35766291394235578 0 -0.28469812293370489 0.34762543636634829 0 -0.27524778858216448 0.35766291394235578 0 -0.27169383631612543 0.36953364855257259 0 -0.28324842690769031 0.36508823660180101 0 -0.27169383631612543 0.36953364855257259 0 -0.28324842690769031 0.36508823660180101 0 -0.28209338532393202 0.38222600668133688 0 -0.28324842690769031 0.36508823660180101 0 -0.28469812293370489 0.34762543636634829 0 -0.29896259310319367 0.37025807541310352 0 -0.28324842690769031 0.36508823660180101 0 -0.29896259310319367 0.37025807541310352 0 -0.28209338532393202 0.38222600668133688 0 -0.28469812293370489 0.34762543636634829 0 -0.29896259310319367 0.37025807541310352 0 -0.28469812293370489 0.34762543636634829 0 -0.30097258616365841 0.34441487088432199 0 -0.29896259310319367 0.37025807541310352 0 -0.30097258616365841 0.34441487088432199 0 -0.30971140611047582 0.35873879640362499 0 -0.29896259310319367 0.37025807541310352 0 -0.30097258616365841 0.34441487088432199 0 -0.29896259310319367 0.37025807541310352 0 -0.30097258616365841 0.34441487088432199 0 -0.30971140611047582 0.35873879640362499 0 -0.31556783578130437 0.34561409599239279 0 -0.30971140611047582 0.35873879640362499 0 -0.29896259310319367 0.37025807541310352 0 -0.31229554397435733 0.37005867265250031 0 -0.29896259310319367 0.37025807541310352 0 -0.31229554397435733 0.37005867265250031 0 -0.30732872976294823 0.38353215772995369 0 -0.31229554397435733 0.37005867265250031 0 -0.32118050234516199 0.36201264788746418 0 -0.32091897818789411 0.37757395005697603 0 -0.30971140611047582 0.35873879640362499 0 -0.31229554397435733 0.37005867265250031 0 -0.32118050234516199 0.36201264788746418 0 -0.32118050234516199 0.36201264788746418 0 -0.33508210951592582 0.36870163953731322 0 -0.32091897818789411 0.37757395005697603 0 -0.33508210951592582 0.36870163953731322 0 -0.35209549523865291 0.37190500391828912 0 -0.33393211710626841 0.38433234248782061 0 -0.32118050234516199 0.36201264788746418 0 -0.33508210951592582 0.36870163953731322 0 -0.33321476088078839 0.35466849371962073 0 -0.33508210951592582 0.36870163953731322 0 -0.33321476088078839 0.35466849371962073 0 -0.34577529297467657 0.36353966338233001 0 -0.33321476088078839 0.35466849371962073 0 -0.34577529297467657 0.36353966338233001 0 -0.34447532111727192 0.34884924989517158 0 -0.33321476088078839 0.35466849371962073 0 -0.33003563329740881 0.33925758124412497 0 -0.34447532111727192 0.34884924989517158 0 -0.32118050234516199 0.36201264788746418 0 -0.33321476088078839 0.35466849371962073 0 -0.31556783578130437 0.34561409599239279 0 -0.30971140611047582 0.35873879640362499 0 -0.32118050234516199 0.36201264788746418 0 -0.31556783578130437 0.34561409599239279 0 -0.33321476088078839 0.35466849371962073 0 -0.31556783578130437 0.34561409599239279 0 -0.33003563329740881 0.33925758124412497 0 -0.31074538478735791 0.32738191455196902 0 -0.33257481532433891 0.31836647764434117 0 -0.33003563329740881 0.33925758124412497 0 -0.31074538478735791 0.32738191455196902 0 -0.31556783578130437 0.34561409599239279 0 -0.33003563329740881 0.33925758124412497 0 -0.31376474629655843 0.30225304786416751 0 -0.31074538478735791 0.32738191455196902 0 -0.33257481532433891 0.31836647764434117 0 -0.33790089425573833 0.30106400074382289 0 -0.33257481532433891 0.31836647764434117 0 -0.35615310428423591 0.31878714957900162 0 -0.33257481532433891 0.31836647764434117 0 -0.33003563329740881 0.33925758124412497 0 -0.34490357793898208 0.33379293979876401 0 -0.33003563329740881 0.33925758124412497 0 -0.34490357793898208 0.33379293979876401 0 -0.34447532111727192 0.34884924989517158 0 -0.34490357793898208 0.33379293979876401 0 -0.34447532111727192 0.34884924989517158 0 -0.35750778107934472 0.34402647380388779 0 -0.35615310428423591 0.31878714957900162 0 -0.35750778107934472 0.34402647380388779 0 -0.34490357793898208 0.33379293979876401 0 -0.35615310428423591 0.31878714957900162 0 -0.35750778107934472 0.34402647380388779 0 -0.33257481532433891 0.31836647764434117 0 -0.34490357793898208 0.33379293979876401 0 -0.35615310428423591 0.31878714957900162 0 -0.3809584867257152 0.31995934924364311 0 -0.36990774782730562 0.30465198401604282 0 -0.35615310428423591 0.31878714957900162 0 -0.37563375498023588 0.33893957100260502 0 -0.3809584867257152 0.31995934924364311 0 -0.35615310428423591 0.31878714957900162 0 -0.37563375498023588 0.33893957100260502 0 -0.35615310428423591 0.31878714957900162 0 -0.35750778107934472 0.34402647380388779 0 -0.37563375498023588 0.33893957100260502 0 -0.37302608715873109 0.35758434449273291 0 -0.35750778107934472 0.34402647380388779 0 -0.37302608715873109 0.35758434449273291 0 -0.35750778107934472 0.34402647380388779 0 -0.35541488053243109 0.35781034742230239 0 -0.37302608715873109 0.35758434449273291 0 -0.35209549523865291 0.37190500391828912 0 -0.35541488053243109 0.35781034742230239 0 -0.37302608715873109 0.35758434449273291 0 -0.37126589511329411 0.37377724987418581 0 -0.35209549523865291 0.37190500391828912 0 -0.37302608715873109 0.35758434449273291 0 -0.35209549523865291 0.37190500391828912 0 -0.33508210951592582 0.36870163953731322 0 -0.35209549523865291 0.37190500391828912 0 -0.34577529297467657 0.36353966338233001 0 -0.35209549523865291 0.37190500391828912 0 -0.34577529297467657 0.36353966338233001 0 -0.35209549523865291 0.37190500391828912 0 -0.34577529297467657 0.36353966338233001 0 -0.35541488053243109 0.35781034742230239 0 -0.34577529297467657 0.36353966338233001 0 -0.34447532111727192 0.34884924989517158 0 -0.35541488053243109 0.35781034742230239 0 -0.34447532111727192 0.34884924989517158 0 -0.35750778107934472 0.34402647380388779 0 -0.35541488053243109 0.35781034742230239 0 -0.35026082972236822 0.40458613969335172 0 -0.34862050747833878 0.38874946299455448 0 -0.33552343261133938 0.40009846525415782 0 -0.35026082972236822 0.40458613969335172 0 -0.34862050747833878 0.38874946299455448 0 -0.36671596826568531 0.39125647884893172 0 -0.35209549523865291 0.37190500391828912 0 -0.34862050747833878 0.38874946299455448 0 -0.33393211710626841 0.38433234248782061 0 -0.35209549523865291 0.37190500391828912 0 -0.34862050747833878 0.38874946299455448 0 -0.36671596826568531 0.39125647884893172 0 -0.35209549523865291 0.37190500391828912 0 -0.36671596826568531 0.39125647884893172 0 -0.37126589511329411 0.37377724987418581 0 -0.35209549523865291 0.37190500391828912 0 -0.36671596826568531 0.39125647884893172 0 -0.38133644129271771 0.41060795377957438 0 -0.36671596826568531 0.39125647884893172 0 -0.35026082972236822 0.40458613969335172 0 -0.36671596826568531 0.39125647884893172 0 -0.36333227490387549 0.41594406858258898 0 -0.38133644129271771 0.41060795377957438 0 -0.36671596826568531 0.39125647884893172 0 -0.36333227490387549 0.41594406858258898 0 -0.38133644129271771 0.41060795377957438 0 -0.36333227490387549 0.41594406858258898 0 -0.37388199021079188 0.43349662060099697 0 -0.36333227490387549 0.41594406858258898 0 -0.37388199021079188 0.43349662060099697 0 -0.35906691460358248 0.43302642702751659 0 -0.36333227490387549 0.41594406858258898 0 -0.35906691460358248 0.43302642702751659 0 -0.35160825139420282 0.41805423523185442 0 -0.35906691460358248 0.43302642702751659 0 -0.34586475289765162 0.42738691828786168 0 -0.34964894770477822 0.45067928662270329 0 -0.35906691460358248 0.43302642702751659 0 -0.34586475289765162 0.42738691828786168 0 -0.35160825139420282 0.41805423523185442 0 -0.35026082972236822 0.40458613969335172 0 -0.36333227490387549 0.41594406858258898 0 -0.35160825139420282 0.41805423523185442 0 -0.34586475289765162 0.42738691828786168 0 -0.35160825139420282 0.41805423523185442 0 -0.33955069738530769 0.4144169953609998 0 -0.35026082972236822 0.40458613969335172 0 -0.35160825139420282 0.41805423523185442 0 -0.33955069738530769 0.4144169953609998 0 -0.35026082972236822 0.40458613969335172 0 -0.33955069738530769 0.4144169953609998 0 -0.33552343261133938 0.40009846525415782 0 -0.33446828868340289 0.42659298183602629 0 -0.325081577553051 0.41169961094141633 0 -0.33955069738530769 0.4144169953609998 0 -0.33446828868340289 0.42659298183602629 0 -0.325081577553051 0.41169961094141633 0 -0.33955069738530769 0.4144169953609998 0 -0.325081577553051 0.41169961094141633 0 -0.33552343261133938 0.40009846525415782 0 -0.33446828868340289 0.42659298183602629 0 -0.32353211865850812 0.43458959004027897 0 -0.33054677899099522 0.44587833955602901 0 -0.34586475289765162 0.42738691828786168 0 -0.33446828868340289 0.42659298183602629 0 -0.34964894770477822 0.45067928662270329 0 -0.34586475289765162 0.42738691828786168 0 -0.33446828868340289 0.42659298183602629 0 -0.34586475289765162 0.42738691828786168 0 -0.33955069738530769 0.4144169953609998 0 -0.33446828868340289 0.42659298183602629 0 -0.33446828868340289 0.42659298183602629 0 -0.31463215430362917 0.42521109444957261 0 -0.33446828868340289 0.42659298183602629 0 -0.31463215430362917 0.42521109444957261 0 -0.32353211865850812 0.43458959004027897 0 -0.31463215430362917 0.42521109444957261 0 -0.32353211865850812 0.43458959004027897 0 -0.30632691414132052 0.4383163993433048 0 -0.325081577553051 0.41169961094141633 0 -0.31576873897388319 0.39675968105735149 0 -0.30808160252936673 0.4121977433748496 0 -0.31463215430362917 0.42521109444957261 0 -0.325081577553051 0.41169961094141633 0 -0.30808160252936673 0.4121977433748496 0 -0.33446828868340289 0.42659298183602629 0 -0.31463215430362917 0.42521109444957261 0 -0.325081577553051 0.41169961094141633 0 -0.325081577553051 0.41169961094141633 0 -0.31576873897388319 0.39675968105735149 0 -0.33552343261133938 0.40009846525415782 0 -0.325081577553051 0.41169961094141633 0 -0.31576873897388319 0.39675968105735149 0 -0.34862050747833878 0.38874946299455448 0 -0.33552343261133938 0.40009846525415782 0 -0.33393211710626841 0.38433234248782061 0 -0.31576873897388319 0.39675968105735149 0 -0.33552343261133938 0.40009846525415782 0 -0.33393211710626841 0.38433234248782061 0 -0.35209549523865291 0.37190500391828912 0 -0.33393211710626841 0.38433234248782061 0 -0.33508210951592582 0.36870163953731322 0 -0.33393211710626841 0.38433234248782061 0 -0.32091897818789411 0.37757395005697603 0 -0.31576873897388319 0.39675968105735149 0 -0.32091897818789411 0.37757395005697603 0 -0.30732872976294823 0.38353215772995369 0 -0.31576873897388319 0.39675968105735149 0 -0.33393211710626841 0.38433234248782061 0 -0.31576873897388319 0.39675968105735149 0 -0.33393211710626841 0.38433234248782061 0 -0.32091897818789411 0.37757395005697603 0 -0.31229554397435733 0.37005867265250031 0 -0.32091897818789411 0.37757395005697603 0 -0.30732872976294823 0.38353215772995369 0 -0.29896259310319367 0.37025807541310352 0 -0.30732872976294823 0.38353215772995369 0 -0.29700674132229032 0.39540516601558717 0 -0.29896259310319367 0.37025807541310352 0 -0.29700674132229032 0.39540516601558717 0 -0.31576873897388319 0.39675968105735149 0 -0.30732872976294823 0.38353215772995369 0 -0.29896259310319367 0.37025807541310352 0 -0.30732872976294823 0.38353215772995369 0 -0.29700674132229032 0.39540516601558717 0 -0.30259284054109448 0.40478096048040529 0 -0.29641605771867308 0.41403951143914192 0 -0.31576873897388319 0.39675968105735149 0 -0.29700674132229032 0.39540516601558717 0 -0.30259284054109448 0.40478096048040529 0 -0.31576873897388319 0.39675968105735149 0 -0.30732872976294823 0.38353215772995369 0 -0.29700674132229032 0.39540516601558717 0 -0.31576873897388319 0.39675968105735149 0 -0.30259284054109448 0.40478096048040529 0 -0.30808160252936673 0.4121977433748496 0 -0.29700674132229032 0.39540516601558717 0 -0.28209338532393202 0.38222600668133688 0 -0.27839968129949771 0.4031848713431353 0 -0.29896259310319367 0.37025807541310352 0 -0.29700674132229032 0.39540516601558717 0 -0.28209338532393202 0.38222600668133688 0 -0.27169383631612543 0.36953364855257259 0 -0.28209338532393202 0.38222600668133688 0 -0.26324903299479457 0.38988604216182182 0 -0.27839968129949771 0.4031848713431353 0 -0.26324903299479457 0.38988604216182182 0 -0.26044543261494202 0.40722350202507612 0 -0.28209338532393202 0.38222600668133688 0 -0.27839968129949771 0.4031848713431353 0 -0.26324903299479457 0.38988604216182182 0 -0.26324903299479457 0.38988604216182182 0 -0.26044543261494202 0.40722350202507612 0 -0.24448809762487089 0.40050868906775772 0 -0.25717133997193298 0.37426095615225607 0 -0.26324903299479457 0.38988604216182182 0 -0.24074374520667241 0.38242687998337299 0 -0.25717133997193298 0.37426095615225607 0 -0.27169383631612543 0.36953364855257259 0 -0.26324903299479457 0.38988604216182182 0 -0.25382358621835049 0.43542260228310259 0 -0.27015352040741047 0.42211248350195679 0 -0.2459368307481366 0.42042542405070832 0 -0.27015352040741047 0.42211248350195679 0 -0.2459368307481366 0.42042542405070832 0 -0.26044543261494202 0.40722350202507612 0 -0.2459368307481366 0.42042542405070832 0 -0.24448809762487089 0.40050868906775772 0 -0.26044543261494202 0.40722350202507612 0 -0.27015352040741047 0.42211248350195679 0 -0.2459368307481366 0.42042542405070832 0 -0.27839968129949771 0.4031848713431353 0 -0.26044543261494202 0.40722350202507612 0 -0.27015352040741047 0.42211248350195679 0 -0.27839968129949771 0.4031848713431353 0 -0.27015352040741047 0.42211248350195679 0 -0.2950508895413867 0.42055225661807089 0 -0.25382358621835049 0.43542260228310259 0 -0.27015352040741047 0.42211248350195679 0 -0.27451598641054692 0.44016370142941202 0 -0.27015352040741047 0.42211248350195679 0 -0.28251112199335982 0.43211478794536817 0 -0.27451598641054692 0.44016370142941202 0 -0.28251112199335982 0.43211478794536817 0 -0.29479601992385501 0.42382920706312738 0 -0.29069111349206073 0.44135124015641658 0 -0.29479601992385501 0.42382920706312738 0 -0.29069111349206073 0.44135124015641658 0 -0.27015352040741047 0.42211248350195679 0 -0.28251112199335982 0.43211478794536817 0 -0.29479601992385501 0.42382920706312738 0 -0.27015352040741047 0.42211248350195679 0 -0.29479601992385501 0.42382920706312738 0 -0.27015352040741047 0.42211248350195679 0 -0.29479601992385501 0.42382920706312738 0 -0.2950508895413867 0.42055225661807089 0 -0.29479601992385501 0.42382920706312738 0 -0.2950508895413867 0.42055225661807089 0 -0.29700674132229032 0.39540516601558717 0 -0.2950508895413867 0.42055225661807089 0 -0.29641605771867308 0.41403951143914192 0 -0.29700674132229032 0.39540516601558717 0 -0.27839968129949771 0.4031848713431353 0 -0.2950508895413867 0.42055225661807089 0 -0.29700674132229032 0.39540516601558717 0 -0.2950508895413867 0.42055225661807089 0 -0.2950508895413867 0.42055225661807089 0 -0.29641605771867308 0.41403951143914192 0 -0.31463215430362917 0.42521109444957261 0 -0.2950508895413867 0.42055225661807089 0 -0.30808160252936673 0.4121977433748496 0 -0.30259284054109448 0.40478096048040529 0 -0.29641605771867308 0.41403951143914192 0 -0.30808160252936673 0.4121977433748496 0 -0.2950508895413867 0.42055225661807089 0 -0.29641605771867308 0.41403951143914192 0 -0.30808160252936673 0.4121977433748496 0 -0.31463215430362917 0.42521109444957261 0 -0.29479601992385501 0.42382920706312738 0 -0.2950508895413867 0.42055225661807089 0 -0.31463215430362917 0.42521109444957261 0 -0.29479601992385501 0.42382920706312738 0 -0.30632691414132052 0.4383163993433048 0 -0.29479601992385501 0.42382920706312738 0 -0.30632691414132052 0.4383163993433048 0 -0.29069111349206073 0.44135124015641658 0 -0.31463215430362917 0.42521109444957261 0 -0.29479601992385501 0.42382920706312738 0 -0.30632691414132052 0.4383163993433048 0 -0.3106014077299023 0.45452137664490028 0 -0.31918078655937843 0.44538174228416588 0 -0.30632691414132052 0.4383163993433048 0 -0.29796494780926752 0.45236230629258078 0 -0.3106014077299023 0.45452137664490028 0 -0.30632691414132052 0.4383163993433048 0 -0.29796494780926752 0.45236230629258078 0 -0.29069111349206073 0.44135124015641658 0 -0.3106014077299023 0.45452137664490028 0 -0.30192672627001949 0.46374394226332799 0 -0.31684143562260331 0.46858494716702748 0 -0.30192672627001949 0.46374394226332799 0 -0.31684143562260331 0.46858494716702748 0 -0.29796494780926752 0.45236230629258078 0 -0.3106014077299023 0.45452137664490028 0 -0.30192672627001949 0.46374394226332799 0 -0.28701201691743577 0.45890293735962839 0 -0.28352738281579593 0.4755269213664215 0 -0.30192672627001949 0.46374394226332799 0 -0.28701201691743577 0.45890293735962839 0 -0.30030559437380339 0.47420586516231239 0 -0.30192672627001949 0.46374394226332799 0 -0.28701201691743577 0.45890293735962839 0 -0.29796494780926752 0.45236230629258078 0 -0.30192672627001949 0.46374394226332799 0 -0.28701201691743577 0.45890293735962839 0 -0.28701201691743577 0.45890293735962839 0 -0.29069111349206073 0.44135124015641658 0 -0.28701201691743577 0.45890293735962839 0 -0.29069111349206073 0.44135124015641658 0 -0.27451598641054692 0.44016370142941202 0 -0.29796494780926752 0.45236230629258078 0 -0.28701201691743577 0.45890293735962839 0 -0.29069111349206073 0.44135124015641658 0 -0.28251112199335982 0.43211478794536817 0 -0.29069111349206073 0.44135124015641658 0 -0.27451598641054692 0.44016370142941202 0 -0.28701201691743577 0.45890293735962839 0 -0.27451598641054692 0.44016370142941202 0 -0.2629045594346644 0.45107815732999917 0 -0.28701201691743577 0.45890293735962839 0 -0.2629045594346644 0.45107815732999917 0 -0.28701201691743577 0.45890293735962839 0 -0.27023974482395158 0.46466667776273851 0 -0.28352738281579593 0.4755269213664215 0 -0.28701201691743577 0.45890293735962839 0 -0.27023974482395158 0.46466667776273851 0 -0.2629045594346644 0.45107815732999917 0 -0.27023974482395158 0.46466667776273851 0 -0.2629045594346644 0.45107815732999917 0 -0.2489120775907421 0.45611132706247232 0 -0.27023974482395158 0.46466667776273851 0 -0.24576275637927339 0.47027392540463459 0 -0.2489120775907421 0.45611132706247232 0 -0.25382358621835049 0.43542260228310259 0 -0.2629045594346644 0.45107815732999917 0 -0.2387971019518931 0.44325337730036979 0 -0.2629045594346644 0.45107815732999917 0 -0.2387971019518931 0.44325337730036979 0 -0.2629045594346644 0.45107815732999917 0 -0.2387971019518931 0.44325337730036979 0 -0.2489120775907421 0.45611132706247232 0 -0.25382358621835049 0.43542260228310259 0 -0.27451598641054692 0.44016370142941202 0 -0.2629045594346644 0.45107815732999917 0 -0.26267046183496029 0.5 0 -0.26550391405888962 0.48189416376756322 0 -0.24740973726578031 0.48747235416832729 0 -0.26550391405888962 0.48189416376756322 0 -0.24576275637927339 0.47027392540463459 0 -0.24740973726578031 0.48747235416832729 0 -0.27023974482395158 0.46466667776273851 0 -0.26550391405888962 0.48189416376756322 0 -0.24576275637927339 0.47027392540463459 0 -0.27023974482395158 0.46466667776273851 0 -0.26550391405888962 0.48189416376756322 0 -0.28352738281579593 0.4755269213664215 0 -0.26550391405888962 0.48189416376756322 0 -0.28004274871415491 0.49215090537321432 0 -0.28352738281579593 0.4755269213664215 0 -0.26267046183496029 0.5 0 -0.26550391405888962 0.48189416376756322 0 -0.28004274871415491 0.49215090537321432 0 -0.26267046183496029 0.5 0 -0.28004274871415491 0.49215090537321432 0 -0.28977137280097909 0.5 0 -0.28004274871415491 0.49215090537321432 0 -0.29422506909847679 0.48481709335143458 0 -0.28977137280097909 0.5 0 -0.29422506909847679 0.48481709335143458 0 -0.28977137280097909 0.5 0 -0.30059562840125281 0.49523014277448563 0 -0.29422506909847679 0.48481709335143458 0 -0.28352738281579593 0.4755269213664215 0 -0.30030559437380339 0.47420586516231239 0 -0.28004274871415491 0.49215090537321432 0 -0.29422506909847679 0.48481709335143458 0 -0.28352738281579593 0.4755269213664215 0 -0.28701201691743577 0.45890293735962839 0 -0.28352738281579593 0.4755269213664215 0 -0.30030559437380339 0.47420586516231239 0 -0.28004274871415491 0.49215090537321432 0 -0.28352738281579593 0.4755269213664215 0 -0.30192672627001949 0.46374394226332799 0 -0.30030559437380339 0.47420586516231239 0 -0.31684143562260331 0.46858494716702748 0 -0.30030559437380339 0.47420586516231239 0 -0.3087338265938282 0.48140676030859753 0 -0.31684143562260331 0.46858494716702748 0 -0.29422506909847679 0.48481709335143458 0 -0.30030559437380339 0.47420586516231239 0 -0.3087338265938282 0.48140676030859753 0 -0.28977137280097909 0.5 0 -0.30059562840125281 0.49523014277448563 0 -0.31687228376699761 0.5 0 -0.3087338265938282 0.48140676030859753 0 -0.30059562840125281 0.49523014277448563 0 -0.32200695450955369 0.48840862565278359 0 -0.30059562840125281 0.49523014277448563 0 -0.32200695450955369 0.48840862565278359 0 -0.29422506909847679 0.48481709335143458 0 -0.3087338265938282 0.48140676030859753 0 -0.30059562840125281 0.49523014277448563 0 -0.30059562840125281 0.49523014277448563 0 -0.31687228376699761 0.5 0 -0.32200695450955369 0.48840862565278359 0 -0.31687228376699761 0.5 0 -0.32200695450955369 0.48840862565278359 0 -0.33307541777069588 0.49179723018598798 0 -0.32200695450955369 0.48840862565278359 0 -0.34341828061785462 0.48158710853108161 0 -0.32200695450955369 0.48840862565278359 0 -0.33307541777069588 0.49179723018598798 0 -0.34341828061785462 0.48158710853108161 0 -0.33307541777069588 0.49179723018598798 0 -0.34341828061785462 0.48158710853108161 0 -0.34397319473301619 0.5 0 -0.31687228376699761 0.5 0 -0.33307541777069588 0.49179723018598798 0 -0.34397319473301619 0.5 0 -0.32200695450955369 0.48840862565278359 0 -0.34341828061785462 0.48158710853108161 0 -0.32987443399239552 0.47516769423785971 0 -0.34341828061785462 0.48158710853108161 0 -0.32987443399239552 0.47516769423785971 0 -0.34602126269748001 0.46829680282094799 0 -0.32987443399239552 0.47516769423785971 0 -0.31870391104731738 0.47862303310617538 0 -0.31684143562260331 0.46858494716702748 0 -0.32200695450955369 0.48840862565278359 0 -0.32987443399239552 0.47516769423785971 0 -0.31870391104731738 0.47862303310617538 0 -0.3087338265938282 0.48140676030859753 0 -0.32200695450955369 0.48840862565278359 0 -0.31870391104731738 0.47862303310617538 0 -0.3087338265938282 0.48140676030859753 0 -0.31870391104731738 0.47862303310617538 0 -0.31684143562260331 0.46858494716702748 0 -0.31684143562260331 0.46858494716702748 0 -0.32297313966047753 0.4563916054492167 0 -0.33347739267942988 0.46163483110378051 0 -0.32987443399239552 0.47516769423785971 0 -0.31684143562260331 0.46858494716702748 0 -0.33347739267942988 0.46163483110378051 0 -0.3106014077299023 0.45452137664490028 0 -0.31684143562260331 0.46858494716702748 0 -0.32297313966047753 0.4563916054492167 0 -0.32353211865850812 0.43458959004027897 0 -0.30632691414132052 0.4383163993433048 0 -0.31918078655937843 0.44538174228416588 0 -0.3106014077299023 0.45452137664490028 0 -0.32297313966047753 0.4563916054492167 0 -0.31918078655937843 0.44538174228416588 0 -0.32297313966047753 0.4563916054492167 0 -0.31918078655937843 0.44538174228416588 0 -0.33054677899099522 0.44587833955602901 0 -0.32353211865850812 0.43458959004027897 0 -0.31918078655937843 0.44538174228416588 0 -0.33054677899099522 0.44587833955602901 0 -0.33054677899099522 0.44587833955602901 0 -0.33347739267942988 0.46163483110378051 0 -0.34964894770477822 0.45067928662270329 0 -0.33446828868340289 0.42659298183602629 0 -0.34964894770477822 0.45067928662270329 0 -0.33446828868340289 0.42659298183602629 0 -0.33054677899099522 0.44587833955602901 0 -0.34964894770477822 0.45067928662270329 0 -0.32297313966047753 0.4563916054492167 0 -0.33054677899099522 0.44587833955602901 0 -0.33347739267942988 0.46163483110378051 0 -0.33347739267942988 0.46163483110378051 0 -0.34602126269748001 0.46829680282094799 0 -0.34964894770477822 0.45067928662270329 0 -0.32987443399239552 0.47516769423785971 0 -0.33347739267942988 0.46163483110378051 0 -0.34602126269748001 0.46829680282094799 0 -0.34964894770477822 0.45067928662270329 0 -0.36482960672615539 0.47476559140937902 0 -0.34602126269748001 0.46829680282094799 0 -0.34964894770477822 0.45067928662270329 0 -0.36482960672615539 0.47476559140937902 0 -0.37388199021079188 0.43349662060099697 0 -0.35906691460358248 0.43302642702751659 0 -0.37006527051019528 0.45259743283909409 0 -0.35906691460358248 0.43302642702751659 0 -0.34964894770477822 0.45067928662270329 0 -0.37006527051019528 0.45259743283909409 0 -0.34964894770477822 0.45067928662270329 0 -0.37006527051019528 0.45259743283909409 0 -0.36482960672615539 0.47476559140937902 0 -0.39197467039505129 0.46611734068214988 0 -0.36580706476392733 0.47631646954851292 0 -0.36482960672615539 0.47476559140937902 0 -0.38413367002432852 0.48466820949397371 0 -0.36580706476392733 0.47631646954851292 0 -0.36922226322768142 0.48798439540463678 0 -0.36580706476392733 0.47631646954851292 0 -0.36482960672615539 0.47476559140937902 0 -0.36580706476392733 0.47631646954851292 0 -0.36011621247549508 0.48220740160321018 0 -0.36922226322768142 0.48798439540463678 0 -0.36580706476392733 0.47631646954851292 0 -0.36482960672615539 0.47476559140937902 0 -0.36011621247549508 0.48220740160321018 0 -0.38413367002432852 0.48466820949397371 0 -0.36922226322768142 0.48798439540463678 0 -0.37107410569903487 0.5 0 -0.36922226322768142 0.48798439540463678 0 -0.37107410569903487 0.5 0 -0.35730384704185653 0.49038344312244059 0 -0.36011621247549508 0.48220740160321018 0 -0.36922226322768142 0.48798439540463678 0 -0.35730384704185653 0.49038344312244059 0 -0.34341828061785462 0.48158710853108161 0 -0.36011621247549508 0.48220740160321018 0 -0.35730384704185653 0.49038344312244059 0 -0.37107410569903487 0.5 0 -0.35730384704185653 0.49038344312244059 0 -0.34397319473301619 0.5 0 -0.34341828061785462 0.48158710853108161 0 -0.35730384704185653 0.49038344312244059 0 -0.34397319473301619 0.5 0 -0.34341828061785462 0.48158710853108161 0 -0.36482960672615539 0.47476559140937902 0 -0.36011621247549508 0.48220740160321018 0 -0.34341828061785462 0.48158710853108161 0 -0.34602126269748001 0.46829680282094799 0 -0.36482960672615539 0.47476559140937902 0 -0.34341828061785462 0.48158710853108161 0 -0.36482960672615539 0.47476559140937902 0 -0.14108182703901029 0.47856052106912539 0 -0.15218575011213231 0.48928026053456308 0 -0.15838645381207381 0.47784012782054008 0 -0.14108182703901029 0.47856052106912539 0 -0.15141758041572639 0.46790752156545012 0 -0.15838645381207381 0.47784012782054008 0 -0.14108182703901029 0.47856052106912539 0 -0.15218575011213231 0.48928026053456308 0 -0.14103512141071931 0.48261116844817892 0 -0.14108182703901029 0.47856052106912539 0 -0.15218575011213231 0.48928026053456308 0 -0.14103512141071931 0.48261116844817892 0 -0.14108182703901029 0.47856052106912539 0 -0.15218575011213231 0.48928026053456308 0 -0.14247376316698551 0.5 0 -0.1632896731852537 0.50000000000000155 0 -0.15218575011213231 0.48928026053456308 0 -0.14247376316698551 0.5 0 -0.14194011071192181 0.49099964735320722 0 -0.14103512141071931 0.48261116844817892 0 -0.15218575011213231 0.48928026053456308 0 -0.14194011071192181 0.49099964735320722 0 -0.14247376316698551 0.5 0 -0.13206580815784999 0.49210716043008701 0 -0.1216578531487173 0.50000000000000155 0 -0.13206580815784999 0.49210716043008701 0 -0.1215246548466888 0.48036061179670092 0 -0.1216578531487173 0.50000000000000155 0 -0.14103512141071931 0.48261116844817892 0 -0.13206580815784999 0.49210716043008701 0 -0.1215246548466888 0.48036061179670092 0 -0.14103512141071931 0.48261116844817892 0 -0.14194011071192181 0.49099964735320722 0 -0.13206580815784999 0.49210716043008701 0 -0.14247376316698551 0.5 0 -0.14194011071192181 0.49099964735320722 0 -0.13206580815784999 0.49210716043008701 0 -0.14103512141071931 0.48261116844817892 0 -0.14108182703901029 0.47856052106912539 0 -0.1215246548466888 0.48036061179670092 0 -0.14108182703901029 0.47856052106912539 0 -0.11987972175203609 0.45809198546251739 0 -0.1215246548466888 0.48036061179670092 0 -0.14108182703901029 0.47856052106912539 0 -0.14131813266979709 0.45806640035822538 0 -0.11987972175203609 0.45809198546251739 0 -0.14108182703901029 0.47856052106912539 0 -0.11987972175203609 0.45809198546251739 0 -0.12509104342100061 0.44188941827772182 0 -0.14131813266979709 0.45806640035822538 0 -0.11987972175203609 0.45809198546251739 0 -0.12509104342100061 0.44188941827772182 0 -0.14155443830058789 0.43757227964732542 0 -0.14131813266979709 0.45806640035822538 0 -0.14155443830058789 0.43757227964732542 0 -0.1590732886589914 0.44456462379371309 0 -0.14157918638415079 0.43542594817740249 0 -0.1590732886589914 0.44456462379371309 0 -0.1665175895587078 0.4467511244817659 0 -0.14157918638415079 0.43542594817740249 0 -0.1665175895587078 0.4467511244817659 0 -0.15486041744653839 0.43233395996053492 0 -0.14157918638415079 0.43542594817740249 0 -0.14155443830058789 0.43757227964732542 0 -0.14890115189103559 0.44846787442591368 0 -0.1590732886589914 0.44456462379371309 0 -0.1665175895587078 0.4467511244817659 0 -0.14157918638415079 0.43542594817740249 0 -0.14155443830058789 0.43757227964732542 0 -0.14890115189103559 0.44846787442591368 0 -0.14131813266979709 0.45806640035822538 0 -0.14155443830058789 0.43757227964732542 0 -0.1590732886589914 0.44456462379371309 0 -0.14155443830058789 0.43757227964732542 0 -0.14131813266979709 0.45806640035822538 0 -0.14890115189103559 0.44846787442591368 0 -0.15489186999573309 0.45643812449532861 0 -0.1590732886589914 0.44456462379371309 0 -0.14108182703901029 0.47856052106912539 0 -0.14131813266979709 0.45806640035822538 0 -0.14108182703901029 0.47856052106912539 0 -0.14131813266979709 0.45806640035822538 0 -0.15141758041572639 0.46790752156545012 0 -0.14890115189103559 0.44846787442591368 0 -0.14131813266979709 0.45806640035822538 0 -0.15489186999573309 0.45643812449532861 0 -0.14131813266979709 0.45806640035822538 0 -0.15489186999573309 0.45643812449532861 0 -0.15141758041572639 0.46790752156545012 0 -0.15489186999573309 0.45643812449532861 0 -0.15141758041572639 0.46790752156545012 0 -0.1637083375647361 0.46571847743475431 0 -0.15489186999573309 0.45643812449532861 0 -0.1637083375647361 0.46571847743475431 0 -0.16576602081972819 0.45650349861697093 0 -0.1637083375647361 0.46571847743475431 0 -0.1745644688617857 0.46423929942095737 0 -0.17520348646433229 0.47613194070040032 0 -0.1637083375647361 0.46571847743475431 0 -0.16576602081972819 0.45650349861697093 0 -0.1745644688617857 0.46423929942095737 0 -0.1590732886589914 0.44456462379371309 0 -0.17659213901739471 0.45155696794010108 0 -0.1590732886589914 0.44456462379371309 0 -0.1665175895587078 0.4467511244817659 0 -0.17659213901739471 0.45155696794010108 0 -0.16576602081972819 0.45650349861697093 0 -0.1590732886589914 0.44456462379371309 0 -0.17659213901739471 0.45155696794010108 0 -0.1665175895587078 0.4467511244817659 0 -0.1659354897241099 0.43449929542802312 0 -0.15486041744653839 0.43233395996053492 0 -0.15489186999573309 0.45643812449532861 0 -0.16576602081972819 0.45650349861697093 0 -0.1590732886589914 0.44456462379371309 0 -0.1665175895587078 0.4467511244817659 0 -0.1740586998674569 0.43899754936367941 0 -0.1659354897241099 0.43449929542802312 0 -0.1740586998674569 0.43899754936367941 0 -0.17659213901739471 0.45155696794010108 0 -0.1868590329817707 0.43357197228301869 0 -0.1665175895587078 0.4467511244817659 0 -0.1740586998674569 0.43899754936367941 0 -0.17659213901739471 0.45155696794010108 0 -0.1745644688617857 0.46423929942095737 0 -0.18738907724301901 0.4651958722260251 0 -0.17520348646433229 0.47613194070040032 0 -0.17659213901739471 0.45155696794010108 0 -0.1745644688617857 0.46423929942095737 0 -0.18738907724301901 0.4651958722260251 0 -0.16576602081972819 0.45650349861697093 0 -0.17659213901739471 0.45155696794010108 0 -0.1745644688617857 0.46423929942095737 0 -0.17520348646433229 0.47613194070040032 0 -0.17737148462513211 0.4885994124146576 0 -0.1949767913905355 0.48049775525153071 0 -0.18738907724301901 0.4651958722260251 0 -0.17520348646433229 0.47613194070040032 0 -0.1949767913905355 0.48049775525153071 0 -0.17520348646433229 0.47613194070040032 0 -0.1660045063390565 0.48636736612135473 0 -0.17737148462513211 0.4885994124146576 0 -0.17520348646433229 0.47613194070040032 0 -0.15838645381207381 0.47784012782054008 0 -0.1660045063390565 0.48636736612135473 0 -0.1637083375647361 0.46571847743475431 0 -0.17520348646433229 0.47613194070040032 0 -0.15838645381207381 0.47784012782054008 0 -0.15141758041572639 0.46790752156545012 0 -0.1637083375647361 0.46571847743475431 0 -0.15838645381207381 0.47784012782054008 0 -0.15218575011213231 0.48928026053456308 0 -0.1632896731852537 0.50000000000000155 0 -0.15218575011213231 0.48928026053456308 0 -0.15838645381207381 0.47784012782054008 0 -0.1660045063390565 0.48636736612135473 0 -0.15218575011213231 0.48928026053456308 0 -0.1632896731852537 0.50000000000000155 0 -0.1660045063390565 0.48636736612135473 0 -0.1632896731852537 0.50000000000000155 0 -0.1660045063390565 0.48636736612135473 0 -0.17737148462513211 0.4885994124146576 0 -0.1632896731852537 0.50000000000000155 0 -0.18738296574648311 0.5 0 -0.17737148462513211 0.4885994124146576 0 -0.18738296574648311 0.5 0 -0.17737148462513211 0.4885994124146576 0 -0.1949767913905355 0.48049775525153071 0 -0.18738296574648311 0.5 0 -0.1949767913905355 0.48049775525153071 0 -0.21147625830771241 0.5 0 -0.1949767913905355 0.48049775525153071 0 -0.2193327115732171 0.47785732409434201 0 -0.2030958722774939 0.45571464818868052 0 -0.1949767913905355 0.48049775525153071 0 -0.21147625830771241 0.5 0 -0.2193327115732171 0.47785732409434201 0 -0.21147625830771241 0.5 0 -0.2193327115732171 0.47785732409434201 0 -0.23556955086894171 0.50000000000000278 0 -0.2193327115732171 0.47785732409434201 0 -0.24740973726578031 0.48747235416832729 0 -0.23556955086894171 0.50000000000000278 0 -0.2193327115732171 0.47785732409434201 0 -0.23556955086894171 0.50000000000000278 0 -0.2193327115732171 0.47785732409434201 0 -0.24576275637927339 0.47027392540463459 0 -0.24740973726578031 0.48747235416832729 0 -0.26267046183496029 0.5 0 -0.24740973726578031 0.48747235416832729 0 -0.23556955086894171 0.50000000000000278 0 -0.2387971019518931 0.44325337730036979 0 -0.2489120775907421 0.45611132706247232 0 -0.22784244863720851 0.45419089524536999 0 -0.24576275637927339 0.47027392540463459 0 -0.2489120775907421 0.45611132706247232 0 -0.22784244863720851 0.45419089524536999 0 -0.2193327115732171 0.47785732409434201 0 -0.24576275637927339 0.47027392540463459 0 -0.22784244863720851 0.45419089524536999 0 -0.2387971019518931 0.44325337730036979 0 -0.22784244863720851 0.45419089524536999 0 -0.22695118484456259 0.43760496865691229 0 -0.22784244863720851 0.45419089524536999 0 -0.22695118484456259 0.43760496865691229 0 -0.21077827595677989 0.43843038173964088 0 -0.2387971019518931 0.44325337730036979 0 -0.22695118484456259 0.43760496865691229 0 -0.23717077667227929 0.4322920750106754 0 -0.22784244863720851 0.45419089524536999 0 -0.21077827595677989 0.43843038173964088 0 -0.2030958722774939 0.45571464818868052 0 -0.2193327115732171 0.47785732409434201 0 -0.22784244863720851 0.45419089524536999 0 -0.2030958722774939 0.45571464818868052 0 -0.2193327115732171 0.47785732409434201 0 -0.2030958722774939 0.45571464818868052 0 -0.18738907724301901 0.4651958722260251 0 -0.1949767913905355 0.48049775525153071 0 -0.2030958722774939 0.45571464818868052 0 -0.17659213901739471 0.45155696794010108 0 -0.18738907724301901 0.4651958722260251 0 -0.2030958722774939 0.45571464818868052 0 -0.17659213901739471 0.45155696794010108 0 -0.2030958722774939 0.45571464818868052 0 -0.1868590329817707 0.43357197228301869 0 -0.21077827595677989 0.43843038173964088 0 -0.2030958722774939 0.45571464818868052 0 -0.1868590329817707 0.43357197228301869 0 -0.2030958722774939 0.45571464818868052 0 -0.1868590329817707 0.43357197228301869 0 -0.21077827595677989 0.43843038173964088 0 -0.20038953475864499 0.42285930103310698 0 -0.1868590329817707 0.43357197228301869 0 -0.20038953475864499 0.42285930103310698 0 -0.18865851951403981 0.41114723081592358 0 -0.1868590329817707 0.43357197228301869 0 -0.20038953475864499 0.42285930103310698 0 -0.18865851951403981 0.41114723081592358 0 -0.20316386533702549 0.40742415296633488 0 -0.20038953475864499 0.42285930103310698 0 -0.20316386533702549 0.40742415296633488 0 -0.22016732100465239 0.41985811398850509 0 -0.20316386533702549 0.40742415296633488 0 -0.22016732100465239 0.41985811398850509 0 -0.21769018938602511 0.40540249138439582 0 -0.20316386533702549 0.40742415296633488 0 -0.22016732100465239 0.41985811398850509 0 -0.21077827595677989 0.43843038173964088 0 -0.20038953475864499 0.42285930103310698 0 -0.22016732100465239 0.41985811398850509 0 -0.22695118484456259 0.43760496865691229 0 -0.22016732100465239 0.41985811398850509 0 -0.23717077667227929 0.4322920750106754 0 -0.22695118484456259 0.43760496865691229 0 -0.21077827595677989 0.43843038173964088 0 -0.22016732100465239 0.41985811398850509 0 -0.22016732100465239 0.41985811398850509 0 -0.23358788463652869 0.41983625247023992 0 -0.23717077667227929 0.4322920750106754 0 -0.22016732100465239 0.41985811398850509 0 -0.23717077667227929 0.4322920750106754 0 -0.22016732100465239 0.41985811398850509 0 -0.23115288141678619 0.40759276862782062 0 -0.21769018938602511 0.40540249138439582 0 -0.22016732100465239 0.41985811398850509 0 -0.23115288141678619 0.40759276862782062 0 -0.23358788463652869 0.41983625247023992 0 -0.23115288141678619 0.40759276862782062 0 -0.2459368307481366 0.42042542405070832 0 -0.24448809762487089 0.40050868906775772 0 -0.23115288141678619 0.40759276862782062 0 -0.23358788463652869 0.41983625247023992 0 -0.2459368307481366 0.42042542405070832 0 -0.25382358621835049 0.43542260228310259 0 -0.2459368307481366 0.42042542405070832 0 -0.23717077667227929 0.4322920750106754 0 -0.25382358621835049 0.43542260228310259 0 -0.2387971019518931 0.44325337730036979 0 -0.23717077667227929 0.4322920750106754 0 -0.23358788463652869 0.41983625247023992 0 -0.2459368307481366 0.42042542405070832 0 -0.23717077667227929 0.4322920750106754 0 -0.26324903299479457 0.38988604216182182 0 -0.24074374520667241 0.38242687998337299 0 -0.24448809762487089 0.40050868906775772 0 -0.24074374520667241 0.38242687998337299 0 -0.24448809762487089 0.40050868906775772 0 -0.22634736018434309 0.39356380059118778 0 -0.23115288141678619 0.40759276862782062 0 -0.24448809762487089 0.40050868906775772 0 -0.22634736018434309 0.39356380059118778 0 -0.23115288141678619 0.40759276862782062 0 -0.22634736018434309 0.39356380059118778 0 -0.21769018938602511 0.40540249138439582 0 -0.24074374520667241 0.38242687998337299 0 -0.22634736018434309 0.39356380059118778 0 -0.21798062289891881 0.38062313327343511 0 -0.24074374520667241 0.38242687998337299 0 -0.21798062289891881 0.38062313327343511 0 -0.22441740966967141 0.36662202833489849 0 -0.21798062289891881 0.38062313327343511 0 -0.2053182195646632 0.38898911660535768 0 -0.20402060209966261 0.36833430411321649 0 -0.22634736018434309 0.39356380059118778 0 -0.21798062289891881 0.38062313327343511 0 -0.2053182195646632 0.38898911660535768 0 -0.22634736018434309 0.39356380059118778 0 -0.2053182195646632 0.38898911660535768 0 -0.21769018938602511 0.40540249138439582 0 -0.20316386533702549 0.40742415296633488 0 -0.2053182195646632 0.38898911660535768 0 -0.21769018938602511 0.40540249138439582 0 -0.20316386533702549 0.40742415296633488 0 -0.2053182195646632 0.38898911660535768 0 -0.18616040966939809 0.39499019194416529 0 -0.20316386533702549 0.40742415296633488 0 -0.18616040966939809 0.39499019194416529 0 -0.18865851951403981 0.41114723081592358 0 -0.20316386533702549 0.40742415296633488 0 -0.18616040966939809 0.39499019194416529 0 -0.2053182195646632 0.38898911660535768 0 -0.1927326532436788 0.38193994064591369 0 -0.18616040966939809 0.39499019194416529 0 -0.2053182195646632 0.38898911660535768 0 -0.1927326532436788 0.38193994064591369 0 -0.20402060209966261 0.36833430411321649 0 -0.1927326532436788 0.38193994064591369 0 -0.18374665136976759 0.37937871402705908 0 -0.18616040966939809 0.39499019194416529 0 -0.1744309637910503 0.37769149803556362 0 -0.1642142843906749 0.3789418502636645 0 -0.1838985270783616 0.39091510453828221 0 -0.1642142843906749 0.3789418502636645 0 -0.18616040966939809 0.39499019194416529 0 -0.1838985270783616 0.39091510453828221 0 -0.1927326532436788 0.38193994064591369 0 -0.18374665136976759 0.37937871402705908 0 -0.18362379452965399 0.37004657989153639 0 -0.18374665136976759 0.37937871402705908 0 -0.1744309637910503 0.37769149803556362 0 -0.1838985270783616 0.39091510453828221 0 -0.1642142843906749 0.3789418502636645 0 -0.18616040966939809 0.39499019194416529 0 -0.18374665136976759 0.37937871402705908 0 -0.1744309637910503 0.37769149803556362 0 -0.18362379452965399 0.37004657989153639 0 -0.18374665136976759 0.37937871402705908 0 -0.18616040966939809 0.39499019194416529 0 -0.18374665136976759 0.37937871402705908 0 -0.1838985270783616 0.39091510453828221 0 -0.18374665136976759 0.37937871402705908 0 -0.18616040966939809 0.39499019194416529 0 -0.1838985270783616 0.39091510453828221 0 -0.1642142843906749 0.3789418502636645 0 -0.1639919076143399 0.3974747808383628 0 -0.1489802686125267 0.38257497248127392 0 -0.1642142843906749 0.3789418502636645 0 -0.1639919076143399 0.3974747808383628 0 -0.18616040966939809 0.39499019194416529 0 -0.1744309637910503 0.37769149803556362 0 -0.1642142843906749 0.3789418502636645 0 -0.15874130784498061 0.37213542046662212 0 -0.1639919076143399 0.3974747808383628 0 -0.17750104491285451 0.40432040146684922 0 -0.17119334285363949 0.41366940226894577 0 -0.18865851951403981 0.41114723081592358 0 -0.18616040966939809 0.39499019194416529 0 -0.18865851951403981 0.41114723081592358 0 -0.17750104491285451 0.40432040146684922 0 -0.18616040966939809 0.39499019194416529 0 -0.1639919076143399 0.3974747808383628 0 -0.17750104491285451 0.40432040146684922 0 -0.18616040966939809 0.39499019194416529 0 -0.18865851951403981 0.41114723081592358 0 -0.17750104491285451 0.40432040146684922 0 -0.17119334285363949 0.41366940226894577 0 -0.18865851951403981 0.41114723081592358 0 -0.17459283461559361 0.42601523789076512 0 -0.17119334285363949 0.41366940226894577 0 -0.18865851951403981 0.41114723081592358 0 -0.1868590329817707 0.43357197228301869 0 -0.17459283461559361 0.42601523789076512 0 -0.1740586998674569 0.43899754936367941 0 -0.1868590329817707 0.43357197228301869 0 -0.17459283461559361 0.42601523789076512 0 -0.1740586998674569 0.43899754936367941 0 -0.17459283461559361 0.42601523789076512 0 -0.1659354897241099 0.43449929542802312 0 -0.17459283461559361 0.42601523789076512 0 -0.1659354897241099 0.43449929542802312 0 -0.16085192275254509 0.42420597718500008 0 -0.1659354897241099 0.43449929542802312 0 -0.16085192275254509 0.42420597718500008 0 -0.15486041744653839 0.43233395996053492 0 -0.1639919076143399 0.3974747808383628 0 -0.17119334285363949 0.41366940226894577 0 -0.1558060921739825 0.41026488178479492 0 -0.17459283461559361 0.42601523789076512 0 -0.16085192275254509 0.42420597718500008 0 -0.17119334285363949 0.41366940226894577 0 -0.16085192275254509 0.42420597718500008 0 -0.17119334285363949 0.41366940226894577 0 -0.1558060921739825 0.41026488178479492 0 -0.1558060921739825 0.41026488178479492 0 -0.1418117271851779 0.41525834053060801 0 -0.14204426798620681 0.39509073288381358 0 -0.16085192275254509 0.42420597718500008 0 -0.1558060921739825 0.41026488178479492 0 -0.1418117271851779 0.41525834053060801 0 -0.1418117271851779 0.41525834053060801 0 -0.14157918638415079 0.43542594817740249 0 -0.16085192275254509 0.42420597718500008 0 -0.1418117271851779 0.41525834053060801 0 -0.15486041744653839 0.43233395996053492 0 -0.1418117271851779 0.41525834053060801 0 -0.15486041744653839 0.43233395996053492 0 -0.14157918638415079 0.43542594817740249 0 -0.14155443830058789 0.43757227964732542 0 -0.14157918638415079 0.43542594817740249 0 -0.14155443830058789 0.43757227964732542 0 -0.14157918638415079 0.43542594817740249 0 -0.12025274126089 0.42574105579372712 0 -0.14155443830058789 0.43757227964732542 0 -0.1161249595423428 0.42742254588607831 0 -0.14157918638415079 0.43542594817740249 0 -0.12025274126089 0.42574105579372712 0 -0.1418117271851779 0.41525834053060801 0 -0.14157918638415079 0.43542594817740249 0 -0.12025274126089 0.42574105579372712 0 -0.14155443830058789 0.43757227964732542 0 -0.12025274126089 0.42574105579372712 0 -0.1161249595423428 0.42742254588607831 0 -0.12509104342100061 0.44188941827772182 0 -0.14155443830058789 0.43757227964732542 0 -0.1161249595423428 0.42742254588607831 0 -0.1418117271851779 0.41525834053060801 0 -0.1277268958593005 0.40709158096490278 0 -0.12025274126089 0.42574105579372712 0 -0.1418117271851779 0.41525834053060801 0 -0.1277268958593005 0.40709158096490278 0 -0.14204426798620681 0.39509073288381358 0 -0.1277268958593005 0.40709158096490278 0 -0.14204426798620681 0.39509073288381358 0 -0.1224972888069677 0.39405447109156733 0 -0.13238272395945991 0.37847398983736519 0 -0.1224972888069677 0.39405447109156733 0 -0.13238272395945991 0.37847398983736519 0 -0.14204426798620681 0.39509073288381358 0 -0.1224972888069677 0.39405447109156733 0 -0.13238272395945991 0.37847398983736519 0 -0.1489802686125267 0.38257497248127392 0 -0.14204426798620681 0.39509073288381358 0 -0.1639919076143399 0.3974747808383628 0 -0.1558060921739825 0.41026488178479492 0 -0.14204426798620681 0.39509073288381358 0 -0.1639919076143399 0.3974747808383628 0 -0.1489802686125267 0.38257497248127392 0 -0.14204426798620681 0.39509073288381358 0 -0.1418117271851779 0.41525834053060801 0 -0.14204426798620681 0.39509073288381358 0 -0.15552397359905151 0.35856797270850038 0 -0.1422681591119519 0.36289350858316322 0 -0.15574239997404821 0.34165669361972989 0 -0.1422681591119519 0.36289350858316322 0 -0.15574239997404821 0.34165669361972989 0 -0.13774544015442541 0.3595862213862932 0 -0.1344905665345571 0.34689990383467079 0 -0.15574239997404821 0.34165669361972989 0 -0.1422681591119519 0.36289350858316322 0 -0.13774544015442541 0.3595862213862932 0 -0.15574239997404821 0.34165669361972989 0 -0.1642142843906749 0.3789418502636645 0 -0.1422681591119519 0.36289350858316322 0 -0.13238272395945991 0.37847398983736519 0 -0.1489802686125267 0.38257497248127392 0 -0.1422681591119519 0.36289350858316322 0 -0.1642142843906749 0.3789418502636645 0 -0.1422681591119519 0.36289350858316322 0 -0.15874130784498061 0.37213542046662212 0 -0.1642142843906749 0.3789418502636645 0 -0.1489802686125267 0.38257497248127392 0 -0.1422681591119519 0.36289350858316322 0 -0.15552397359905151 0.35856797270850038 0 -0.1422681591119519 0.36289350858316322 0 -0.15874130784498061 0.37213542046662212 0 -0.1422681591119519 0.36289350858316322 0 -0.13774544015442541 0.3595862213862932 0 -0.12881796099468981 0.36725667352730101 0 -0.13238272395945991 0.37847398983736519 0 -0.12881796099468981 0.36725667352730101 0 -0.114951385737499 0.37611001703161828 0 -0.1422681591119519 0.36289350858316322 0 -0.13774544015442541 0.3595862213862932 0 -0.13238272395945991 0.37847398983736519 0 -0.1422681591119519 0.36289350858316322 0 -0.13238272395945991 0.37847398983736519 0 -0.1422681591119519 0.36289350858316322 0 -0.12881796099468981 0.36725667352730101 0 -0.13774544015442541 0.3595862213862932 0 -0.12881796099468981 0.36725667352730101 0 -0.13085154266849261 0.35745626259395852 0 -0.12881796099468981 0.36725667352730101 0 -0.13085154266849261 0.35745626259395852 0 -0.1223522029902982 0.35608225162756879 0 -0.13085154266849261 0.35745626259395852 0 -0.1344905665345571 0.34689990383467079 0 -0.1223522029902982 0.35608225162756879 0 -0.1344905665345571 0.34689990383467079 0 -0.1215793900664241 0.33965542352680428 0 -0.1223522029902982 0.35608225162756879 0 -0.13774544015442541 0.3595862213862932 0 -0.13085154266849261 0.35745626259395852 0 -0.1344905665345571 0.34689990383467079 0 -0.13871584827508379 0.32805163350527011 0 -0.1213981112161233 0.32606083512094008 0 -0.1215793900664241 0.33965542352680428 0 -0.1344905665345571 0.34689990383467079 0 -0.13871584827508379 0.32805163350527011 0 -0.1215793900664241 0.33965542352680428 0 -0.13871584827508379 0.32805163350527011 0 -0.122665507124936 0.30739316482981133 0 -0.1213981112161233 0.32606083512094008 0 -0.13871584827508379 0.32805163350527011 0 -0.1433184724342442 0.30536206331891741 0 -0.122665507124936 0.30739316482981133 0 -0.13871584827508379 0.32805163350527011 0 -0.1692166408361446 0.32041987865629651 0 -0.1433184724342442 0.30536206331891741 0 -0.1344905665345571 0.34689990383467079 0 -0.13871584827508379 0.32805163350527011 0 -0.15574239997404821 0.34165669361972989 0 -0.13871584827508379 0.32805163350527011 0 -0.15574239997404821 0.34165669361972989 0 -0.1692166408361446 0.32041987865629651 0 -0.15574239997404821 0.34165669361972989 0 -0.16882657531294051 0.33343050367394028 0 -0.16727942812343491 0.34541839291957183 0 -0.16882657531294051 0.33343050367394028 0 -0.1740652221397718 0.31676208059972089 0 -0.17253785706623809 0.33742704001517521 0 -0.15574239997404821 0.34165669361972989 0 -0.1692166408361446 0.32041987865629651 0 -0.15574239997404821 0.34165669361972989 0 -0.16882657531294051 0.33343050367394028 0 -0.1692166408361446 0.32041987865629651 0 -0.17253785706623809 0.33742704001517521 0 -0.17248005025835489 0.34536210115862542 0 -0.16727942812343491 0.34541839291957183 0 -0.16882657531294051 0.33343050367394028 0 -0.17253785706623809 0.33742704001517521 0 -0.16727942812343491 0.34541839291957183 0 -0.16882657531294051 0.33343050367394028 0 -0.1692166408361446 0.32041987865629651 0 -0.1740652221397718 0.31676208059972089 0 -0.18300185264204469 0.32280423575908729 0 -0.1740652221397718 0.31676208059972089 0 -0.17819295282042311 0.34345902717413063 0 -0.18300185264204469 0.32280423575908729 0 -0.1740652221397718 0.31676208059972089 0 -0.18269088169824049 0.29918306369286279 0 -0.18300185264204469 0.32280423575908729 0 -0.17819295282042311 0.34345902717413063 0 -0.18331282358584941 0.34642540782531189 0 -0.1740652221397718 0.31676208059972089 0 -0.17819295282042311 0.34345902717413063 0 -0.1740652221397718 0.31676208059972089 0 -0.17253785706623809 0.33742704001517521 0 -0.17819295282042311 0.34345902717413063 0 -0.18300185264204469 0.32280423575908729 0 -0.18331282358584941 0.34642540782531189 0 -0.17253785706623809 0.33742704001517521 0 -0.17819295282042311 0.34345902717413063 0 -0.17248005025835489 0.34536210115862542 0 -0.17819295282042311 0.34345902717413063 0 -0.17266476351591969 0.35237730914779941 0 -0.18362379452965399 0.37004657989153639 0 -0.17819295282042311 0.34345902717413063 0 -0.18331282358584941 0.34642540782531189 0 -0.18362379452965399 0.37004657989153639 0 -0.17819295282042311 0.34345902717413063 0 -0.18362379452965399 0.37004657989153639 0 -0.18331282358584941 0.34642540782531189 0 -0.18362379452965399 0.37004657989153639 0 -0.19396205315185269 0.35773027909378607 0 -0.18331282358584941 0.34642540782531189 0 -0.18362379452965399 0.37004657989153639 0 -0.17819295282042311 0.34345902717413063 0 -0.17266476351591969 0.35237730914779941 0 -0.17248005025835489 0.34536210115862542 0 -0.17266476351591969 0.35237730914779941 0 -0.16727942812343491 0.34541839291957183 0 -0.16404697378228 0.35342911006401911 0 -0.15552397359905151 0.35856797270850038 0 -0.15574239997404821 0.34165669361972989 0 -0.16404697378228 0.35342911006401911 0 -0.17266476351591969 0.35237730914779941 0 -0.17248005025835489 0.34536210115862542 0 -0.16727942812343491 0.34541839291957183 0 -0.17266476351591969 0.35237730914779941 0 -0.1697011683865553 0.35883091161224728 0 -0.16404697378228 0.35342911006401911 0 -0.1697011683865553 0.35883091161224728 0 -0.16404697378228 0.35342911006401911 0 -0.1633701090946704 0.36372338037626623 0 -0.15552397359905151 0.35856797270850038 0 -0.16404697378228 0.35342911006401911 0 -0.1633701090946704 0.36372338037626623 0 -0.15574239997404821 0.34165669361972989 0 -0.16727942812343491 0.34541839291957183 0 -0.16404697378228 0.35342911006401911 0 -0.15874130784498061 0.37213542046662212 0 -0.18362379452965399 0.37004657989153639 0 -0.15874130784498061 0.37213542046662212 0 -0.1633701090946704 0.36372338037626623 0 -0.18362379452965399 0.37004657989153639 0 -0.15552397359905151 0.35856797270850038 0 -0.15874130784498061 0.37213542046662212 0 -0.1633701090946704 0.36372338037626623 0 -0.17266476351591969 0.35237730914779941 0 -0.1697011683865553 0.35883091161224728 0 -0.18362379452965399 0.37004657989153639 0 -0.1697011683865553 0.35883091161224728 0 -0.1633701090946704 0.36372338037626623 0 -0.18362379452965399 0.37004657989153639 0 -0.1744309637910503 0.37769149803556362 0 -0.15874130784498061 0.37213542046662212 0 -0.18362379452965399 0.37004657989153639 0 -0.18374665136976759 0.37937871402705908 0 -0.18362379452965399 0.37004657989153639 0 -0.1927326532436788 0.38193994064591369 0 -0.18362379452965399 0.37004657989153639 0 -0.20402060209966261 0.36833430411321649 0 -0.18362379452965399 0.37004657989153639 0 -0.20402060209966261 0.36833430411321649 0 -0.18362379452965399 0.37004657989153639 0 -0.19396205315185269 0.35773027909378607 0 -0.20402060209966261 0.36833430411321649 0 -0.19396205315185269 0.35773027909378607 0 -0.208999317395312 0.3446492875548014 0 -0.20402060209966261 0.36833430411321649 0 -0.18331282358584941 0.34642540782531189 0 -0.19396205315185269 0.35773027909378607 0 -0.208999317395312 0.3446492875548014 0 -0.208999317395312 0.3446492875548014 0 -0.20402060209966261 0.36833430411321649 0 -0.22441740966967141 0.36662202833489849 0 -0.20402060209966261 0.36833430411321649 0 -0.22441740966967141 0.36662202833489849 0 -0.21798062289891881 0.38062313327343511 0 -0.20402060209966261 0.36833430411321649 0 -0.22441740966967141 0.36662202833489849 0 -0.208999317395312 0.3446492875548014 0 -0.23479591562654789 0.35148704487088239 0 -0.2313273246892763 0.33558392302215828 0 -0.208999317395312 0.3446492875548014 0 -0.22441740966967141 0.36662202833489849 0 -0.23479591562654789 0.35148704487088239 0 -0.25002058798003007 0.3320526588471332 0 -0.26243222306204511 0.35090504016953772 0 -0.23479591562654789 0.35148704487088239 0 -0.26243222306204511 0.35090504016953772 0 -0.23479591562654789 0.35148704487088239 0 -0.24481421723968019 0.36490975255658048 0 -0.22441740966967141 0.36662202833489849 0 -0.24481421723968019 0.36490975255658048 0 -0.24074374520667241 0.38242687998337299 0 -0.22441740966967141 0.36662202833489849 0 -0.24481421723968019 0.36490975255658048 0 -0.22441740966967141 0.36662202833489849 0 -0.23479591562654789 0.35148704487088239 0 -0.24481421723968019 0.36490975255658048 0 -0.25717133997193298 0.37426095615225607 0 -0.24074374520667241 0.38242687998337299 0 -0.24481421723968019 0.36490975255658048 0 -0.25616918259472732 0.30236015827283808 0 -0.25002058798003007 0.3320526588471332 0 -0.23403114015321011 0.31709209002172778 0 -0.25002058798003007 0.3320526588471332 0 -0.23479591562654789 0.35148704487088239 0 -0.2313273246892763 0.33558392302215828 0 -0.25002058798003007 0.3320526588471332 0 -0.2313273246892763 0.33558392302215828 0 -0.23403114015321011 0.31709209002172778 0 -0.208999317395312 0.3446492875548014 0 -0.2313273246892763 0.33558392302215828 0 -0.21850591254547599 0.32628872173457818 0 -0.23403114015321011 0.31709209002172778 0 -0.21850591254547599 0.32628872173457818 0 -0.21603293622121081 0.30879617143541382 0 -0.2313273246892763 0.33558392302215828 0 -0.23403114015321011 0.31709209002172778 0 -0.21850591254547599 0.32628872173457818 0 -0.21850591254547599 0.32628872173457818 0 -0.20213884426837089 0.32532213663878978 0 -0.21603293622121081 0.30879617143541382 0 -0.20213884426837089 0.32532213663878978 0 -0.19725183072938909 0.30509230858372249 0 -0.21603293622121081 0.30879617143541382 0 -0.208999317395312 0.3446492875548014 0 -0.21850591254547599 0.32628872173457818 0 -0.20213884426837089 0.32532213663878978 0 -0.18331282358584941 0.34642540782531189 0 -0.208999317395312 0.3446492875548014 0 -0.20213884426837089 0.32532213663878978 0 -0.18300185264204469 0.32280423575908729 0 -0.18331282358584941 0.34642540782531189 0 -0.20213884426837089 0.32532213663878978 0 -0.18300185264204469 0.32280423575908729 0 -0.20213884426837089 0.32532213663878978 0 -0.19725183072938909 0.30509230858372249 0 -0.19725183072938909 0.30509230858372249 0 -0.1906964717749009 0.28656541518329992 0 -0.18269088169824049 0.29918306369286279 0 -0.18300185264204469 0.32280423575908729 0 -0.19725183072938909 0.30509230858372249 0 -0.18269088169824049 0.29918306369286279 0 -0.19725183072938909 0.30509230858372249 0 -0.1906964717749009 0.28656541518329992 0 -0.20894999777156681 0.28788282879288141 0 -0.1906964717749009 0.28656541518329992 0 -0.20894999777156681 0.28788282879288141 0 -0.19560748054403571 0.27391850694798181 0 -0.19725183072938909 0.30509230858372249 0 -0.20894999777156681 0.28788282879288141 0 -0.21603293622121081 0.30879617143541382 0 -0.20894999777156681 0.28788282879288141 0 -0.21603293622121081 0.30879617143541382 0 -0.23010937568771669 0.29589673977315029 0 -0.23403114015321011 0.31709209002172778 0 -0.21603293622121081 0.30879617143541382 0 -0.23010937568771669 0.29589673977315029 0 -0.20894999777156681 0.28788282879288141 0 -0.23010937568771669 0.29589673977315029 0 -0.2234747025956966 0.27824585991597089 0 -0.23010937568771669 0.29589673977315029 0 -0.24190471242523851 0.27972751922608308 0 -0.2234747025956966 0.27824585991597089 0 -0.25616918259472732 0.30236015827283808 0 -0.24190471242523851 0.27972751922608308 0 -0.25616918259472732 0.30236015827283808 0 -0.23010937568771669 0.29589673977315029 0 -0.24190471242523851 0.27972751922608308 0 -0.25616918259472732 0.30236015827283808 0 -0.23403114015321011 0.31709209002172778 0 -0.23010937568771669 0.29589673977315029 0 -0.24943129659764751 0.26000894523212309 0 -0.24190471242523851 0.27972751922608308 0 -0.22764024225575111 0.25709488017932702 0 -0.22764024225575111 0.25709488017932702 0 -0.2468893326351202 0.24329134098969171 0 -0.24943129659764751 0.26000894523212309 0 -0.22764024225575111 0.25709488017932702 0 -0.2468893326351202 0.24329134098969171 0 -0.24190471242523851 0.27972751922608308 0 -0.22764024225575111 0.25709488017932702 0 -0.24190471242523851 0.27972751922608308 0 -0.2234747025956966 0.27824585991597089 0 -0.22764024225575111 0.25709488017932702 0 -0.2234747025956966 0.27824585991597089 0 -0.22764024225575111 0.25709488017932702 0 -0.20876918483820989 0.27062733160841262 0 -0.22764024225575111 0.25709488017932702 0 -0.21239874098331929 0.25437807278244762 0 -0.20876918483820989 0.27062733160841262 0 -0.22764024225575111 0.25709488017932702 0 -0.20876918483820989 0.27062733160841262 0 -0.21239874098331929 0.25437807278244762 0 -0.20876918483820989 0.27062733160841262 0 -0.2025020270240801 0.26019521754276942 0 -0.21239874098331929 0.25437807278244762 0 -0.2025020270240801 0.26019521754276942 0 -0.2046840695697589 0.2451395929661444 0 -0.20894999777156681 0.28788282879288141 0 -0.2234747025956966 0.27824585991597089 0 -0.20876918483820989 0.27062733160841262 0 -0.20894999777156681 0.28788282879288141 0 -0.20876918483820989 0.27062733160841262 0 -0.19560748054403571 0.27391850694798181 0 -0.19560748054403571 0.27391850694798181 0 -0.18940688912330481 0.25610334311205268 0 -0.18232207730982461 0.27116889680334472 0 -0.20876918483820989 0.27062733160841262 0 -0.19560748054403571 0.27391850694798181 0 -0.2025020270240801 0.26019521754276942 0 -0.1906964717749009 0.28656541518329992 0 -0.19560748054403571 0.27391850694798181 0 -0.18232207730982461 0.27116889680334472 0 -0.19560748054403571 0.27391850694798181 0 -0.2025020270240801 0.26019521754276942 0 -0.18940688912330481 0.25610334311205268 0 -0.2025020270240801 0.26019521754276942 0 -0.18940688912330481 0.25610334311205268 0 -0.2046840695697589 0.2451395929661444 0 -0.18940688912330481 0.25610334311205268 0 -0.17508206900779469 0.25918785244088571 0 -0.18195408303730121 0.23534357450296481 0 -0.18940688912330481 0.25610334311205268 0 -0.17508206900779469 0.25918785244088571 0 -0.18232207730982461 0.27116889680334472 0 -0.16225317791305921 0.25358582624422438 0 -0.1601147340924314 0.27132493958040771 0 -0.14746997276257359 0.25293699741112718 0 -0.17508206900779469 0.25918785244088571 0 -0.16225317791305921 0.25358582624422438 0 -0.1601147340924314 0.27132493958040771 0 -0.1601147340924314 0.27132493958040771 0 -0.18232207730982461 0.27116889680334472 0 -0.1715163911286523 0.28419500503467149 0 -0.17508206900779469 0.25918785244088571 0 -0.1601147340924314 0.27132493958040771 0 -0.18232207730982461 0.27116889680334472 0 -0.1906964717749009 0.28656541518329992 0 -0.18232207730982461 0.27116889680334472 0 -0.18269088169824049 0.29918306369286279 0 -0.18232207730982461 0.27116889680334472 0 -0.18269088169824049 0.29918306369286279 0 -0.1715163911286523 0.28419500503467149 0 -0.18232207730982461 0.27116889680334472 0 -0.18269088169824049 0.29918306369286279 0 -0.1906964717749009 0.28656541518329992 0 -0.18269088169824049 0.29918306369286279 0 -0.18300185264204469 0.32280423575908729 0 -0.18269088169824049 0.29918306369286279 0 -0.1692166408361446 0.32041987865629651 0 -0.18269088169824049 0.29918306369286279 0 -0.1692166408361446 0.32041987865629651 0 -0.1740652221397718 0.31676208059972089 0 -0.18269088169824049 0.29918306369286279 0 -0.1692166408361446 0.32041987865629651 0 -0.16093787141411231 0.2951031200620709 0 -0.1433184724342442 0.30536206331891741 0 -0.1692166408361446 0.32041987865629651 0 -0.18269088169824049 0.29918306369286279 0 -0.16093787141411231 0.2951031200620709 0 -0.18269088169824049 0.29918306369286279 0 -0.1715163911286523 0.28419500503467149 0 -0.16093787141411231 0.2951031200620709 0 -0.1601147340924314 0.27132493958040771 0 -0.1715163911286523 0.28419500503467149 0 -0.16093787141411231 0.2951031200620709 0 -0.1601147340924314 0.27132493958040771 0 -0.16093787141411231 0.2951031200620709 0 -0.140940242444347 0.28770890845956881 0 -0.16093787141411231 0.2951031200620709 0 -0.140940242444347 0.28770890845956881 0 -0.16093787141411231 0.2951031200620709 0 -0.140940242444347 0.28770890845956881 0 -0.1433184724342442 0.30536206331891741 0 -0.1433184724342442 0.30536206331891741 0 -0.12743472451084159 0.29349567440048657 0 -0.122665507124936 0.30739316482981133 0 -0.140940242444347 0.28770890845956881 0 -0.1433184724342442 0.30536206331891741 0 -0.12743472451084159 0.29349567440048657 0 -0.140940242444347 0.28770890845956881 0 -0.1209426134745812 0.28031469685706822 0 -0.140940242444347 0.28770890845956881 0 -0.12743472451084159 0.29349567440048657 0 -0.1209426134745812 0.28031469685706822 0 -0.140940242444347 0.28770890845956881 0 -0.12748957136376979 0.2697364722205553 0 -0.1209426134745812 0.28031469685706822 0 -0.140940242444347 0.28770890845956881 0 -0.1385418352730507 0.26582091200169278 0 -0.12748957136376979 0.2697364722205553 0 -0.1385418352730507 0.26582091200169278 0 -0.1252623291810667 0.25912953992318971 0 -0.13357218109292621 0.2499317644564327 0 -0.1385418352730507 0.26582091200169278 0 -0.14746997276257359 0.25293699741112718 0 -0.13357218109292621 0.2499317644564327 0 -0.1385418352730507 0.26582091200169278 0 -0.12748957136376979 0.2697364722205553 0 -0.1252623291810667 0.25912953992318971 0 -0.1252623291810667 0.25912953992318971 0 -0.13357218109292621 0.2499317644564327 0 -0.1213089330464012 0.24626659804535689 0 -0.1601147340924314 0.27132493958040771 0 -0.1385418352730507 0.26582091200169278 0 -0.14746997276257359 0.25293699741112718 0 -0.1601147340924314 0.27132493958040771 0 -0.140940242444347 0.28770890845956881 0 -0.1385418352730507 0.26582091200169278 0 -0.095230237001734636 0.27080743213428882 0 -0.101831548476812 0.26048951589785008 0 -0.1165241005361865 0.26558405137515151 0 -0.095230237001734636 0.27080743213428882 0 -0.1209426134745812 0.28031469685706822 0 -0.095230237001734636 0.27080743213428882 0 -0.101831548476812 0.26048951589785008 0 -0.101831548476812 0.26048951589785008 0 -0.112097455783086 0.24444379951602521 0 -0.096974545082976191 0.25880538532589209 0 -0.101831548476812 0.26048951589785008 0 -0.112097455783086 0.24444379951602521 0 -0.095230237001734636 0.27080743213428882 0 -0.096974545082976191 0.25880538532589209 0 -0.101831548476812 0.26048951589785008 0 -0.096974545082976191 0.25880538532589209 0 -0.101831548476812 0.26048951589785008 0 -0.101831548476812 0.26048951589785008 0 -0.1165241005361865 0.26558405137515151 0 -0.101831548476812 0.26048951589785008 0 -0.11521273165378559 0.25497892835963998 0 -0.112097455783086 0.24444379951602521 0 -0.101831548476812 0.26048951589785008 0 -0.1165241005361865 0.26558405137515151 0 -0.11521273165378559 0.25497892835963998 0 -0.1252623291810667 0.25912953992318971 0 -0.11521273165378559 0.25497892835963998 0 -0.1213089330464012 0.24626659804535689 0 -0.12748957136376979 0.2697364722205553 0 -0.1252623291810667 0.25912953992318971 0 -0.1165241005361865 0.26558405137515151 0 -0.1252623291810667 0.25912953992318971 0 -0.1165241005361865 0.26558405137515151 0 -0.11521273165378559 0.25497892835963998 0 -0.12748957136376979 0.2697364722205553 0 -0.1165241005361865 0.26558405137515151 0 -0.11826192468166601 0.27279143104315778 0 -0.095230237001734636 0.27080743213428882 0 -0.1165241005361865 0.26558405137515151 0 -0.11826192468166601 0.27279143104315778 0 -0.095230237001734636 0.27080743213428882 0 -0.11826192468166601 0.27279143104315778 0 -0.1209426134745812 0.28031469685706822 0 -0.12748957136376979 0.2697364722205553 0 -0.11826192468166601 0.27279143104315778 0 -0.1209426134745812 0.28031469685706822 0 -0.1209426134745812 0.28031469685706822 0 -0.099156256926613839 0.29556062278638268 0 -0.12743472451084159 0.29349567440048657 0 -0.1209426134745812 0.28031469685706822 0 -0.099156256926613839 0.29556062278638268 0 -0.12743472451084159 0.29349567440048657 0 -0.122665507124936 0.30739316482981133 0 -0.099156256926613839 0.29556062278638268 0 -0.1041414057358224 0.31201579539373148 0 -0.099156256926613839 0.29556062278638268 0 -0.091673901452025128 0.31746800270450398 0 -0.122665507124936 0.30739316482981133 0 -0.1041414057358224 0.31201579539373148 0 -0.099156256926613839 0.29556062278638268 0 -0.095230237001734636 0.27080743213428882 0 -0.1209426134745812 0.28031469685706822 0 -0.099156256926613839 0.29556062278638268 0 -0.081993310338176556 0.29149688165626692 0 -0.071574905525993715 0.28647654560898889 0 -0.088307373389434785 0.26824767274871397 0 -0.095230237001734636 0.27080743213428882 0 -0.099156256926613839 0.29556062278638268 0 -0.081993310338176556 0.29149688165626692 0 -0.099156256926613839 0.29556062278638268 0 -0.0773699003786468 0.31080654871569757 0 -0.091673901452025128 0.31746800270450398 0 -0.099156256926613839 0.29556062278638268 0 -0.0773699003786468 0.31080654871569757 0 -0.081993310338176556 0.29149688165626692 0 -0.0773699003786468 0.31080654871569757 0 -0.099156256926613839 0.29556062278638268 0 -0.081993310338176556 0.29149688165626692 0 -0.0773699003786468 0.31080654871569757 0 -0.081993310338176556 0.29149688165626692 0 -0.0773699003786468 0.31080654871569757 0 -0.07000108740115632 0.31024084673351238 0 -0.081993310338176556 0.29149688165626692 0 -0.07000108740115632 0.31024084673351238 0 -0.07082691849754412 0.29686868922251758 0 -0.081993310338176556 0.29149688165626692 0 -0.07000108740115632 0.31024084673351238 0 -0.06406362287003417 0.30105685935529619 0 -0.07000108740115632 0.31024084673351238 0 -0.07082691849754412 0.29686868922251758 0 -0.06406362287003417 0.30105685935529619 0 -0.07000108740115632 0.31024084673351238 0 -0.05903493703298672 0.30842013861035528 0 -0.081993310338176556 0.29149688165626692 0 -0.071574905525993715 0.28647654560898889 0 -0.07082691849754412 0.29686868922251758 0 -0.071574905525993715 0.28647654560898889 0 -0.07082691849754412 0.29686868922251758 0 -0.064150197611200194 0.29028153745804169 0 -0.06406362287003417 0.30105685935529619 0 -0.07082691849754412 0.29686868922251758 0 -0.064150197611200194 0.29028153745804169 0 -0.071574905525993715 0.28647654560898889 0 -0.064150197611200194 0.29028153745804169 0 -0.066272470786091969 0.27951596978905408 0 -0.066272470786091969 0.27951596978905408 0 -0.064867048676514966 0.26815492676469338 0 -0.075116873927680253 0.27479103085629453 0 -0.066272470786091969 0.27951596978905408 0 -0.064867048676514966 0.26815492676469338 0 -0.056753075498150757 0.28085207326825551 0 -0.064867048676514966 0.26815492676469338 0 -0.075116873927680253 0.27479103085629453 0 -0.074399806026204385 0.26466482186588819 0 -0.075116873927680253 0.27479103085629453 0 -0.079975847673146208 0.26885948770409202 0 -0.074399806026204385 0.26466482186588819 0 -0.071574905525993715 0.28647654560898889 0 -0.066272470786091969 0.27951596978905408 0 -0.075116873927680253 0.27479103085629453 0 -0.095230237001734636 0.27080743213428882 0 -0.081993310338176556 0.29149688165626692 0 -0.095230237001734636 0.27080743213428882 0 -0.081993310338176556 0.29149688165626692 0 -0.088307373389434785 0.26824767274871397 0 -0.071574905525993715 0.28647654560898889 0 -0.088307373389434785 0.26824767274871397 0 -0.071574905525993715 0.28647654560898889 0 -0.075116873927680253 0.27479103085629453 0 -0.088307373389434785 0.26824767274871397 0 -0.079975847673146208 0.26885948770409202 0 -0.084329260359261832 0.26677674789216088 0 -0.074399806026204385 0.26466482186588819 0 -0.075116873927680253 0.27479103085629453 0 -0.079975847673146208 0.26885948770409202 0 -0.088307373389434785 0.26824767274871397 0 -0.079975847673146208 0.26885948770409202 0 -0.084329260359261832 0.26677674789216088 0 -0.088307373389434785 0.26824767274871397 0 -0.095230237001734636 0.27080743213428882 0 -0.096974545082976191 0.25880538532589209 0 -0.088307373389434785 0.26824767274871397 0 -0.084329260359261832 0.26677674789216088 0 -0.088307373389434785 0.26824767274871397 0 -0.095230237001734636 0.27080743213428882 0 -0.088307373389434785 0.26824767274871397 0 -0.096974545082976191 0.25880538532589209 0 -0.073553522625709841 0.25068431627396631 0 -0.088715331182393942 0.2449718195011524 0 -0.096974545082976191 0.25880538532589209 0 -0.084329260359261832 0.26677674789216088 0 -0.073553522625709841 0.25068431627396631 0 -0.096974545082976191 0.25880538532589209 0 -0.073553522625709841 0.25068431627396631 0 -0.096974545082976191 0.25880538532589209 0 -0.088307373389434785 0.26824767274871397 0 -0.096974545082976191 0.25880538532589209 0 -0.084329260359261832 0.26677674789216088 0 -0.088307373389434785 0.26824767274871397 0 -0.084329260359261832 0.26677674789216088 0 -0.073553522625709841 0.25068431627396631 0 -0.074399806026204385 0.26466482186588819 0 -0.064867048676514966 0.26815492676469338 0 -0.073553522625709841 0.25068431627396631 0 -0.050450936449665702 0.26047062327699849 0 -0.064867048676514966 0.26815492676469338 0 -0.073553522625709841 0.25068431627396631 0 -0.074399806026204385 0.26466482186588819 0 -0.073553522625709841 0.25068431627396631 0 -0.050450936449665702 0.26047062327699849 0 -0.050132500168443887 0.2425632472220397 0 -0.064867048676514966 0.26815492676469338 0 -0.050450936449665702 0.26047062327699849 0 -0.056753075498150757 0.28085207326825551 0 -0.050450936449665702 0.26047062327699849 0 -0.056753075498150757 0.28085207326825551 0 -0.041567118232982071 0.28155035039042642 0 -0.050450936449665702 0.26047062327699849 0 -0.032664289439585513 0.26886008103247921 0 -0.041567118232982071 0.28155035039042642 0 -0.032664289439585513 0.26886008103247921 0 -0.025724023578003428 0.28484302527062832 0 -0.041567118232982071 0.28155035039042642 0 -0.050450936449665702 0.26047062327699849 0 -0.032664289439585513 0.26886008103247921 0 -0.029881977245259539 0.25372898958001938 0 -0.050450936449665702 0.26047062327699849 0 -0.029881977245259539 0.25372898958001938 0 -0.050132500168443887 0.2425632472220397 0 -0.029881977245259539 0.25372898958001938 0 -0.019473314891880141 0.26767922737850353 0 -0.0082457657602449386 0.25246627485226031 0 -0.032664289439585513 0.26886008103247921 0 -0.029881977245259539 0.25372898958001938 0 -0.019473314891880141 0.26767922737850353 0 -0.019473314891880141 0.26767922737850353 0 -0.0042610585373493576 0.2771562680236046 0 -0.025724023578003428 0.28484302527062832 0 -0.032664289439585513 0.26886008103247921 0 -0.019473314891880141 0.26767922737850353 0 -0.025724023578003428 0.28484302527062832 0 -0.019473314891880141 0.26767922737850353 0 -0.0042610585373493576 0.2771562680236046 0 -0.0082457657602449386 0.25246627485226031 0 -0.0042610585373493576 0.2771562680236046 0 -0.0082457657602449386 0.25246627485226031 0 0.0071094060709509964 0.26564087220093879 0 -0.0069555348311276686 0.31079851600377723 0 -0.00058836015198596755 0.32088344941533808 0 0.0054341821912287152 0.30403492879740468 0 -0.013098506886936411 0.29875518722530359 0 -0.0069555348311276686 0.31079851600377723 0 0.0054341821912287152 0.30403492879740468 0 -0.013098506886936411 0.29875518722530359 0 -0.0069555348311276686 0.31079851600377723 0 -0.020687787070248039 0.31403805852116051 0 -0.0042610585373493576 0.2771562680236046 0 -0.013098506886936411 0.29875518722530359 0 -0.025724023578003428 0.28484302527062832 0 -0.0042610585373493576 0.2771562680236046 0 -0.013098506886936411 0.29875518722530359 0 0.0054341821912287152 0.30403492879740468 0 -0.013098506886936411 0.29875518722530359 0 -0.025724023578003428 0.28484302527062832 0 -0.02904570801181227 0.30414560716861699 0 -0.013098506886936411 0.29875518722530359 0 -0.02904570801181227 0.30414560716861699 0 -0.020687787070248039 0.31403805852116051 0 -0.02904570801181227 0.30414560716861699 0 -0.034308890996313193 0.31619803717231232 0 -0.020687787070248039 0.31403805852116051 0 -0.02904570801181227 0.30414560716861699 0 -0.04581664775108537 0.30961879620062571 0 -0.039958169045478269 0.29575445567546388 0 -0.02904570801181227 0.30414560716861699 0 -0.04581664775108537 0.30961879620062571 0 -0.034308890996313193 0.31619803717231232 0 -0.025724023578003428 0.28484302527062832 0 -0.02904570801181227 0.30414560716861699 0 -0.039958169045478269 0.29575445567546388 0 -0.025724023578003428 0.28484302527062832 0 -0.039958169045478269 0.29575445567546388 0 -0.041567118232982071 0.28155035039042642 0 -0.039958169045478269 0.29575445567546388 0 -0.041567118232982071 0.28155035039042642 0 -0.055410192489386563 0.29691908750413831 0 -0.056753075498150757 0.28085207326825551 0 -0.041567118232982071 0.28155035039042642 0 -0.055410192489386563 0.29691908750413831 0 -0.064150197611200194 0.29028153745804169 0 -0.056753075498150757 0.28085207326825551 0 -0.055410192489386563 0.29691908750413831 0 -0.06406362287003417 0.30105685935529619 0 -0.064150197611200194 0.29028153745804169 0 -0.055410192489386563 0.29691908750413831 0 -0.064150197611200194 0.29028153745804169 0 -0.066272470786091969 0.27951596978905408 0 -0.056753075498150757 0.28085207326825551 0 -0.04581664775108537 0.30961879620062571 0 -0.055410192489386563 0.29691908750413831 0 -0.05903493703298672 0.30842013861035528 0 -0.04581664775108537 0.30961879620062571 0 -0.039958169045478269 0.29575445567546388 0 -0.055410192489386563 0.29691908750413831 0 -0.06406362287003417 0.30105685935529619 0 -0.055410192489386563 0.29691908750413831 0 -0.05903493703298672 0.30842013861035528 0 -0.04581664775108537 0.30961879620062571 0 -0.05999398685661865 0.32296608029812152 0 -0.042756171354298787 0.3224483405388896 0 -0.05999398685661865 0.32296608029812152 0 -0.04261807333459134 0.33512561188054663 0 -0.042756171354298787 0.3224483405388896 0 -0.04581664775108537 0.30961879620062571 0 -0.05903493703298672 0.30842013861035528 0 -0.05999398685661865 0.32296608029812152 0 -0.05999398685661865 0.32296608029812152 0 -0.056804034856699187 0.33429177223338907 0 -0.04261807333459134 0.33512561188054663 0 -0.056804034856699187 0.33429177223338907 0 -0.046192251460743447 0.34598703554363702 0 -0.071259793987160716 0.33632540193228971 0 -0.046192251460743447 0.34598703554363702 0 -0.071259793987160716 0.33632540193228971 0 -0.05999398685661865 0.32296608029812152 0 -0.04261807333459134 0.33512561188054663 0 -0.05999398685661865 0.32296608029812152 0 -0.056804034856699187 0.33429177223338907 0 -0.064831017760781137 0.32924814232959693 0 -0.056804034856699187 0.33429177223338907 0 -0.04261807333459134 0.33512561188054663 0 -0.046192251460743447 0.34598703554363702 0 -0.04261807333459134 0.33512561188054663 0 -0.034276320251641283 0.34282206612864702 0 -0.046192251460743447 0.34598703554363702 0 -0.04261807333459134 0.33512561188054663 0 -0.034276320251641283 0.34282206612864702 0 -0.031043257832885369 0.32833317714284199 0 -0.04261807333459134 0.33512561188054663 0 -0.042756171354298787 0.3224483405388896 0 -0.031043257832885369 0.32833317714284199 0 -0.04581664775108537 0.30961879620062571 0 -0.042756171354298787 0.3224483405388896 0 -0.034308890996313193 0.31619803717231232 0 -0.042756171354298787 0.3224483405388896 0 -0.034308890996313193 0.31619803717231232 0 -0.031043257832885369 0.32833317714284199 0 -0.020687787070248039 0.31403805852116051 0 -0.031043257832885369 0.32833317714284199 0 -0.01426308592107553 0.32709781564023149 0 -0.034308890996313193 0.31619803717231232 0 -0.020687787070248039 0.31403805852116051 0 -0.031043257832885369 0.32833317714284199 0 -0.025032962324117471 0.33875149869244531 0 -0.01426308592107553 0.32709781564023149 0 -0.014716180493599089 0.34442071988127893 0 -0.031043257832885369 0.32833317714284199 0 -0.025032962324117471 0.33875149869244531 0 -0.01426308592107553 0.32709781564023149 0 -0.034276320251641283 0.34282206612864702 0 -0.025032962324117471 0.33875149869244531 0 -0.023787543000920942 0.34541073846433867 0 -0.034276320251641283 0.34282206612864702 0 -0.031043257832885369 0.32833317714284199 0 -0.025032962324117471 0.33875149869244531 0 -0.025032962324117471 0.33875149869244531 0 -0.014716180493599089 0.34442071988127893 0 -0.023787543000920942 0.34541073846433867 0 -0.0025616559074486049 0.3329031852911295 0 -0.01426308592107553 0.32709781564023149 0 -0.014716180493599089 0.34442071988127893 0 -0.0025616559074486049 0.3329031852911295 0 -0.002583240235104544 0.34489224502179239 0 -0.014716180493599089 0.34442071988127893 0 -0.0069555348311276686 0.31079851600377723 0 -0.020687787070248039 0.31403805852116051 0 -0.01426308592107553 0.32709781564023149 0 -0.0025616559074486049 0.3329031852911295 0 -0.00058836015198596755 0.32088344941533808 0 -0.01426308592107553 0.32709781564023149 0 -0.0069555348311276686 0.31079851600377723 0 -0.00058836015198596755 0.32088344941533808 0 -0.01426308592107553 0.32709781564023149 0 -0.012102714267097759 0.36590539057294968 0 -0.001064505034491721 0.37161458349227261 0 0.0039428335920915006 0.36531030276633031 0 -0.021124708934325921 0.35564866915498361 0 0.0039428335920915006 0.36531030276633031 0 -0.001064505034491721 0.37161458349227261 0 -0.017677659244944521 0.37122807787390621 0 -0.017803283764421592 0.37921609746689411 0 -0.012102714267097759 0.36590539057294968 0 -0.001064505034491721 0.37161458349227261 0 -0.017677659244944521 0.37122807787390621 0 -0.012102714267097759 0.36590539057294968 0 -0.021124708934325921 0.35564866915498361 0 0.0039428335920915006 0.36531030276633031 0 -0.0064988099748367559 0.35299106404641623 0 -0.021124708934325921 0.35564866915498361 0 0.0039428335920915006 0.36531030276633031 0 -0.0064988099748367559 0.35299106404641623 0 -0.002583240235104544 0.34489224502179239 0 0.0032447233134405931 0.35422125060834359 0 -0.0064988099748367559 0.35299106404641623 0 -0.002583240235104544 0.34489224502179239 0 -0.014716180493599089 0.34442071988127893 0 -0.0064988099748367559 0.35299106404641623 0 -0.014716180493599089 0.34442071988127893 0 -0.021124708934325921 0.35564866915498361 0 -0.021124708934325921 0.35564866915498361 0 -0.03312405361854439 0.36059385714354403 0 -0.039104805720823227 0.35618275869992938 0 -0.014716180493599089 0.34442071988127893 0 -0.021124708934325921 0.35564866915498361 0 -0.023787543000920942 0.34541073846433867 0 -0.034276320251641283 0.34282206612864702 0 -0.021124708934325921 0.35564866915498361 0 -0.023787543000920942 0.34541073846433867 0 -0.021124708934325921 0.35564866915498361 0 -0.0246585823330631 0.36616539344166837 0 -0.03312405361854439 0.36059385714354403 0 -0.0246585823330631 0.36616539344166837 0 -0.033447590357386023 0.36570071259042941 0 -0.03312405361854439 0.36059385714354403 0 -0.012102714267097759 0.36590539057294968 0 -0.021124708934325921 0.35564866915498361 0 -0.0246585823330631 0.36616539344166837 0 -0.017677659244944521 0.37122807787390621 0 -0.032897312064139907 0.37411907212457252 0 -0.017803283764421592 0.37921609746689411 0 -0.012102714267097759 0.36590539057294968 0 -0.0246585823330631 0.36616539344166837 0 -0.017677659244944521 0.37122807787390621 0 -0.0246585823330631 0.36616539344166837 0 -0.017677659244944521 0.37122807787390621 0 -0.032897312064139907 0.37411907212457252 0 -0.0246585823330631 0.36616539344166837 0 -0.032897312064139907 0.37411907212457252 0 -0.0246585823330631 0.36616539344166837 0 -0.032897312064139907 0.37411907212457252 0 -0.033447590357386023 0.36570071259042941 0 -0.032897312064139907 0.37411907212457252 0 -0.059723517795068168 0.36506026769318489 0 -0.032897312064139907 0.37411907212457252 0 -0.033447590357386023 0.36570071259042941 0 -0.04311041341379776 0.36192452765193173 0 -0.032897312064139907 0.37411907212457252 0 -0.046925961112427347 0.36446589286881009 0 -0.059723517795068168 0.36506026769318489 0 -0.032897312064139907 0.37411907212457252 0 -0.049098878804771373 0.3725140996878949 0 -0.043775979817191349 0.37615739516056462 0 -0.03312405361854439 0.36059385714354403 0 -0.04311041341379776 0.36192452765193173 0 -0.039104805720823227 0.35618275869992938 0 -0.033447590357386023 0.36570071259042941 0 -0.03312405361854439 0.36059385714354403 0 -0.04311041341379776 0.36192452765193173 0 -0.032897312064139907 0.37411907212457252 0 -0.04311041341379776 0.36192452765193173 0 -0.046925961112427347 0.36446589286881009 0 -0.034276320251641283 0.34282206612864702 0 -0.021124708934325921 0.35564866915498361 0 -0.046192251460743447 0.34598703554363702 0 -0.021124708934325921 0.35564866915498361 0 -0.039104805720823227 0.35618275869992938 0 -0.046192251460743447 0.34598703554363702 0 -0.021124708934325921 0.35564866915498361 0 -0.046192251460743447 0.34598703554363702 0 -0.039104805720823227 0.35618275869992938 0 -0.046192251460743447 0.34598703554363702 0 -0.051972601176704672 0.35675970400555063 0 -0.04311041341379776 0.36192452765193173 0 -0.039104805720823227 0.35618275869992938 0 -0.051972601176704672 0.35675970400555063 0 -0.046192251460743447 0.34598703554363702 0 -0.066911938965716039 0.35448421406914471 0 -0.071259793987160716 0.33632540193228971 0 -0.046192251460743447 0.34598703554363702 0 -0.051972601176704672 0.35675970400555063 0 -0.066911938965716039 0.35448421406914471 0 -0.051972601176704672 0.35675970400555063 0 -0.059723517795068168 0.36506026769318489 0 -0.066911938965716039 0.35448421406914471 0 -0.032897312064139907 0.37411907212457252 0 -0.049098878804771373 0.3725140996878949 0 -0.059723517795068168 0.36506026769318489 0 -0.049098878804771373 0.3725140996878949 0 -0.056089193364373929 0.37273715424054699 0 -0.050724207312953518 0.37700173675436199 0 -0.051972601176704672 0.35675970400555063 0 -0.046925961112427347 0.36446589286881009 0 -0.059723517795068168 0.36506026769318489 0 -0.04311041341379776 0.36192452765193173 0 -0.051972601176704672 0.35675970400555063 0 -0.046925961112427347 0.36446589286881009 0 -0.049098878804771373 0.3725140996878949 0 -0.059723517795068168 0.36506026769318489 0 -0.056089193364373929 0.37273715424054699 0 -0.059723517795068168 0.36506026769318489 0 -0.056089193364373929 0.37273715424054699 0 -0.062564083944274151 0.37264302620600032 0 -0.062075486208271788 0.37468365416042188 0 -0.062564083944274151 0.37264302620600032 0 -0.062075486208271788 0.37468365416042188 0 -0.062564083944274151 0.37264302620600032 0 -0.064607287490063475 0.3752877934920828 0 -0.069626031180744216 0.37451783031500979 0 -0.079039419043354958 0.3748493973737258 0 -0.082597891671162132 0.35089307241393791 0 -0.062564083944274151 0.37264302620600032 0 -0.066911938965716039 0.35448421406914471 0 -0.062564083944274151 0.37264302620600032 0 -0.069626031180744216 0.37451783031500979 0 -0.064607287490063475 0.3752877934920828 0 -0.062564083944274151 0.37264302620600032 0 -0.069626031180744216 0.37451783031500979 0 -0.082597891671162132 0.35089307241393791 0 -0.062564083944274151 0.37264302620600032 0 -0.082597891671162132 0.35089307241393791 0 -0.059723517795068168 0.36506026769318489 0 -0.062564083944274151 0.37264302620600032 0 -0.066911938965716039 0.35448421406914471 0 -0.090941745129797052 0.36956363188929697 0 -0.082597891671162132 0.35089307241393791 0 -0.097939085056313616 0.35825468271447503 0 -0.079039419043354958 0.3748493973737258 0 -0.090941745129797052 0.36956363188929697 0 -0.082597891671162132 0.35089307241393791 0 -0.082597891671162132 0.35089307241393791 0 -0.097939085056313616 0.35825468271447503 0 -0.099795521962392192 0.34663223796478099 0 -0.066911938965716039 0.35448421406914471 0 -0.071259793987160716 0.33632540193228971 0 -0.082597891671162132 0.35089307241393791 0 -0.066911938965716039 0.35448421406914471 0 -0.079003984513522238 0.34200566120660753 0 -0.066911938965716039 0.35448421406914471 0 -0.071259793987160716 0.33632540193228971 0 -0.079003984513522238 0.34200566120660753 0 -0.062564083944274151 0.37264302620600032 0 -0.082597891671162132 0.35089307241393791 0 -0.066911938965716039 0.35448421406914471 0 -0.056804034856699187 0.33429177223338907 0 -0.064831017760781137 0.32924814232959693 0 -0.071259793987160716 0.33632540193228971 0 -0.071259793987160716 0.33632540193228971 0 -0.079659291821908368 0.33308803351003258 0 -0.071259793987160716 0.33632540193228971 0 -0.079003984513522238 0.34200566120660753 0 -0.079659291821908368 0.33308803351003258 0 -0.0773699003786468 0.31080654871569757 0 -0.07000108740115632 0.31024084673351238 0 -0.05999398685661865 0.32296608029812152 0 -0.0773699003786468 0.31080654871569757 0 -0.071259793987160716 0.33632540193228971 0 -0.0773699003786468 0.31080654871569757 0 -0.071259793987160716 0.33632540193228971 0 -0.079659291821908368 0.33308803351003258 0 -0.0773699003786468 0.31080654871569757 0 -0.05999398685661865 0.32296608029812152 0 -0.0773699003786468 0.31080654871569757 0 -0.064831017760781137 0.32924814232959693 0 -0.071259793987160716 0.33632540193228971 0 -0.0773699003786468 0.31080654871569757 0 -0.05999398685661865 0.32296608029812152 0 -0.064831017760781137 0.32924814232959693 0 -0.07000108740115632 0.31024084673351238 0 -0.05903493703298672 0.30842013861035528 0 -0.05999398685661865 0.32296608029812152 0 -0.091673901452025128 0.31746800270450398 0 -0.079659291821908368 0.33308803351003258 0 -0.1026316993980491 0.32914311862187462 0 -0.0773699003786468 0.31080654871569757 0 -0.091673901452025128 0.31746800270450398 0 -0.079659291821908368 0.33308803351003258 0 -0.082597891671162132 0.35089307241393791 0 -0.1026316993980491 0.32914311862187462 0 -0.082597891671162132 0.35089307241393791 0 -0.079003984513522238 0.34200566120660753 0 -0.1026316993980491 0.32914311862187462 0 -0.079003984513522238 0.34200566120660753 0 -0.079659291821908368 0.33308803351003258 0 -0.1026316993980491 0.32914311862187462 0 -0.082597891671162132 0.35089307241393791 0 -0.1026316993980491 0.32914311862187462 0 -0.099795521962392192 0.34663223796478099 0 -0.1026316993980491 0.32914311862187462 0 -0.11309959964963499 0.35023802862820708 0 -0.099795521962392192 0.34663223796478099 0 -0.1041414057358224 0.31201579539373148 0 -0.091673901452025128 0.31746800270450398 0 -0.1026316993980491 0.32914311862187462 0 -0.122665507124936 0.30739316482981133 0 -0.1041414057358224 0.31201579539373148 0 -0.1026316993980491 0.32914311862187462 0 -0.122665507124936 0.30739316482981133 0 -0.1026316993980491 0.32914311862187462 0 -0.1213981112161233 0.32606083512094008 0 -0.122665507124936 0.30739316482981133 0 -0.1026316993980491 0.32914311862187462 0 -0.1026316993980491 0.32914311862187462 0 -0.1215793900664241 0.33965542352680428 0 -0.11309959964963499 0.35023802862820708 0 -0.1026316993980491 0.32914311862187462 0 -0.1213981112161233 0.32606083512094008 0 -0.1215793900664241 0.33965542352680428 0 -0.1215793900664241 0.33965542352680428 0 -0.11309959964963499 0.35023802862820708 0 -0.1223522029902982 0.35608225162756879 0 -0.11309959964963499 0.35023802862820708 0 -0.1223522029902982 0.35608225162756879 0 -0.1091573093543224 0.361674516205302 0 -0.12881796099468981 0.36725667352730101 0 -0.1223522029902982 0.35608225162756879 0 -0.11881971476920231 0.36528086459794751 0 -0.12881796099468981 0.36725667352730101 0 -0.11881971476920231 0.36528086459794751 0 -0.114951385737499 0.37611001703161828 0 -0.11881971476920231 0.36528086459794751 0 -0.1091573093543224 0.361674516205302 0 -0.114951385737499 0.37611001703161828 0 -0.1223522029902982 0.35608225162756879 0 -0.11881971476920231 0.36528086459794751 0 -0.1091573093543224 0.361674516205302 0 -0.1091573093543224 0.361674516205302 0 -0.1012990589455684 0.36953412384373102 0 -0.097939085056313616 0.35825468271447503 0 -0.1091573093543224 0.361674516205302 0 -0.1012990589455684 0.36953412384373102 0 -0.114951385737499 0.37611001703161828 0 -0.090941745129797052 0.36956363188929697 0 -0.1012990589455684 0.36953412384373102 0 -0.098890550417286477 0.38099249480062602 0 -0.090941745129797052 0.36956363188929697 0 -0.1012990589455684 0.36953412384373102 0 -0.097939085056313616 0.35825468271447503 0 -0.11309959964963499 0.35023802862820708 0 -0.097939085056313616 0.35825468271447503 0 -0.099795521962392192 0.34663223796478099 0 -0.11309959964963499 0.35023802862820708 0 -0.1091573093543224 0.361674516205302 0 -0.097939085056313616 0.35825468271447503 0 -0.094424665366596924 0.39634464281418252 0 -0.11202845405726 0.40531330452479791 0 -0.098926296137628822 0.41605616341005208 0 -0.1085605322944487 0.39079571404043828 0 -0.094424665366596924 0.39634464281418252 0 -0.11202845405726 0.40531330452479791 0 -0.1085605322944487 0.39079571404043828 0 -0.098890550417286477 0.38099249480062602 0 -0.114951385737499 0.37611001703161828 0 -0.1085605322944487 0.39079571404043828 0 -0.094424665366596924 0.39634464281418252 0 -0.098890550417286477 0.38099249480062602 0 -0.1012990589455684 0.36953412384373102 0 -0.098890550417286477 0.38099249480062602 0 -0.114951385737499 0.37611001703161828 0 -0.1085605322944487 0.39079571404043828 0 -0.114951385737499 0.37611001703161828 0 -0.1224972888069677 0.39405447109156733 0 -0.13238272395945991 0.37847398983736519 0 -0.114951385737499 0.37611001703161828 0 -0.1224972888069677 0.39405447109156733 0 -0.1277268958593005 0.40709158096490278 0 -0.1224972888069677 0.39405447109156733 0 -0.11202845405726 0.40531330452479791 0 -0.1085605322944487 0.39079571404043828 0 -0.1224972888069677 0.39405447109156733 0 -0.11202845405726 0.40531330452479791 0 -0.11202845405726 0.40531330452479791 0 -0.12025274126089 0.42574105579372712 0 -0.098926296137628822 0.41605616341005208 0 -0.12025274126089 0.42574105579372712 0 -0.098926296137628822 0.41605616341005208 0 -0.1277268958593005 0.40709158096490278 0 -0.11202845405726 0.40531330452479791 0 -0.12025274126089 0.42574105579372712 0 -0.12025274126089 0.42574105579372712 0 -0.1161249595423428 0.42742254588607831 0 -0.098926296137628822 0.41605616341005208 0 -0.12509104342100061 0.44188941827772182 0 -0.1161249595423428 0.42742254588607831 0 -0.098677616465060528 0.43762344985591101 0 -0.1161249595423428 0.42742254588607831 0 -0.090695480784097504 0.41727281212483158 0 -0.1161249595423428 0.42742254588607831 0 -0.090695480784097504 0.41727281212483158 0 -0.098677616465060528 0.43762344985591101 0 -0.1161249595423428 0.42742254588607831 0 -0.098926296137628822 0.41605616341005208 0 -0.090695480784097504 0.41727281212483158 0 -0.098926296137628822 0.41605616341005208 0 -0.077599851014367602 0.40637127102637732 0 -0.094424665366596924 0.39634464281418252 0 -0.098926296137628822 0.41605616341005208 0 -0.077599851014367602 0.40637127102637732 0 -0.098926296137628822 0.41605616341005208 0 -0.090695480784097504 0.41727281212483158 0 -0.077599851014367602 0.40637127102637732 0 -0.090695480784097504 0.41727281212483158 0 -0.077599851014367602 0.40637127102637732 0 -0.077475511178084946 0.4171549142493044 0 -0.077475511178084946 0.4171549142493044 0 -0.098677616465060528 0.43762344985591101 0 -0.090695480784097504 0.41727281212483158 0 -0.077475511178084946 0.4171549142493044 0 -0.098677616465060528 0.43762344985591101 0 -0.077475511178084946 0.4171549142493044 0 -0.078698858269308614 0.44343419105434712 0 -0.098677616465060528 0.43762344985591101 0 -0.077475511178084946 0.4171549142493044 0 -0.059178928229814701 0.4365201208845606 0 -0.055106871557328428 0.42305161159228227 0 -0.077475511178084946 0.4171549142493044 0 -0.059178928229814701 0.4365201208845606 0 -0.078698858269308614 0.44343419105434712 0 -0.077475511178084946 0.4171549142493044 0 -0.056273405891107527 0.39668637864269979 0 -0.077599851014367602 0.40637127102637732 0 -0.077475511178084946 0.4171549142493044 0 -0.056273405891107527 0.39668637864269979 0 -0.077599851014367602 0.40637127102637732 0 -0.056273405891107527 0.39668637864269979 0 -0.077599851014367602 0.40637127102637732 0 -0.078331801269405671 0.3911923311589619 0 -0.056273405891107527 0.39668637864269979 0 -0.094424665366596924 0.39634464281418252 0 -0.077599851014367602 0.40637127102637732 0 -0.078331801269405671 0.3911923311589619 0 -0.094424665366596924 0.39634464281418252 0 -0.078331801269405671 0.3911923311589619 0 -0.087166581823546807 0.38268142547449258 0 -0.079039419043354958 0.3748493973737258 0 -0.078331801269405671 0.3911923311589619 0 -0.087166581823546807 0.38268142547449258 0 -0.090941745129797052 0.36956363188929697 0 -0.098890550417286477 0.38099249480062602 0 -0.087166581823546807 0.38268142547449258 0 -0.094424665366596924 0.39634464281418252 0 -0.098890550417286477 0.38099249480062602 0 -0.087166581823546807 0.38268142547449258 0 -0.079039419043354958 0.3748493973737258 0 -0.090941745129797052 0.36956363188929697 0 -0.087166581823546807 0.38268142547449258 0 -0.078331801269405671 0.3911923311589619 0 -0.070241768304658683 0.38125320512289401 0 -0.062400115896225239 0.38328565763688038 0 -0.078331801269405671 0.3911923311589619 0 -0.047880784994249512 0.38858413326022379 0 -0.069626031180744216 0.37451783031500979 0 -0.079039419043354958 0.3748493973737258 0 -0.070241768304658683 0.38125320512289401 0 -0.078331801269405671 0.3911923311589619 0 -0.062400115896225239 0.38328565763688038 0 -0.047880784994249512 0.38858413326022379 0 -0.079039419043354958 0.3748493973737258 0 -0.078331801269405671 0.3911923311589619 0 -0.070241768304658683 0.38125320512289401 0 -0.070241768304658683 0.38125320512289401 0 -0.064210651178174066 0.37904237845721811 0 -0.062400115896225239 0.38328565763688038 0 -0.069626031180744216 0.37451783031500979 0 -0.070241768304658683 0.38125320512289401 0 -0.064210651178174066 0.37904237845721811 0 -0.069626031180744216 0.37451783031500979 0 -0.064210651178174066 0.37904237845721811 0 -0.064607287490063475 0.3752877934920828 0 -0.062075486208271788 0.37468365416042188 0 -0.064210651178174066 0.37904237845721811 0 -0.064607287490063475 0.3752877934920828 0 -0.062075486208271788 0.37468365416042188 0 -0.064210651178174066 0.37904237845721811 0 -0.059083848751135488 0.37840884602566088 0 -0.059083848751135488 0.37840884602566088 0 -0.062400115896225239 0.38328565763688038 0 -0.054293362626053041 0.38162223819359442 0 -0.062075486208271788 0.37468365416042188 0 -0.062564083944274151 0.37264302620600032 0 -0.059083848751135488 0.37840884602566088 0 -0.062564083944274151 0.37264302620600032 0 -0.054293362626053041 0.38162223819359442 0 -0.062564083944274151 0.37264302620600032 0 -0.059083848751135488 0.37840884602566088 0 -0.054293362626053041 0.38162223819359442 0 -0.056089193364373929 0.37273715424054699 0 -0.062564083944274151 0.37264302620600032 0 -0.054293362626053041 0.38162223819359442 0 -0.059083848751135488 0.37840884602566088 0 -0.054293362626053041 0.38162223819359442 0 -0.064210651178174066 0.37904237845721811 0 -0.059083848751135488 0.37840884602566088 0 -0.062400115896225239 0.38328565763688038 0 -0.062400115896225239 0.38328565763688038 0 -0.047880784994249512 0.38858413326022379 0 -0.054293362626053041 0.38162223819359442 0 -0.047880784994249512 0.38858413326022379 0 -0.054293362626053041 0.38162223819359442 0 -0.047880784994249512 0.38858413326022379 0 -0.054293362626053041 0.38162223819359442 0 -0.046254793771615982 0.3870143995575549 0 -0.047836657145122599 0.38128015361824008 0 -0.054293362626053041 0.38162223819359442 0 -0.046254793771615982 0.3870143995575549 0 -0.054293362626053041 0.38162223819359442 0 -0.046254793771615982 0.3870143995575549 0 -0.047880784994249512 0.38858413326022379 0 -0.046254793771615982 0.3870143995575549 0 -0.056089193364373929 0.37273715424054699 0 -0.050724207312953518 0.37700173675436199 0 -0.054293362626053041 0.38162223819359442 0 -0.049098878804771373 0.3725140996878949 0 -0.050724207312953518 0.37700173675436199 0 -0.043775979817191349 0.37615739516056462 0 -0.047836657145122599 0.38128015361824008 0 -0.050724207312953518 0.37700173675436199 0 -0.043775979817191349 0.37615739516056462 0 -0.047836657145122599 0.38128015361824008 0 -0.050724207312953518 0.37700173675436199 0 -0.054293362626053041 0.38162223819359442 0 -0.078331801269405671 0.3911923311589619 0 -0.047880784994249512 0.38858413326022379 0 -0.056273405891107527 0.39668637864269979 0 -0.047880784994249512 0.38858413326022379 0 -0.056273405891107527 0.39668637864269979 0 -0.045094078598563243 0.39160955589403151 0 -0.056273405891107527 0.39668637864269979 0 -0.048342871606355781 0.40097934792702961 0 -0.045094078598563243 0.39160955589403151 0 -0.047880784994249512 0.38858413326022379 0 -0.056273405891107527 0.39668637864269979 0 -0.056273405891107527 0.39668637864269979 0 -0.045094078598563243 0.39160955589403151 0 -0.056273405891107527 0.39668637864269979 0 -0.048342871606355781 0.40097934792702961 0 -0.051161828253680347 0.40954535298997258 0 -0.04342775431262437 0.39341862168501102 0 -0.028839939204686131 0.40925606551247828 0 -0.042973684961738069 0.41592643291826231 0 -0.048342871606355781 0.40097934792702961 0 -0.04342775431262437 0.39341862168501102 0 -0.042973684961738069 0.41592643291826231 0 -0.041701311968281377 0.39006881248802111 0 -0.02243782954129785 0.40299049140363558 0 -0.041701311968281377 0.39006881248802111 0 -0.03457878247319518 0.38683428693719679 0 -0.02243782954129785 0.40299049140363558 0 -0.04342775431262437 0.39341862168501102 0 -0.041701311968281377 0.39006881248802111 0 -0.02243782954129785 0.40299049140363558 0 -0.04342775431262437 0.39341862168501102 0 -0.028839939204686131 0.40925606551247828 0 -0.04342775431262437 0.39341862168501102 0 -0.042973684961738069 0.41592643291826231 0 -0.04342775431262437 0.39341862168501102 0 -0.02243782954129785 0.40299049140363558 0 -0.028839939204686131 0.40925606551247828 0 -0.048342871606355781 0.40097934792702961 0 -0.04342775431262437 0.39341862168501102 0 -0.045094078598563243 0.39160955589403151 0 -0.04342775431262437 0.39341862168501102 0 -0.045094078598563243 0.39160955589403151 0 -0.043479046219812342 0.39087612776318198 0 -0.04342775431262437 0.39341862168501102 0 -0.043479046219812342 0.39087612776318198 0 -0.045094078598563243 0.39160955589403151 0 -0.043479046219812342 0.39087612776318198 0 -0.045094078598563243 0.39160955589403151 0 -0.043479046219812342 0.39087612776318198 0 -0.045172553619539632 0.38973569244798251 0 -0.04342775431262437 0.39341862168501102 0 -0.045094078598563243 0.39160955589403151 0 -0.04342775431262437 0.39341862168501102 0 -0.043479046219812342 0.39087612776318198 0 -0.041701311968281377 0.39006881248802111 0 -0.047836657145122599 0.38128015361824008 0 -0.043775979817191349 0.37615739516056462 0 -0.043608491196287617 0.38445965616034072 0 -0.043775979817191349 0.37615739516056462 0 -0.043608491196287617 0.38445965616034072 0 -0.032897312064139907 0.37411907212457252 0 -0.043775979817191349 0.37615739516056462 0 -0.043608491196287617 0.38445965616034072 0 -0.047836657145122599 0.38128015361824008 0 -0.043608491196287617 0.38445965616034072 0 -0.046254793771615982 0.3870143995575549 0 -0.043542573639619581 0.38772713043400647 0 -0.041701311968281377 0.39006881248802111 0 -0.03457878247319518 0.38683428693719679 0 -0.043608491196287617 0.38445965616034072 0 -0.043542573639619581 0.38772713043400647 0 -0.03457878247319518 0.38683428693719679 0 -0.043608491196287617 0.38445965616034072 0 -0.046254793771615982 0.3870143995575549 0 -0.043608491196287617 0.38445965616034072 0 -0.046254793771615982 0.3870143995575549 0 -0.043542573639619581 0.38772713043400647 0 -0.043608491196287617 0.38445965616034072 0 -0.043542573639619581 0.38772713043400647 0 -0.047880784994249512 0.38858413326022379 0 -0.045094078598563243 0.39160955589403151 0 -0.047880784994249512 0.38858413326022379 0 -0.045094078598563243 0.39160955589403151 0 -0.045172553619539632 0.38973569244798251 0 -0.047880784994249512 0.38858413326022379 0 -0.045172553619539632 0.38973569244798251 0 -0.046254793771615982 0.3870143995575549 0 -0.045172553619539632 0.38973569244798251 0 -0.046254793771615982 0.3870143995575549 0 -0.043542573639619581 0.38772713043400647 0 -0.046254793771615982 0.3870143995575549 0 -0.043542573639619581 0.38772713043400647 0 -0.043479046219812342 0.39087612776318198 0 -0.045172553619539632 0.38973569244798251 0 -0.043542573639619581 0.38772713043400647 0 -0.043479046219812342 0.39087612776318198 0 -0.043542573639619581 0.38772713043400647 0 -0.043542573639619581 0.38772713043400647 0 -0.041701311968281377 0.39006881248802111 0 -0.043479046219812342 0.39087612776318198 0 -0.043542573639619581 0.38772713043400647 0 -0.041701311968281377 0.39006881248802111 0 -0.043479046219812342 0.39087612776318198 0 -0.041701311968281377 0.39006881248802111 0 -0.043542573639619581 0.38772713043400647 0 -0.03457878247319518 0.38683428693719679 0 -0.041701311968281377 0.39006881248802111 0 -0.03457878247319518 0.38683428693719679 0 -0.032897312064139907 0.37411907212457252 0 -0.043608491196287617 0.38445965616034072 0 -0.032897312064139907 0.37411907212457252 0 -0.043608491196287617 0.38445965616034072 0 -0.03457878247319518 0.38683428693719679 0 -0.03457878247319518 0.38683428693719679 0 -0.017803283764421592 0.37921609746689411 0 -0.03457878247319518 0.38683428693719679 0 -0.017803283764421592 0.37921609746689411 0 -0.019390911734903489 0.38532149046890818 0 -0.032897312064139907 0.37411907212457252 0 -0.017803283764421592 0.37921609746689411 0 -0.032897312064139907 0.37411907212457252 0 -0.03457878247319518 0.38683428693719679 0 -0.017803283764421592 0.37921609746689411 0 -0.03457878247319518 0.38683428693719679 0 -0.019390911734903489 0.38532149046890818 0 -0.019390911734903489 0.38532149046890818 0 -0.02243782954129785 0.40299049140363558 0 -0.0064316016559190746 0.3999483233353413 0 -0.03457878247319518 0.38683428693719679 0 -0.019390911734903489 0.38532149046890818 0 -0.02243782954129785 0.40299049140363558 0 -0.0064316016559190746 0.3999483233353413 0 -0.0042030409966118051 0.38380869400061962 0 0.010437450069317761 0.40463061763750507 0 -0.001064505034491721 0.37161458349227261 0 -0.017803283764421592 0.37921609746689411 0 -0.001064505034491721 0.37161458349227261 0 -0.017803283764421592 0.37921609746689411 0 -0.0042030409966118051 0.38380869400061962 0 -0.019390911734903489 0.38532149046890818 0 -0.0064316016559190746 0.3999483233353413 0 -0.0042030409966118051 0.38380869400061962 0 -0.017803283764421592 0.37921609746689411 0 -0.0042030409966118051 0.38380869400061962 0 -0.017803283764421592 0.37921609746689411 0 -0.019390911734903489 0.38532149046890818 0 -0.0042030409966118051 0.38380869400061962 0 -0.019390911734903489 0.38532149046890818 0 -0.0042030409966118051 0.38380869400061962 0 -0.014252124096747171 0.42509350933994478 0 0.0048617880261327502 0.44584476697033082 0 -0.014252124096747171 0.42509350933994478 0 -0.010454900682288101 0.44126855924159908 0 0.0048617880261327502 0.44584476697033082 0 -0.014252124096747171 0.42509350933994478 0 -0.0026301228576318379 0.42717885202372191 0 0.0048617880261327502 0.44584476697033082 0 -0.014252124096747171 0.42509350933994478 0 -0.0026301228576318379 0.42717885202372191 0 -0.003174347114314008 0.41591217031924949 0 -0.02243782954129785 0.40299049140363558 0 -0.0064316016559190746 0.3999483233353413 0 -0.003174347114314008 0.41591217031924949 0 -0.02243782954129785 0.40299049140363558 0 -0.003174347114314008 0.41591217031924949 0 -0.02243782954129785 0.40299049140363558 0 -0.014252124096747171 0.42509350933994478 0 -0.003174347114314008 0.41591217031924949 0 -0.014252124096747171 0.42509350933994478 0 -0.003174347114314008 0.41591217031924949 0 -0.014252124096747171 0.42509350933994478 0 -0.028839939204686131 0.40925606551247828 0 -0.02243782954129785 0.40299049140363558 0 -0.014252124096747171 0.42509350933994478 0 -0.028839939204686131 0.40925606551247828 0 -0.014252124096747171 0.42509350933994478 0 -0.028839939204686131 0.40925606551247828 0 -0.022470349574322469 0.43190483207895858 0 -0.014252124096747171 0.42509350933994478 0 -0.022470349574322469 0.43190483207895858 0 -0.010454900682288101 0.44126855924159908 0 -0.014252124096747171 0.42509350933994478 0 -0.022470349574322469 0.43190483207895858 0 -0.022470349574322469 0.43190483207895858 0 -0.010454900682288101 0.44126855924159908 0 -0.022470349574322469 0.43190483207895858 0 -0.042646571141636773 0.43214117214318359 0 -0.04231945732153318 0.44835591136810488 0 -0.022470349574322469 0.43190483207895858 0 -0.042646571141636773 0.43214117214318359 0 -0.042973684961738069 0.41592643291826231 0 -0.042646571141636773 0.43214117214318359 0 -0.042973684961738069 0.41592643291826231 0 -0.022470349574322469 0.43190483207895858 0 -0.042973684961738069 0.41592643291826231 0 -0.028839939204686131 0.40925606551247828 0 -0.022470349574322469 0.43190483207895858 0 -0.042973684961738069 0.41592643291826231 0 -0.077475511178084946 0.4171549142493044 0 -0.051161828253680347 0.40954535298997258 0 -0.055106871557328428 0.42305161159228227 0 -0.077475511178084946 0.4171549142493044 0 -0.056273405891107527 0.39668637864269979 0 -0.051161828253680347 0.40954535298997258 0 -0.048342871606355781 0.40097934792702961 0 -0.042973684961738069 0.41592643291826231 0 -0.051161828253680347 0.40954535298997258 0 -0.042973684961738069 0.41592643291826231 0 -0.051161828253680347 0.40954535298997258 0 -0.042973684961738069 0.41592643291826231 0 -0.051161828253680347 0.40954535298997258 0 -0.055106871557328428 0.42305161159228227 0 -0.042646571141636773 0.43214117214318359 0 -0.059178928229814701 0.4365201208845606 0 -0.055106871557328428 0.42305161159228227 0 -0.042646571141636773 0.43214117214318359 0 -0.042973684961738069 0.41592643291826231 0 -0.055106871557328428 0.42305161159228227 0 -0.042646571141636773 0.43214117214318359 0 -0.059178928229814701 0.4365201208845606 0 -0.049245987713513212 0.44319563894678482 0 -0.059178928229814701 0.4365201208845606 0 -0.050742244958162368 0.46439359559444437 0 -0.049245987713513212 0.44319563894678482 0 -0.050742244958162368 0.46439359559444437 0 -0.044608833217136261 0.45025336211807931 0 -0.059178928229814701 0.4365201208845606 0 -0.050742244958162368 0.46439359559444437 0 -0.065484051744298263 0.4513847118260722 0 -0.059178928229814701 0.4365201208845606 0 -0.049245987713513212 0.44319563894678482 0 -0.050742244958162368 0.46439359559444437 0 -0.050742244958162368 0.46439359559444437 0 -0.061707257777874093 0.47273252787991399 0 -0.073231504917427276 0.46237159316971249 0 -0.050742244958162368 0.46439359559444437 0 -0.073231504917427276 0.46237159316971249 0 -0.0419800222431604 0.46518140433549732 0 -0.04231945732153318 0.44835591136810488 0 -0.025697431038521311 0.45487791879973932 0 -0.0419800222431604 0.46518140433549732 0 -0.04231945732153318 0.44835591136810488 0 -0.0419800222431604 0.46518140433549732 0 -0.044608833217136261 0.45025336211807931 0 -0.04231945732153318 0.44835591136810488 0 -0.050742244958162368 0.46439359559444437 0 -0.0419800222431604 0.46518140433549732 0 -0.050742244958162368 0.46439359559444437 0 -0.0419800222431604 0.46518140433549732 0 -0.044608833217136261 0.45025336211807931 0 -0.022470349574322469 0.43190483207895858 0 -0.04231945732153318 0.44835591136810488 0 -0.042646571141636773 0.43214117214318359 0 -0.049245987713513212 0.44319563894678482 0 -0.04231945732153318 0.44835591136810488 0 -0.042646571141636773 0.43214117214318359 0 -0.04231945732153318 0.44835591136810488 0 -0.049245987713513212 0.44319563894678482 0 -0.044608833217136261 0.45025336211807931 0 -0.04231945732153318 0.44835591136810488 0 -0.044608833217136261 0.45025336211807931 0 -0.04231945732153318 0.44835591136810488 0 -0.022470349574322469 0.43190483207895858 0 -0.04231945732153318 0.44835591136810488 0 -0.022362297003099281 0.44511471557515531 0 -0.04231945732153318 0.44835591136810488 0 -0.022362297003099281 0.44511471557515531 0 -0.025697431038521311 0.45487791879973932 0 -0.022470349574322469 0.43190483207895858 0 -0.022362297003099281 0.44511471557515531 0 -0.010454900682288101 0.44126855924159908 0 -0.022362297003099281 0.44511471557515531 0 -0.025697431038521311 0.45487791879973932 0 -0.01311544116488466 0.453963754661173 0 -0.0419800222431604 0.46518140433549732 0 -0.025697431038521311 0.45487791879973932 0 -0.01345201465746383 0.46774634869629322 0 -0.0419800222431604 0.46518140433549732 0 -0.01345201465746383 0.46774634869629322 0 -0.025697431038521311 0.45487791879973932 0 -0.01311544116488466 0.453963754661173 0 -0.01345201465746383 0.46774634869629322 0 -0.0094095992007081283 0.46654139838691122 0 -0.010427957625441169 0.46801824073108461 0 0.0053167838454733218 0.46943384557929257 0 -0.0094095992007081283 0.46654139838691122 0 0.0015605482097463411 0.45063228640423969 0 -0.010427957625441169 0.46801824073108461 0 0.0053167838454733218 0.46943384557929257 0 -0.0094095992007081283 0.46654139838691122 0 0.0080738590363113663 0.46132998490476868 0 -0.01311544116488466 0.453963754661173 0 -0.0094095992007081283 0.46654139838691122 0 0.0015605482097463411 0.45063228640423969 0 -0.01311544116488466 0.453963754661173 0 -0.01345201465746383 0.46774634869629322 0 -0.0094095992007081283 0.46654139838691122 0 -0.01345201465746383 0.46774634869629322 0 -0.010427957625441169 0.46801824073108461 0 -0.01345201465746383 0.46774634869629322 0 -0.0094095992007081283 0.46654139838691122 0 -0.01345201465746383 0.46774634869629322 0 -0.0094095992007081283 0.46654139838691122 0 -0.010427957625441169 0.46801824073108461 0 -0.0094095992007081283 0.46654139838691122 0 -0.010427957625441169 0.46801824073108461 0 -0.01311544116488466 0.453963754661173 0 -0.010454900682288101 0.44126855924159908 0 0.0015605482097463411 0.45063228640423969 0 -0.010454900682288101 0.44126855924159908 0 0.0048617880261327502 0.44584476697033082 0 0.0015605482097463411 0.45063228640423969 0 -0.010454900682288101 0.44126855924159908 0 0.0015605482097463411 0.45063228640423969 0 -0.022362297003099281 0.44511471557515531 0 -0.01311544116488466 0.453963754661173 0 -0.010454900682288101 0.44126855924159908 0 -0.0067005321321746969 0.5 0 -0.003880604538310756 0.48346324919380129 0 -0.021454488019086362 0.48400912036554289 0 -0.01345201465746383 0.46774634869629322 0 -0.010427957625441169 0.46801824073108461 0 -0.021454488019086362 0.48400912036554289 0 -0.010427957625441169 0.46801824073108461 0 -0.003880604538310756 0.48346324919380129 0 -0.021454488019086362 0.48400912036554289 0 -0.010427957625441169 0.46801824073108461 0 -0.001026908195020756 0.47486914558720472 0 0.0053167838454733218 0.46943384557929257 0 -0.010427957625441169 0.46801824073108461 0 -0.003880604538310756 0.48346324919380129 0 -0.001026908195020756 0.47486914558720472 0 -0.010427957625441169 0.46801824073108461 0 -0.021454488019086362 0.48400912036554289 0 -0.01345201465746383 0.46774634869629322 0 -0.021454488019086362 0.48400912036554289 0 -0.032447842195153342 0.48378293317924542 0 -0.01345201465746383 0.46774634869629322 0 -0.032447842195153342 0.48378293317924542 0 -0.041758062999807367 0.47618372532725728 0 -0.01345201465746383 0.46774634869629322 0 -0.041758062999807367 0.47618372532725728 0 -0.021454488019086362 0.48400912036554289 0 -0.032481018412731863 0.50000000000000089 0 -0.033555046977316587 0.49207813668870121 0 -0.021454488019086362 0.48400912036554289 0 -0.032481018412731863 0.50000000000000089 0 -0.021454488019086362 0.48400912036554289 0 -0.033555046977316587 0.49207813668870121 0 -0.032447842195153342 0.48378293317924542 0 -0.0067005321321746969 0.5 0 -0.021454488019086362 0.48400912036554289 0 -0.032481018412731863 0.50000000000000089 0 -0.033555046977316587 0.49207813668870121 0 -0.039964975186860582 0.49999999999999872 0 -0.042139887415076342 0.49281443204190178 0 -0.032481018412731863 0.50000000000000089 0 -0.033555046977316587 0.49207813668870121 0 -0.039964975186860582 0.49999999999999872 0 -0.042139887415076342 0.49281443204190178 0 -0.041758062999807367 0.47618372532725728 0 -0.033555046977316587 0.49207813668870121 0 -0.042139887415076342 0.49281443204190178 0 -0.032447842195153342 0.48378293317924542 0 -0.042139887415076342 0.49281443204190178 0 -0.046725468384182907 0.47766439368476649 0 -0.039964975186860582 0.49999999999999872 0 -0.042139887415076342 0.49281443204190178 0 -0.053580454847170257 0.49193017513362319 0 -0.039964975186860582 0.49999999999999872 0 -0.042139887415076342 0.49281443204190178 0 -0.042139887415076342 0.49281443204190178 0 -0.046725468384182907 0.47766439368476649 0 -0.041758062999807367 0.47618372532725728 0 -0.0419800222431604 0.46518140433549732 0 -0.01345201465746383 0.46774634869629322 0 -0.041758062999807367 0.47618372532725728 0 -0.042139887415076342 0.49281443204190178 0 -0.032447842195153342 0.48378293317924542 0 -0.041758062999807367 0.47618372532725728 0 -0.046725468384182907 0.47766439368476649 0 -0.041758062999807367 0.47618372532725728 0 -0.0419800222431604 0.46518140433549732 0 -0.046725468384182907 0.47766439368476649 0 -0.041758062999807367 0.47618372532725728 0 -0.050742244958162368 0.46439359559444437 0 -0.0419800222431604 0.46518140433549732 0 -0.046725468384182907 0.47766439368476649 0 -0.0419800222431604 0.46518140433549732 0 -0.041758062999807367 0.47618372532725728 0 -0.046725468384182907 0.47766439368476649 0 -0.061707257777874093 0.47273252787991399 0 -0.071702929972361051 0.48510959578984503 0 -0.046725468384182907 0.47766439368476649 0 -0.071702929972361051 0.48510959578984503 0 -0.050742244958162368 0.46439359559444437 0 -0.046725468384182907 0.47766439368476649 0 -0.061707257777874093 0.47273252787991399 0 -0.050742244958162368 0.46439359559444437 0 -0.046725468384182907 0.47766439368476649 0 -0.046725468384182907 0.47766439368476649 0 -0.053580454847170257 0.49193017513362319 0 -0.071702929972361051 0.48510959578984503 0 -0.039964975186860582 0.49999999999999872 0 -0.053580454847170257 0.49193017513362319 0 -0.067195934507479516 0.5 0 -0.042139887415076342 0.49281443204190178 0 -0.046725468384182907 0.47766439368476649 0 -0.053580454847170257 0.49193017513362319 0 -0.053580454847170257 0.49193017513362319 0 -0.067195934507479516 0.5 0 -0.071702929972361051 0.48510959578984503 0 -0.067195934507479516 0.5 0 -0.071702929972361051 0.48510959578984503 0 -0.094426893828098324 0.5 0 -0.071702929972361051 0.48510959578984503 0 -0.096680391560538939 0.49255479789492401 0 -0.071702929972361051 0.48510959578984503 0 -0.094426893828098324 0.5 0 -0.096680391560538939 0.49255479789492401 0 -0.071702929972361051 0.48510959578984503 0 -0.094342239683345888 0.46564946071770819 0 -0.096680391560538939 0.49255479789492401 0 -0.071702929972361051 0.48510959578984503 0 -0.073231504917427276 0.46237159316971249 0 -0.094342239683345888 0.46564946071770819 0 -0.061707257777874093 0.47273252787991399 0 -0.071702929972361051 0.48510959578984503 0 -0.073231504917427276 0.46237159316971249 0 -0.050742244958162368 0.46439359559444437 0 -0.073231504917427276 0.46237159316971249 0 -0.065484051744298263 0.4513847118260722 0 -0.059178928229814701 0.4365201208845606 0 -0.065484051744298263 0.4513847118260722 0 -0.078698858269308614 0.44343419105434712 0 -0.073231504917427276 0.46237159316971249 0 -0.065484051744298263 0.4513847118260722 0 -0.078698858269308614 0.44343419105434712 0 -0.078698858269308614 0.44343419105434712 0 -0.094342239683345888 0.46564946071770819 0 -0.098677616465060528 0.43762344985591101 0 -0.073231504917427276 0.46237159316971249 0 -0.078698858269308614 0.44343419105434712 0 -0.094342239683345888 0.46564946071770819 0 -0.094342239683345888 0.46564946071770819 0 -0.098677616465060528 0.43762344985591101 0 -0.11987972175203609 0.45809198546251739 0 -0.098677616465060528 0.43762344985591101 0 -0.11987972175203609 0.45809198546251739 0 -0.12509104342100061 0.44188941827772182 0 -0.098677616465060528 0.43762344985591101 0 -0.11987972175203609 0.45809198546251739 0 -0.094342239683345888 0.46564946071770819 0 -0.11987972175203609 0.45809198546251739 0 -0.1215246548466888 0.48036061179670092 0 -0.1215246548466888 0.48036061179670092 0 -0.1216578531487173 0.50000000000000155 0 -0.096680391560538939 0.49255479789492401 0 -0.1216578531487173 0.50000000000000155 0 -0.094426893828098324 0.5 0 -0.096680391560538939 0.49255479789492401 0 -0.1216578531487173 0.50000000000000155 0 -0.096680391560538939 0.49255479789492401 0 -0.094342239683345888 0.46564946071770819 0 -0.1215246548466888 0.48036061179670092 0 -0.096680391560538939 0.49255479789492401 0 -0.16310986573530631 0.084156321085019567 0 -0.17544541039362899 0.09436804860009354 0 -0.15783765240444911 0.096274401630791262 0 -0.16310986573530631 0.084156321085019567 0 -0.15783765240444911 0.096274401630791262 0 -0.16310986573530631 0.084156321085019567 0 -0.1657815390990264 0.070802932860687437 0 -0.15463431661472629 0.07014553381523804 0 -0.16310986573530631 0.084156321085019567 0 -0.1657815390990264 0.070802932860687437 0 -0.17966236107341149 0.074300518116336353 0 -0.1657815390990264 0.070802932860687437 0 -0.17966236107341149 0.074300518116336353 0 -0.1657196129726615 0.054609358426155781 0 -0.1657815390990264 0.070802932860687437 0 -0.15463431661472629 0.07014553381523804 0 -0.1657196129726615 0.054609358426155781 0 -0.17966236107341149 0.074300518116336353 0 -0.1657196129726615 0.054609358426155781 0 -0.19326118210642521 0.060262893486061127 0 -0.17966236107341149 0.074300518116336353 0 -0.1657196129726615 0.054609358426155781 0 -0.16310986573530631 0.084156321085019567 0 -0.17966236107341149 0.074300518116336353 0 -0.17544541039362899 0.09436804860009354 0 -0.17966236107341149 0.074300518116336353 0 -0.17544541039362899 0.09436804860009354 0 -0.19360510917416149 0.093991677806516877 0 -0.17966236107341149 0.074300518116336353 0 -0.19360510917416149 0.093991677806516877 0 -0.17544541039362899 0.09436804860009354 0 -0.18934336527218601 0.1087413065502997 0 -0.19360510917416149 0.093991677806516877 0 -0.17544541039362899 0.09436804860009354 0 -0.16911410870225951 0.1087440664115976 0 -0.18934336527218601 0.1087413065502997 0 -0.18039056500006781 0.12121373119240569 0 -0.16911410870225951 0.1087440664115976 0 -0.18934336527218601 0.1087413065502997 0 -0.18039056500006781 0.12121373119240569 0 -0.16911410870225951 0.1087440664115976 0 -0.18039056500006781 0.12121373119240569 0 -0.16911410870225951 0.1087440664115976 0 -0.15507510040999009 0.1056512286087255 0 -0.18039056500006781 0.12121373119240569 0 -0.15507510040999009 0.1056512286087255 0 -0.1628447509754036 0.1248738178506951 0 -0.15507510040999009 0.1056512286087255 0 -0.15358711882774939 0.11801712706942639 0 -0.18039056500006781 0.12121373119240569 0 -0.1628447509754036 0.1248738178506951 0 -0.15507510040999009 0.1056512286087255 0 -0.17544541039362899 0.09436804860009354 0 -0.16911410870225951 0.1087440664115976 0 -0.15783765240444911 0.096274401630791262 0 -0.16911410870225951 0.1087440664115976 0 -0.15783765240444911 0.096274401630791262 0 -0.16911410870225951 0.1087440664115976 0 -0.15783765240444911 0.096274401630791262 0 -0.15507510040999009 0.1056512286087255 0 -0.15783765240444911 0.096274401630791262 0 -0.14455303356647331 0.096744639073681929 0 -0.15139402388202119 0.11108495737684999 0 -0.14455303356647331 0.096744639073681929 0 -0.15139402388202119 0.11108495737684999 0 -0.12991930243541749 0.1020465165188278 0 -0.15783765240444911 0.096274401630791262 0 -0.15507510040999009 0.1056512286087255 0 -0.15139402388202119 0.11108495737684999 0 -0.15783765240444911 0.096274401630791262 0 -0.15139402388202119 0.11108495737684999 0 -0.15139402388202119 0.11108495737684999 0 -0.12991930243541749 0.1020465165188278 0 -0.14495039535959489 0.12589551312290931 0 -0.1628447509754036 0.1248738178506951 0 -0.15358711882774939 0.11801712706942639 0 -0.14495039535959489 0.12589551312290931 0 -0.15358711882774939 0.11801712706942639 0 -0.15139402388202119 0.11108495737684999 0 -0.14495039535959489 0.12589551312290931 0 -0.15507510040999009 0.1056512286087255 0 -0.15358711882774939 0.11801712706942639 0 -0.15139402388202119 0.11108495737684999 0 -0.15139402388202119 0.11108495737684999 0 -0.14495039535959489 0.12589551312290931 0 -0.12991930243541749 0.1020465165188278 0 -0.14495039535959489 0.12589551312290931 0 -0.12991930243541749 0.1020465165188278 0 -0.14495039535959489 0.12589551312290931 0 -0.13028426483969929 0.13221647237215789 0 -0.14455303356647331 0.096744639073681929 0 -0.12991930243541749 0.1020465165188278 0 -0.13683438329036771 0.088098653177494879 0 -0.12991930243541749 0.1020465165188278 0 -0.13683438329036771 0.088098653177494879 0 -0.1248370695698198 0.083226530136874921 0 -0.13683438329036771 0.088098653177494879 0 -0.13729578978526799 0.073558919561796721 0 -0.1248370695698198 0.083226530136874921 0 -0.13683438329036771 0.088098653177494879 0 -0.14756672109485969 0.08491666059629295 0 -0.13729578978526799 0.073558919561796721 0 -0.14455303356647331 0.096744639073681929 0 -0.13683438329036771 0.088098653177494879 0 -0.14756672109485969 0.08491666059629295 0 -0.14756672109485969 0.08491666059629295 0 -0.13729578978526799 0.073558919561796721 0 -0.16310986573530631 0.084156321085019567 0 -0.14756672109485969 0.08491666059629295 0 -0.15463431661472629 0.07014553381523804 0 -0.16310986573530631 0.084156321085019567 0 -0.15783765240444911 0.096274401630791262 0 -0.14756672109485969 0.08491666059629295 0 -0.15783765240444911 0.096274401630791262 0 -0.14756672109485969 0.08491666059629295 0 -0.15783765240444911 0.096274401630791262 0 -0.14455303356647331 0.096744639073681929 0 -0.14756672109485969 0.08491666059629295 0 -0.14756672109485969 0.08491666059629295 0 -0.15463431661472629 0.07014553381523804 0 -0.13729578978526799 0.073558919561796721 0 -0.15463431661472629 0.07014553381523804 0 -0.13729578978526799 0.073558919561796721 0 -0.14428807100988511 0.057223156242914672 0 -0.13729578978526799 0.073558919561796721 0 -0.1311901693420546 0.060374133793646992 0 -0.14428807100988511 0.057223156242914672 0 -0.13729578978526799 0.073558919561796721 0 -0.12498233095038511 0.069533312171706482 0 -0.1248370695698198 0.083226530136874921 0 -0.13729578978526799 0.073558919561796721 0 -0.1311901693420546 0.060374133793646992 0 -0.12498233095038511 0.069533312171706482 0 -0.1311901693420546 0.060374133793646992 0 -0.1304591025064194 0.044551821316570157 0 -0.1169815729820268 0.057446916627697332 0 -0.1311901693420546 0.060374133793646992 0 -0.1304591025064194 0.044551821316570157 0 -0.14428807100988511 0.057223156242914672 0 -0.1304591025064194 0.044551821316570157 0 -0.1338093633065561 0.031702984145267947 0 -0.14718764802187309 0.041237794311798179 0 -0.1304591025064194 0.044551821316570157 0 -0.1338093633065561 0.031702984145267947 0 -0.120950474974805 0.030974477430810402 0 -0.14718764802187309 0.041237794311798179 0 -0.14507935476777459 0.024735833563247479 0 -0.16332082262574071 0.033969476032413119 0 -0.1338093633065561 0.031702984145267947 0 -0.14718764802187309 0.041237794311798179 0 -0.14507935476777459 0.024735833563247479 0 -0.1304591025064194 0.044551821316570157 0 -0.14718764802187309 0.041237794311798179 0 -0.14428807100988511 0.057223156242914672 0 -0.15463431661472629 0.07014553381523804 0 -0.14428807100988511 0.057223156242914672 0 -0.1657196129726615 0.054609358426155781 0 -0.14718764802187309 0.041237794311798179 0 -0.14428807100988511 0.057223156242914672 0 -0.1657196129726615 0.054609358426155781 0 -0.1273771369441013 0.0023450629401116992 0 -0.12537023626190849 0.01701499410391356 0 -0.14358534871595791 0.0085390787577918573 0 -0.14275634286812811 -0.006203461430080404 0 -0.1273771369441013 0.0023450629401116992 0 -0.14358534871595791 0.0085390787577918573 0 -0.1338093633065561 0.031702984145267947 0 -0.12537023626190849 0.01701499410391356 0 -0.14507935476777459 0.024735833563247479 0 -0.12537023626190849 0.01701499410391356 0 -0.14507935476777459 0.024735833563247479 0 -0.14358534871595791 0.0085390787577918573 0 -0.1338093633065561 0.031702984145267947 0 -0.12537023626190849 0.01701499410391356 0 -0.120950474974805 0.030974477430810402 0 -0.14507935476777459 0.024735833563247479 0 -0.14358534871595791 0.0085390787577918573 0 -0.1631610812614456 0.0141265482177085 0 -0.15796117991031841 -0.00029962151665172479 0 -0.14358534871595791 0.0085390787577918573 0 -0.1631610812614456 0.0141265482177085 0 -0.14275634286812811 -0.006203461430080404 0 -0.15796117991031841 -0.00029962151665172479 0 -0.14358534871595791 0.0085390787577918573 0 -0.15796117991031841 -0.00029962151665172479 0 -0.17967452986780849 -0.0030086181600807401 0 -0.1631610812614456 0.0141265482177085 0 -0.1631610812614456 0.0141265482177085 0 -0.18063081477410151 0.02444866588981499 0 -0.16332082262574071 0.033969476032413119 0 -0.14507935476777459 0.024735833563247479 0 -0.1631610812614456 0.0141265482177085 0 -0.16332082262574071 0.033969476032413119 0 -0.17967452986780849 -0.0030086181600807401 0 -0.1631610812614456 0.0141265482177085 0 -0.18063081477410151 0.02444866588981499 0 -0.17967452986780849 -0.0030086181600807401 0 -0.18063081477410151 0.02444866588981499 0 -0.19591489879339791 0.012499298725408061 0 -0.1657196129726615 0.054609358426155781 0 -0.16332082262574071 0.033969476032413119 0 -0.1853408533429271 0.041769259974547668 0 -0.14718764802187309 0.041237794311798179 0 -0.1657196129726615 0.054609358426155781 0 -0.16332082262574071 0.033969476032413119 0 -0.18063081477410151 0.02444866588981499 0 -0.16332082262574071 0.033969476032413119 0 -0.1853408533429271 0.041769259974547668 0 -0.1657196129726615 0.054609358426155781 0 -0.1853408533429271 0.041769259974547668 0 -0.19326118210642521 0.060262893486061127 0 -0.1853408533429271 0.041769259974547668 0 -0.19326118210642521 0.060262893486061127 0 -0.20638984228336041 0.047204147208118788 0 -0.18063081477410151 0.02444866588981499 0 -0.1853408533429271 0.041769259974547668 0 -0.2003712226561333 0.029120430419108619 0 -0.1853408533429271 0.041769259974547668 0 -0.20638984228336041 0.047204147208118788 0 -0.2003712226561333 0.029120430419108619 0 -0.20638984228336041 0.047204147208118788 0 -0.2003712226561333 0.029120430419108619 0 -0.21890969838457369 0.03387481538926377 0 -0.20638984228336041 0.047204147208118788 0 -0.2248274879423891 0.050626958701997932 0 -0.21890969838457369 0.03387481538926377 0 -0.20638984228336041 0.047204147208118788 0 -0.2248274879423891 0.050626958701997932 0 -0.21240822864659401 0.064474545157398255 0 -0.19326118210642521 0.060262893486061127 0 -0.20638984228336041 0.047204147208118788 0 -0.21240822864659401 0.064474545157398255 0 -0.17967452986780849 -0.0030086181600807401 0 -0.20680301002479959 -0.0020434230711429339 0 -0.19591489879339791 0.012499298725408061 0 -0.18063081477410151 0.02444866588981499 0 -0.19591489879339791 0.012499298725408061 0 -0.2003712226561333 0.029120430419108619 0 -0.2003712226561333 0.029120430419108619 0 -0.2150412283584397 0.01492639532749848 0 -0.21890969838457369 0.03387481538926377 0 -0.19591489879339791 0.012499298725408061 0 -0.2003712226561333 0.029120430419108619 0 -0.2150412283584397 0.01492639532749848 0 -0.20680301002479959 -0.0020434230711429339 0 -0.19591489879339791 0.012499298725408061 0 -0.2150412283584397 0.01492639532749848 0 -0.20680301002479959 -0.0020434230711429339 0 -0.2150412283584397 0.01492639532749848 0 -0.22850437187820721 0.00061554774341724197 0 -0.2150412283584397 0.01492639532749848 0 -0.22850437187820721 0.00061554774341724197 0 -0.23416676111704099 0.01917273774715204 0 -0.23416676111704099 0.01917273774715204 0 -0.21890969838457369 0.03387481538926377 0 -0.23451298379830759 0.036058925104307242 0 -0.2150412283584397 0.01492639532749848 0 -0.23416676111704099 0.01917273774715204 0 -0.21890969838457369 0.03387481538926377 0 -0.25132042997239518 0.0027134119798401068 0 -0.25642639863326749 0.02710060176493858 0 -0.23416676111704099 0.01917273774715204 0 -0.25642639863326749 0.02710060176493858 0 -0.23416676111704099 0.01917273774715204 0 -0.23451298379830759 0.036058925104307242 0 -0.25132042997239518 0.0027134119798401068 0 -0.22850437187820721 0.00061554774341724197 0 -0.23416676111704099 0.01917273774715204 0 -0.2248274879423891 0.050626958701997932 0 -0.234130504556473 0.067172247096954504 0 -0.21240822864659401 0.064474545157398255 0 -0.2248274879423891 0.050626958701997932 0 -0.21890969838457369 0.03387481538926377 0 -0.23451298379830759 0.036058925104307242 0 -0.25642639863326749 0.02710060176493858 0 -0.23451298379830759 0.036058925104307242 0 -0.24534917185526489 0.049526218608574313 0 -0.2248274879423891 0.050626958701997932 0 -0.23451298379830759 0.036058925104307242 0 -0.24534917185526489 0.049526218608574313 0 -0.26195798501385009 0.070226375813507561 0 -0.24534917185526489 0.049526218608574313 0 -0.234130504556473 0.067172247096954504 0 -0.2248274879423891 0.050626958701997932 0 -0.24534917185526489 0.049526218608574313 0 -0.234130504556473 0.067172247096954504 0 -0.26195798501385009 0.070226375813507561 0 -0.24382127576753621 0.084711863041238192 0 -0.234130504556473 0.067172247096954504 0 -0.24382127576753621 0.084711863041238192 0 -0.22568456652122221 0.099197350268968809 0 -0.24382127576753621 0.084711863041238192 0 -0.221160002309051 0.081738136999685213 0 -0.22568456652122221 0.099197350268968809 0 -0.221160002309051 0.081738136999685213 0 -0.20949418686790969 0.097522886253834359 0 -0.22568456652122221 0.099197350268968809 0 -0.24382127576753621 0.084711863041238192 0 -0.221160002309051 0.081738136999685213 0 -0.234130504556473 0.067172247096954504 0 -0.221160002309051 0.081738136999685213 0 -0.234130504556473 0.067172247096954504 0 -0.21240822864659401 0.064474545157398255 0 -0.221160002309051 0.081738136999685213 0 -0.21240822864659401 0.064474545157398255 0 -0.19789508720454749 0.077516785054754192 0 -0.221160002309051 0.081738136999685213 0 -0.19789508720454749 0.077516785054754192 0 -0.20949418686790969 0.097522886253834359 0 -0.17966236107341149 0.074300518116336353 0 -0.19789508720454749 0.077516785054754192 0 -0.19360510917416149 0.093991677806516877 0 -0.19789508720454749 0.077516785054754192 0 -0.19360510917416149 0.093991677806516877 0 -0.20949418686790969 0.097522886253834359 0 -0.19326118210642521 0.060262893486061127 0 -0.21240822864659401 0.064474545157398255 0 -0.19789508720454749 0.077516785054754192 0 -0.17966236107341149 0.074300518116336353 0 -0.19326118210642521 0.060262893486061127 0 -0.19789508720454749 0.077516785054754192 0 -0.20040659369392541 0.1193864456313013 0 -0.18934336527218601 0.1087413065502997 0 -0.2075478572749084 0.11368283749669961 0 -0.18039056500006781 0.12121373119240569 0 -0.20040659369392541 0.1193864456313013 0 -0.18934336527218601 0.1087413065502997 0 -0.19360510917416149 0.093991677806516877 0 -0.2075478572749084 0.11368283749669961 0 -0.18934336527218601 0.1087413065502997 0 -0.19360510917416149 0.093991677806516877 0 -0.2075478572749084 0.11368283749669961 0 -0.19360510917416149 0.093991677806516877 0 -0.20949418686790969 0.097522886253834359 0 -0.2075478572749084 0.11368283749669961 0 -0.2075478572749084 0.11368283749669961 0 -0.22568456652122221 0.099197350268968809 0 -0.20949418686790969 0.097522886253834359 0 -0.2075478572749084 0.11368283749669961 0 -0.22568456652122221 0.099197350268968809 0 -0.2075478572749084 0.11368283749669961 0 -0.22488407219564061 0.1186598638475915 0 -0.22370276663374011 0.1364982034250237 0 -0.20040659369392541 0.1193864456313013 0 -0.2075478572749084 0.11368283749669961 0 -0.20214902218410111 0.13458958866239301 0 -0.20040659369392541 0.1193864456313013 0 -0.2075478572749084 0.11368283749669961 0 -0.2075478572749084 0.11368283749669961 0 -0.22488407219564061 0.1186598638475915 0 -0.22568456652122221 0.099197350268968809 0 -0.22488407219564061 0.1186598638475915 0 -0.23975573915859391 0.1186480270080747 0 -0.23562440086935879 0.12869665656040569 0 -0.22488407219564061 0.1186598638475915 0 -0.22568456652122221 0.099197350268968809 0 -0.23888908650362611 0.1045060591559635 0 -0.24382127576753621 0.084711863041238192 0 -0.22568456652122221 0.099197350268968809 0 -0.23888908650362611 0.1045060591559635 0 -0.25364395357421121 0.10678394025260531 0 -0.24382127576753621 0.084711863041238192 0 -0.23888908650362611 0.1045060591559635 0 -0.25033803458298193 0.12914144363467839 0 -0.25364395357421121 0.10678394025260531 0 -0.23975573915859391 0.1186480270080747 0 -0.22488407219564061 0.1186598638475915 0 -0.23888908650362611 0.1045060591559635 0 -0.23975573915859391 0.1186480270080747 0 -0.25364395357421121 0.10678394025260531 0 -0.23888908650362611 0.1045060591559635 0 -0.23975573915859391 0.1186480270080747 0 -0.25033803458298193 0.12914144363467839 0 -0.23975573915859391 0.1186480270080747 0 -0.23562440086935879 0.12869665656040569 0 -0.25033803458298193 0.12914144363467839 0 -0.2394413917758374 0.14053574488666021 0 -0.23562440086935879 0.12869665656040569 0 -0.2394413917758374 0.14053574488666021 0 -0.23562440086935879 0.12869665656040569 0 -0.22370276663374011 0.1364982034250237 0 -0.22488407219564061 0.1186598638475915 0 -0.23562440086935879 0.12869665656040569 0 -0.22370276663374011 0.1364982034250237 0 -0.2394413917758374 0.14053574488666021 0 -0.22370276663374011 0.1364982034250237 0 -0.22390747936813421 0.14796544613238069 0 -0.22390747936813421 0.14796544613238069 0 -0.22774584105848089 0.15976823357977049 0 -0.2168312664826515 0.15850745189495519 0 -0.2394413917758374 0.14053574488666021 0 -0.22390747936813421 0.14796544613238069 0 -0.24566593655216731 0.1613413036023684 0 -0.22390747936813421 0.14796544613238069 0 -0.24566593655216731 0.1613413036023684 0 -0.26077588748637798 0.14053443996503889 0 -0.2394413917758374 0.14053574488666021 0 -0.24566593655216731 0.1613413036023684 0 -0.24566593655216731 0.1613413036023684 0 -0.2425545525554833 0.18325607046718431 0 -0.22457868183097049 0.171258732689378 0 -0.2425545525554833 0.18325607046718431 0 -0.2235130486054053 0.18492553164669809 0 -0.22457868183097049 0.171258732689378 0 -0.2425545525554833 0.18325607046718431 0 -0.2235130486054053 0.18492553164669809 0 -0.2315679775879351 0.19375458513227489 0 -0.2235130486054053 0.18492553164669809 0 -0.22457868183097049 0.171258732689378 0 -0.209750232499154 0.17791844316711489 0 -0.24566593655216731 0.1613413036023684 0 -0.22774584105848089 0.15976823357977049 0 -0.22457868183097049 0.171258732689378 0 -0.22390747936813421 0.14796544613238069 0 -0.24566593655216731 0.1613413036023684 0 -0.22774584105848089 0.15976823357977049 0 -0.22774584105848089 0.15976823357977049 0 -0.22457868183097049 0.171258732689378 0 -0.2168312664826515 0.15850745189495519 0 -0.2168312664826515 0.15850745189495519 0 -0.21186753860838101 0.16733255095299371 0 -0.20758447520558959 0.15683863127083711 0 -0.22457868183097049 0.171258732689378 0 -0.2168312664826515 0.15850745189495519 0 -0.21186753860838101 0.16733255095299371 0 -0.21186753860838101 0.16733255095299371 0 -0.209750232499154 0.17791844316711489 0 -0.20173639765426299 0.1643971743801825 0 -0.21186753860838101 0.16733255095299371 0 -0.20758447520558959 0.15683863127083711 0 -0.20173639765426299 0.1643971743801825 0 -0.20758447520558959 0.15683863127083711 0 -0.20173639765426299 0.1643971743801825 0 -0.20024290349544879 0.15519061181074151 0 -0.22457868183097049 0.171258732689378 0 -0.21186753860838101 0.16733255095299371 0 -0.209750232499154 0.17791844316711489 0 -0.19610042498268601 0.17522502183351021 0 -0.19038698318195549 0.16711234260031069 0 -0.17752183765376101 0.1775748035498933 0 -0.19610042498268601 0.17522502183351021 0 -0.19785886193094021 0.18900131099286041 0 -0.17752183765376101 0.1775748035498933 0 -0.19785886193094021 0.18900131099286041 0 -0.17752183765376101 0.1775748035498933 0 -0.209750232499154 0.17791844316711489 0 -0.19610042498268601 0.17522502183351021 0 -0.19785886193094021 0.18900131099286041 0 -0.209750232499154 0.17791844316711489 0 -0.19610042498268601 0.17522502183351021 0 -0.20173639765426299 0.1643971743801825 0 -0.20173639765426299 0.1643971743801825 0 -0.1927705130470404 0.15866088515044 0 -0.20024290349544879 0.15519061181074151 0 -0.19610042498268601 0.17522502183351021 0 -0.20173639765426299 0.1643971743801825 0 -0.19038698318195549 0.16711234260031069 0 -0.20173639765426299 0.1643971743801825 0 -0.19038698318195549 0.16711234260031069 0 -0.1927705130470404 0.15866088515044 0 -0.19038698318195549 0.16711234260031069 0 -0.1927705130470404 0.15866088515044 0 -0.18413510522225521 0.16259499244525211 0 -0.1927705130470404 0.15866088515044 0 -0.19507878308752141 0.1486405391940768 0 -0.1852646507768699 0.1545619776798173 0 -0.19507878308752141 0.1486405391940768 0 -0.18706065072040501 0.14468661846275019 0 -0.1852646507768699 0.1545619776798173 0 -0.19507878308752141 0.1486405391940768 0 -0.20024290349544879 0.15519061181074151 0 -0.20390252305447459 0.15036513687703029 0 -0.1927705130470404 0.15866088515044 0 -0.19507878308752141 0.1486405391940768 0 -0.20024290349544879 0.15519061181074151 0 -0.19507878308752141 0.1486405391940768 0 -0.202312374299252 0.1441640524023215 0 -0.19563802519160789 0.13807458821396759 0 -0.19507878308752141 0.1486405391940768 0 -0.202312374299252 0.1441640524023215 0 -0.20390252305447459 0.15036513687703029 0 -0.19507878308752141 0.1486405391940768 0 -0.19563802519160789 0.13807458821396759 0 -0.18706065072040501 0.14468661846275019 0 -0.18039056500006781 0.12121373119240569 0 -0.20214902218410111 0.13458958866239301 0 -0.18039056500006781 0.12121373119240569 0 -0.20040659369392541 0.1193864456313013 0 -0.20214902218410111 0.13458958866239301 0 -0.18039056500006781 0.12121373119240569 0 -0.19563802519160789 0.13807458821396759 0 -0.20214902218410111 0.13458958866239301 0 -0.18039056500006781 0.12121373119240569 0 -0.19563802519160789 0.13807458821396759 0 -0.202312374299252 0.1441640524023215 0 -0.19563802519160789 0.13807458821396759 0 -0.20214902218410111 0.13458958866239301 0 -0.2075478572749084 0.11368283749669961 0 -0.22370276663374011 0.1364982034250237 0 -0.20214902218410111 0.13458958866239301 0 -0.2075478572749084 0.11368283749669961 0 -0.22370276663374011 0.1364982034250237 0 -0.22370276663374011 0.1364982034250237 0 -0.22390747936813421 0.14796544613238069 0 -0.20214902218410111 0.13458958866239301 0 -0.22390747936813421 0.14796544613238069 0 -0.20214902218410111 0.13458958866239301 0 -0.22390747936813421 0.14796544613238069 0 -0.20214902218410111 0.13458958866239301 0 -0.20948943058945241 0.14863997276184041 0 -0.22390747936813421 0.14796544613238069 0 -0.2168312664826515 0.15850745189495519 0 -0.20948943058945241 0.14863997276184041 0 -0.2168312664826515 0.15850745189495519 0 -0.20758447520558959 0.15683863127083711 0 -0.20948943058945241 0.14863997276184041 0 -0.20758447520558959 0.15683863127083711 0 -0.20948943058945241 0.14863997276184041 0 -0.20390252305447459 0.15036513687703029 0 -0.20758447520558959 0.15683863127083711 0 -0.20024290349544879 0.15519061181074151 0 -0.20390252305447459 0.15036513687703029 0 -0.202312374299252 0.1441640524023215 0 -0.20214902218410111 0.13458958866239301 0 -0.20948943058945241 0.14863997276184041 0 -0.202312374299252 0.1441640524023215 0 -0.20948943058945241 0.14863997276184041 0 -0.20390252305447459 0.15036513687703029 0 -0.22764024225575111 0.25709488017932702 0 -0.2151106411052526 0.2372148610219694 0 -0.22764024225575111 0.25709488017932702 0 -0.2283272457552897 0.2411225242229286 0 -0.2468893326351202 0.24329134098969171 0 -0.22764024225575111 0.25709488017932702 0 -0.2283272457552897 0.2411225242229286 0 -0.2151106411052526 0.2372148610219694 0 -0.2283272457552897 0.2411225242229286 0 -0.22236430254422471 0.22707510271615991 0 -0.2151106411052526 0.2372148610219694 0 -0.2283272457552897 0.2411225242229286 0 -0.2468893326351202 0.24329134098969171 0 -0.2329273297721271 0.2301735095518313 0 -0.25250373055295899 0.22903132158689779 0 -0.2468893326351202 0.24329134098969171 0 -0.24260825180894061 0.22311859240920151 0 -0.2468893326351202 0.24329134098969171 0 -0.24260825180894061 0.22311859240920151 0 -0.2329273297721271 0.2301735095518313 0 -0.25326648915379463 0.21765104414027969 0 -0.25250373055295899 0.22903132158689779 0 -0.24260825180894061 0.22311859240920151 0 -0.24260825180894061 0.22311859240920151 0 -0.23239639752576971 0.22100751879425451 0 -0.2329273297721271 0.2301735095518313 0 -0.23239639752576971 0.22100751879425451 0 -0.2329273297721271 0.2301735095518313 0 -0.22236430254422471 0.22707510271615991 0 -0.2283272457552897 0.2411225242229286 0 -0.2329273297721271 0.2301735095518313 0 -0.22236430254422471 0.22707510271615991 0 -0.23239639752576971 0.22100751879425451 0 -0.22236430254422471 0.22707510271615991 0 -0.2228431611521535 0.2155973608413651 0 -0.2228431611521535 0.2155973608413651 0 -0.2385329104852989 0.2118543258787943 0 -0.21819588620811961 0.20042781843582741 0 -0.2385329104852989 0.2118543258787943 0 -0.21819588620811961 0.20042781843582741 0 -0.23239639752576971 0.22100751879425451 0 -0.2228431611521535 0.2155973608413651 0 -0.2385329104852989 0.2118543258787943 0 -0.2385329104852989 0.2118543258787943 0 -0.24039455529309961 0.2058142864805034 0 -0.21819588620811961 0.20042781843582741 0 -0.24260825180894061 0.22311859240920151 0 -0.23239639752576971 0.22100751879425451 0 -0.2385329104852989 0.2118543258787943 0 -0.25326648915379463 0.21765104414027969 0 -0.24039455529309961 0.2058142864805034 0 -0.25326648915379463 0.21765104414027969 0 -0.2385329104852989 0.2118543258787943 0 -0.24039455529309961 0.2058142864805034 0 -0.25326648915379463 0.21765104414027969 0 -0.24260825180894061 0.22311859240920151 0 -0.2385329104852989 0.2118543258787943 0 -0.25264776582176801 0.2054066783297176 0 -0.25326648915379463 0.21765104414027969 0 -0.24039455529309961 0.2058142864805034 0 -0.25846339158769432 0.19477026040294029 0 -0.2425545525554833 0.18325607046718431 0 -0.24512564856919611 0.1966003761625241 0 -0.24039455529309961 0.2058142864805034 0 -0.24512564856919611 0.1966003761625241 0 -0.2315679775879351 0.19375458513227489 0 -0.25264776582176801 0.2054066783297176 0 -0.24039455529309961 0.2058142864805034 0 -0.24512564856919611 0.1966003761625241 0 -0.2425545525554833 0.18325607046718431 0 -0.24512564856919611 0.1966003761625241 0 -0.2315679775879351 0.19375458513227489 0 -0.24039455529309961 0.2058142864805034 0 -0.2315679775879351 0.19375458513227489 0 -0.21819588620811961 0.20042781843582741 0 -0.2235130486054053 0.18492553164669809 0 -0.2315679775879351 0.19375458513227489 0 -0.21819588620811961 0.20042781843582741 0 -0.21819588620811961 0.20042781843582741 0 -0.19785886193094021 0.18900131099286041 0 -0.2235130486054053 0.18492553164669809 0 -0.209750232499154 0.17791844316711489 0 -0.21819588620811961 0.20042781843582741 0 -0.209750232499154 0.17791844316711489 0 -0.21819588620811961 0.20042781843582741 0 -0.19785886193094021 0.18900131099286041 0 -0.21819588620811961 0.20042781843582741 0 -0.20376966825666501 0.2022924765927995 0 -0.19785886193094021 0.18900131099286041 0 -0.19785886193094021 0.18900131099286041 0 -0.19005143880425829 0.1974548227072519 0 -0.17752183765376101 0.1775748035498933 0 -0.20376966825666501 0.2022924765927995 0 -0.19785886193094021 0.18900131099286041 0 -0.19005143880425829 0.1974548227072519 0 -0.19005143880425829 0.1974548227072519 0 -0.187650486280975 0.21451757224245291 0 -0.20258103995475549 0.21733484186461069 0 -0.19005143880425829 0.1974548227072519 0 -0.20258103995475549 0.21733484186461069 0 -0.20376966825666501 0.2022924765927995 0 -0.19005143880425829 0.1974548227072519 0 -0.20258103995475549 0.21733484186461069 0 -0.2228431611521535 0.2155973608413651 0 -0.21819588620811961 0.20042781843582741 0 -0.20258103995475549 0.21733484186461069 0 -0.21819588620811961 0.20042781843582741 0 -0.20376966825666501 0.2022924765927995 0 -0.20258103995475549 0.21733484186461069 0 -0.20258103995475549 0.21733484186461069 0 -0.19839606398960871 0.22991008851962841 0 -0.2151106411052526 0.2372148610219694 0 -0.22236430254422471 0.22707510271615991 0 -0.2228431611521535 0.2155973608413651 0 -0.20258103995475549 0.21733484186461069 0 -0.22236430254422471 0.22707510271615991 0 -0.20258103995475549 0.21733484186461069 0 -0.2151106411052526 0.2372148610219694 0 -0.20258103995475549 0.21733484186461069 0 -0.2151106411052526 0.2372148610219694 0 -0.187650486280975 0.21451757224245291 0 -0.20258103995475549 0.21733484186461069 0 -0.19839606398960871 0.22991008851962841 0 -0.187650486280975 0.21451757224245291 0 -0.19839606398960871 0.22991008851962841 0 -0.18195408303730121 0.23534357450296481 0 -0.18940688912330481 0.25610334311205268 0 -0.2046840695697589 0.2451395929661444 0 -0.18195408303730121 0.23534357450296481 0 -0.2046840695697589 0.2451395929661444 0 -0.18195408303730121 0.23534357450296481 0 -0.19839606398960871 0.22991008851962841 0 -0.2046840695697589 0.2451395929661444 0 -0.18195408303730121 0.23534357450296481 0 -0.21239874098331929 0.25437807278244762 0 -0.2046840695697589 0.2451395929661444 0 -0.2151106411052526 0.2372148610219694 0 -0.19839606398960871 0.22991008851962841 0 -0.2046840695697589 0.2451395929661444 0 -0.2151106411052526 0.2372148610219694 0 -0.22764024225575111 0.25709488017932702 0 -0.21239874098331929 0.25437807278244762 0 -0.2151106411052526 0.2372148610219694 0 -0.16225317791305921 0.25358582624422438 0 -0.18195408303730121 0.23534357450296481 0 -0.155242522585569 0.24016045739440639 0 -0.17508206900779469 0.25918785244088571 0 -0.16225317791305921 0.25358582624422438 0 -0.18195408303730121 0.23534357450296481 0 -0.187650486280975 0.21451757224245291 0 -0.18195408303730121 0.23534357450296481 0 -0.17144823439391829 0.2141895330645725 0 -0.18195408303730121 0.23534357450296481 0 -0.15922409650484359 0.2255475560397853 0 -0.18195408303730121 0.23534357450296481 0 -0.15922409650484359 0.2255475560397853 0 -0.155242522585569 0.24016045739440639 0 -0.18195408303730121 0.23534357450296481 0 -0.15922409650484359 0.2255475560397853 0 -0.17144823439391829 0.2141895330645725 0 -0.15922409650484359 0.2255475560397853 0 -0.15900733689739069 0.21062159977010589 0 -0.17144823439391829 0.2141895330645725 0 -0.15900733689739069 0.21062159977010589 0 -0.1653418357915476 0.2018213455952054 0 -0.15361129879784891 0.20139719057542019 0 -0.17144823439391829 0.2141895330645725 0 -0.17723797391968729 0.20390802022475071 0 -0.1653418357915476 0.2018213455952054 0 -0.15900733689739069 0.21062159977010589 0 -0.17144823439391829 0.2141895330645725 0 -0.1653418357915476 0.2018213455952054 0 -0.187650486280975 0.21451757224245291 0 -0.17144823439391829 0.2141895330645725 0 -0.17723797391968729 0.20390802022475071 0 -0.19005143880425829 0.1974548227072519 0 -0.187650486280975 0.21451757224245291 0 -0.17723797391968729 0.20390802022475071 0 -0.19005143880425829 0.1974548227072519 0 -0.17169787432773731 0.19155682751427069 0 -0.17752183765376101 0.1775748035498933 0 -0.19005143880425829 0.1974548227072519 0 -0.17723797391968729 0.20390802022475071 0 -0.17169787432773731 0.19155682751427069 0 -0.19005143880425829 0.1974548227072519 0 -0.17752183765376101 0.1775748035498933 0 -0.17169787432773731 0.19155682751427069 0 -0.1653418357915476 0.2018213455952054 0 -0.15791164184663151 0.19274793286901881 0 -0.17723797391968729 0.20390802022475071 0 -0.17169787432773731 0.19155682751427069 0 -0.1653418357915476 0.2018213455952054 0 -0.1653418357915476 0.2018213455952054 0 -0.15791164184663151 0.19274793286901881 0 -0.15361129879784891 0.20139719057542019 0 -0.17169787432773731 0.19155682751427069 0 -0.15791164184663151 0.19274793286901881 0 -0.16134243263699979 0.18146195783717889 0 -0.15791164184663151 0.19274793286901881 0 -0.15361129879784891 0.20139719057542019 0 -0.14754997702249989 0.19123102061556399 0 -0.15791164184663151 0.19274793286901881 0 -0.14754997702249989 0.19123102061556399 0 -0.15378055215212841 0.1853342336718547 0 -0.15361129879784891 0.20139719057542019 0 -0.144337775963609 0.20069921068637719 0 -0.14754997702249989 0.19123102061556399 0 -0.14754997702249989 0.19123102061556399 0 -0.13411435042981179 0.19106266128805069 0 -0.1463292802833521 0.18023770330257241 0 -0.144337775963609 0.20069921068637719 0 -0.14754997702249989 0.19123102061556399 0 -0.13411435042981179 0.19106266128805069 0 -0.13411435042981179 0.19106266128805069 0 -0.12967955466007261 0.2074258594294596 0 -0.1235431789710726 0.1969801993001162 0 -0.13411435042981179 0.19106266128805069 0 -0.13770187294137159 0.2043383794177894 0 -0.12967955466007261 0.2074258594294596 0 -0.144337775963609 0.20069921068637719 0 -0.13411435042981179 0.19106266128805069 0 -0.13770187294137159 0.2043383794177894 0 -0.13770187294137159 0.2043383794177894 0 -0.13855706597983281 0.21350408889879899 0 -0.14247480998137141 0.20718589651263181 0 -0.1364941099723872 0.21575153757660309 0 -0.120958802369795 0.22183359367242919 0 -0.11894773722242739 0.20818951851535461 0 -0.12967955466007261 0.2074258594294596 0 -0.1364941099723872 0.21575153757660309 0 -0.11894773722242739 0.20818951851535461 0 -0.13770187294137159 0.2043383794177894 0 -0.12967955466007261 0.2074258594294596 0 -0.13855706597983281 0.21350408889879899 0 -0.1364941099723872 0.21575153757660309 0 -0.11894773722242739 0.20818951851535461 0 -0.12967955466007261 0.2074258594294596 0 -0.1364941099723872 0.21575153757660309 0 -0.13855706597983281 0.21350408889879899 0 -0.1364941099723872 0.21575153757660309 0 -0.13855706597983281 0.21350408889879899 0 -0.15922409650484359 0.2255475560397853 0 -0.1364941099723872 0.21575153757660309 0 -0.13855706597983281 0.21350408889879899 0 -0.15922409650484359 0.2255475560397853 0 -0.13855706597983281 0.21350408889879899 0 -0.14930252504067221 0.21020190704756139 0 -0.13855706597983281 0.21350408889879899 0 -0.14247480998137141 0.20718589651263181 0 -0.14930252504067221 0.21020190704756139 0 -0.144337775963609 0.20069921068637719 0 -0.14247480998137141 0.20718589651263181 0 -0.14930252504067221 0.21020190704756139 0 -0.144337775963609 0.20069921068637719 0 -0.13770187294137159 0.2043383794177894 0 -0.14247480998137141 0.20718589651263181 0 -0.15900733689739069 0.21062159977010589 0 -0.15361129879784891 0.20139719057542019 0 -0.14930252504067221 0.21020190704756139 0 -0.15361129879784891 0.20139719057542019 0 -0.144337775963609 0.20069921068637719 0 -0.14930252504067221 0.21020190704756139 0 -0.15922409650484359 0.2255475560397853 0 -0.15900733689739069 0.21062159977010589 0 -0.14930252504067221 0.21020190704756139 0 -0.15922409650484359 0.2255475560397853 0 -0.13635804662702189 0.23039018670563211 0 -0.14207867318260539 0.23889574066385899 0 -0.15922409650484359 0.2255475560397853 0 -0.1364941099723872 0.21575153757660309 0 -0.13635804662702189 0.23039018670563211 0 -0.15922409650484359 0.2255475560397853 0 -0.1364941099723872 0.21575153757660309 0 -0.1364941099723872 0.21575153757660309 0 -0.13635804662702189 0.23039018670563211 0 -0.11673432752768111 0.2372784614512472 0 -0.1364941099723872 0.21575153757660309 0 -0.11673432752768111 0.2372784614512472 0 -0.13635804662702189 0.23039018670563211 0 -0.12961957513534 0.23973743310435161 0 -0.11673432752768111 0.2372784614512472 0 -0.13635804662702189 0.23039018670563211 0 -0.12961957513534 0.23973743310435161 0 -0.14207867318260539 0.23889574066385899 0 -0.12961957513534 0.23973743310435161 0 -0.13357218109292621 0.2499317644564327 0 -0.1213089330464012 0.24626659804535689 0 -0.12961957513534 0.23973743310435161 0 -0.13357218109292621 0.2499317644564327 0 -0.14207867318260539 0.23889574066385899 0 -0.14746997276257359 0.25293699741112718 0 -0.13357218109292621 0.2499317644564327 0 -0.14207867318260539 0.23889574066385899 0 -0.15922409650484359 0.2255475560397853 0 -0.14207867318260539 0.23889574066385899 0 -0.155242522585569 0.24016045739440639 0 -0.14746997276257359 0.25293699741112718 0 -0.14207867318260539 0.23889574066385899 0 -0.155242522585569 0.24016045739440639 0 -0.16225317791305921 0.25358582624422438 0 -0.14746997276257359 0.25293699741112718 0 -0.155242522585569 0.24016045739440639 0 -0.166988808872575 0.14091924592242799 0 -0.1736883691443292 0.1501381655411517 0 -0.1666646902223726 0.16034837340756511 0 -0.166988808872575 0.14091924592242799 0 -0.1666646902223726 0.16034837340756511 0 -0.15580754279098399 0.143121943265237 0 -0.1666646902223726 0.16034837340756511 0 -0.1549726550285947 0.15674585516748279 0 -0.15580754279098399 0.143121943265237 0 -0.1666646902223726 0.16034837340756511 0 -0.15580754279098399 0.143121943265237 0 -0.1628447509754036 0.1248738178506951 0 -0.166988808872575 0.14091924592242799 0 -0.17824709647023271 0.1379937977022469 0 -0.1628447509754036 0.1248738178506951 0 -0.166988808872575 0.14091924592242799 0 -0.15580754279098399 0.143121943265237 0 -0.18039056500006781 0.12121373119240569 0 -0.1628447509754036 0.1248738178506951 0 -0.17824709647023271 0.1379937977022469 0 -0.19563802519160789 0.13807458821396759 0 -0.17824709647023271 0.1379937977022469 0 -0.18706065072040501 0.14468661846275019 0 -0.18039056500006781 0.12121373119240569 0 -0.19563802519160789 0.13807458821396759 0 -0.17824709647023271 0.1379937977022469 0 -0.17824709647023271 0.1379937977022469 0 -0.18706065072040501 0.14468661846275019 0 -0.1811623126986891 0.14793864394101769 0 -0.166988808872575 0.14091924592242799 0 -0.17824709647023271 0.1379937977022469 0 -0.1736883691443292 0.1501381655411517 0 -0.17824709647023271 0.1379937977022469 0 -0.1811623126986891 0.14793864394101769 0 -0.1736883691443292 0.1501381655411517 0 -0.1811623126986891 0.14793864394101769 0 -0.1736883691443292 0.1501381655411517 0 -0.17666515903818969 0.15970684649729899 0 -0.1811623126986891 0.14793864394101769 0 -0.1852646507768699 0.1545619776798173 0 -0.17666515903818969 0.15970684649729899 0 -0.18706065072040501 0.14468661846275019 0 -0.1811623126986891 0.14793864394101769 0 -0.1852646507768699 0.1545619776798173 0 -0.17752183765376101 0.1775748035498933 0 -0.1666646902223726 0.16034837340756511 0 -0.1927705130470404 0.15866088515044 0 -0.1852646507768699 0.1545619776798173 0 -0.18413510522225521 0.16259499244525211 0 -0.17666515903818969 0.15970684649729899 0 -0.17752183765376101 0.1775748035498933 0 -0.1666646902223726 0.16034837340756511 0 -0.1852646507768699 0.1545619776798173 0 -0.18413510522225521 0.16259499244525211 0 -0.17666515903818969 0.15970684649729899 0 -0.18413510522225521 0.16259499244525211 0 -0.17666515903818969 0.15970684649729899 0 -0.17752183765376101 0.1775748035498933 0 -0.19038698318195549 0.16711234260031069 0 -0.18413510522225521 0.16259499244525211 0 -0.17752183765376101 0.1775748035498933 0 -0.1736883691443292 0.1501381655411517 0 -0.17666515903818969 0.15970684649729899 0 -0.1666646902223726 0.16034837340756511 0 -0.17169787432773731 0.19155682751427069 0 -0.17752183765376101 0.1775748035498933 0 -0.16134243263699979 0.18146195783717889 0 -0.17752183765376101 0.1775748035498933 0 -0.160166055014445 0.16782332876165751 0 -0.17752183765376101 0.1775748035498933 0 -0.16134243263699979 0.18146195783717889 0 -0.160166055014445 0.16782332876165751 0 -0.16134243263699979 0.18146195783717889 0 -0.160166055014445 0.16782332876165751 0 -0.1543363168372556 0.17604552304072019 0 -0.16134243263699979 0.18146195783717889 0 -0.15378055215212841 0.1853342336718547 0 -0.1543363168372556 0.17604552304072019 0 -0.15791164184663151 0.19274793286901881 0 -0.16134243263699979 0.18146195783717889 0 -0.15378055215212841 0.1853342336718547 0 -0.17752183765376101 0.1775748035498933 0 -0.1666646902223726 0.16034837340756511 0 -0.160166055014445 0.16782332876165751 0 -0.1666646902223726 0.16034837340756511 0 -0.160166055014445 0.16782332876165751 0 -0.1549726550285947 0.15674585516748279 0 -0.160166055014445 0.16782332876165751 0 -0.1549726550285947 0.15674585516748279 0 -0.14281027237512919 0.15807185397342149 0 -0.160166055014445 0.16782332876165751 0 -0.14281027237512919 0.15807185397342149 0 -0.160166055014445 0.16782332876165751 0 -0.1483000089644074 0.1706867490983929 0 -0.14281027237512919 0.15807185397342149 0 -0.160166055014445 0.16782332876165751 0 -0.1483000089644074 0.1706867490983929 0 -0.1543363168372556 0.17604552304072019 0 -0.1483000089644074 0.1706867490983929 0 -0.14281027237512919 0.15807185397342149 0 -0.13856119746919621 0.1732320213376258 0 -0.14754997702249989 0.19123102061556399 0 -0.15378055215212841 0.1853342336718547 0 -0.1463292802833521 0.18023770330257241 0 -0.15378055215212841 0.1853342336718547 0 -0.1543363168372556 0.17604552304072019 0 -0.1463292802833521 0.18023770330257241 0 -0.1483000089644074 0.1706867490983929 0 -0.1543363168372556 0.17604552304072019 0 -0.1463292802833521 0.18023770330257241 0 -0.1483000089644074 0.1706867490983929 0 -0.1463292802833521 0.18023770330257241 0 -0.13856119746919621 0.1732320213376258 0 -0.13411435042981179 0.19106266128805069 0 -0.13856119746919621 0.1732320213376258 0 -0.12609153575556739 0.16924223779836581 0 -0.13411435042981179 0.19106266128805069 0 -0.12609153575556739 0.16924223779836581 0 -0.1152399272795421 0.1851742901109647 0 -0.13411435042981179 0.19106266128805069 0 -0.1463292802833521 0.18023770330257241 0 -0.13856119746919621 0.1732320213376258 0 -0.14281027237512919 0.15807185397342149 0 -0.12609153575556739 0.16924223779836581 0 -0.135520965557581 0.14756887546063741 0 -0.12609153575556739 0.16924223779836581 0 -0.135520965557581 0.14756887546063741 0 -0.14281027237512919 0.15807185397342149 0 -0.13856119746919621 0.1732320213376258 0 -0.12609153575556739 0.16924223779836581 0 -0.135520965557581 0.14756887546063741 0 -0.13028426483969929 0.13221647237215789 0 -0.1192914655824909 0.15059360814623801 0 -0.12609153575556739 0.16924223779836581 0 -0.135520965557581 0.14756887546063741 0 -0.1192914655824909 0.15059360814623801 0 -0.1549726550285947 0.15674585516748279 0 -0.14281027237512919 0.15807185397342149 0 -0.14652630769324659 0.14708303210739521 0 -0.14281027237512919 0.15807185397342149 0 -0.135520965557581 0.14756887546063741 0 -0.14652630769324659 0.14708303210739521 0 -0.1549726550285947 0.15674585516748279 0 -0.14652630769324659 0.14708303210739521 0 -0.15580754279098399 0.143121943265237 0 -0.1628447509754036 0.1248738178506951 0 -0.15580754279098399 0.143121943265237 0 -0.14495039535959489 0.12589551312290931 0 -0.135520965557581 0.14756887546063741 0 -0.14652630769324659 0.14708303210739521 0 -0.14495039535959489 0.12589551312290931 0 -0.15580754279098399 0.143121943265237 0 -0.14495039535959489 0.12589551312290931 0 -0.14652630769324659 0.14708303210739521 0 -0.15580754279098399 0.143121943265237 0 -0.14495039535959489 0.12589551312290931 0 -0.135520965557581 0.14756887546063741 0 -0.14495039535959489 0.12589551312290931 0 -0.135520965557581 0.14756887546063741 0 -0.14495039535959489 0.12589551312290931 0 -0.13028426483969929 0.13221647237215789 0 -0.13028426483969929 0.13221647237215789 0 -0.1131006250587715 0.12959615498317961 0 -0.1192914655824909 0.15059360814623801 0 -0.1131006250587715 0.12959615498317961 0 -0.10078539792307099 0.15464240809582361 0 -0.092802426943272898 0.12960292979422991 0 -0.1131006250587715 0.12959615498317961 0 -0.10078539792307099 0.15464240809582361 0 -0.1192914655824909 0.15059360814623801 0 -0.10078539792307099 0.15464240809582361 0 -0.1192914655824909 0.15059360814623801 0 -0.10897534263953949 0.16967833346669081 0 -0.12609153575556739 0.16924223779836581 0 -0.1192914655824909 0.15059360814623801 0 -0.10897534263953949 0.16967833346669081 0 -0.12609153575556739 0.16924223779836581 0 -0.1152399272795421 0.1851742901109647 0 -0.10897534263953949 0.16967833346669081 0 -0.1152399272795421 0.1851742901109647 0 -0.098409264142157865 0.1851788001203086 0 -0.10897534263953949 0.16967833346669081 0 -0.098409264142157865 0.1851788001203086 0 -0.10897534263953949 0.16967833346669081 0 -0.082277471490505807 0.17420718144711089 0 -0.10078539792307099 0.15464240809582361 0 -0.10897534263953949 0.16967833346669081 0 -0.082277471490505807 0.17420718144711089 0 -0.10078539792307099 0.15464240809582361 0 -0.082277471490505807 0.17420718144711089 0 -0.082277471490505807 0.17420718144711089 0 -0.065615427061545384 0.16058384892905991 0 -0.074642854581774637 0.14147916649728479 0 -0.10078539792307099 0.15464240809582361 0 -0.082277471490505807 0.17420718144711089 0 -0.074642854581774637 0.14147916649728479 0 -0.098409264142157865 0.1851788001203086 0 -0.082277471490505807 0.17420718144711089 0 -0.084152214828733252 0.19620669612267311 0 -0.082277471490505807 0.17420718144711089 0 -0.063769545057940663 0.19377195479839809 0 -0.082277471490505807 0.17420718144711089 0 -0.063769545057940663 0.19377195479839809 0 -0.051824687549248197 0.17345858692208871 0 -0.082277471490505807 0.17420718144711089 0 -0.065615427061545384 0.16058384892905991 0 -0.051824687549248197 0.17345858692208871 0 -0.074642854581774637 0.14147916649728479 0 -0.055186524828957063 0.1281687789626855 0 -0.07438317581125764 0.1124407737129243 0 -0.074642854581774637 0.14147916649728479 0 -0.092802426943272898 0.12960292979422991 0 -0.07438317581125764 0.1124407737129243 0 -0.10078539792307099 0.15464240809582361 0 -0.074642854581774637 0.14147916649728479 0 -0.092802426943272898 0.12960292979422991 0 -0.10058650277722481 0.24229521027045481 0 -0.11673432752768111 0.2372784614512472 0 -0.1053270170515283 0.2324499666522013 0 -0.096974545082976191 0.25880538532589209 0 -0.10058650277722481 0.24229521027045481 0 -0.088715331182393942 0.2449718195011524 0 -0.096974545082976191 0.25880538532589209 0 -0.10058650277722481 0.24229521027045481 0 -0.11673432752768111 0.2372784614512472 0 -0.096974545082976191 0.25880538532589209 0 -0.112097455783086 0.24444379951602521 0 -0.11673432752768111 0.2372784614512472 0 -0.096974545082976191 0.25880538532589209 0 -0.11673432752768111 0.2372784614512472 0 -0.10058650277722481 0.24229521027045481 0 -0.091983872440322634 0.23323291704093771 0 -0.088715331182393942 0.2449718195011524 0 -0.10058650277722481 0.24229521027045481 0 -0.1053270170515283 0.2324499666522013 0 -0.091983872440322634 0.23323291704093771 0 -0.11521273165378559 0.25497892835963998 0 -0.112097455783086 0.24444379951602521 0 -0.1213089330464012 0.24626659804535689 0 -0.112097455783086 0.24444379951602521 0 -0.1213089330464012 0.24626659804535689 0 -0.11673432752768111 0.2372784614512472 0 -0.12961957513534 0.23973743310435161 0 -0.1213089330464012 0.24626659804535689 0 -0.11673432752768111 0.2372784614512472 0 -0.11673432752768111 0.2372784614512472 0 -0.111977792011399 0.2261119040305537 0 -0.1053270170515283 0.2324499666522013 0 -0.1364941099723872 0.21575153757660309 0 -0.11673432752768111 0.2372784614512472 0 -0.120958802369795 0.22183359367242919 0 -0.11673432752768111 0.2372784614512472 0 -0.120958802369795 0.22183359367242919 0 -0.111977792011399 0.2261119040305537 0 -0.120958802369795 0.22183359367242919 0 -0.111977792011399 0.2261119040305537 0 -0.11263418842693861 0.21654350143059611 0 -0.111977792011399 0.2261119040305537 0 -0.1027476190553803 0.22153268259517769 0 -0.11263418842693861 0.21654350143059611 0 -0.1027476190553803 0.22153268259517769 0 -0.088008266818085573 0.21525264443096179 0 -0.091983872440322634 0.23323291704093771 0 -0.111977792011399 0.2261119040305537 0 -0.1027476190553803 0.22153268259517769 0 -0.1053270170515283 0.2324499666522013 0 -0.1027476190553803 0.22153268259517769 0 -0.1053270170515283 0.2324499666522013 0 -0.091983872440322634 0.23323291704093771 0 -0.1027476190553803 0.22153268259517769 0 -0.1014013644724687 0.20062749945410349 0 -0.088008266818085573 0.21525264443096179 0 -0.1027476190553803 0.22153268259517769 0 -0.11263418842693861 0.21654350143059611 0 -0.1014013644724687 0.20062749945410349 0 -0.11263418842693861 0.21654350143059611 0 -0.11894773722242739 0.20818951851535461 0 -0.1014013644724687 0.20062749945410349 0 -0.11894773722242739 0.20818951851535461 0 -0.1014013644724687 0.20062749945410349 0 -0.120958802369795 0.22183359367242919 0 -0.11263418842693861 0.21654350143059611 0 -0.11894773722242739 0.20818951851535461 0 -0.12967955466007261 0.2074258594294596 0 -0.11894773722242739 0.20818951851535461 0 -0.1235431789710726 0.1969801993001162 0 -0.11894773722242739 0.20818951851535461 0 -0.1235431789710726 0.1969801993001162 0 -0.1014013644724687 0.20062749945410349 0 -0.13411435042981179 0.19106266128805069 0 -0.1152399272795421 0.1851742901109647 0 -0.1235431789710726 0.1969801993001162 0 -0.1152399272795421 0.1851742901109647 0 -0.1235431789710726 0.1969801993001162 0 -0.1014013644724687 0.20062749945410349 0 -0.1152399272795421 0.1851742901109647 0 -0.098409264142157865 0.1851788001203086 0 -0.1014013644724687 0.20062749945410349 0 -0.098409264142157865 0.1851788001203086 0 -0.1014013644724687 0.20062749945410349 0 -0.084152214828733252 0.19620669612267311 0 -0.084152214828733252 0.19620669612267311 0 -0.063769545057940663 0.19377195479839809 0 -0.072142849724606259 0.2099260872470029 0 -0.082277471490505807 0.17420718144711089 0 -0.084152214828733252 0.19620669612267311 0 -0.063769545057940663 0.19377195479839809 0 -0.072142849724606259 0.2099260872470029 0 -0.088008266818085573 0.21525264443096179 0 -0.068407602306599244 0.22780678473085289 0 -0.084152214828733252 0.19620669612267311 0 -0.072142849724606259 0.2099260872470029 0 -0.088008266818085573 0.21525264443096179 0 -0.1014013644724687 0.20062749945410349 0 -0.084152214828733252 0.19620669612267311 0 -0.088008266818085573 0.21525264443096179 0 -0.091983872440322634 0.23323291704093771 0 -0.068407602306599244 0.22780678473085289 0 -0.080478212985736569 0.23984126859451149 0 -0.088008266818085573 0.21525264443096179 0 -0.091983872440322634 0.23323291704093771 0 -0.068407602306599244 0.22780678473085289 0 -0.073553522625709841 0.25068431627396631 0 -0.068407602306599244 0.22780678473085289 0 -0.080478212985736569 0.23984126859451149 0 -0.073553522625709841 0.25068431627396631 0 -0.068407602306599244 0.22780678473085289 0 -0.050132500168443887 0.2425632472220397 0 -0.073553522625709841 0.25068431627396631 0 -0.080478212985736569 0.23984126859451149 0 -0.088715331182393942 0.2449718195011524 0 -0.091983872440322634 0.23323291704093771 0 -0.080478212985736569 0.23984126859451149 0 -0.088715331182393942 0.2449718195011524 0 -0.050132500168443887 0.2425632472220397 0 -0.026711477711177899 0.23444217817011309 0 -0.029881977245259539 0.25372898958001938 0 -0.050132500168443887 0.2425632472220397 0 -0.026711477711177899 0.23444217817011309 0 -0.050132500168443887 0.2425632472220397 0 -0.042100384295285467 0.22888272761933071 0 -0.026711477711177899 0.23444217817011309 0 -0.073553522625709841 0.25068431627396631 0 -0.050132500168443887 0.2425632472220397 0 -0.068407602306599244 0.22780678473085289 0 -0.050132500168443887 0.2425632472220397 0 -0.042100384295285467 0.22888272761933071 0 -0.068407602306599244 0.22780678473085289 0 -0.042100384295285467 0.22888272761933071 0 -0.045261618625375449 0.21333672814968549 0 -0.045261618625375449 0.21333672814968549 0 -0.02675369219281019 0.23290150150097291 0 -0.045261618625375449 0.21333672814968549 0 -0.02772339752401377 0.22169904798743939 0 -0.02675369219281019 0.23290150150097291 0 -0.042100384295285467 0.22888272761933071 0 -0.045261618625375449 0.21333672814968549 0 -0.02675369219281019 0.23290150150097291 0 -0.042100384295285467 0.22888272761933071 0 -0.02675369219281019 0.23290150150097291 0 -0.026711477711177899 0.23444217817011309 0 -0.045261618625375449 0.21333672814968549 0 -0.025983012380334781 0.2115930184476672 0 -0.02772339752401377 0.22169904798743939 0 -0.045261618625375449 0.21333672814968549 0 -0.029252980350323681 0.1977376245802884 0 -0.025983012380334781 0.2115930184476672 0 -0.063769545057940663 0.19377195479839809 0 -0.045261618625375449 0.21333672814968549 0 -0.063769545057940663 0.19377195479839809 0 -0.072142849724606259 0.2099260872470029 0 -0.045261618625375449 0.21333672814968549 0 -0.072142849724606259 0.2099260872470029 0 -0.068407602306599244 0.22780678473085289 0 -0.045261618625375449 0.21333672814968549 0 -0.063769545057940663 0.19377195479839809 0 -0.045261618625375449 0.21333672814968549 0 -0.041349789320347038 0.18749549167170951 0 -0.029252980350323681 0.1977376245802884 0 -0.041349789320347038 0.18749549167170951 0 -0.02440704960050057 0.1813667693045137 0 -0.045261618625375449 0.21333672814968549 0 -0.029252980350323681 0.1977376245802884 0 -0.041349789320347038 0.18749549167170951 0 -0.029252980350323681 0.1977376245802884 0 -0.01949536222664228 0.1923427933584827 0 -0.02440704960050057 0.1813667693045137 0 -0.029252980350323681 0.1977376245802884 0 -0.019383630886315679 0.20246845033521829 0 -0.01949536222664228 0.1923427933584827 0 -0.019383630886315679 0.20246845033521829 0 -0.01949536222664228 0.1923427933584827 0 -0.011799668219416901 0.19617813045667529 0 -0.01949536222664228 0.1923427933584827 0 -0.011799668219416901 0.19617813045667529 0 -0.0099503170468955675 0.185467411183286 0 -0.0047591026019954026 0.19332022418589959 0 -0.011799668219416901 0.19617813045667529 0 -0.0099503170468955675 0.185467411183286 0 -0.0047591026019954026 0.19332022418589959 0 -0.003081975793268537 0.18782002811878001 0 -0.0099503170468955675 0.185467411183286 0 -0.0047591026019954026 0.19332022418589959 0 -2.3422743153838069e-05 0.1988005567515452 0 0.0015327128313205251 0.1915709431207247 0 -0.0047591026019954026 0.19332022418589959 0 -0.003081975793268537 0.18782002811878001 0 0.0015327128313205251 0.1915709431207247 0 -2.3422743153838069e-05 0.1988005567515452 0 -0.0064134676939889088 0.1997865992100484 0 -0.0042090490499692894 0.20625736901624969 0 -0.0047591026019954026 0.19332022418589959 0 -2.3422743153838069e-05 0.1988005567515452 0 -0.0064134676939889088 0.1997865992100484 0 -0.0047591026019954026 0.19332022418589959 0 -0.0064134676939889088 0.1997865992100484 0 -0.011799668219416901 0.19617813045667529 0 -0.019383630886315679 0.20246845033521829 0 -0.011799668219416901 0.19617813045667529 0 -0.01127609585540912 0.20437671563987239 0 -0.0064134676939889088 0.1997865992100484 0 -0.011799668219416901 0.19617813045667529 0 -0.01127609585540912 0.20437671563987239 0 -0.019383630886315679 0.20246845033521829 0 -0.01127609585540912 0.20437671563987239 0 -0.015975625416527989 0.21106072298800291 0 -0.0098363755348389904 0.2097806401996784 0 -0.01127609585540912 0.20437671563987239 0 -0.015975625416527989 0.21106072298800291 0 -0.0098363755348389904 0.2097806401996784 0 -0.01127609585540912 0.20437671563987239 0 -0.0042090490499692894 0.20625736901624969 0 -0.0042090490499692894 0.20625736901624969 0 0.00083142932333707279 0.21381627434491049 0 0.0029581381265264858 0.20519393183106241 0 -0.0064134676939889088 0.1997865992100484 0 -0.01127609585540912 0.20437671563987239 0 -0.0042090490499692894 0.20625736901624969 0 -0.0098363755348389904 0.2097806401996784 0 -0.0042090490499692894 0.20625736901624969 0 -0.0060196598873338584 0.21321125444391051 0 -2.3422743153838069e-05 0.1988005567515452 0 -0.0042090490499692894 0.20625736901624969 0 0.0029581381265264858 0.20519393183106241 0 -0.0055559642639475869 0.21913689448513271 0 0.0001093474821353509 0.22215689039817851 0 0.00083142932333707279 0.21381627434491049 0 -0.0060196598873338584 0.21321125444391051 0 -0.0055559642639475869 0.21913689448513271 0 0.00083142932333707279 0.21381627434491049 0 -0.0042090490499692894 0.20625736901624969 0 -0.0060196598873338584 0.21321125444391051 0 0.00083142932333707279 0.21381627434491049 0 -0.0060196598873338584 0.21321125444391051 0 -0.01091493828254137 0.21625783395607551 0 -0.0055559642639475869 0.21913689448513271 0 -0.01091493828254137 0.21625783395607551 0 -0.015975625416527989 0.21106072298800291 0 -0.017588491814277241 0.22188462813269769 0 -0.0098363755348389904 0.2097806401996784 0 -0.0060196598873338584 0.21321125444391051 0 -0.01091493828254137 0.21625783395607551 0 -0.0098363755348389904 0.2097806401996784 0 -0.01091493828254137 0.21625783395607551 0 -0.015975625416527989 0.21106072298800291 0 -0.015975625416527989 0.21106072298800291 0 -0.025983012380334781 0.2115930184476672 0 -0.017588491814277241 0.22188462813269769 0 -0.019383630886315679 0.20246845033521829 0 -0.015975625416527989 0.21106072298800291 0 -0.025983012380334781 0.2115930184476672 0 -0.029252980350323681 0.1977376245802884 0 -0.019383630886315679 0.20246845033521829 0 -0.025983012380334781 0.2115930184476672 0 -0.025983012380334781 0.2115930184476672 0 -0.02772339752401377 0.22169904798743939 0 -0.017588491814277241 0.22188462813269769 0 -0.02772339752401377 0.22169904798743939 0 -0.02675369219281019 0.23290150150097291 0 -0.022352419066048221 0.22652947853539249 0 -0.02675369219281019 0.23290150150097291 0 -0.017344094733091689 0.22963273652046001 0 -0.01246950101347712 0.23792538229425519 0 -0.02675369219281019 0.23290150150097291 0 -0.017344094733091689 0.22963273652046001 0 -0.022352419066048221 0.22652947853539249 0 -0.017344094733091689 0.22963273652046001 0 -0.017588491814277241 0.22188462813269769 0 -0.01350500053265637 0.2263729039251991 0 -0.017344094733091689 0.22963273652046001 0 -0.022352419066048221 0.22652947853539249 0 -0.017588491814277241 0.22188462813269769 0 -0.02772339752401377 0.22169904798743939 0 -0.022352419066048221 0.22652947853539249 0 -0.017588491814277241 0.22188462813269769 0 -0.01091493828254137 0.21625783395607551 0 -0.017588491814277241 0.22188462813269769 0 -0.01009356448405245 0.2229710377255022 0 -0.017588491814277241 0.22188462813269769 0 -0.01350500053265637 0.2263729039251991 0 -0.01009356448405245 0.2229710377255022 0 -0.01091493828254137 0.21625783395607551 0 -0.01009356448405245 0.2229710377255022 0 -0.0055559642639475869 0.21913689448513271 0 -0.01009356448405245 0.2229710377255022 0 -0.0055559642639475869 0.21913689448513271 0 -0.0046023563546483629 0.22639127835839259 0 -0.0055559642639475869 0.21913689448513271 0 -0.0046023563546483629 0.22639127835839259 0 0.0001093474821353509 0.22215689039817851 0 -0.0046023563546483629 0.22639127835839259 0 0.0010433620948100131 0.23240638127880581 0 0.0001093474821353509 0.22215689039817851 0 -0.0046023563546483629 0.22639127835839259 0 -0.0089938510992040935 0.23100321332213661 0 0.0010433620948100131 0.23240638127880581 0 -0.017344094733091689 0.22963273652046001 0 -0.0089938510992040935 0.23100321332213661 0 -0.01246950101347712 0.23792538229425519 0 -0.01009356448405245 0.2229710377255022 0 -0.0046023563546483629 0.22639127835839259 0 -0.0089938510992040935 0.23100321332213661 0 -0.017344094733091689 0.22963273652046001 0 -0.01350500053265637 0.2263729039251991 0 -0.0089938510992040935 0.23100321332213661 0 -0.01350500053265637 0.2263729039251991 0 -0.01009356448405245 0.2229710377255022 0 -0.0089938510992040935 0.23100321332213661 0 -0.0089938510992040935 0.23100321332213661 0 -0.001965278602122185 0.24182690426762959 0 0.0010433620948100131 0.23240638127880581 0 -0.0089938510992040935 0.23100321332213661 0 -0.01246950101347712 0.23792538229425519 0 -0.001965278602122185 0.24182690426762959 0 -0.0082457657602449386 0.25246627485226031 0 -0.01246950101347712 0.23792538229425519 0 -0.001965278602122185 0.24182690426762959 0 -0.0082457657602449386 0.25246627485226031 0 -0.02675369219281019 0.23290150150097291 0 -0.01246950101347712 0.23792538229425519 0 -0.029881977245259539 0.25372898958001938 0 -0.0082457657602449386 0.25246627485226031 0 -0.026711477711177899 0.23444217817011309 0 -0.0082457657602449386 0.25246627485226031 0 -0.02675369219281019 0.23290150150097291 0 -0.026711477711177899 0.23444217817011309 0 -0.0082457657602449386 0.25246627485226031 0 -0.02675369219281019 0.23290150150097291 0 -0.046893106203257602 0.1507880314475378 0 -0.033582854738693747 0.16530128627528251 0 -0.03096555907766051 0.14775731769023701 0 -0.035508455794597132 0.13046501110523001 0 -0.046893106203257602 0.1507880314475378 0 -0.03096555907766051 0.14775731769023701 0 -0.035508455794597132 0.13046501110523001 0 -0.046893106203257602 0.1507880314475378 0 -0.035508455794597132 0.13046501110523001 0 -0.055186524828957063 0.1281687789626855 0 -0.046893106203257602 0.1507880314475378 0 -0.035508455794597132 0.13046501110523001 0 -0.055186524828957063 0.1281687789626855 0 -0.04045215309894238 0.1165912735558266 0 -0.074642854581774637 0.14147916649728479 0 -0.055186524828957063 0.1281687789626855 0 -0.046893106203257602 0.1507880314475378 0 -0.065615427061545384 0.16058384892905991 0 -0.074642854581774637 0.14147916649728479 0 -0.046893106203257602 0.1507880314475378 0 -0.065615427061545384 0.16058384892905991 0 -0.046893106203257602 0.1507880314475378 0 -0.051824687549248197 0.17345858692208871 0 -0.063769545057940663 0.19377195479839809 0 -0.051824687549248197 0.17345858692208871 0 -0.041349789320347038 0.18749549167170951 0 -0.041349789320347038 0.18749549167170951 0 -0.033582854738693747 0.16530128627528251 0 -0.02440704960050057 0.1813667693045137 0 -0.051824687549248197 0.17345858692208871 0 -0.041349789320347038 0.18749549167170951 0 -0.033582854738693747 0.16530128627528251 0 -0.046893106203257602 0.1507880314475378 0 -0.051824687549248197 0.17345858692208871 0 -0.033582854738693747 0.16530128627528251 0 -0.033582854738693747 0.16530128627528251 0 -0.022139091883514501 0.16815071126606429 0 -0.02440704960050057 0.1813667693045137 0 -0.033582854738693747 0.16530128627528251 0 -0.022139091883514501 0.16815071126606429 0 -0.016648491277264341 0.15771365056650341 0 -0.033582854738693747 0.16530128627528251 0 -0.016648491277264341 0.15771365056650341 0 -0.03096555907766051 0.14775731769023701 0 -0.022139091883514501 0.16815071126606429 0 -0.02440704960050057 0.1813667693045137 0 -0.01283771780100665 0.17547196173435681 0 -0.01949536222664228 0.1923427933584827 0 -0.02440704960050057 0.1813667693045137 0 -0.0099503170468955675 0.185467411183286 0 -0.02440704960050057 0.1813667693045137 0 -0.0099503170468955675 0.185467411183286 0 -0.01283771780100665 0.17547196173435681 0 -0.0099503170468955675 0.185467411183286 0 -0.01283771780100665 0.17547196173435681 0 -0.00450206117857799 0.17688747855202069 0 -0.01283771780100665 0.17547196173435681 0 -0.00450206117857799 0.17688747855202069 0 -0.0026654791677323511 0.16604552865166611 0 -0.00450206117857799 0.17688747855202069 0 -0.0026654791677323511 0.16604552865166611 0 0.0024081860720475369 0.17557227428335351 0 -0.00450206117857799 0.17688747855202069 0 0.00053502205069707774 0.18188021690744111 0 0.0024081860720475369 0.17557227428335351 0 -0.0099503170468955675 0.185467411183286 0 -0.00450206117857799 0.17688747855202069 0 0.00053502205069707774 0.18188021690744111 0 -0.003081975793268537 0.18782002811878001 0 -0.0099503170468955675 0.185467411183286 0 0.00053502205069707774 0.18188021690744111 0 -0.022139091883514501 0.16815071126606429 0 -0.016648491277264341 0.15771365056650341 0 -0.0026654791677323511 0.16604552865166611 0 -0.022139091883514501 0.16815071126606429 0 -0.01283771780100665 0.17547196173435681 0 -0.0026654791677323511 0.16604552865166611 0 -0.016648491277264341 0.15771365056650341 0 -0.0026654791677323511 0.16604552865166611 0 0.00151890392611572 0.15456094484017679 0 -0.016648491277264341 0.15771365056650341 0 -0.0026654791677323511 0.16604552865166611 0 -0.0082797250895681185 0.13474448294352481 0 0.00151890392611572 0.15456094484017679 0 -0.016648491277264341 0.15771365056650341 0 -0.0082797250895681185 0.13474448294352481 0 0.00151890392611572 0.15456094484017679 0 -0.016648491277264341 0.15771365056650341 0 -0.03096555907766051 0.14775731769023701 0 -0.022194887374489752 0.13451860905663129 0 -0.016648491277264341 0.15771365056650341 0 -0.022194887374489752 0.13451860905663129 0 -0.0082797250895681185 0.13474448294352481 0 -0.035508455794597132 0.13046501110523001 0 -0.03096555907766051 0.14775731769023701 0 -0.022194887374489752 0.13451860905663129 0 -0.035508455794597132 0.13046501110523001 0 -0.022194887374489752 0.13451860905663129 0 -0.02222625157844095 0.1227088344756834 0 -0.022194887374489752 0.13451860905663129 0 -0.012678773622269129 0.1213748672570316 0 -0.02222625157844095 0.1227088344756834 0 -0.022194887374489752 0.13451860905663129 0 -0.0082797250895681185 0.13474448294352481 0 -0.012678773622269129 0.1213748672570316 0 -0.0082797250895681185 0.13474448294352481 0 -0.012678773622269129 0.1213748672570316 0 0.0010393500416724941 0.12595831854165979 0 -0.012678773622269129 0.1213748672570316 0 -0.0069683050282923539 0.11495619240176071 0 0.0010393500416724941 0.12595831854165979 0 -0.0069683050282923539 0.11495619240176071 0 0.00039794405216867472 0.112072386291362 0 0.0010393500416724941 0.12595831854165979 0 -0.012678773622269129 0.1213748672570316 0 -0.012248850971573841 0.1125208075020822 0 -0.01744198128355802 0.11503771634109559 0 -0.012678773622269129 0.1213748672570316 0 -0.012248850971573841 0.1125208075020822 0 -0.0069683050282923539 0.11495619240176071 0 -0.012248850971573841 0.1125208075020822 0 -0.0069683050282923539 0.11495619240176071 0 -0.0083997351711877014 0.10895079227570641 0 -0.0069683050282923539 0.11495619240176071 0 -0.0083997351711877014 0.10895079227570641 0 0.00039794405216867472 0.112072386291362 0 -0.011506603279544361 0.087618711973773578 0 0.0058206420146291954 0.1114089238878985 0 0.00039794405216867472 0.112072386291362 0 -0.015837719346710199 0.095350294128549784 0 -0.011506603279544361 0.087618711973773578 0 0.00039794405216867472 0.112072386291362 0 -0.011506603279544361 0.087618711973773578 0 0.0058206420146291954 0.1114089238878985 0 -0.015837719346710199 0.095350294128549784 0 0.00039794405216867472 0.112072386291362 0 -0.0083997351711877014 0.10895079227570641 0 -0.015837719346710199 0.095350294128549784 0 0.00039794405216867472 0.112072386291362 0 -0.011506603279544361 0.087618711973773578 0 0.0017142141577850001 0.096485027642689541 0 0.0058206420146291954 0.1114089238878985 0 -0.0083997351711877014 0.10895079227570641 0 -0.013221823848225379 0.1065091018144344 0 -0.015837719346710199 0.095350294128549784 0 -0.012248850971573841 0.1125208075020822 0 -0.0083997351711877014 0.10895079227570641 0 -0.013221823848225379 0.1065091018144344 0 -0.012248850971573841 0.1125208075020822 0 -0.013221823848225379 0.1065091018144344 0 -0.017997844109414411 0.1087655018954708 0 -0.017997844109414411 0.1087655018954708 0 -0.015837719346710199 0.095350294128549784 0 -0.024123805385937312 0.11014199076292169 0 -0.013221823848225379 0.1065091018144344 0 -0.017997844109414411 0.1087655018954708 0 -0.015837719346710199 0.095350294128549784 0 -0.024123805385937312 0.11014199076292169 0 -0.032300333499350402 0.090057470672271281 0 -0.015837719346710199 0.095350294128549784 0 -0.024123805385937312 0.11014199076292169 0 -0.032300333499350402 0.090057470672271281 0 -0.015837719346710199 0.095350294128549784 0 -0.024123805385937312 0.11014199076292169 0 -0.035508455794597132 0.13046501110523001 0 -0.024123805385937312 0.11014199076292169 0 -0.023307159817290739 0.1121479686184283 0 -0.035508455794597132 0.13046501110523001 0 -0.02222625157844095 0.1227088344756834 0 -0.023307159817290739 0.1121479686184283 0 -0.035508455794597132 0.13046501110523001 0 -0.024123805385937312 0.11014199076292169 0 -0.024123805385937312 0.11014199076292169 0 -0.023307159817290739 0.1121479686184283 0 -0.012678773622269129 0.1213748672570316 0 -0.02222625157844095 0.1227088344756834 0 -0.01744198128355802 0.11503771634109559 0 -0.02222625157844095 0.1227088344756834 0 -0.01744198128355802 0.11503771634109559 0 -0.023307159817290739 0.1121479686184283 0 -0.012248850971573841 0.1125208075020822 0 -0.017997844109414411 0.1087655018954708 0 -0.01744198128355802 0.11503771634109559 0 -0.017997844109414411 0.1087655018954708 0 -0.024123805385937312 0.11014199076292169 0 -0.023307159817290739 0.1121479686184283 0 -0.017997844109414411 0.1087655018954708 0 -0.01744198128355802 0.11503771634109559 0 -0.023307159817290739 0.1121479686184283 0 -0.0046988296279310846 0.075465987257500103 0 -0.004471055932428975 0.061346262570306953 0 0.0079626054049135586 0.052863747179962457 0 -0.0093767874180366029 0.073051079923104223 0 -0.014915188529848109 0.07157527628023079 0 -0.011506603279544361 0.087618711973773578 0 -0.0096267601800840239 0.066065855624376196 0 -0.01690032334888349 0.065021557104339434 0 -0.015766095144715799 0.059221925757037469 0 -0.0096267601800840239 0.066065855624376196 0 -0.014915188529848109 0.07157527628023079 0 -0.01690032334888349 0.065021557104339434 0 -0.0096267601800840239 0.066065855624376196 0 -0.0093767874180366029 0.073051079923104223 0 -0.014915188529848109 0.07157527628023079 0 -0.0096267601800840239 0.066065855624376196 0 -0.0046988296279310846 0.075465987257500103 0 -0.004471055932428975 0.061346262570306953 0 -0.0046988296279310846 0.075465987257500103 0 -0.0093767874180366029 0.073051079923104223 0 -0.0096267601800840239 0.066065855624376196 0 -0.0046988296279310846 0.075465987257500103 0 -0.0093767874180366029 0.073051079923104223 0 -0.0046988296279310846 0.075465987257500103 0 -0.011506603279544361 0.087618711973773578 0 -0.0046988296279310846 0.075465987257500103 0 -0.0093767874180366029 0.073051079923104223 0 -0.011506603279544361 0.087618711973773578 0 -0.0046988296279310846 0.075465987257500103 0 -0.011506603279544361 0.087618711973773578 0 0.00056903788424511365 0.086682396089073327 0 -0.011506603279544361 0.087618711973773578 0 0.00056903788424511365 0.086682396089073327 0 0.0017142141577850001 0.096485027642689541 0 -0.015837719346710199 0.095350294128549784 0 -0.011506603279544361 0.087618711973773578 0 -0.011506603279544361 0.087618711973773578 0 -0.028157290479737571 0.082661622355085798 0 -0.027165468422692102 0.066119176775560506 0 -0.015837719346710199 0.095350294128549784 0 -0.011506603279544361 0.087618711973773578 0 -0.028157290479737571 0.082661622355085798 0 -0.015837719346710199 0.095350294128549784 0 -0.028157290479737571 0.082661622355085798 0 -0.032300333499350402 0.090057470672271281 0 -0.015837719346710199 0.095350294128549784 0 -0.028157290479737571 0.082661622355085798 0 -0.014915188529848109 0.07157527628023079 0 -0.011506603279544361 0.087618711973773578 0 -0.027165468422692102 0.066119176775560506 0 -0.011506603279544361 0.087618711973773578 0 -0.027165468422692102 0.066119176775560506 0 -0.027165468422692102 0.066119176775560506 0 -0.01690032334888349 0.065021557104339434 0 -0.021155304748881689 0.062203044053262727 0 -0.014915188529848109 0.07157527628023079 0 -0.027165468422692102 0.066119176775560506 0 -0.01690032334888349 0.065021557104339434 0 -0.027165468422692102 0.066119176775560506 0 -0.040476861612764189 0.069972950581621118 0 -0.047888547298180387 0.051767161035057033 0 -0.028157290479737571 0.082661622355085798 0 -0.027165468422692102 0.066119176775560506 0 -0.040476861612764189 0.069972950581621118 0 -0.040476861612764189 0.069972950581621118 0 -0.049934811086014087 0.07186746235717667 0 -0.047859912164240369 0.063897566148078455 0 -0.028157290479737571 0.082661622355085798 0 -0.040476861612764189 0.069972950581621118 0 -0.040476861612764189 0.069972950581621118 0 -0.032300333499350402 0.090057470672271281 0 -0.028157290479737571 0.082661622355085798 0 -0.040476861612764189 0.069972950581621118 0 -0.032300333499350402 0.090057470672271281 0 -0.032300333499350402 0.090057470672271281 0 -0.052294403454901703 0.081174947256086191 0 -0.05578440732887191 0.096170589739797752 0 -0.040476861612764189 0.069972950581621118 0 -0.032300333499350402 0.090057470672271281 0 -0.052294403454901703 0.081174947256086191 0 -0.052294403454901703 0.081174947256086191 0 -0.05578440732887191 0.096170589739797752 0 -0.071620526940906107 0.087533684005701329 0 -0.052294403454901703 0.081174947256086191 0 -0.071620526940906107 0.087533684005701329 0 -0.062515526400001881 0.068377579792855414 0 -0.040476861612764189 0.069972950581621118 0 -0.052294403454901703 0.081174947256086191 0 -0.049934811086014087 0.07186746235717667 0 -0.052294403454901703 0.081174947256086191 0 -0.049934811086014087 0.07186746235717667 0 -0.062515526400001881 0.068377579792855414 0 -0.049934811086014087 0.07186746235717667 0 -0.052204780428632629 0.062945341387988421 0 -0.062515526400001881 0.068377579792855414 0 -0.052204780428632629 0.062945341387988421 0 -0.062515526400001881 0.068377579792855414 0 -0.055379183454653792 0.058514889464143828 0 -0.049934811086014087 0.07186746235717667 0 -0.052204780428632629 0.062945341387988421 0 -0.047859912164240369 0.063897566148078455 0 -0.024123805385937312 0.11014199076292169 0 -0.04045215309894238 0.1165912735558266 0 -0.041170092212669533 0.1046411265361262 0 -0.035508455794597132 0.13046501110523001 0 -0.024123805385937312 0.11014199076292169 0 -0.04045215309894238 0.1165912735558266 0 -0.04045215309894238 0.1165912735558266 0 -0.041170092212669533 0.1046411265361262 0 -0.052159737415513489 0.1112025467171566 0 -0.032300333499350402 0.090057470672271281 0 -0.041170092212669533 0.1046411265361262 0 -0.05578440732887191 0.096170589739797752 0 -0.024123805385937312 0.11014199076292169 0 -0.032300333499350402 0.090057470672271281 0 -0.041170092212669533 0.1046411265361262 0 -0.05578440732887191 0.096170589739797752 0 -0.052159737415513489 0.1112025467171566 0 -0.07438317581125764 0.1124407737129243 0 -0.041170092212669533 0.1046411265361262 0 -0.05578440732887191 0.096170589739797752 0 -0.052159737415513489 0.1112025467171566 0 -0.055186524828957063 0.1281687789626855 0 -0.04045215309894238 0.1165912735558266 0 -0.052159737415513489 0.1112025467171566 0 -0.055186524828957063 0.1281687789626855 0 -0.052159737415513489 0.1112025467171566 0 -0.07438317581125764 0.1124407737129243 0 -0.092802426943272898 0.12960292979422991 0 -0.07438317581125764 0.1124407737129243 0 -0.10110008134148971 0.1098561456819369 0 -0.07438317581125764 0.1124407737129243 0 -0.086834659998143784 0.098004038152668241 0 -0.10110008134148971 0.1098561456819369 0 -0.07438317581125764 0.1124407737129243 0 -0.086834659998143784 0.098004038152668241 0 -0.071620526940906107 0.087533684005701329 0 -0.05578440732887191 0.096170589739797752 0 -0.07438317581125764 0.1124407737129243 0 -0.071620526940906107 0.087533684005701329 0 -0.071620526940906107 0.087533684005701329 0 -0.062515526400001881 0.068377579792855414 0 -0.077633089280774809 0.070659037798975324 0 -0.062515526400001881 0.068377579792855414 0 -0.077633089280774809 0.070659037798975324 0 -0.069862538744371955 0.057777113150521288 0 -0.077633089280774809 0.070659037798975324 0 -0.081860045586377939 0.060182951188062161 0 -0.069862538744371955 0.057777113150521288 0 -0.077633089280774809 0.070659037798975324 0 -0.09054666164713164 0.067286880848174316 0 -0.081860045586377939 0.060182951188062161 0 -0.077633089280774809 0.070659037798975324 0 -0.09054666164713164 0.067286880848174316 0 -0.091096470542610469 0.082323341280698709 0 -0.071620526940906107 0.087533684005701329 0 -0.077633089280774809 0.070659037798975324 0 -0.091096470542610469 0.082323341280698709 0 -0.086834659998143784 0.098004038152668241 0 -0.071620526940906107 0.087533684005701329 0 -0.091096470542610469 0.082323341280698709 0 -0.086834659998143784 0.098004038152668241 0 -0.091096470542610469 0.082323341280698709 0 -0.1074822184466613 0.088136729408796272 0 -0.091096470542610469 0.082323341280698709 0 -0.1074822184466613 0.088136729408796272 0 -0.10104646070399111 0.074349611526457776 0 -0.1074822184466613 0.088136729408796272 0 -0.10104646070399111 0.074349611526457776 0 -0.1134486320906168 0.071653759806922179 0 -0.09054666164713164 0.067286880848174316 0 -0.10104646070399111 0.074349611526457776 0 -0.1026583207929353 0.062347346287697412 0 -0.09054666164713164 0.067286880848174316 0 -0.091096470542610469 0.082323341280698709 0 -0.10104646070399111 0.074349611526457776 0 -0.10104646070399111 0.074349611526457776 0 -0.1134486320906168 0.071653759806922179 0 -0.1026583207929353 0.062347346287697412 0 -0.1134486320906168 0.071653759806922179 0 -0.1169815729820268 0.057446916627697332 0 -0.1026583207929353 0.062347346287697412 0 -0.1134486320906168 0.071653759806922179 0 -0.12498233095038511 0.069533312171706482 0 -0.1248370695698198 0.083226530136874921 0 -0.1134486320906168 0.071653759806922179 0 -0.12498233095038511 0.069533312171706482 0 -0.1169815729820268 0.057446916627697332 0 -0.1074822184466613 0.088136729408796272 0 -0.1134486320906168 0.071653759806922179 0 -0.1248370695698198 0.083226530136874921 0 -0.12991930243541749 0.1020465165188278 0 -0.1074822184466613 0.088136729408796272 0 -0.1248370695698198 0.083226530136874921 0 -0.12991930243541749 0.1020465165188278 0 -0.1074822184466613 0.088136729408796272 0 -0.10110008134148971 0.1098561456819369 0 -0.12991930243541749 0.1020465165188278 0 -0.1131006250587715 0.12959615498317961 0 -0.10110008134148971 0.1098561456819369 0 -0.12991930243541749 0.1020465165188278 0 -0.13028426483969929 0.13221647237215789 0 -0.1131006250587715 0.12959615498317961 0 -0.1131006250587715 0.12959615498317961 0 -0.092802426943272898 0.12960292979422991 0 -0.10110008134148971 0.1098561456819369 0 -0.086834659998143784 0.098004038152668241 0 -0.1074822184466613 0.088136729408796272 0 -0.10110008134148971 0.1098561456819369 0 -0.1061587232064081 0.029080734372794698 0 -0.094449021505079139 0.018227913303066591 0 -0.1094215753963574 0.0115277712725063 0 -0.1061587232064081 0.029080734372794698 0 -0.094924595462104619 0.030399760044886301 0 -0.094449021505079139 0.018227913303066591 0 -0.094449021505079139 0.018227913303066591 0 -0.097507665945787692 0.0040820149966005574 0 -0.1094215753963574 0.0115277712725063 0 -0.097507665945787692 0.0040820149966005574 0 -0.1058521268010089 0.00073384547527136773 0 -0.1094215753963574 0.0115277712725063 0 -0.1152652699767374 -0.0044733142422073097 0 -0.1273771369441013 0.0023450629401116992 0 -0.1094215753963574 0.0115277712725063 0 -0.1152652699767374 -0.0044733142422073097 0 -0.1058521268010089 0.00073384547527136773 0 -0.1094215753963574 0.0115277712725063 0 -0.1273771369441013 0.0023450629401116992 0 -0.12537023626190849 0.01701499410391356 0 -0.1094215753963574 0.0115277712725063 0 -0.12537023626190849 0.01701499410391356 0 -0.1094215753963574 0.0115277712725063 0 -0.1154752524598698 0.02214949429500624 0 -0.12537023626190849 0.01701499410391356 0 -0.1154752524598698 0.02214949429500624 0 -0.120950474974805 0.030974477430810402 0 -0.1061587232064081 0.029080734372794698 0 -0.1094215753963574 0.0115277712725063 0 -0.1154752524598698 0.02214949429500624 0 -0.1061587232064081 0.029080734372794698 0 -0.1154752524598698 0.02214949429500624 0 -0.120950474974805 0.030974477430810402 0 -0.1304591025064194 0.044551821316570157 0 -0.120950474974805 0.030974477430810402 0 -0.112428546201817 0.041955624634692393 0 -0.1061587232064081 0.029080734372794698 0 -0.120950474974805 0.030974477430810402 0 -0.112428546201817 0.041955624634692393 0 -0.1304591025064194 0.044551821316570157 0 -0.112428546201817 0.041955624634692393 0 -0.1169815729820268 0.057446916627697332 0 -0.1311901693420546 0.060374133793646992 0 -0.12498233095038511 0.069533312171706482 0 -0.1169815729820268 0.057446916627697332 0 -0.112428546201817 0.041955624634692393 0 -0.1169815729820268 0.057446916627697332 0 -0.10210071185166431 0.050014029354961582 0 -0.1169815729820268 0.057446916627697332 0 -0.1026583207929353 0.062347346287697412 0 -0.10210071185166431 0.050014029354961582 0 -0.10210071185166431 0.050014029354961582 0 -0.091201579857211959 0.041080799774458047 0 -0.091131717688311603 0.055225201160547438 0 -0.1026583207929353 0.062347346287697412 0 -0.10210071185166431 0.050014029354961582 0 -0.091131717688311603 0.055225201160547438 0 -0.09054666164713164 0.067286880848174316 0 -0.1026583207929353 0.062347346287697412 0 -0.091131717688311603 0.055225201160547438 0 -0.1061587232064081 0.029080734372794698 0 -0.112428546201817 0.041955624634692393 0 -0.1016080011228369 0.039407166226836883 0 -0.112428546201817 0.041955624634692393 0 -0.10210071185166431 0.050014029354961582 0 -0.1016080011228369 0.039407166226836883 0 -0.10210071185166431 0.050014029354961582 0 -0.1016080011228369 0.039407166226836883 0 -0.091201579857211959 0.041080799774458047 0 -0.1061587232064081 0.029080734372794698 0 -0.094924595462104619 0.030399760044886301 0 -0.1016080011228369 0.039407166226836883 0 -0.094924595462104619 0.030399760044886301 0 -0.1016080011228369 0.039407166226836883 0 -0.091201579857211959 0.041080799774458047 0 -0.094924595462104619 0.030399760044886301 0 -0.091201579857211959 0.041080799774458047 0 -0.083613433652756419 0.02825823648094046 0 -0.091201579857211959 0.041080799774458047 0 -0.080163505572120847 0.038728335950810322 0 -0.0801262205712997 0.049966522982092462 0 -0.091201579857211959 0.041080799774458047 0 -0.080163505572120847 0.038728335950810322 0 -0.083613433652756419 0.02825823648094046 0 -0.080163505572120847 0.038728335950810322 0 -0.075199828102842814 0.032505994045140242 0 -0.083613433652756419 0.02825823648094046 0 -0.09054666164713164 0.067286880848174316 0 -0.091131717688311603 0.055225201160547438 0 -0.081860045586377939 0.060182951188062161 0 -0.091201579857211959 0.041080799774458047 0 -0.091131717688311603 0.055225201160547438 0 -0.0801262205712997 0.049966522982092462 0 -0.091131717688311603 0.055225201160547438 0 -0.0801262205712997 0.049966522982092462 0 -0.081860045586377939 0.060182951188062161 0 -0.0801262205712997 0.049966522982092462 0 -0.069862538744371955 0.057777113150521288 0 -0.06901267431079619 0.039797487593251017 0 -0.069862538744371955 0.057777113150521288 0 -0.06901267431079619 0.039797487593251017 0 -0.058907879691800273 0.050969475640674493 0 -0.062515526400001881 0.068377579792855414 0 -0.069862538744371955 0.057777113150521288 0 -0.058907879691800273 0.050969475640674493 0 -0.0801262205712997 0.049966522982092462 0 -0.081860045586377939 0.060182951188062161 0 -0.069862538744371955 0.057777113150521288 0 -0.06901267431079619 0.039797487593251017 0 -0.068009698875697827 0.023239916155559141 0 -0.055300232983598208 0.033561371488493641 0 -0.075199828102842814 0.032505994045140242 0 -0.06901267431079619 0.039797487593251017 0 -0.068009698875697827 0.023239916155559141 0 -0.080163505572120847 0.038728335950810322 0 -0.075199828102842814 0.032505994045140242 0 -0.06901267431079619 0.039797487593251017 0 -0.080163505572120847 0.038728335950810322 0 -0.0801262205712997 0.049966522982092462 0 -0.06901267431079619 0.039797487593251017 0 -0.068009698875697827 0.023239916155559141 0 -0.066123158358303874 0.0069763394170788487 0 -0.055300232983598208 0.033561371488493641 0 -0.068009698875697827 0.023239916155559141 0 -0.083613433652756419 0.02825823648094046 0 -0.080050012301679602 0.015705407900093959 0 -0.068009698875697827 0.023239916155559141 0 -0.080050012301679602 0.015705407900093959 0 -0.07274845615251338 0.0135364418571977 0 -0.075199828102842814 0.032505994045140242 0 -0.068009698875697827 0.023239916155559141 0 -0.083613433652756419 0.02825823648094046 0 -0.094449021505079139 0.018227913303066591 0 -0.083613433652756419 0.02825823648094046 0 -0.080050012301679602 0.015705407900093959 0 -0.094924595462104619 0.030399760044886301 0 -0.094449021505079139 0.018227913303066591 0 -0.083613433652756419 0.02825823648094046 0 -0.089124004628701792 -0.0040277377021705899 0 -0.097507665945787692 0.0040820149966005574 0 -0.086098134196158846 0.0059583430860626887 0 -0.094449021505079139 0.018227913303066591 0 -0.080050012301679602 0.015705407900093959 0 -0.086098134196158846 0.0059583430860626887 0 -0.094449021505079139 0.018227913303066591 0 -0.097507665945787692 0.0040820149966005574 0 -0.086098134196158846 0.0059583430860626887 0 -0.080050012301679602 0.015705407900093959 0 -0.086098134196158846 0.0059583430860626887 0 -0.076810955074372203 0.0082241039560588727 0 -0.079764572027605563 -0.001208843295517239 0 -0.086098134196158846 0.0059583430860626887 0 -0.076810955074372203 0.0082241039560588727 0 -0.079764572027605563 -0.001208843295517239 0 -0.089124004628701792 -0.0040277377021705899 0 -0.086098134196158846 0.0059583430860626887 0 -0.079764572027605563 -0.001208843295517239 0 -0.076810955074372203 0.0082241039560588727 0 -0.066123158358303874 0.0069763394170788487 0 -0.068009698875697827 0.023239916155559141 0 -0.07274845615251338 0.0135364418571977 0 -0.066123158358303874 0.0069763394170788487 0 -0.076810955074372203 0.0082241039560588727 0 -0.07274845615251338 0.0135364418571977 0 -0.066123158358303874 0.0069763394170788487 0 -0.080050012301679602 0.015705407900093959 0 -0.076810955074372203 0.0082241039560588727 0 -0.07274845615251338 0.0135364418571977 0 -0.047617207273071643 -0.0035118018543059538 0 -0.059664616745900671 -0.0040500510012267867 0 -0.050798470683601923 0.01183886002179501 0 -0.059664616745900671 -0.0040500510012267867 0 -0.066123158358303874 0.0069763394170788487 0 -0.050798470683601923 0.01183886002179501 0 -0.059664616745900671 -0.0040500510012267867 0 -0.050798470683601923 0.01183886002179501 0 -0.047617207273071643 -0.0035118018543059538 0 -0.050798470683601923 0.01183886002179501 0 -0.050798470683601923 0.01183886002179501 0 -0.055300232983598208 0.033561371488493641 0 -0.04692109718252771 0.035386244484329407 0 -0.066123158358303874 0.0069763394170788487 0 -0.055300232983598208 0.033561371488493641 0 -0.066123158358303874 0.0069763394170788487 0 -0.050798470683601923 0.01183886002179501 0 -0.055300232983598208 0.033561371488493641 0 -0.050798470683601923 0.01183886002179501 0 -0.055300232983598208 0.033561371488493641 0 -0.050798470683601923 0.01183886002179501 0 -0.034391162446891957 0.018187238464497092 0 -0.037793901381418679 0.035144188298954319 0 -0.034391162446891957 0.018187238464497092 0 -0.037793901381418679 0.035144188298954319 0 -0.022455882408961961 0.026825405924253771 0 -0.050798470683601923 0.01183886002179501 0 -0.037793901381418679 0.035144188298954319 0 -0.050798470683601923 0.01183886002179501 0 -0.04692109718252771 0.035386244484329407 0 -0.037793901381418679 0.035144188298954319 0 -0.050798470683601923 0.01183886002179501 0 -0.034391162446891957 0.018187238464497092 0 -0.03671052455766443 0.0037031618858211421 0 -0.034391162446891957 0.018187238464497092 0 -0.03671052455766443 0.0037031618858211421 0 -0.022890364083827771 0.01081673007749915 0 -0.047617207273071643 -0.0035118018543059538 0 -0.050798470683601923 0.01183886002179501 0 -0.03671052455766443 0.0037031618858211421 0 -0.062515526400001881 0.068377579792855414 0 -0.058907879691800273 0.050969475640674493 0 -0.062515526400001881 0.068377579792855414 0 -0.055379183454653792 0.058514889464143828 0 -0.058907879691800273 0.050969475640674493 0 -0.052204780428632629 0.062945341387988421 0 -0.047859912164240369 0.063897566148078455 0 -0.047888547298180387 0.051767161035057033 0 -0.052204780428632629 0.062945341387988421 0 -0.055379183454653792 0.058514889464143828 0 -0.047888547298180387 0.051767161035057033 0 -0.055379183454653792 0.058514889464143828 0 -0.058907879691800273 0.050969475640674493 0 -0.047888547298180387 0.051767161035057033 0 -0.06901267431079619 0.039797487593251017 0 -0.058907879691800273 0.050969475640674493 0 -0.055300232983598208 0.033561371488493641 0 -0.047888547298180387 0.051767161035057033 0 -0.055300232983598208 0.033561371488493641 0 -0.04692109718252771 0.035386244484329407 0 -0.058907879691800273 0.050969475640674493 0 -0.047888547298180387 0.051767161035057033 0 -0.055300232983598208 0.033561371488493641 0 -0.047888547298180387 0.051767161035057033 0 -0.055300232983598208 0.033561371488493641 0 -0.058907879691800273 0.050969475640674493 0 -0.055300232983598208 0.033561371488493641 0 -0.037793901381418679 0.035144188298954319 0 -0.024789332079235359 0.058449516576113518 0 -0.047888547298180387 0.051767161035057033 0 -0.04692109718252771 0.035386244484329407 0 -0.042824333565839388 0.044619641577347061 0 -0.037793901381418679 0.035144188298954319 0 -0.042824333565839388 0.044619641577347061 0 -0.024789332079235359 0.058449516576113518 0 -0.04692109718252771 0.035386244484329407 0 -0.037793901381418679 0.035144188298954319 0 -0.042824333565839388 0.044619641577347061 0 -0.027165468422692102 0.066119176775560506 0 -0.047888547298180387 0.051767161035057033 0 -0.042824333565839388 0.044619641577347061 0 -0.040476861612764189 0.069972950581621118 0 -0.047859912164240369 0.063897566148078455 0 -0.047888547298180387 0.051767161035057033 0 -0.040476861612764189 0.069972950581621118 0 -0.047888547298180387 0.051767161035057033 0 -0.027165468422692102 0.066119176775560506 0 -0.042824333565839388 0.044619641577347061 0 -0.027165468422692102 0.066119176775560506 0 -0.042824333565839388 0.044619641577347061 0 -0.024789332079235359 0.058449516576113518 0 -0.015766095144715799 0.059221925757037469 0 -0.024789332079235359 0.058449516576113518 0 -0.0190365636870411 0.05257699221554326 0 -0.015766095144715799 0.059221925757037469 0 -0.021155304748881689 0.062203044053262727 0 -0.024789332079235359 0.058449516576113518 0 -0.01690032334888349 0.065021557104339434 0 -0.015766095144715799 0.059221925757037469 0 -0.021155304748881689 0.062203044053262727 0 -0.027165468422692102 0.066119176775560506 0 -0.021155304748881689 0.062203044053262727 0 -0.024789332079235359 0.058449516576113518 0 -0.024789332079235359 0.058449516576113518 0 -0.0190365636870411 0.05257699221554326 0 -0.02501616098884394 0.043295095323351421 0 -0.0190365636870411 0.05257699221554326 0 -0.02501616098884394 0.043295095323351421 0 -0.010574666535369299 0.049341431205670631 0 -0.037793901381418679 0.035144188298954319 0 -0.024789332079235359 0.058449516576113518 0 -0.02501616098884394 0.043295095323351421 0 -0.037793901381418679 0.035144188298954319 0 -0.02501616098884394 0.043295095323351421 0 -0.022455882408961961 0.026825405924253771 0 -0.02501616098884394 0.043295095323351421 0 -0.01174883101074616 0.035626247072063598 0 -0.022455882408961961 0.026825405924253771 0 -0.02501616098884394 0.043295095323351421 0 -0.01174883101074616 0.035626247072063598 0 -0.010574666535369299 0.049341431205670631 0 -0.01174883101074616 0.035626247072063598 0 -0.010574666535369299 0.049341431205670631 0 0.0050554059078342702 0.036817447586302399 0 -0.010574666535369299 0.049341431205670631 0 -0.004471055932428975 0.061346262570306953 0 0.0079626054049135586 0.052863747179962457 0 -0.015766095144715799 0.059221925757037469 0 -0.0190365636870411 0.05257699221554326 0 -0.010574666535369299 0.049341431205670631 0 -0.015766095144715799 0.059221925757037469 0 -0.010574666535369299 0.049341431205670631 0 -0.004471055932428975 0.061346262570306953 0 -0.0096267601800840239 0.066065855624376196 0 -0.015766095144715799 0.059221925757037469 0 -0.004471055932428975 0.061346262570306953 0 -0.025670282478897081 -0.0054027298625421993 0 -0.03671052455766443 0.0037031618858211421 0 -0.022890364083827771 0.01081673007749915 0 -0.025670282478897081 -0.0054027298625421993 0 -0.022890364083827771 0.01081673007749915 0 -0.010105069976996849 0.0023765649732562961 0 -0.022890364083827771 0.01081673007749915 0 -0.022455882408961961 0.026825405924253771 0 -0.0028948745420432241 0.01788293630915707 0 -0.034391162446891957 0.018187238464497092 0 -0.022890364083827771 0.01081673007749915 0 -0.022455882408961961 0.026825405924253771 0 -0.01174883101074616 0.035626247072063598 0 -0.022455882408961961 0.026825405924253771 0 -0.0028948745420432241 0.01788293630915707 0 -0.01174883101074616 0.035626247072063598 0 -0.0028948745420432241 0.01788293630915707 0 0.0050554059078342702 0.036817447586302399 0 -0.022890364083827771 0.01081673007749915 0 -0.0028948745420432241 0.01788293630915707 0 -0.010105069976996849 0.0023765649732562961 0 -0.0028948745420432241 0.01788293630915707 0 -0.010105069976996849 0.0023765649732562961 0 0.0047038114401232534 -0.001040937293712483 0 -0.0028948745420432241 0.01788293630915707 0 0.020415517075116841 0.0076517724901667356 0 0.0047038114401232534 -0.001040937293712483 0 -0.0028948745420432241 0.01788293630915707 0 0.020342672512877309 0.02491627604112644 0 0.020415517075116841 0.0076517724901667356 0 -0.0028948745420432241 0.01788293630915707 0 0.020342672512877309 0.02491627604112644 0 0.0050554059078342702 0.036817447586302399 0 0.020342672512877309 0.02491627604112644 0 0.020415517075116841 0.0076517724901667356 0 0.04034715667016759 0.018897687307637179 0 0.020342672512877309 0.02491627604112644 0 0.02507841675544124 0.048354097280414877 0 0.04034715667016759 0.018897687307637179 0 0.0079626054049135586 0.052863747179962457 0 0.02507841675544124 0.048354097280414877 0 0.010722424996073881 0.068121568230846891 0 -0.010574666535369299 0.049341431205670631 0 0.0079626054049135586 0.052863747179962457 0 0.0050554059078342702 0.036817447586302399 0 0.0079626054049135586 0.052863747179962457 0 0.0050554059078342702 0.036817447586302399 0 0.02507841675544124 0.048354097280414877 0 0.020342672512877309 0.02491627604112644 0 0.0050554059078342702 0.036817447586302399 0 0.02507841675544124 0.048354097280414877 0 0.02507841675544124 0.048354097280414877 0 0.050251726499931808 0.044842678424317363 0 0.039807943620716157 0.068946520475498749 0 0.050251726499931808 0.044842678424317363 0 0.039807943620716157 0.068946520475498749 0 0.02507841675544124 0.048354097280414877 0 0.050251726499931808 0.044842678424317363 0 0.04034715667016759 0.018897687307637179 0 0.050251726499931808 0.044842678424317363 0 0.060695509379147472 0.02073883637313596 0 0.066628286533047365 0.040173783681243101 0 0.050251726499931808 0.044842678424317363 0 0.060695509379147472 0.02073883637313596 0 0.050251726499931808 0.044842678424317363 0 0.066628286533047365 0.040173783681243101 0 0.063756980967503582 0.059761195325569103 0 0.050251726499931808 0.044842678424317363 0 0.063756980967503582 0.059761195325569103 0 0.039807943620716157 0.068946520475498749 0 0.020415517075116841 0.0076517724901667356 0 0.04034715667016759 0.018897687307637179 0 0.039787151186370009 -0.0039594854922263374 0 0.04034715667016759 0.018897687307637179 0 0.053306813386582982 0.0056008818424343951 0 0.039787151186370009 -0.0039594854922263374 0 0.050251726499931808 0.044842678424317363 0 0.04034715667016759 0.018897687307637179 0 0.060695509379147472 0.02073883637313596 0 0.04034715667016759 0.018897687307637179 0 0.060695509379147472 0.02073883637313596 0 0.053306813386582982 0.0056008818424343951 0 0.060695509379147472 0.02073883637313596 0 0.053306813386582982 0.0056008818424343951 0 0.065940651683257009 0.0024831850618150888 0 0.060695509379147472 0.02073883637313596 0 0.065940651683257009 0.0024831850618150888 0 0.07992851590561921 0.0082161523869754144 0 0.065940651683257009 0.0024831850618150888 0 0.07992851590561921 0.0082161523869754144 0 0.074177093133044117 -0.010507922444979889 0 0.07992851590561921 0.0082161523869754144 0 0.1009244284881298 0.0078078577834924806 0 0.09649789417263642 -0.0037639840011086311 0 0.07992851590561921 0.0082161523869754144 0 0.1009244284881298 0.0078078577834924806 0 0.09893654195113713 0.02570505514797651 0 0.07992851590561921 0.0082161523869754144 0 0.08516149451907469 0.032589503251719387 0 0.07992851590561921 0.0082161523869754144 0 0.08516149451907469 0.032589503251719387 0 0.09893654195113713 0.02570505514797651 0 0.060695509379147472 0.02073883637313596 0 0.07992851590561921 0.0082161523869754144 0 0.08516149451907469 0.032589503251719387 0 0.060695509379147472 0.02073883637313596 0 0.066628286533047365 0.040173783681243101 0 0.08516149451907469 0.032589503251719387 0 0.066628286533047365 0.040173783681243101 0 0.076734924211177571 0.049535316522237388 0 0.08516149451907469 0.032589503251719387 0 0.066628286533047365 0.040173783681243101 0 0.063756980967503582 0.059761195325569103 0 0.076734924211177571 0.049535316522237388 0 0.063756980967503582 0.059761195325569103 0 0.076734924211177571 0.049535316522237388 0 0.078896317813284711 0.063130005487330554 0 0.076734924211177571 0.049535316522237388 0 0.090394473132530156 0.056962854116463339 0 0.078896317813284711 0.063130005487330554 0 0.090394473132530156 0.056962854116463339 0 0.08516149451907469 0.032589503251719387 0 0.076734924211177571 0.049535316522237388 0 0.090394473132530156 0.056962854116463339 0 0.08516149451907469 0.032589503251719387 0 0.090394473132530156 0.056962854116463339 0 0.08516149451907469 0.032589503251719387 0 0.096764564946639139 0.043178279343160431 0 0.08516149451907469 0.032589503251719387 0 0.096764564946639139 0.043178279343160431 0 0.09893654195113713 0.02570505514797651 0 0.096764564946639139 0.043178279343160431 0 0.10666951487556919 0.040720151324231749 0 0.09893654195113713 0.02570505514797651 0 0.096764564946639139 0.043178279343160431 0 0.10666951487556919 0.040720151324231749 0 0.10388747543703999 0.053358399551525167 0 0.10666951487556919 0.040720151324231749 0 0.1142736493139349 0.03087626799389703 0 0.09893654195113713 0.02570505514797651 0 0.10388747543703999 0.053358399551525167 0 0.11892469151436 0.060175562481194378 0 0.096340815718618328 0.066677421107029802 0 0.090394473132530156 0.056962854116463339 0 0.10388747543703999 0.053358399551525167 0 0.096340815718618328 0.066677421107029802 0 0.090394473132530156 0.056962854116463339 0 0.096764564946639139 0.043178279343160431 0 0.10388747543703999 0.053358399551525167 0 0.10666951487556919 0.040720151324231749 0 0.10388747543703999 0.053358399551525167 0 0.1137328545953389 0.049471119462924477 0 0.1137328545953389 0.049471119462924477 0 0.11892469151436 0.060175562481194378 0 0.12367169586596689 0.04413069599522032 0 0.10388747543703999 0.053358399551525167 0 0.1137328545953389 0.049471119462924477 0 0.11892469151436 0.060175562481194378 0 0.10666951487556919 0.040720151324231749 0 0.12367169586596689 0.04413069599522032 0 0.1142736493139349 0.03087626799389703 0 0.12367169586596689 0.04413069599522032 0 0.1142736493139349 0.03087626799389703 0 0.13034027439662041 0.028127834929059549 0 0.10666951487556919 0.040720151324231749 0 0.1137328545953389 0.049471119462924477 0 0.12367169586596689 0.04413069599522032 0 0.1142736493139349 0.03087626799389703 0 0.111750219480381 0.015697602572997061 0 0.13034027439662041 0.028127834929059549 0 0.11917198148314 0.002581966002757949 0 0.13034027439662041 0.028127834929059549 0 0.111750219480381 0.015697602572997061 0 0.11917198148314 0.002581966002757949 0 0.13034027439662041 0.028127834929059549 0 0.11917198148314 0.002581966002757949 0 0.1309849453148588 0.01811654968683717 0 0.1228376310831711 -0.00076623140119310329 0 0.11917198148314 0.002581966002757949 0 0.1228376310831711 -0.00076623140119310329 0 0.11917198148314 0.002581966002757949 0 0.1133629416093747 0.002418872237081233 0 0.1105415625726717 -0.0014271332550589229 0 0.11917198148314 0.002581966002757949 0 0.1133629416093747 0.002418872237081233 0 0.11092652002007269 0.0067640166461111727 0 0.1133629416093747 0.002418872237081233 0 0.1078625722471533 0.0022823866337398822 0 0.1105415625726717 -0.0014271332550589229 0 0.1133629416093747 0.002418872237081233 0 0.11092652002007269 0.0067640166461111727 0 0.1078625722471533 0.0022823866337398822 0 0.111750219480381 0.015697602572997061 0 0.11917198148314 0.002581966002757949 0 0.11092652002007269 0.0067640166461111727 0 0.111750219480381 0.015697602572997061 0 0.11092652002007269 0.0067640166461111727 0 0.1009244284881298 0.0078078577834924806 0 0.1078625722471533 0.0022823866337398822 0 0.1009244284881298 0.0078078577834924806 0 0.1039166904039584 -0.0028966343462391718 0 0.11092652002007269 0.0067640166461111727 0 0.1078625722471533 0.0022823866337398822 0 0.1009244284881298 0.0078078577834924806 0 0.1009244284881298 0.0078078577834924806 0 0.1039166904039584 -0.0028966343462391718 0 0.09649789417263642 -0.0037639840011086311 0 0.111750219480381 0.015697602572997061 0 0.1009244284881298 0.0078078577834924806 0 0.09893654195113713 0.02570505514797651 0 0.1142736493139349 0.03087626799389703 0 0.111750219480381 0.015697602572997061 0 0.09893654195113713 0.02570505514797651 0 0.10086043035944101 0.1057095558459509 0 0.088353675930770217 0.1090445403681379 0 0.098136173783193614 0.12855261503670501 0 0.10086043035944101 0.1057095558459509 0 0.11707998843366239 0.12090166170324231 0 0.098136173783193614 0.12855261503670501 0 0.10086043035944101 0.1057095558459509 0 0.11707998843366239 0.12090166170324231 0 0.12018819637303869 0.10164151191590461 0 0.11707998843366239 0.12090166170324231 0 0.12018819637303869 0.10164151191590461 0 0.1368974078767736 0.107501873099266 0 0.10086043035944101 0.1057095558459509 0 0.12018819637303869 0.10164151191590461 0 0.11039993896964689 0.089589601033300492 0 0.12018819637303869 0.10164151191590461 0 0.1225478872688979 0.090713611373926736 0 0.11039993896964689 0.089589601033300492 0 0.1225478872688979 0.090713611373926736 0 0.1210037722340596 0.082520495593825793 0 0.11039993896964689 0.089589601033300492 0 0.1210037722340596 0.082520495593825793 0 0.11039993896964689 0.089589601033300492 0 0.1079674466630436 0.07575227550831827 0 0.1243405792371938 0.066503547411893488 0 0.1152310018430296 0.068591719667449438 0 0.13121537104960351 0.072689189806444385 0 0.1152310018430296 0.068591719667449438 0 0.1079674466630436 0.07575227550831827 0 0.13121537104960351 0.072689189806444385 0 0.11892469151436 0.060175562481194378 0 0.1152310018430296 0.068591719667449438 0 0.096340815718618328 0.066677421107029802 0 0.1210037722340596 0.082520495593825793 0 0.1079674466630436 0.07575227550831827 0 0.13121537104960351 0.072689189806444385 0 0.1079674466630436 0.07575227550831827 0 0.13121537104960351 0.072689189806444385 0 0.11892469151436 0.060175562481194378 0 0.1243405792371938 0.066503547411893488 0 0.1152310018430296 0.068591719667449438 0 0.090394473132530156 0.056962854116463339 0 0.096340815718618328 0.066677421107029802 0 0.095627451745985609 0.081336204981207194 0 0.11892469151436 0.060175562481194378 0 0.096340815718618328 0.066677421107029802 0 0.1152310018430296 0.068591719667449438 0 0.1079674466630436 0.07575227550831827 0 0.096340815718618328 0.066677421107029802 0 0.1079674466630436 0.07575227550831827 0 0.096340815718618328 0.066677421107029802 0 0.095627451745985609 0.081336204981207194 0 0.10086043035944101 0.1057095558459509 0 0.095627451745985609 0.081336204981207194 0 0.10086043035944101 0.1057095558459509 0 0.095627451745985609 0.081336204981207194 0 0.085469831166676849 0.087436677031336632 0 0.10086043035944101 0.1057095558459509 0 0.11039993896964689 0.089589601033300492 0 0.095627451745985609 0.081336204981207194 0 0.11039993896964689 0.089589601033300492 0 0.1079674466630436 0.07575227550831827 0 0.095627451745985609 0.081336204981207194 0 0.095627451745985609 0.081336204981207194 0 0.085469831166676849 0.087436677031336632 0 0.085588317529406169 0.073238424790440806 0 0.085469831166676849 0.087436677031336632 0 0.085588317529406169 0.073238424790440806 0 0.076873554133312927 0.079435143693455501 0 0.085469831166676849 0.087436677031336632 0 0.070098818600398835 0.095008337279511162 0 0.081838863589211913 0.097859807548057495 0 0.085588317529406169 0.073238424790440806 0 0.078896317813284711 0.063130005487330554 0 0.076873554133312927 0.079435143693455501 0 0.090394473132530156 0.056962854116463339 0 0.095627451745985609 0.081336204981207194 0 0.090394473132530156 0.056962854116463339 0 0.095627451745985609 0.081336204981207194 0 0.085588317529406169 0.073238424790440806 0 0.090394473132530156 0.056962854116463339 0 0.085588317529406169 0.073238424790440806 0 0.078896317813284711 0.063130005487330554 0 0.063756980967503582 0.059761195325569103 0 0.076873554133312927 0.079435143693455501 0 0.058428932400687923 0.080576723114904505 0 0.063756980967503582 0.059761195325569103 0 0.078896317813284711 0.063130005487330554 0 0.076873554133312927 0.079435143693455501 0 0.076873554133312927 0.079435143693455501 0 0.070098818600398835 0.095008337279511162 0 0.058428932400687923 0.080576723114904505 0 0.085469831166676849 0.087436677031336632 0 0.076873554133312927 0.079435143693455501 0 0.070098818600398835 0.095008337279511162 0 0.076873554133312927 0.079435143693455501 0 0.070098818600398835 0.095008337279511162 0 0.070098818600398835 0.095008337279511162 0 0.063324083067484813 0.1105815308655668 0 0.056772327777908818 0.093355456469435216 0 0.070098818600398835 0.095008337279511162 0 0.073686861685182473 0.1058294153104071 0 0.063324083067484813 0.1105815308655668 0 0.070098818600398835 0.095008337279511162 0 0.063324083067484813 0.1105815308655668 0 0.070098818600398835 0.095008337279511162 0 0.073686861685182473 0.1058294153104071 0 0.081838863589211913 0.097859807548057495 0 0.10086043035944101 0.1057095558459509 0 0.088353675930770217 0.1090445403681379 0 0.081838863589211913 0.097859807548057495 0 0.10086043035944101 0.1057095558459509 0 0.085469831166676849 0.087436677031336632 0 0.081838863589211913 0.097859807548057495 0 0.073686861685182473 0.1058294153104071 0 0.081838863589211913 0.097859807548057495 0 0.081058066011519173 0.11973636453468819 0 0.081838863589211913 0.097859807548057495 0 0.081058066011519173 0.11973636453468819 0 0.088353675930770217 0.1090445403681379 0 0.081838863589211913 0.097859807548057495 0 0.081058066011519173 0.11973636453468819 0 0.081058066011519173 0.11973636453468819 0 0.098136173783193614 0.12855261503670501 0 0.088353675930770217 0.1090445403681379 0 0.081058066011519173 0.11973636453468819 0 0.098136173783193614 0.12855261503670501 0 0.081058066011519173 0.11973636453468819 0 0.063324083067484813 0.1105815308655668 0 0.068402942841081005 0.12865021266463919 0 0.081058066011519173 0.11973636453468819 0 0.063324083067484813 0.1105815308655668 0 0.073686861685182473 0.1058294153104071 0 0.081058066011519173 0.11973636453468819 0 0.063324083067484813 0.1105815308655668 0 0.063324083067484813 0.1105815308655668 0 0.047212646671147621 0.11637508280246631 0 0.046344121904492837 0.10181594669612309 0 0.063324083067484813 0.1105815308655668 0 0.047212646671147621 0.11637508280246631 0 0.054704645729867107 0.1303951701743557 0 0.063324083067484813 0.1105815308655668 0 0.054704645729867107 0.1303951701743557 0 0.068402942841081005 0.12865021266463919 0 0.063324083067484813 0.1105815308655668 0 0.054704645729867107 0.1303951701743557 0 0.063324083067484813 0.1105815308655668 0 0.046344121904492837 0.10181594669612309 0 0.056772327777908818 0.093355456469435216 0 0.063324083067484813 0.1105815308655668 0 0.046344121904492837 0.10181594669612309 0 0.046344121904492837 0.10181594669612309 0 0.056772327777908818 0.093355456469435216 0 0.045320775007697253 0.087378911453508054 0 0.046344121904492837 0.10181594669612309 0 0.0293641607415005 0.093050362526680058 0 0.027539824430943272 0.097260859315675907 0 0.046344121904492837 0.10181594669612309 0 0.0293641607415005 0.093050362526680058 0 0.046344121904492837 0.10181594669612309 0 0.045320775007697253 0.087378911453508054 0 0.0293641607415005 0.093050362526680058 0 0.046344121904492837 0.10181594669612309 0 0.034802580128522533 0.108370238657299 0 0.027539824430943272 0.097260859315675907 0 0.047212646671147621 0.11637508280246631 0 0.046344121904492837 0.10181594669612309 0 0.034802580128522533 0.108370238657299 0 0.034802580128522533 0.108370238657299 0 0.02295827912300942 0.1143792008990337 0 0.036209801575650402 0.12755429465012871 0 0.047212646671147621 0.11637508280246631 0 0.054704645729867107 0.1303951701743557 0 0.036209801575650402 0.12755429465012871 0 0.047212646671147621 0.11637508280246631 0 0.034802580128522533 0.108370238657299 0 0.036209801575650402 0.12755429465012871 0 0.063756980967503582 0.059761195325569103 0 0.058428932400687923 0.080576723114904505 0 0.039807943620716157 0.068946520475498749 0 0.058428932400687923 0.080576723114904505 0 0.045320775007697253 0.087378911453508054 0 0.039807943620716157 0.068946520475498749 0 0.070098818600398835 0.095008337279511162 0 0.058428932400687923 0.080576723114904505 0 0.056772327777908818 0.093355456469435216 0 0.058428932400687923 0.080576723114904505 0 0.056772327777908818 0.093355456469435216 0 0.045320775007697253 0.087378911453508054 0 0.039807943620716157 0.068946520475498749 0 0.02523443473854358 0.074793540318702806 0 0.0293641607415005 0.093050362526680058 0 0.045320775007697253 0.087378911453508054 0 0.039807943620716157 0.068946520475498749 0 0.0293641607415005 0.093050362526680058 0 0.039807943620716157 0.068946520475498749 0 0.0293641607415005 0.093050362526680058 0 0.02507841675544124 0.048354097280414877 0 0.039807943620716157 0.068946520475498749 0 0.02523443473854358 0.074793540318702806 0 0.02523443473854358 0.074793540318702806 0 0.01233266555678463 0.084258174892090337 0 0.010722424996073881 0.068121568230846891 0 0.02507841675544124 0.048354097280414877 0 0.02523443473854358 0.074793540318702806 0 0.010722424996073881 0.068121568230846891 0 0.0293641607415005 0.093050362526680058 0 0.01233266555678463 0.084258174892090337 0 0.0293641607415005 0.093050362526680058 0 0.01233266555678463 0.084258174892090337 0 0.019584721545335231 0.095933386042030777 0 0.02523443473854358 0.074793540318702806 0 0.0293641607415005 0.093050362526680058 0 0.01233266555678463 0.084258174892090337 0 -0.0046988296279310846 0.075465987257500103 0 0.01233266555678463 0.084258174892090337 0 -0.0046988296279310846 0.075465987257500103 0 0.00056903788424511365 0.086682396089073327 0 0.01233266555678463 0.084258174892090337 0 0.01233266555678463 0.084258174892090337 0 0.019584721545335231 0.095933386042030777 0 0.0096773837387348072 0.094713106344260181 0 0.00056903788424511365 0.086682396089073327 0 0.0096773837387348072 0.094713106344260181 0 0.0017142141577850001 0.096485027642689541 0 0.00056903788424511365 0.086682396089073327 0 0.01233266555678463 0.084258174892090337 0 0.0096773837387348072 0.094713106344260181 0 -0.0046988296279310846 0.075465987257500103 0 0.0079626054049135586 0.052863747179962457 0 -0.0046988296279310846 0.075465987257500103 0 0.01233266555678463 0.084258174892090337 0 0.010722424996073881 0.068121568230846891 0 -0.0046988296279310846 0.075465987257500103 0 0.0079626054049135586 0.052863747179962457 0 0.010722424996073881 0.068121568230846891 0 0.02295827912300942 0.1143792008990337 0 0.016633607451047409 0.12879447845417449 0 0.036209801575650402 0.12755429465012871 0 0.02295827912300942 0.1143792008990337 0 0.02320798257890765 0.1047443639128517 0 0.017264926825327171 0.1093249123190818 0 0.02295827912300942 0.1143792008990337 0 0.017264926825327171 0.1093249123190818 0 0.01360187540002143 0.11722717171449371 0 0.02295827912300942 0.1143792008990337 0 0.01360187540002143 0.11722717171449371 0 0.016633607451047409 0.12879447845417449 0 0.034802580128522533 0.108370238657299 0 0.027539824430943272 0.097260859315675907 0 0.02320798257890765 0.1047443639128517 0 0.034802580128522533 0.108370238657299 0 0.02295827912300942 0.1143792008990337 0 0.02320798257890765 0.1047443639128517 0 0.0293641607415005 0.093050362526680058 0 0.027539824430943272 0.097260859315675907 0 0.019584721545335231 0.095933386042030777 0 0.027539824430943272 0.097260859315675907 0 0.019584721545335231 0.095933386042030777 0 0.02320798257890765 0.1047443639128517 0 0.0293641607415005 0.093050362526680058 0 0.027539824430943272 0.097260859315675907 0 0.019584721545335231 0.095933386042030777 0 0.02320798257890765 0.1047443639128517 0 0.01504081682007688 0.10253598369847031 0 0.02320798257890765 0.1047443639128517 0 0.017264926825327171 0.1093249123190818 0 0.01504081682007688 0.10253598369847031 0 0.0088228464681819972 0.10238366970120689 0 0.01151568020462046 0.1077378413705596 0 0.0058206420146291954 0.1114089238878985 0 0.017264926825327171 0.1093249123190818 0 0.01504081682007688 0.10253598369847031 0 0.01151568020462046 0.1077378413705596 0 0.01504081682007688 0.10253598369847031 0 0.0088228464681819972 0.10238366970120689 0 0.01151568020462046 0.1077378413705596 0 0.019584721545335231 0.095933386042030777 0 0.01504081682007688 0.10253598369847031 0 0.0096773837387348072 0.094713106344260181 0 0.01504081682007688 0.10253598369847031 0 0.0088228464681819972 0.10238366970120689 0 0.0096773837387348072 0.094713106344260181 0 0.0088228464681819972 0.10238366970120689 0 0.0096773837387348072 0.094713106344260181 0 0.0017142141577850001 0.096485027642689541 0 0.0088228464681819972 0.10238366970120689 0 0.0017142141577850001 0.096485027642689541 0 0.0058206420146291954 0.1114089238878985 0 0.0058206420146291954 0.1114089238878985 0 0.00039794405216867472 0.112072386291362 0 0.01360187540002143 0.11722717171449371 0 0.00039794405216867472 0.112072386291362 0 0.016633607451047409 0.12879447845417449 0 0.00039794405216867472 0.112072386291362 0 0.01360187540002143 0.11722717171449371 0 0.016633607451047409 0.12879447845417449 0 0.00039794405216867472 0.112072386291362 0 0.0010393500416724941 0.12595831854165979 0 0.016633607451047409 0.12879447845417449 0 0.01151568020462046 0.1077378413705596 0 0.0058206420146291954 0.1114089238878985 0 0.01360187540002143 0.11722717171449371 0 0.017264926825327171 0.1093249123190818 0 0.01151568020462046 0.1077378413705596 0 0.01360187540002143 0.11722717171449371 0 -0.0082797250895681185 0.13474448294352481 0 0.0010393500416724941 0.12595831854165979 0 0.01291562537333717 0.14373886088149129 0 0.0010393500416724941 0.12595831854165979 0 0.016633607451047409 0.12879447845417449 0 0.01291562537333717 0.14373886088149129 0 0.016633607451047409 0.12879447845417449 0 0.030096440749716711 0.14309687622970299 0 0.036209801575650402 0.12755429465012871 0 0.016633607451047409 0.12879447845417449 0 0.030096440749716711 0.14309687622970299 0 0.01291562537333717 0.14373886088149129 0 0.030096440749716711 0.14309687622970299 0 0.01291562537333717 0.14373886088149129 0 0.026789162612504271 0.15663130254031199 0 0.01291562537333717 0.14373886088149129 0 0.015650655317666261 0.15865613344587939 0 0.026789162612504271 0.15663130254031199 0 0.01291562537333717 0.14373886088149129 0 0.00151890392611572 0.15456094484017679 0 0.015650655317666261 0.15865613344587939 0 -0.0082797250895681185 0.13474448294352481 0 0.01291562537333717 0.14373886088149129 0 0.00151890392611572 0.15456094484017679 0 0.00151890392611572 0.15456094484017679 0 0.01131753294179963 0.17437740673682869 0 0.00151890392611572 0.15456094484017679 0 0.012386788017382491 0.1641388541230504 0 0.01131753294179963 0.17437740673682869 0 -0.0026654791677323511 0.16604552865166611 0 0.00151890392611572 0.15456094484017679 0 0.01131753294179963 0.17437740673682869 0 -0.0026654791677323511 0.16604552865166611 0 0.01131753294179963 0.17437740673682869 0 0.012386788017382491 0.1641388541230504 0 0.01131753294179963 0.17437740673682869 0 0.021060059883948341 0.16896093146931659 0 0.00151890392611572 0.15456094484017679 0 0.012386788017382491 0.1641388541230504 0 0.015650655317666261 0.15865613344587939 0 0.0072367552089822543 0.1840346549744645 0 0.003085550936940849 0.18695469644268639 0 0.007927604969267173 0.18944813828794729 0 0.0072367552089822543 0.1840346549744645 0 0.003085550936940849 0.18695469644268639 0 0.00053502205069707774 0.18188021690744111 0 -0.003081975793268537 0.18782002811878001 0 0.003085550936940849 0.18695469644268639 0 0.00053502205069707774 0.18188021690744111 0 0.0072367552089822543 0.1840346549744645 0 0.00053502205069707774 0.18188021690744111 0 0.0082701590199136289 0.17900500476799119 0 -0.0026654791677323511 0.16604552865166611 0 0.0024081860720475369 0.17557227428335351 0 0.01131753294179963 0.17437740673682869 0 0.0024081860720475369 0.17557227428335351 0 0.01131753294179963 0.17437740673682869 0 0.0082701590199136289 0.17900500476799119 0 0.00053502205069707774 0.18188021690744111 0 0.0024081860720475369 0.17557227428335351 0 0.0082701590199136289 0.17900500476799119 0 0.01131753294179963 0.17437740673682869 0 0.013543000689093809 0.1790660034635034 0 0.021389494149062459 0.18037885708243739 0 0.01131753294179963 0.17437740673682869 0 0.013543000689093809 0.1790660034635034 0 0.01131753294179963 0.17437740673682869 0 0.013543000689093809 0.1790660034635034 0 0.0082701590199136289 0.17900500476799119 0 0.013543000689093809 0.1790660034635034 0 0.0115175493401282 0.18523262863701309 0 0.016985704636488509 0.19275209946522329 0 0.0072367552089822543 0.1840346549744645 0 0.0082701590199136289 0.17900500476799119 0 0.0115175493401282 0.18523262863701309 0 0.013543000689093809 0.1790660034635034 0 0.0082701590199136289 0.17900500476799119 0 0.0115175493401282 0.18523262863701309 0 0.0072367552089822543 0.1840346549744645 0 0.0115175493401282 0.18523262863701309 0 0.007927604969267173 0.18944813828794729 0 0.021389494149062459 0.18037885708243739 0 0.039453436217199322 0.18340126598870379 0 0.013543000689093809 0.1790660034635034 0 0.021389494149062459 0.18037885708243739 0 0.02230428843080948 0.19662630733770359 0 0.013543000689093809 0.1790660034635034 0 0.021389494149062459 0.18037885708243739 0 0.01131753294179963 0.17437740673682869 0 0.021389494149062459 0.18037885708243739 0 0.01131753294179963 0.17437740673682869 0 0.021389494149062459 0.18037885708243739 0 0.021060059883948341 0.16896093146931659 0 0.021389494149062459 0.18037885708243739 0 0.021060059883948341 0.16896093146931659 0 0.034487576316221548 0.17006964541133651 0 0.021389494149062459 0.18037885708243739 0 0.036772518206031037 0.18954494233072339 0 0.012386788017382491 0.1641388541230504 0 0.015650655317666261 0.15865613344587939 0 0.021060059883948341 0.16896093146931659 0 0.015650655317666261 0.15865613344587939 0 0.021060059883948341 0.16896093146931659 0 0.026789162612504271 0.15663130254031199 0 0.021060059883948341 0.16896093146931659 0 0.026789162612504271 0.15663130254031199 0 0.034487576316221548 0.17006964541133651 0 0.026789162612504271 0.15663130254031199 0 0.034487576316221548 0.17006964541133651 0 0.046085208392249437 0.15020880948314461 0 0.034487576316221548 0.17006964541133651 0 0.049790080527993393 0.16878629006039211 0 0.046085208392249437 0.15020880948314461 0 0.021389494149062459 0.18037885708243739 0 0.039453436217199322 0.18340126598870379 0 0.036772518206031037 0.18954494233072339 0 0.021389494149062459 0.18037885708243739 0 0.034487576316221548 0.17006964541133651 0 0.039453436217199322 0.18340126598870379 0 0.034487576316221548 0.17006964541133651 0 0.039453436217199322 0.18340126598870379 0 0.049790080527993393 0.16878629006039211 0 0.039453436217199322 0.18340126598870379 0 0.057517378285335978 0.18642367489497111 0 0.049790080527993393 0.16878629006039211 0 0.057517378285335978 0.18642367489497111 0 0.06670876632053821 0.16536039993208129 0 0.039453436217199322 0.18340126598870379 0 0.057517378285335978 0.18642367489497111 0 0.039453436217199322 0.18340126598870379 0 0.057517378285335978 0.18642367489497111 0 0.046621016020550923 0.1898787739154234 0 0.057517378285335978 0.18642367489497111 0 0.049790080527993393 0.16878629006039211 0 0.06670876632053821 0.16536039993208129 0 0.056759789081437029 0.15816783404816359 0 0.049790080527993393 0.16878629006039211 0 0.06670876632053821 0.16536039993208129 0 0.056759789081437029 0.15816783404816359 0 0.049790080527993393 0.16878629006039211 0 0.046085208392249437 0.15020880948314461 0 0.056759789081437029 0.15816783404816359 0 0.046085208392249437 0.15020880948314461 0 0.06445510108496709 0.14831583671703669 0 0.054704645729867107 0.1303951701743557 0 0.046085208392249437 0.15020880948314461 0 0.06445510108496709 0.14831583671703669 0 0.054704645729867107 0.1303951701743557 0 0.046085208392249437 0.15020880948314461 0 0.054704645729867107 0.1303951701743557 0 0.036209801575650402 0.12755429465012871 0 0.046085208392249437 0.15020880948314461 0 0.030096440749716711 0.14309687622970299 0 0.036209801575650402 0.12755429465012871 0 0.046085208392249437 0.15020880948314461 0 0.030096440749716711 0.14309687622970299 0 0.026789162612504271 0.15663130254031199 0 0.046085208392249437 0.15020880948314461 0 0.02117589590128718 0.2395927914801684 0 0.012156823249103331 0.25259817100369902 0 0.030652172791378579 0.25229956247347313 0 0.02117589590128718 0.2395927914801684 0 0.034188277432347557 0.23988537883147459 0 0.030652172791378579 0.25229956247347313 0 0.02117589590128718 0.2395927914801684 0 0.030323397599499081 0.22959965211839081 0 0.034188277432347557 0.23988537883147459 0 -0.0082457657602449386 0.25246627485226031 0 -0.001965278602122185 0.24182690426762959 0 0.012156823249103331 0.25259817100369902 0 0.02117589590128718 0.2395927914801684 0 0.008579196815527634 0.23953031834541311 0 0.012156823249103331 0.25259817100369902 0 -0.001965278602122185 0.24182690426762959 0 0.008579196815527634 0.23953031834541311 0 0.012156823249103331 0.25259817100369902 0 -0.001965278602122185 0.24182690426762959 0 0.008579196815527634 0.23953031834541311 0 0.0010433620948100131 0.23240638127880581 0 0.02117589590128718 0.2395927914801684 0 0.008579196815527634 0.23953031834541311 0 0.01115565641706814 0.2303537873583584 0 0.008579196815527634 0.23953031834541311 0 0.01115565641706814 0.2303537873583584 0 0.0010433620948100131 0.23240638127880581 0 0.01115565641706814 0.2303537873583584 0 0.0010433620948100131 0.23240638127880581 0 0.0091084557899102862 0.2202403998025296 0 0.0010433620948100131 0.23240638127880581 0 0.0001093474821353509 0.22215689039817851 0 0.0091084557899102862 0.2202403998025296 0 0.01115565641706814 0.2303537873583584 0 0.0091084557899102862 0.2202403998025296 0 0.016496999093422449 0.223541986747673 0 0.0091084557899102862 0.2202403998025296 0 0.016496999093422449 0.223541986747673 0 0.01612020317490017 0.2152275371535412 0 0.016496999093422449 0.223541986747673 0 0.02147394042148347 0.23028557103733549 0 0.024626739663750161 0.22160263838659999 0 0.016496999093422449 0.223541986747673 0 0.024626739663750161 0.22160263838659999 0 0.01612020317490017 0.2152275371535412 0 0.01115565641706814 0.2303537873583584 0 0.016496999093422449 0.223541986747673 0 0.02147394042148347 0.23028557103733549 0 0.02117589590128718 0.2395927914801684 0 0.01115565641706814 0.2303537873583584 0 0.02147394042148347 0.23028557103733549 0 0.02147394042148347 0.23028557103733549 0 0.030323397599499081 0.22959965211839081 0 0.024626739663750161 0.22160263838659999 0 0.02117589590128718 0.2395927914801684 0 0.02147394042148347 0.23028557103733549 0 0.030323397599499081 0.22959965211839081 0 0.024626739663750161 0.22160263838659999 0 0.027508903383077599 0.21474836631904051 0 0.034268755792753257 0.2207932912834846 0 0.030323397599499081 0.22959965211839081 0 0.024626739663750161 0.22160263838659999 0 0.034268755792753257 0.2207932912834846 0 0.027508903383077599 0.21474836631904051 0 0.023943201944243639 0.1999111919537408 0 0.034268755792753257 0.2207932912834846 0 0.023943201944243639 0.1999111919537408 0 0.034268755792753257 0.2207932912834846 0 0.027508903383077599 0.21474836631904051 0 0.023922045305692211 0.20684028787671799 0 0.022699459496289199 0.2141990688659105 0 0.024626739663750161 0.22160263838659999 0 0.027508903383077599 0.21474836631904051 0 0.022699459496289199 0.2141990688659105 0 0.027508903383077599 0.21474836631904051 0 0.023922045305692211 0.20684028787671799 0 0.023943201944243639 0.1999111919537408 0 0.01896544066016782 0.20973745132843891 0 0.01612020317490017 0.2152275371535412 0 0.013247665380499421 0.20734461508933349 0 0.023922045305692211 0.20684028787671799 0 0.01896544066016782 0.20973745132843891 0 0.022699459496289199 0.2141990688659105 0 0.023922045305692211 0.20684028787671799 0 0.021734838082019509 0.20302577286306159 0 0.023943201944243639 0.1999111919537408 0 0.023922045305692211 0.20684028787671799 0 0.018650848458870179 0.20436341187488569 0 0.021734838082019509 0.20302577286306159 0 0.023922045305692211 0.20684028787671799 0 0.018650848458870179 0.20436341187488569 0 0.01896544066016782 0.20973745132843891 0 0.018650848458870179 0.20436341187488569 0 0.01896544066016782 0.20973745132843891 0 0.013247665380499421 0.20734461508933349 0 0.024626739663750161 0.22160263838659999 0 0.022699459496289199 0.2141990688659105 0 0.01612020317490017 0.2152275371535412 0 0.01896544066016782 0.20973745132843891 0 0.022699459496289199 0.2141990688659105 0 0.01612020317490017 0.2152275371535412 0 0.01612020317490017 0.2152275371535412 0 0.0085100262700745465 0.21094865931476009 0 0.013247665380499421 0.20734461508933349 0 0.0091084557899102862 0.2202403998025296 0 0.01612020317490017 0.2152275371535412 0 0.0085100262700745465 0.21094865931476009 0 0.0001093474821353509 0.22215689039817851 0 0.0091084557899102862 0.2202403998025296 0 0.00083142932333707279 0.21381627434491049 0 0.0091084557899102862 0.2202403998025296 0 0.0085100262700745465 0.21094865931476009 0 0.00083142932333707279 0.21381627434491049 0 0.0085100262700745465 0.21094865931476009 0 0.00083142932333707279 0.21381627434491049 0 0.0029581381265264858 0.20519393183106241 0 0.0085100262700745465 0.21094865931476009 0 0.0029581381265264858 0.20519393183106241 0 0.0087942658252738396 0.20386919766718339 0 0.0029581381265264858 0.20519393183106241 0 0.0087942658252738396 0.20386919766718339 0 0.0056326315351633537 0.2004899601979887 0 0.0085100262700745465 0.21094865931476009 0 0.0087942658252738396 0.20386919766718339 0 0.013247665380499421 0.20734461508933349 0 0.0087942658252738396 0.20386919766718339 0 0.013247665380499421 0.20734461508933349 0 0.013927284278231049 0.2027684573698135 0 0.018650848458870179 0.20436341187488569 0 0.013247665380499421 0.20734461508933349 0 0.013927284278231049 0.2027684573698135 0 0.013927284278231049 0.2027684573698135 0 0.010260103200158849 0.1991700010832006 0 0.016231602148303749 0.1987520895161983 0 0.010260103200158849 0.1991700010832006 0 0.01183675088797494 0.19419665586736051 0 0.016231602148303749 0.1987520895161983 0 0.010260103200158849 0.1991700010832006 0 0.0061740732670114221 0.19541611365695169 0 0.01183675088797494 0.19419665586736051 0 0.0087942658252738396 0.20386919766718339 0 0.010260103200158849 0.1991700010832006 0 0.0056326315351633537 0.2004899601979887 0 0.0087942658252738396 0.20386919766718339 0 0.013927284278231049 0.2027684573698135 0 0.010260103200158849 0.1991700010832006 0 0.010260103200158849 0.1991700010832006 0 0.0056326315351633537 0.2004899601979887 0 0.0061740732670114221 0.19541611365695169 0 -2.3422743153838069e-05 0.1988005567515452 0 0.0056326315351633537 0.2004899601979887 0 0.0061740732670114221 0.19541611365695169 0 -2.3422743153838069e-05 0.1988005567515452 0 0.0029581381265264858 0.20519393183106241 0 0.0056326315351633537 0.2004899601979887 0 -0.003081975793268537 0.18782002811878001 0 0.003085550936940849 0.18695469644268639 0 0.0015327128313205251 0.1915709431207247 0 -2.3422743153838069e-05 0.1988005567515452 0 0.0061740732670114221 0.19541611365695169 0 0.0015327128313205251 0.1915709431207247 0 0.0061740732670114221 0.19541611365695169 0 0.0015327128313205251 0.1915709431207247 0 0.007927604969267173 0.18944813828794729 0 0.003085550936940849 0.18695469644268639 0 0.0015327128313205251 0.1915709431207247 0 0.007927604969267173 0.18944813828794729 0 0.007927604969267173 0.18944813828794729 0 0.01183675088797494 0.19419665586736051 0 0.012456110925155389 0.1902446129755902 0 0.0115175493401282 0.18523262863701309 0 0.007927604969267173 0.18944813828794729 0 0.012456110925155389 0.1902446129755902 0 0.0061740732670114221 0.19541611365695169 0 0.007927604969267173 0.18944813828794729 0 0.01183675088797494 0.19419665586736051 0 0.01183675088797494 0.19419665586736051 0 0.012456110925155389 0.1902446129755902 0 0.016985704636488509 0.19275209946522329 0 0.01183675088797494 0.19419665586736051 0 0.016985704636488509 0.19275209946522329 0 0.016231602148303749 0.1987520895161983 0 0.0115175493401282 0.18523262863701309 0 0.012456110925155389 0.1902446129755902 0 0.016985704636488509 0.19275209946522329 0 0.021389494149062459 0.18037885708243739 0 0.02230428843080948 0.19662630733770359 0 0.036772518206031037 0.18954494233072339 0 0.013543000689093809 0.1790660034635034 0 0.02230428843080948 0.19662630733770359 0 0.013543000689093809 0.1790660034635034 0 0.016985704636488509 0.19275209946522329 0 0.02230428843080948 0.19662630733770359 0 0.016985704636488509 0.19275209946522329 0 0.019428477636303031 0.19812266709439569 0 0.016231602148303749 0.1987520895161983 0 0.019428477636303031 0.19812266709439569 0 0.016231602148303749 0.1987520895161983 0 0.020423256619271999 0.20098819974690199 0 0.018650848458870179 0.20436341187488569 0 0.016231602148303749 0.1987520895161983 0 0.020423256619271999 0.20098819974690199 0 0.018650848458870179 0.20436341187488569 0 0.013927284278231049 0.2027684573698135 0 0.016231602148303749 0.1987520895161983 0 0.019428477636303031 0.19812266709439569 0 0.020423256619271999 0.20098819974690199 0 0.023943201944243639 0.1999111919537408 0 0.018650848458870179 0.20436341187488569 0 0.020423256619271999 0.20098819974690199 0 0.021734838082019509 0.20302577286306159 0 0.020423256619271999 0.20098819974690199 0 0.021734838082019509 0.20302577286306159 0 0.023943201944243639 0.1999111919537408 0 0.016985704636488509 0.19275209946522329 0 0.02230428843080948 0.19662630733770359 0 0.023943201944243639 0.1999111919537408 0 0.016985704636488509 0.19275209946522329 0 0.019428477636303031 0.19812266709439569 0 0.023943201944243639 0.1999111919537408 0 0.02230428843080948 0.19662630733770359 0 0.023943201944243639 0.1999111919537408 0 0.02230428843080948 0.19662630733770359 0 0.023943201944243639 0.1999111919537408 0 0.035957366435008513 0.20647473970990701 0 0.02230428843080948 0.19662630733770359 0 0.050897121833006063 0.20159486356051531 0 0.035957366435008513 0.20647473970990701 0 0.02230428843080948 0.19662630733770359 0 0.036772518206031037 0.18954494233072339 0 0.050897121833006063 0.20159486356051531 0 0.02230428843080948 0.19662630733770359 0 0.050897121833006063 0.20159486356051531 0 0.036772518206031037 0.18954494233072339 0 0.050897121833006063 0.20159486356051531 0 0.052155542262999663 0.1987110275790093 0 0.036772518206031037 0.18954494233072339 0 0.052155542262999663 0.1987110275790093 0 0.036772518206031037 0.18954494233072339 0 0.046621016020550923 0.1898787739154234 0 0.052155542262999663 0.1987110275790093 0 0.039453436217199322 0.18340126598870379 0 0.036772518206031037 0.18954494233072339 0 0.046621016020550923 0.1898787739154234 0 0.057517378285335978 0.18642367489497111 0 0.046621016020550923 0.1898787739154234 0 0.052155542262999663 0.1987110275790093 0 0.057517378285335978 0.18642367489497111 0 0.052155542262999663 0.1987110275790093 0 0.057517378285335978 0.18642367489497111 0 0.057090951257530269 0.197109929087698 0 0.052155542262999663 0.1987110275790093 0 0.057517378285335978 0.18642367489497111 0 0.060667890749981898 0.1933513013873914 0 0.057090951257530269 0.197109929087698 0 0.060667890749981898 0.1933513013873914 0 0.057090951257530269 0.197109929087698 0 0.058031923789004708 0.2022125116707813 0 0.060667890749981898 0.1933513013873914 0 0.058031923789004708 0.2022125116707813 0 0.060667890749981898 0.1933513013873914 0 0.058031923789004708 0.2022125116707813 0 0.059673977213942478 0.20319094098477611 0 0.058031923789004708 0.2022125116707813 0 0.059673977213942478 0.20319094098477611 0 0.057090951257530269 0.197109929087698 0 0.058031923789004708 0.2022125116707813 0 0.052155542262999663 0.1987110275790093 0 0.058031923789004708 0.2022125116707813 0 0.052155542262999663 0.1987110275790093 0 0.058031923789004708 0.2022125116707813 0 0.050897121833006063 0.20159486356051531 0 0.052155542262999663 0.1987110275790093 0 0.058031923789004708 0.2022125116707813 0 0.050897121833006063 0.20159486356051531 0 0.050897121833006063 0.20159486356051531 0 0.052155542262999663 0.1987110275790093 0 0.050897121833006063 0.20159486356051531 0 0.042542699632676838 0.22074012119599501 0 0.053005439111290922 0.21910981667301421 0 0.058031923789004708 0.2022125116707813 0 0.050897121833006063 0.20159486356051531 0 0.053005439111290922 0.21910981667301421 0 0.058031923789004708 0.2022125116707813 0 0.053005439111290922 0.21910981667301421 0 0.058031923789004708 0.2022125116707813 0 0.061718375040706958 0.21244198365854619 0 0.053005439111290922 0.21910981667301421 0 0.058031923789004708 0.2022125116707813 0 0.059673977213942478 0.20319094098477611 0 0.061718375040706958 0.21244198365854619 0 0.061718375040706958 0.21244198365854619 0 0.053005439111290922 0.21910981667301421 0 0.062081063031912492 0.22413796841031719 0 0.050897121833006063 0.20159486356051531 0 0.042542699632676838 0.22074012119599501 0 0.023943201944243639 0.1999111919537408 0 0.035957366435008513 0.20647473970990701 0 0.034268755792753257 0.2207932912834846 0 0.050897121833006063 0.20159486356051531 0 0.038363073609551428 0.21412918370060571 0 0.042542699632676838 0.22074012119599501 0 0.050897121833006063 0.20159486356051531 0 0.035957366435008513 0.20647473970990701 0 0.038363073609551428 0.21412918370060571 0 0.038363073609551428 0.21412918370060571 0 0.034268755792753257 0.2207932912834846 0 0.042542699632676838 0.22074012119599501 0 0.035957366435008513 0.20647473970990701 0 0.038363073609551428 0.21412918370060571 0 0.034268755792753257 0.2207932912834846 0 0.042542699632676838 0.22074012119599501 0 0.034188277432347557 0.23988537883147459 0 0.042542699632676838 0.22074012119599501 0 0.04817080422001134 0.23536218897101929 0 0.044937254539659167 0.2379713478153713 0 0.030323397599499081 0.22959965211839081 0 0.042542699632676838 0.22074012119599501 0 0.034188277432347557 0.23988537883147459 0 0.042542699632676838 0.22074012119599501 0 0.044937254539659167 0.2379713478153713 0 0.034188277432347557 0.23988537883147459 0 0.030323397599499081 0.22959965211839081 0 0.034268755792753257 0.2207932912834846 0 0.042542699632676838 0.22074012119599501 0 0.053005439111290922 0.21910981667301421 0 0.04817080422001134 0.23536218897101929 0 0.053005439111290922 0.21910981667301421 0 0.062081063031912492 0.22413796841031719 0 0.04817080422001134 0.23536218897101929 0 0.062081063031912492 0.22413796841031719 0 0.04817080422001134 0.23536218897101929 0 0.059531729096570118 0.24099028160929839 0 0.042542699632676838 0.22074012119599501 0 0.053005439111290922 0.21910981667301421 0 0.04817080422001134 0.23536218897101929 0 0.062081063031912492 0.22413796841031719 0 0.04817080422001134 0.23536218897101929 0 0.04817080422001134 0.23536218897101929 0 0.052294646587479003 0.2493466198794505 0 0.04073495957405681 0.26035892983227987 0 0.04817080422001134 0.23536218897101929 0 0.059531729096570118 0.24099028160929839 0 0.052294646587479003 0.2493466198794505 0 0.059531729096570118 0.24099028160929839 0 0.067445722382230539 0.24771064348785149 0 0.06034442261467237 0.25120339486286308 0 0.059531729096570118 0.24099028160929839 0 0.052294646587479003 0.2493466198794505 0 0.06034442261467237 0.25120339486286308 0 0.04817080422001134 0.23536218897101929 0 0.04073495957405681 0.26035892983227987 0 0.04817080422001134 0.23536218897101929 0 0.044937254539659167 0.2379713478153713 0 0.04073495957405681 0.26035892983227987 0 0.04817080422001134 0.23536218897101929 0 0.044937254539659167 0.2379713478153713 0 0.044937254539659167 0.2379713478153713 0 0.034188277432347557 0.23988537883147459 0 0.030652172791378579 0.25229956247347313 0 0.085975255819246227 0.24304742420893821 0 0.091760355399887042 0.24149966876957779 0 0.085886262968569133 0.25948379364412733 0 0.091760355399887042 0.24149966876957779 0 0.10166443252893551 0.23659000017624271 0 0.085886262968569133 0.25948379364412733 0 0.085975255819246227 0.24304742420893821 0 0.091760355399887042 0.24149966876957779 0 0.090327239942362525 0.2312920649275291 0 0.085975255819246227 0.24304742420893821 0 0.075396639696560977 0.24390878816167419 0 0.077103558767455421 0.230534611802553 0 0.085975255819246227 0.24304742420893821 0 0.077103558767455421 0.230534611802553 0 0.090327239942362525 0.2312920649275291 0 0.085975255819246227 0.24304742420893821 0 0.075396639696560977 0.24390878816167419 0 0.080478695998155714 0.25165019938018113 0 0.075396639696560977 0.24390878816167419 0 0.074707437689247702 0.25389633834412328 0 0.080478695998155714 0.25165019938018113 0 0.075396639696560977 0.24390878816167419 0 0.067445722382230539 0.24771064348785149 0 0.068934414955804643 0.23628801399858909 0 0.075396639696560977 0.24390878816167419 0 0.067445722382230539 0.24771064348785149 0 0.074707437689247702 0.25389633834412328 0 0.059531729096570118 0.24099028160929839 0 0.067445722382230539 0.24771064348785149 0 0.068934414955804643 0.23628801399858909 0 0.075396639696560977 0.24390878816167419 0 0.068934414955804643 0.23628801399858909 0 0.077103558767455421 0.230534611802553 0 0.062081063031912492 0.22413796841031719 0 0.059531729096570118 0.24099028160929839 0 0.068934414955804643 0.23628801399858909 0 0.062081063031912492 0.22413796841031719 0 0.077103558767455421 0.230534611802553 0 0.077696208689423979 0.21392961690810641 0 0.077103558767455421 0.230534611802553 0 0.077696208689423979 0.21392961690810641 0 0.062081063031912492 0.22413796841031719 0 0.068934414955804643 0.23628801399858909 0 0.077103558767455421 0.230534611802553 0 0.077103558767455421 0.230534611802553 0 0.086723057100410644 0.21930832929599969 0 0.077696208689423979 0.21392961690810641 0 0.077103558767455421 0.230534611802553 0 0.090327239942362525 0.2312920649275291 0 0.086723057100410644 0.21930832929599969 0 0.090327239942362525 0.2312920649275291 0 0.086723057100410644 0.21930832929599969 0 0.099258091607832458 0.22228701345730209 0 0.08282365066700062 0.20740072564839451 0 0.1001331263781514 0.21054846617837791 0 0.08282365066700062 0.20740072564839451 0 0.0830920941513177 0.21288940176841251 0 0.1001331263781514 0.21054846617837791 0 0.086723057100410644 0.21930832929599969 0 0.0830920941513177 0.21288940176841251 0 0.1001331263781514 0.21054846617837791 0 0.08282365066700062 0.20740072564839451 0 0.077960793866212394 0.2065164116634538 0 0.08282365066700062 0.20740072564839451 0 0.07778409662064556 0.21146715366449201 0 0.077960793866212394 0.2065164116634538 0 0.08282365066700062 0.20740072564839451 0 0.0830920941513177 0.21288940176841251 0 0.07778409662064556 0.21146715366449201 0 0.08282365066700062 0.20740072564839451 0 0.07778409662064556 0.21146715366449201 0 0.086723057100410644 0.21930832929599969 0 0.077696208689423979 0.21392961690810641 0 0.086723057100410644 0.21930832929599969 0 0.0830920941513177 0.21288940176841251 0 0.077696208689423979 0.21392961690810641 0 0.0830920941513177 0.21288940176841251 0 0.07778409662064556 0.21146715366449201 0 0.077696208689423979 0.21392961690810641 0 0.059673977213942478 0.20319094098477611 0 0.077960793866212394 0.2065164116634538 0 0.062081063031912492 0.22413796841031719 0 0.077696208689423979 0.21392961690810641 0 0.075991321843812007 0.21291374784961289 0 0.059673977213942478 0.20319094098477611 0 0.075991321843812007 0.21291374784961289 0 0.059673977213942478 0.20319094098477611 0 0.061718375040706958 0.21244198365854619 0 0.075991321843812007 0.21291374784961289 0 0.059673977213942478 0.20319094098477611 0 0.075991321843812007 0.21291374784961289 0 0.077960793866212394 0.2065164116634538 0 0.07778409662064556 0.21146715366449201 0 0.077696208689423979 0.21392961690810641 0 0.075991321843812007 0.21291374784961289 0 0.07778409662064556 0.21146715366449201 0 0.077696208689423979 0.21392961690810641 0 0.07778409662064556 0.21146715366449201 0 0.075991321843812007 0.21291374784961289 0 0.077696208689423979 0.21392961690810641 0 0.075991321843812007 0.21291374784961289 0 0.062081063031912492 0.22413796841031719 0 0.075991321843812007 0.21291374784961289 0 0.061718375040706958 0.21244198365854619 0 0.062081063031912492 0.22413796841031719 0 0.075991321843812007 0.21291374784961289 0 0.07778409662064556 0.21146715366449201 0 0.075991321843812007 0.21291374784961289 0 0.077960793866212394 0.2065164116634538 0 0.07778409662064556 0.21146715366449201 0 0.077960793866212394 0.2065164116634538 0 0.060667890749981898 0.1933513013873914 0 0.069391780603767286 0.1985353247034998 0 0.078552310067739675 0.1899431815963343 0 0.059673977213942478 0.20319094098477611 0 0.077960793866212394 0.2065164116634538 0 0.069391780603767286 0.1985353247034998 0 0.057517378285335978 0.18642367489497111 0 0.060667890749981898 0.1933513013873914 0 0.078552310067739675 0.1899431815963343 0 0.077960793866212394 0.2065164116634538 0 0.069391780603767286 0.1985353247034998 0 0.078552310067739675 0.1899431815963343 0 0.057517378285335978 0.18642367489497111 0 0.078552310067739675 0.1899431815963343 0 0.060667890749981898 0.1933513013873914 0 0.059673977213942478 0.20319094098477611 0 0.069391780603767286 0.1985353247034998 0 0.077960793866212394 0.2065164116634538 0 0.078552310067739675 0.1899431815963343 0 0.08282365066700062 0.20740072564839451 0 0.078552310067739675 0.1899431815963343 0 0.1000095862482286 0.19353335379614581 0 0.08282365066700062 0.20740072564839451 0 0.077960793866212394 0.2065164116634538 0 0.078552310067739675 0.1899431815963343 0 0.08282365066700062 0.20740072564839451 0 0.1000095862482286 0.19353335379614581 0 0.078552310067739675 0.1899431815963343 0 0.1000095862482286 0.19353335379614581 0 0.1000095862482286 0.19353335379614581 0 0.1119621855324581 0.18388877331391679 0 0.1119621855324581 0.18388877331391679 0 0.12809949413598259 0.1982332796183166 0 0.12623709760602039 0.18867627876683751 0 0.1000095862482286 0.19353335379614581 0 0.12809949413598259 0.1982332796183166 0 0.1000095862482286 0.19353335379614581 0 0.1174426020893027 0.21369620670835879 0 0.12809949413598259 0.1982332796183166 0 0.1000095862482286 0.19353335379614581 0 0.1119621855324581 0.18388877331391679 0 0.12809949413598259 0.1982332796183166 0 0.1174426020893027 0.21369620670835879 0 0.12809949413598259 0.1982332796183166 0 0.1174426020893027 0.21369620670835879 0 0.13079881134157489 0.21612504290720769 0 0.1174426020893027 0.21369620670835879 0 0.1001331263781514 0.21054846617837791 0 0.1000095862482286 0.19353335379614581 0 0.1174426020893027 0.21369620670835879 0 0.1001331263781514 0.21054846617837791 0 0.08282365066700062 0.20740072564839451 0 0.1000095862482286 0.19353335379614581 0 0.1001331263781514 0.21054846617837791 0 0.1174426020893027 0.21369620670835879 0 0.1001331263781514 0.21054846617837791 0 0.099258091607832458 0.22228701345730209 0 0.086723057100410644 0.21930832929599969 0 0.1001331263781514 0.21054846617837791 0 0.099258091607832458 0.22228701345730209 0 0.1174426020893027 0.21369620670835879 0 0.099258091607832458 0.22228701345730209 0 0.10166443252893551 0.23659000017624271 0 0.090327239942362525 0.2312920649275291 0 0.099258091607832458 0.22228701345730209 0 0.10166443252893551 0.23659000017624271 0 0.11193009187841341 0.23778907333103991 0 0.1233060832280653 0.2372070654073864 0 0.13079881134157489 0.21612504290720769 0 0.1174426020893027 0.21369620670835879 0 0.11193009187841341 0.23778907333103991 0 0.10166443252893551 0.23659000017624271 0 0.1174426020893027 0.21369620670835879 0 0.11193009187841341 0.23778907333103991 0 0.13079881134157489 0.21612504290720769 0 0.11193009187841341 0.23778907333103991 0 0.13079881134157489 0.21612504290720769 0 0.1174426020893027 0.21369620670835879 0 0.10166443252893551 0.23659000017624271 0 0.11193009187841341 0.23778907333103991 0 0.1233060832280653 0.2372070654073864 0 0.1152979079485152 0.2467056018988516 0 0.1233060832280653 0.2372070654073864 0 0.1152979079485152 0.2467056018988516 0 0.1250676346401875 0.24796443701554319 0 0.11193009187841341 0.23778907333103991 0 0.1152979079485152 0.2467056018988516 0 0.10650461767427161 0.25132517155921902 0 0.11193009187841341 0.23778907333103991 0 0.10166443252893551 0.23659000017624271 0 0.093061372415253377 0.25945310375487363 0 0.10166443252893551 0.23659000017624271 0 0.085886262968569133 0.25948379364412733 0 0.11193009187841341 0.23778907333103991 0 0.093061372415253377 0.25945310375487363 0 0.11193009187841341 0.23778907333103991 0 0.093061372415253377 0.25945310375487363 0 0.10650461767427161 0.25132517155921902 0 0.091760355399887042 0.24149966876957779 0 0.090327239942362525 0.2312920649275291 0 0.10166443252893551 0.23659000017624271 0 0.08022281403025916 0.14313863688857029 0 0.093167312330706492 0.16073073013935579 0 0.097579150219516186 0.1459852772673329 0 0.08022281403025916 0.14313863688857029 0 0.079387562048995053 0.16654090924245221 0 0.08022281403025916 0.14313863688857029 0 0.097579150219516186 0.1459852772673329 0 0.098136173783193614 0.12855261503670501 0 0.081058066011519173 0.11973636453468819 0 0.08022281403025916 0.14313863688857029 0 0.081058066011519173 0.11973636453468819 0 0.08022281403025916 0.14313863688857029 0 0.098136173783193614 0.12855261503670501 0 0.054704645729867107 0.1303951701743557 0 0.068402942841081005 0.12865021266463919 0 0.06445510108496709 0.14831583671703669 0 0.081058066011519173 0.11973636453468819 0 0.08022281403025916 0.14313863688857029 0 0.068402942841081005 0.12865021266463919 0 0.08022281403025916 0.14313863688857029 0 0.068402942841081005 0.12865021266463919 0 0.06445510108496709 0.14831583671703669 0 0.08022281403025916 0.14313863688857029 0 0.06445510108496709 0.14831583671703669 0 0.079387562048995053 0.16654090924245221 0 0.06445510108496709 0.14831583671703669 0 0.06670876632053821 0.16536039993208129 0 0.079387562048995053 0.16654090924245221 0 0.056759789081437029 0.15816783404816359 0 0.06445510108496709 0.14831583671703669 0 0.06670876632053821 0.16536039993208129 0 0.06670876632053821 0.16536039993208129 0 0.071220178094475839 0.177519435916074 0 0.079387562048995053 0.16654090924245221 0 0.078552310067739675 0.1899431815963343 0 0.071220178094475839 0.177519435916074 0 0.079387562048995053 0.16654090924245221 0 0.057517378285335978 0.18642367489497111 0 0.078552310067739675 0.1899431815963343 0 0.071220178094475839 0.177519435916074 0 0.057517378285335978 0.18642367489497111 0 0.06670876632053821 0.16536039993208129 0 0.071220178094475839 0.177519435916074 0 0.078552310067739675 0.1899431815963343 0 0.079387562048995053 0.16654090924245221 0 0.078552310067739675 0.1899431815963343 0 0.079387562048995053 0.16654090924245221 0 0.094656188726405799 0.1772984468475671 0 0.078552310067739675 0.1899431815963343 0 0.1000095862482286 0.19353335379614581 0 0.094656188726405799 0.1772984468475671 0 0.079387562048995053 0.16654090924245221 0 0.093167312330706492 0.16073073013935579 0 0.094656188726405799 0.1772984468475671 0 0.08022281403025916 0.14313863688857029 0 0.079387562048995053 0.16654090924245221 0 0.093167312330706492 0.16073073013935579 0 0.093167312330706492 0.16073073013935579 0 0.1051682117550992 0.16863341283049499 0 0.094656188726405799 0.1772984468475671 0 0.093167312330706492 0.16073073013935579 0 0.1051682117550992 0.16863341283049499 0 0.10738037989590581 0.15691718048007991 0 0.1051682117550992 0.16863341283049499 0 0.094656188726405799 0.1772984468475671 0 0.1119621855324581 0.18388877331391679 0 0.1000095862482286 0.19353335379614581 0 0.094656188726405799 0.1772984468475671 0 0.1119621855324581 0.18388877331391679 0 0.1051682117550992 0.16863341283049499 0 0.1119621855324581 0.18388877331391679 0 0.1176573055604207 0.16965843036111 0 0.1119621855324581 0.18388877331391679 0 0.1176573055604207 0.16965843036111 0 0.12502668500631101 0.18003223183350331 0 0.1119621855324581 0.18388877331391679 0 0.12502668500631101 0.18003223183350331 0 0.12623709760602039 0.18867627876683751 0 0.10738037989590581 0.15691718048007991 0 0.1176573055604207 0.16965843036111 0 0.1263510041100718 0.15412713222648239 0 0.1051682117550992 0.16863341283049499 0 0.10738037989590581 0.15691718048007991 0 0.1176573055604207 0.16965843036111 0 0.10738037989590581 0.15691718048007991 0 0.1089890710575158 0.14058722379195329 0 0.1263510041100718 0.15412713222648239 0 0.1089890710575158 0.14058722379195329 0 0.1243116374868449 0.136850619307404 0 0.1263510041100718 0.15412713222648239 0 0.10738037989590581 0.15691718048007991 0 0.097579150219516186 0.1459852772673329 0 0.1089890710575158 0.14058722379195329 0 0.093167312330706492 0.16073073013935579 0 0.10738037989590581 0.15691718048007991 0 0.097579150219516186 0.1459852772673329 0 0.097579150219516186 0.1459852772673329 0 0.1089890710575158 0.14058722379195329 0 0.098136173783193614 0.12855261503670501 0 0.11707998843366239 0.12090166170324231 0 0.1089890710575158 0.14058722379195329 0 0.098136173783193614 0.12855261503670501 0 0.11707998843366239 0.12090166170324231 0 0.1089890710575158 0.14058722379195329 0 0.1243116374868449 0.136850619307404 0 0.11707998843366239 0.12090166170324231 0 0.1243116374868449 0.136850619307404 0 0.14061487869327599 0.12738787364596069 0 0.1243116374868449 0.136850619307404 0 0.14061487869327599 0.12738787364596069 0 0.1450893294801871 0.15084825440961219 0 0.14061487869327599 0.12738787364596069 0 0.1450893294801871 0.15084825440961219 0 0.16208469833826319 0.13464304631642149 0 0.1450893294801871 0.15084825440961219 0 0.16208469833826319 0.13464304631642149 0 0.1243116374868449 0.136850619307404 0 0.1450893294801871 0.15084825440961219 0 0.1263510041100718 0.15412713222648239 0 0.1450893294801871 0.15084825440961219 0 0.1263510041100718 0.15412713222648239 0 0.13434892063135129 0.1709012650253654 0 0.1176573055604207 0.16965843036111 0 0.1263510041100718 0.15412713222648239 0 0.13434892063135129 0.1709012650253654 0 0.1176573055604207 0.16965843036111 0 0.13434892063135129 0.1709012650253654 0 0.12502668500631101 0.18003223183350331 0 0.12502668500631101 0.18003223183350331 0 0.13317066441191511 0.18549658195139779 0 0.12623709760602039 0.18867627876683751 0 0.13434892063135129 0.1709012650253654 0 0.12502668500631101 0.18003223183350331 0 0.13317066441191511 0.18549658195139779 0 0.13434892063135129 0.1709012650253654 0 0.13317066441191511 0.18549658195139779 0 0.14289571148574401 0.18421669799074539 0 0.13434892063135129 0.1709012650253654 0 0.14289571148574401 0.18421669799074539 0 0.15014598838012391 0.16812378435884931 0 0.14289571148574401 0.18421669799074539 0 0.15014598838012391 0.16812378435884931 0 0.16340295837154781 0.17869074671240681 0 0.1450893294801871 0.15084825440961219 0 0.15014598838012391 0.16812378435884931 0 0.17025484901730581 0.156442106610301 0 0.1450893294801871 0.15084825440961219 0 0.13434892063135129 0.1709012650253654 0 0.15014598838012391 0.16812378435884931 0 0.15014598838012391 0.16812378435884931 0 0.17025484901730581 0.156442106610301 0 0.16340295837154781 0.17869074671240681 0 0.17025484901730581 0.156442106610301 0 0.16340295837154781 0.17869074671240681 0 0.18344157371591241 0.18406997535271 0 0.17025484901730581 0.156442106610301 0 0.18344157371591241 0.18406997535271 0 0.1981233639171355 0.16578679509823521 0 0.17025484901730581 0.156442106610301 0 0.1886017155567373 0.14211231666073301 0 0.1981233639171355 0.16578679509823521 0 0.17025484901730581 0.156442106610301 0 0.16208469833826319 0.13464304631642149 0 0.1886017155567373 0.14211231666073301 0 0.1886017155567373 0.14211231666073301 0 0.1790800671963392 0.1184378382232308 0 0.16208469833826319 0.13464304631642149 0 0.1886017155567373 0.14211231666073301 0 0.1790800671963392 0.1184378382232308 0 0.19325819231563421 0.12959887947710741 0 0.1886017155567373 0.14211231666073301 0 0.1790800671963392 0.1184378382232308 0 0.16208469833826319 0.13464304631642149 0 0.1790800671963392 0.1184378382232308 0 0.1450893294801871 0.15084825440961219 0 0.17025484901730581 0.156442106610301 0 0.16208469833826319 0.13464304631642149 0 0.1514273965657848 0.24085309905483679 0 0.13478444466321229 0.23767678351231611 0 0.14386495534927929 0.22895205141331151 0 0.1514273965657848 0.24085309905483679 0 0.13478444466321229 0.23767678351231611 0 0.1384713120865835 0.25773302092121009 0 0.1250676346401875 0.24796443701554319 0 0.13478444466321229 0.23767678351231611 0 0.1384713120865835 0.25773302092121009 0 0.1233060832280653 0.2372070654073864 0 0.1250676346401875 0.24796443701554319 0 0.13478444466321229 0.23767678351231611 0 0.1233060832280653 0.2372070654073864 0 0.13478444466321229 0.23767678351231611 0 0.13079881134157489 0.21612504290720769 0 0.13478444466321229 0.23767678351231611 0 0.14386495534927929 0.22895205141331151 0 0.13079881134157489 0.21612504290720769 0 0.14386495534927929 0.22895205141331151 0 0.13079881134157489 0.21612504290720769 0 0.15844916882654519 0.22115328017888419 0 0.1514273965657848 0.24085309905483679 0 0.14386495534927929 0.22895205141331151 0 0.15844916882654519 0.22115328017888419 0 0.13079881134157489 0.21612504290720769 0 0.15844916882654519 0.22115328017888419 0 0.13079881134157489 0.21612504290720769 0 0.14405659807402271 0.2009031781863346 0 0.15844916882654519 0.22115328017888419 0 0.13079881134157489 0.21612504290720769 0 0.12809949413598259 0.1982332796183166 0 0.14405659807402271 0.2009031781863346 0 0.1174426020893027 0.21369620670835879 0 0.13079881134157489 0.21612504290720769 0 0.12809949413598259 0.1982332796183166 0 0.13079881134157489 0.21612504290720769 0 0.14405659807402271 0.2009031781863346 0 0.12809949413598259 0.1982332796183166 0 0.14405659807402271 0.2009031781863346 0 0.12809949413598259 0.1982332796183166 0 0.1377541084679488 0.19338203871321119 0 0.14405659807402271 0.2009031781863346 0 0.12809949413598259 0.1982332796183166 0 0.13022991801334199 0.19514207920620891 0 0.1377541084679488 0.19338203871321119 0 0.12809949413598259 0.1982332796183166 0 0.13022991801334199 0.19514207920620891 0 0.12809949413598259 0.1982332796183166 0 0.12623709760602039 0.18867627876683751 0 0.13022991801334199 0.19514207920620891 0 0.13317066441191511 0.18549658195139779 0 0.12623709760602039 0.18867627876683751 0 0.13022991801334199 0.19514207920620891 0 0.13317066441191511 0.18549658195139779 0 0.14289571148574401 0.18421669799074539 0 0.1377541084679488 0.19338203871321119 0 0.13317066441191511 0.18549658195139779 0 0.13022991801334199 0.19514207920620891 0 0.1377541084679488 0.19338203871321119 0 0.14289571148574401 0.18421669799074539 0 0.1377541084679488 0.19338203871321119 0 0.14405659807402271 0.2009031781863346 0 0.14405659807402271 0.2009031781863346 0 0.1684266189286579 0.20498070278197239 0 0.14289571148574401 0.18421669799074539 0 0.16340295837154781 0.17869074671240681 0 0.14405659807402271 0.2009031781863346 0 0.16340295837154781 0.17869074671240681 0 0.14405659807402271 0.2009031781863346 0 0.16340295837154781 0.17869074671240681 0 0.18344157371591241 0.18406997535271 0 0.1684266189286579 0.20498070278197239 0 0.16340295837154781 0.17869074671240681 0 0.14405659807402271 0.2009031781863346 0 0.1684266189286579 0.20498070278197239 0 0.18344157371591241 0.18406997535271 0 0.1684266189286579 0.20498070278197239 0 0.19279663978329381 0.20905822737760699 0 0.1684266189286579 0.20498070278197239 0 0.19279663978329381 0.20905822737760699 0 0.17869659642439559 0.21414630976549021 0 0.1684266189286579 0.20498070278197239 0 0.19279663978329381 0.20905822737760699 0 0.17869659642439559 0.21414630976549021 0 0.18609952631151591 0.22618151745055959 0 0.19279663978329381 0.20905822737760699 0 0.14405659807402271 0.2009031781863346 0 0.1684266189286579 0.20498070278197239 0 0.15844916882654519 0.22115328017888419 0 0.17869659642439559 0.21414630976549021 0 0.1684266189286579 0.20498070278197239 0 0.15844916882654519 0.22115328017888419 0 0.1514273965657848 0.24085309905483679 0 0.15844916882654519 0.22115328017888419 0 0.1691493644934341 0.23606856512045299 0 0.15844916882654519 0.22115328017888419 0 0.18609952631151591 0.22618151745055959 0 0.1691493644934341 0.23606856512045299 0 0.17869659642439559 0.21414630976549021 0 0.15844916882654519 0.22115328017888419 0 0.18609952631151591 0.22618151745055959 0 0.15844916882654519 0.22115328017888419 0 0.18609952631151591 0.22618151745055959 0 0.18609952631151591 0.22618151745055959 0 0.1971008006350988 0.24422433182354611 0 0.17660728565697029 0.25284173787090108 0 0.18609952631151591 0.22618151745055959 0 0.1691493644934341 0.23606856512045299 0 0.17660728565697029 0.25284173787090108 0 0.1514273965657848 0.24085309905483679 0 0.17660728565697029 0.25284173787090108 0 0.1514273965657848 0.24085309905483679 0 0.1691493644934341 0.23606856512045299 0 0.17660728565697029 0.25284173787090108 0 0.1971008006350988 0.24422433182354611 0 0.21374988379648621 0.2312097547222359 0 0.2257125065402284 0.25431107802280528 0 0.18609952631151591 0.22618151745055959 0 0.19919001424274069 0.21902366269476331 0 0.2102140220753515 0.22438156273492879 0 0.18609952631151591 0.22618151745055959 0 0.1971008006350988 0.24422433182354611 0 0.21374988379648621 0.2312097547222359 0 0.18609952631151591 0.22618151745055959 0 0.21374988379648621 0.2312097547222359 0 0.18609952631151591 0.22618151745055959 0 0.2102140220753515 0.22438156273492879 0 0.21374988379648621 0.2312097547222359 0 0.19919001424274069 0.21902366269476331 0 0.2102140220753515 0.22438156273492879 0 0.22326984787173351 0.22831062181695069 0 0.19919001424274069 0.21902366269476331 0 0.21716666063792969 0.21313575197324039 0 0.22326984787173351 0.22831062181695069 0 0.19919001424274069 0.21902366269476331 0 0.22326984787173351 0.22831062181695069 0 0.2102140220753515 0.22438156273492879 0 0.21374988379648621 0.2312097547222359 0 0.2102140220753515 0.22438156273492879 0 0.21374988379648621 0.2312097547222359 0 0.22326984787173351 0.22831062181695069 0 0.21716666063792969 0.21313575197324039 0 0.19279663978329381 0.20905822737760699 0 0.20764501227753371 0.18946127353573741 0 0.21716666063792969 0.21313575197324039 0 0.19279663978329381 0.20905822737760699 0 0.19919001424274069 0.21902366269476331 0 0.21716666063792969 0.21313575197324039 0 0.19279663978329381 0.20905822737760699 0 0.18609952631151591 0.22618151745055959 0 0.19919001424274069 0.21902366269476331 0 0.19279663978329381 0.20905822737760699 0 0.18344157371591241 0.18406997535271 0 0.19279663978329381 0.20905822737760699 0 0.20764501227753371 0.18946127353573741 0 0.21716666063792969 0.21313575197324039 0 0.20764501227753371 0.18946127353573741 0 0.21716666063792969 0.21313575197324039 0 0.20764501227753371 0.18946127353573741 0 0.22349524510262589 0.1882929917077163 0 0.21716666063792969 0.21313575197324039 0 0.22349524510262589 0.1882929917077163 0 0.23482300448504159 0.1984970970255906 0 0.22349524510262589 0.1882929917077163 0 0.23482300448504159 0.1984970970255906 0 0.23800281531175979 0.18073324988006281 0 0.23482300448504159 0.1984970970255906 0 0.24828008483854189 0.20295934428596721 0 0.25113643024109478 0.19094495075723769 0 0.23482300448504159 0.1984970970255906 0 0.23800281531175979 0.18073324988006281 0 0.25113643024109478 0.19094495075723769 0 0.23482300448504159 0.1984970970255906 0 0.24828008483854189 0.20295934428596721 0 0.24332195560292991 0.2175119837032847 0 0.21716666063792969 0.21313575197324039 0 0.23482300448504159 0.1984970970255906 0 0.24332195560292991 0.2175119837032847 0 0.21716666063792969 0.21313575197324039 0 0.24332195560292991 0.2175119837032847 0 0.22527908084694109 0.23330634744632109 0 0.22326984787173351 0.22831062181695069 0 0.2459873280094696 0.23707215699401071 0 0.21716666063792969 0.21313575197324039 0 0.24332195560292991 0.2175119837032847 0 0.22326984787173351 0.22831062181695069 0 0.21716666063792969 0.21313575197324039 0 0.22326984787173351 0.22831062181695069 0 0.21374988379648621 0.2312097547222359 0 0.22527908084694109 0.23330634744632109 0 0.22326984787173351 0.22831062181695069 0 0.21374988379648621 0.2312097547222359 0 0.22527908084694109 0.23330634744632109 0 0.22527908084694109 0.23330634744632109 0 0.22326984787173351 0.22831062181695069 0 0.22326984787173351 0.22831062181695069 0 0.2459873280094696 0.23707215699401071 0 0.24332195560292991 0.2175119837032847 0 0.22326984787173351 0.22831062181695069 0 0.2459873280094696 0.23707215699401071 0 0.22527908084694109 0.23330634744632109 0 0.2459873280094696 0.23707215699401071 0 0.22527908084694109 0.23330634744632109 0 0.2459873280094696 0.23707215699401071 0 0.23435940432808119 0.2558835225658645 0 0.22527908084694109 0.23330634744632109 0 0.23435940432808119 0.2558835225658645 0 0.21374988379648621 0.2312097547222359 0 0.2257125065402284 0.25431107802280528 0 0.21374988379648621 0.2312097547222359 0 0.22527908084694109 0.23330634744632109 0 0.2257125065402284 0.25431107802280528 0 0.22527908084694109 0.23330634744632109 0 0.2257125065402284 0.25431107802280528 0 0.23435940432808119 0.2558835225658645 0 0.207677409848747 0.15265436726913009 0 0.20799191400454739 0.1375227668896451 0 0.22134903716669199 0.14708536363501609 0 0.20799191400454739 0.1375227668896451 0 0.22703691245497479 0.13189098412415109 0 0.21251029914637609 0.1192952894197942 0 0.20799191400454739 0.1375227668896451 0 0.19325819231563421 0.12959887947710741 0 0.21251029914637609 0.1192952894197942 0 0.20799191400454739 0.1375227668896451 0 0.19325819231563421 0.12959887947710741 0 0.1886017155567373 0.14211231666073301 0 0.1886017155567373 0.14211231666073301 0 0.1981233639171355 0.16578679509823521 0 0.207677409848747 0.15265436726913009 0 0.20799191400454739 0.1375227668896451 0 0.1886017155567373 0.14211231666073301 0 0.207677409848747 0.15265436726913009 0 0.1886017155567373 0.14211231666073301 0 0.1981233639171355 0.16578679509823521 0 0.20764501227753371 0.18946127353573741 0 0.1981233639171355 0.16578679509823521 0 0.18344157371591241 0.18406997535271 0 0.20764501227753371 0.18946127353573741 0 0.1981233639171355 0.16578679509823521 0 0.20764501227753371 0.18946127353573741 0 0.1981233639171355 0.16578679509823521 0 0.22193333897365611 0.16940236618161161 0 0.20764501227753371 0.18946127353573741 0 0.22349524510262589 0.1882929917077163 0 0.22193333897365611 0.16940236618161161 0 0.207677409848747 0.15265436726913009 0 0.1981233639171355 0.16578679509823521 0 0.22193333897365611 0.16940236618161161 0 0.207677409848747 0.15265436726913009 0 0.22193333897365611 0.16940236618161161 0 0.22134903716669199 0.14708536363501609 0 0.22349524510262589 0.1882929917077163 0 0.22193333897365611 0.16940236618161161 0 0.23800281531175979 0.18073324988006281 0 0.23800281531175979 0.18073324988006281 0 0.24342118736862761 0.16410875332904781 0 0.25421457754785548 0.17528354573505059 0 0.23800281531175979 0.18073324988006281 0 0.25421457754785548 0.17528354573505059 0 0.25113643024109478 0.19094495075723769 0 0.22193333897365611 0.16940236618161161 0 0.23800281531175979 0.18073324988006281 0 0.24342118736862761 0.16410875332904781 0 0.22193333897365611 0.16940236618161161 0 0.24342118736862761 0.16410875332904781 0 0.2381959797174126 0.14809141417820801 0 0.2381959797174126 0.14809141417820801 0 0.2471064899150823 0.133463067737116 0 0.25227113898158787 0.14916335431643429 0 0.24342118736862761 0.16410875332904781 0 0.2381959797174126 0.14809141417820801 0 0.25227113898158787 0.14916335431643429 0 0.2381959797174126 0.14809141417820801 0 0.22134903716669199 0.14708536363501609 0 0.22703691245497479 0.13189098412415109 0 0.22193333897365611 0.16940236618161161 0 0.2381959797174126 0.14809141417820801 0 0.22134903716669199 0.14708536363501609 0 0.20799191400454739 0.1375227668896451 0 0.22134903716669199 0.14708536363501609 0 0.22703691245497479 0.13189098412415109 0 0.22703691245497479 0.13189098412415109 0 0.2471064899150823 0.133463067737116 0 0.2348532799323845 0.1126728752525727 0 0.2381959797174126 0.14809141417820801 0 0.22703691245497479 0.13189098412415109 0 0.2471064899150823 0.133463067737116 0 0.2471064899150823 0.133463067737116 0 0.2496952397761337 0.1160329650041991 0 0.2348532799323845 0.1126728752525727 0 0.2348532799323845 0.1126728752525727 0 0.23238347446995899 0.09878858498409393 0 0.25089272908716931 0.092982859712809007 0 0.2496952397761337 0.1160329650041991 0 0.2348532799323845 0.1126728752525727 0 0.25089272908716931 0.092982859712809007 0 0.23238347446995899 0.09878858498409393 0 0.21965336389696419 0.1029970115124081 0 0.22413452496331809 0.086501593458585962 0 0.2348532799323845 0.1126728752525727 0 0.23238347446995899 0.09878858498409393 0 0.21965336389696419 0.1029970115124081 0 0.2348532799323845 0.1126728752525727 0 0.21965336389696419 0.1029970115124081 0 0.21251029914637609 0.1192952894197942 0 0.22703691245497479 0.13189098412415109 0 0.2348532799323845 0.1126728752525727 0 0.21251029914637609 0.1192952894197942 0 0.21965336389696419 0.1029970115124081 0 0.21251029914637609 0.1192952894197942 0 0.20714728240524249 0.10617251279081751 0 0.21251029914637609 0.1192952894197942 0 0.20714728240524249 0.10617251279081751 0 0.2007454095485067 0.1153730887768626 0 0.21965336389696419 0.1029970115124081 0 0.21155544327336909 0.093494818701204518 0 0.22413452496331809 0.086501593458585962 0 0.21965336389696419 0.1029970115124081 0 0.20714728240524249 0.10617251279081751 0 0.21155544327336909 0.093494818701204518 0 0.20029711589946361 0.098207227624031723 0 0.20055037116402991 0.091606906531847498 0 0.21155544327336909 0.093494818701204518 0 0.20714728240524249 0.10617251279081751 0 0.20029711589946361 0.098207227624031723 0 0.21155544327336909 0.093494818701204518 0 0.19812206266677551 0.107667640710604 0 0.20029711589946361 0.098207227624031723 0 0.1885688884481975 0.1093901779912298 0 0.20714728240524249 0.10617251279081751 0 0.19812206266677551 0.107667640710604 0 0.20029711589946361 0.098207227624031723 0 0.20029711589946361 0.098207227624031723 0 0.1929726046438287 0.094705252597794665 0 0.20055037116402991 0.091606906531847498 0 0.1929726046438287 0.094705252597794665 0 0.1885688884481975 0.1093901779912298 0 0.1832996600419958 0.1003897382564244 0 0.20029711589946361 0.098207227624031723 0 0.1929726046438287 0.094705252597794665 0 0.1885688884481975 0.1093901779912298 0 0.20029711589946361 0.098207227624031723 0 0.1885688884481975 0.1093901779912298 0 0.1929726046438287 0.094705252597794665 0 0.1885688884481975 0.1093901779912298 0 0.19812206266677551 0.107667640710604 0 0.19247123508700151 0.1156451737142033 0 0.1885688884481975 0.1093901779912298 0 0.19247123508700151 0.1156451737142033 0 0.1885688884481975 0.1093901779912298 0 0.1858372065203453 0.1184994265274882 0 0.19325819231563421 0.12959887947710741 0 0.21251029914637609 0.1192952894197942 0 0.2007454095485067 0.1153730887768626 0 0.19325819231563421 0.12959887947710741 0 0.19247123508700151 0.1156451737142033 0 0.1858372065203453 0.1184994265274882 0 0.19325819231563421 0.12959887947710741 0 0.19247123508700151 0.1156451737142033 0 0.2007454095485067 0.1153730887768626 0 0.20714728240524249 0.10617251279081751 0 0.19812206266677551 0.107667640710604 0 0.2007454095485067 0.1153730887768626 0 0.19812206266677551 0.107667640710604 0 0.19247123508700151 0.1156451737142033 0 0.2007454095485067 0.1153730887768626 0 0.20238686903042469 0.063311819413239129 0 0.1973763208394673 0.08002032720436178 0 0.18079222374313991 0.066157073385880324 0 0.20238686903042469 0.063311819413239129 0 0.18079222374313991 0.066157073385880324 0 0.1973763208394673 0.08002032720436178 0 0.17868141559437861 0.075492121278057239 0 0.20238686903042469 0.063311819413239129 0 0.1973763208394673 0.08002032720436178 0 0.1929726046438287 0.094705252597794665 0 0.1973763208394673 0.08002032720436178 0 0.1929726046438287 0.094705252597794665 0 0.1973763208394673 0.08002032720436178 0 0.18493574174144031 0.087819629641268118 0 0.1929726046438287 0.094705252597794665 0 0.20055037116402991 0.091606906531847498 0 0.1973763208394673 0.08002032720436178 0 0.1973763208394673 0.08002032720436178 0 0.22413452496331809 0.086501593458585962 0 0.1973763208394673 0.08002032720436178 0 0.21155544327336909 0.093494818701204518 0 0.22413452496331809 0.086501593458585962 0 0.1973763208394673 0.08002032720436178 0 0.21581045027983861 0.072515516379325212 0 0.22413452496331809 0.086501593458585962 0 0.20055037116402991 0.091606906531847498 0 0.1973763208394673 0.08002032720436178 0 0.21155544327336909 0.093494818701204518 0 0.20238686903042469 0.063311819413239129 0 0.21581045027983861 0.072515516379325212 0 0.22639199231908241 0.060148967164815811 0 0.20238686903042469 0.063311819413239129 0 0.1973763208394673 0.08002032720436178 0 0.21581045027983861 0.072515516379325212 0 0.21581045027983861 0.072515516379325212 0 0.22413452496331809 0.086501593458585962 0 0.23571274181676019 0.070187616308315881 0 0.21581045027983861 0.072515516379325212 0 0.23571274181676019 0.070187616308315881 0 0.22639199231908241 0.060148967164815811 0 0.23571274181676019 0.070187616308315881 0 0.23935269316475091 0.05797056278501677 0 0.22639199231908241 0.060148967164815811 0 0.22413452496331809 0.086501593458585962 0 0.25089272908716931 0.092982859712809007 0 0.22413452496331809 0.086501593458585962 0 0.23571274181676019 0.070187616308315881 0 0.25089272908716931 0.092982859712809007 0 0.23238347446995899 0.09878858498409393 0 0.22413452496331809 0.086501593458585962 0 0.25089272908716931 0.092982859712809007 0 0.23571274181676019 0.070187616308315881 0 0.25089272908716931 0.092982859712809007 0 0.23571274181676019 0.070187616308315881 0 0.25282536794073712 0.073272794188635415 0 0.25089272908716931 0.092982859712809007 0 0.23935269316475091 0.05797056278501677 0 0.25425538404847059 0.057624927133231481 0 0.25282536794073712 0.073272794188635415 0 0.23571274181676019 0.070187616308315881 0 0.23935269316475091 0.05797056278501677 0 0.25282536794073712 0.073272794188635415 0 0.2368345322212535 0.044434942105003657 0 0.25425538404847059 0.057624927133231481 0 0.23935269316475091 0.05797056278501677 0 0.2368345322212535 0.044434942105003657 0 0.25425538404847059 0.057624927133231481 0 0.23935269316475091 0.05797056278501677 0 0.2368345322212535 0.044434942105003657 0 0.23127016951469481 0.052559852354376588 0 0.2368345322212535 0.044434942105003657 0 0.25291178968964928 0.037547667281027097 0 0.25425538404847059 0.057624927133231481 0 0.2368345322212535 0.044434942105003657 0 0.24190969492169709 0.024768393557462999 0 0.25291178968964928 0.037547667281027097 0 0.2368345322212535 0.044434942105003657 0 0.21941368039403211 0.031244957076781411 0 0.2368345322212535 0.044434942105003657 0 0.22121604545690071 0.040326540279582428 0 0.22250146035369231 0.047684937362670127 0 0.2368345322212535 0.044434942105003657 0 0.22121604545690071 0.040326540279582428 0 0.21941368039403211 0.031244957076781411 0 0.2368345322212535 0.044434942105003657 0 0.24190969492169709 0.024768393557462999 0 0.21941368039403211 0.031244957076781411 0 0.22121604545690071 0.040326540279582428 0 0.22250146035369231 0.047684937362670127 0 0.2151241054634794 0.043140718643033253 0 0.22250146035369231 0.047684937362670127 0 0.22639199231908241 0.060148967164815811 0 0.21464985550632831 0.05254647609126252 0 0.23935269316475091 0.05797056278501677 0 0.22639199231908241 0.060148967164815811 0 0.23127016951469481 0.052559852354376588 0 0.2368345322212535 0.044434942105003657 0 0.22250146035369231 0.047684937362670127 0 0.23127016951469481 0.052559852354376588 0 0.22250146035369231 0.047684937362670127 0 0.22639199231908241 0.060148967164815811 0 0.23127016951469481 0.052559852354376588 0 0.23517440673197429 0.0051848507458196356 0 0.24190969492169709 0.024768393557462999 0 0.22860778246280219 0.01441509204728152 0 0.23517440673197429 0.0051848507458196356 0 0.2485551203034157 0.0102848256948572 0 0.24190969492169709 0.024768393557462999 0 0.23517440673197429 0.0051848507458196356 0 0.2429424487767215 0.0026164120279975069 0 0.24005113852307369 -0.0027355710512556022 0 0.23517440673197429 0.0051848507458196356 0 0.2429424487767215 0.0026164120279975069 0 0.2485551203034157 0.0102848256948572 0 0.2429424487767215 0.0026164120279975069 0 0.2485551203034157 0.0102848256948572 0 0.2479891295484222 -0.0022684572774312019 0 0.2237082671027216 0.020648212041472009 0 0.22100796739575951 0.001216664300799794 0 0.21337432104441539 0.026672329963493752 0 0.24190969492169709 0.024768393557462999 0 0.21941368039403211 0.031244957076781411 0 0.24190969492169709 0.024768393557462999 0 0.21941368039403211 0.031244957076781411 0 0.2237082671027216 0.020648212041472009 0 0.24190969492169709 0.024768393557462999 0 0.2237082671027216 0.020648212041472009 0 0.22860778246280219 0.01441509204728152 0 0.21941368039403211 0.031244957076781411 0 0.2237082671027216 0.020648212041472009 0 0.21337432104441539 0.026672329963493752 0 0.2237082671027216 0.020648212041472009 0 0.22860778246280219 0.01441509204728152 0 0.22100796739575951 0.001216664300799794 0 0.23517440673197429 0.0051848507458196356 0 0.22860778246280219 0.01441509204728152 0 0.22100796739575951 0.001216664300799794 0 0.22100796739575951 0.001216664300799794 0 0.21337432104441539 0.026672329963493752 0 0.22100796739575951 0.001216664300799794 0 0.21213365429295861 0.01041237886839381 0 0.21337432104441539 0.026672329963493752 0 0.20938161325362409 0.0025060029461209908 0 0.21213365429295861 0.01041237886839381 0 0.19981118715584381 0.0070254328827108366 0 0.20938161325362409 0.0025060029461209908 0 0.19981118715584381 0.0070254328827108366 0 0.20239897911060981 -0.0049616950454924097 0 0.22100796739575951 0.001216664300799794 0 0.21476518088515931 0.0026345493870347861 0 0.21213365429295861 0.01041237886839381 0 0.20938161325362409 0.0025060029461209908 0 0.21476518088515931 0.0026345493870347861 0 0.21653748859829491 -0.0035968485671754561 0 0.20938161325362409 0.0025060029461209908 0 0.21476518088515931 0.0026345493870347861 0 0.21213365429295861 0.01041237886839381 0 0.22100796739575951 0.001216664300799794 0 0.21476518088515931 0.0026345493870347861 0 0.21653748859829491 -0.0035968485671754561 0 0.21213365429295861 0.01041237886839381 0 0.20775643638324501 0.022418817258943329 0 0.19981118715584381 0.0070254328827108366 0 0.20775643638324501 0.022418817258943329 0 0.19981118715584381 0.0070254328827108366 0 0.21213365429295861 0.01041237886839381 0 0.20775643638324501 0.022418817258943329 0 0.21337432104441539 0.026672329963493752 0 0.20775643638324501 0.022418817258943329 0 0.21337432104441539 0.026672329963493752 0 0.21211661331991941 0.030866365927793071 0 0.21941368039403211 0.031244957076781411 0 0.21337432104441539 0.026672329963493752 0 0.21211661331991941 0.030866365927793071 0 0.21941368039403211 0.031244957076781411 0 0.21337432104441539 0.026672329963493752 0 0.21337432104441539 0.026672329963493752 0 0.21211661331991941 0.030866365927793071 0 0.20775643638324501 0.022418817258943329 0 0.21211661331991941 0.030866365927793071 0 0.2008624239423544 0.027751844864101351 0 0.21211661331991941 0.030866365927793071 0 0.2008624239423544 0.027751844864101351 0 0.21130283169949521 0.033580056331867662 0 0.20775643638324501 0.022418817258943329 0 0.21211661331991941 0.030866365927793071 0 0.20775643638324501 0.022418817258943329 0 0.21337432104441539 0.026672329963493752 0 0.2008624239423544 0.027751844864101351 0 0.1914807756371078 0.039286791852227318 0 0.1874867753674215 0.0231110496262097 0 0.2008624239423544 0.027751844864101351 0 0.19503111124693581 0.017247988187571551 0 0.1874867753674215 0.0231110496262097 0 0.19503111124693581 0.017247988187571551 0 0.18734518720319909 0.015281891910368059 0 0.1874867753674215 0.0231110496262097 0 0.20775643638324501 0.022418817258943329 0 0.2008624239423544 0.027751844864101351 0 0.19503111124693581 0.017247988187571551 0 0.20775643638324501 0.022418817258943329 0 0.19503111124693581 0.017247988187571551 0 0.18660242445042999 0.0064023156866817926 0 0.20775643638324501 0.022418817258943329 0 0.18660242445042999 0.0064023156866817926 0 0.20775643638324501 0.022418817258943329 0 0.1894192936343001 0.0060385698470956234 0 0.19981118715584381 0.0070254328827108366 0 0.20775643638324501 0.022418817258943329 0 0.1894192936343001 0.0060385698470956234 0 0.18660242445042999 0.0064023156866817926 0 0.19503111124693581 0.017247988187571551 0 0.18832376542685261 0.012450231659139751 0 0.18660242445042999 0.0064023156866817926 0 0.19503111124693581 0.017247988187571551 0 0.18832376542685261 0.012450231659139751 0 0.18734518720319909 0.015281891910368059 0 0.1894192936343001 0.0060385698470956234 0 0.19981118715584381 0.0070254328827108366 0 0.1918659379284415 -0.0083679514935210662 0 0.20238686903042469 0.063311819413239129 0 0.22639199231908241 0.060148967164815811 0 0.21464985550632831 0.05254647609126252 0 0.20238686903042469 0.063311819413239129 0 0.22639199231908241 0.060148967164815811 0 0.20238686903042469 0.063311819413239129 0 0.20684485036496281 0.04844593787255428 0 0.21464985550632831 0.05254647609126252 0 0.20238686903042469 0.063311819413239129 0 0.20684485036496281 0.04844593787255428 0 0.20684485036496281 0.04844593787255428 0 0.21464985550632831 0.05254647609126252 0 0.2151241054634794 0.043140718643033253 0 0.22250146035369231 0.047684937362670127 0 0.21464985550632831 0.05254647609126252 0 0.2151241054634794 0.043140718643033253 0 0.20684485036496281 0.04844593787255428 0 0.2151241054634794 0.043140718643033253 0 0.21130283169949521 0.033580056331867662 0 0.20684485036496281 0.04844593787255428 0 0.21130283169949521 0.033580056331867662 0 0.1914807756371078 0.039286791852227318 0 0.2151241054634794 0.043140718643033253 0 0.21130283169949521 0.033580056331867662 0 0.21323078658658201 0.03302500146766809 0 0.22121604545690071 0.040326540279582428 0 0.2151241054634794 0.043140718643033253 0 0.21323078658658201 0.03302500146766809 0 0.22121604545690071 0.040326540279582428 0 0.21941368039403211 0.031244957076781411 0 0.21323078658658201 0.03302500146766809 0 0.21941368039403211 0.031244957076781411 0 0.21211661331991941 0.030866365927793071 0 0.21323078658658201 0.03302500146766809 0 0.21941368039403211 0.031244957076781411 0 0.21323078658658201 0.03302500146766809 0 0.21130283169949521 0.033580056331867662 0 0.21323078658658201 0.03302500146766809 0 0.21211661331991941 0.030866365927793071 0 0.21130283169949521 0.033580056331867662 0 0.21323078658658201 0.03302500146766809 0 0.21211661331991941 0.030866365927793071 0 0.21130283169949521 0.033580056331867662 0 0.21211661331991941 0.030866365927793071 0 0.21323078658658201 0.03302500146766809 0 0.20684485036496281 0.04844593787255428 0 0.21130283169949521 0.033580056331867662 0 0.20684485036496281 0.04844593787255428 0 0.1914807756371078 0.039286791852227318 0 0.1906326876700713 0.052439029979298252 0 0.21130283169949521 0.033580056331867662 0 0.1914807756371078 0.039286791852227318 0 0.2008624239423544 0.027751844864101351 0 0.21130283169949521 0.033580056331867662 0 0.1914807756371078 0.039286791852227318 0 0.20238686903042469 0.063311819413239129 0 0.20684485036496281 0.04844593787255428 0 0.1906326876700713 0.052439029979298252 0 0.20238686903042469 0.063311819413239129 0 0.1906326876700713 0.052439029979298252 0 0.18079222374313991 0.066157073385880324 0 0.1906326876700713 0.052439029979298252 0 0.1716587195747214 0.044993527372590117 0 0.18079222374313991 0.066157073385880324 0 0.1914807756371078 0.039286791852227318 0 0.17895959729017549 0.03270519686463521 0 0.1874867753674215 0.0231110496262097 0 0.1914807756371078 0.039286791852227318 0 0.1906326876700713 0.052439029979298252 0 0.1716587195747214 0.044993527372590117 0 0.1914807756371078 0.039286791852227318 0 0.1716587195747214 0.044993527372590117 0 0.1914807756371078 0.039286791852227318 0 0.17895959729017549 0.03270519686463521 0 0.1716587195747214 0.044993527372590117 0 0.17895959729017549 0.03270519686463521 0 0.1716587195747214 0.044993527372590117 0 0.1692336025848987 0.033942773786365128 0 0.1716587195747214 0.044993527372590117 0 0.1692336025848987 0.033942773786365128 0 0.1566962317421734 0.039838803654011962 0 0.1716587195747214 0.044993527372590117 0 0.1566962317421734 0.039838803654011962 0 0.15183666351233449 0.050700262892952028 0 0.1692336025848987 0.033942773786365128 0 0.1566962317421734 0.039838803654011962 0 0.158601754226253 0.030081739901262169 0 0.1716587195747214 0.044993527372590117 0 0.15183666351233449 0.050700262892952028 0 0.15919757845585511 0.069002327358520896 0 0.1716587195747214 0.044993527372590117 0 0.18079222374313991 0.066157073385880324 0 0.15919757845585511 0.069002327358520896 0 0.1716587195747214 0.044993527372590117 0 0.15183666351233449 0.050700262892952028 0 0.17227434920368959 0.00081991249798677823 0 0.17658810010716819 0.0040568459827444014 0 0.17786282304025339 -0.001583287003114023 0 0.17227434920368959 0.00081991249798677823 0 0.17658810010716819 0.0040568459827444014 0 0.17233771352019589 0.0083561011481188656 0 0.17658810010716819 0.0040568459827444014 0 0.18177514670000741 0.0039010391453388991 0 0.17943453638861959 0.0091511058078182841 0 0.17658810010716819 0.0040568459827444014 0 0.17943453638861959 0.0091511058078182841 0 0.17233771352019589 0.0083561011481188656 0 0.17658810010716819 0.0040568459827444014 0 0.18177514670000741 0.0039010391453388991 0 0.17786282304025339 -0.001583287003114023 0 0.18177514670000741 0.0039010391453388991 0 0.18580903226614379 -0.0011502469314075439 0 0.17786282304025339 -0.001583287003114023 0 0.1894192936343001 0.0060385698470956234 0 0.18660242445042999 0.0064023156866817926 0 0.18580903226614379 -0.0011502469314075439 0 0.18177514670000741 0.0039010391453388991 0 0.18660242445042999 0.0064023156866817926 0 0.18580903226614379 -0.0011502469314075439 0 0.18177514670000741 0.0039010391453388991 0 0.18660242445042999 0.0064023156866817926 0 0.18303211158647559 0.0075807978729441382 0 0.18177514670000741 0.0039010391453388991 0 0.18303211158647559 0.0075807978729441382 0 0.17943453638861959 0.0091511058078182841 0 0.18303211158647559 0.0075807978729441382 0 0.18431633880684531 0.01086873085193758 0 0.17943453638861959 0.0091511058078182841 0 0.18660242445042999 0.0064023156866817926 0 0.18303211158647559 0.0075807978729441382 0 0.18431633880684531 0.01086873085193758 0 0.18832376542685261 0.012450231659139751 0 0.18660242445042999 0.0064023156866817926 0 0.18431633880684531 0.01086873085193758 0 0.18431633880684531 0.01086873085193758 0 0.18734518720319909 0.015281891910368059 0 0.18195036267736389 0.015275800378046231 0 0.18832376542685261 0.012450231659139751 0 0.18431633880684531 0.01086873085193758 0 0.18734518720319909 0.015281891910368059 0 0.18431633880684531 0.01086873085193758 0 0.18195036267736389 0.015275800378046231 0 0.17943453638861959 0.0091511058078182841 0 0.18195036267736389 0.015275800378046231 0 0.1761571917665653 0.013806221612761949 0 0.17943453638861959 0.0091511058078182841 0 0.1761571917665653 0.013806221612761949 0 0.17943453638861959 0.0091511058078182841 0 0.17233771352019589 0.0083561011481188656 0 0.1761571917665653 0.013806221612761949 0 0.17233771352019589 0.0083561011481188656 0 0.1709247624247007 0.01466984692398882 0 0.1761571917665653 0.013806221612761949 0 0.17493811328672779 0.022191841685783802 0 0.1709247624247007 0.01466984692398882 0 0.18195036267736389 0.015275800378046231 0 0.1761571917665653 0.013806221612761949 0 0.17493811328672779 0.022191841685783802 0 0.18734518720319909 0.015281891910368059 0 0.18195036267736389 0.015275800378046231 0 0.1874867753674215 0.0231110496262097 0 0.18195036267736389 0.015275800378046231 0 0.17493811328672779 0.022191841685783802 0 0.1874867753674215 0.0231110496262097 0 0.17895959729017549 0.03270519686463521 0 0.17493811328672779 0.022191841685783802 0 0.1874867753674215 0.0231110496262097 0 0.17895959729017549 0.03270519686463521 0 0.1692336025848987 0.033942773786365128 0 0.17493811328672779 0.022191841685783802 0 0.1692336025848987 0.033942773786365128 0 0.1660519956958274 0.025200646889517071 0 0.158601754226253 0.030081739901262169 0 0.1692336025848987 0.033942773786365128 0 0.17493811328672779 0.022191841685783802 0 0.1660519956958274 0.025200646889517071 0 0.1660519956958274 0.025200646889517071 0 0.158601754226253 0.030081739901262169 0 0.15656323758401319 0.020842958383828041 0 0.15656323758401319 0.020842958383828041 0 0.1655425680131333 0.017645951334422452 0 0.15799820797772829 0.01069464001977203 0 0.1660519956958274 0.025200646889517071 0 0.15656323758401319 0.020842958383828041 0 0.1655425680131333 0.017645951334422452 0 0.17493811328672779 0.022191841685783802 0 0.1660519956958274 0.025200646889517071 0 0.1655425680131333 0.017645951334422452 0 0.17493811328672779 0.022191841685783802 0 0.1655425680131333 0.017645951334422452 0 0.1709247624247007 0.01466984692398882 0 0.17233771352019589 0.0083561011481188656 0 0.1709247624247007 0.01466984692398882 0 0.16528784937855559 0.0099045707114697821 0 0.1655425680131333 0.017645951334422452 0 0.1709247624247007 0.01466984692398882 0 0.16528784937855559 0.0099045707114697821 0 0.1655425680131333 0.017645951334422452 0 0.16528784937855559 0.0099045707114697821 0 0.15799820797772829 0.01069464001977203 0 0.16528784937855559 0.0099045707114697821 0 0.15830422717032419 0.0026668804518291322 0 0.16550177429739321 0.001625335581948511 0 0.16528784937855559 0.0099045707114697821 0 0.15799820797772829 0.01069464001977203 0 0.15830422717032419 0.0026668804518291322 0 0.17233771352019589 0.0083561011481188656 0 0.16528784937855559 0.0099045707114697821 0 0.16550177429739321 0.001625335581948511 0 0.17227434920368959 0.00081991249798677823 0 0.17233771352019589 0.0083561011481188656 0 0.16550177429739321 0.001625335581948511 0 0.14127976741107601 0.00215554095495248 0 0.15230472087545879 0.0045339035350271751 0 0.14873370341600839 0.01190124285016711 0 0.15799820797772829 0.01069464001977203 0 0.15830422717032419 0.0026668804518291322 0 0.15230472087545879 0.0045339035350271751 0 0.14127976741107601 0.00215554095495248 0 0.15230472087545879 0.0045339035350271751 0 0.1552076984021574 -0.0047487866015848753 0 0.15830422717032419 0.0026668804518291322 0 0.15230472087545879 0.0045339035350271751 0 0.1552076984021574 -0.0047487866015848753 0 0.15656323758401319 0.020842958383828041 0 0.15799820797772829 0.01069464001977203 0 0.14873370341600839 0.01190124285016711 0 0.15799820797772829 0.01069464001977203 0 0.15230472087545879 0.0045339035350271751 0 0.14873370341600839 0.01190124285016711 0 0.14873370341600839 0.01190124285016711 0 0.1458857290053831 0.021389540043380069 0 0.13967636330765321 0.013174792475989121 0 0.14127976741107601 0.00215554095495248 0 0.14873370341600839 0.01190124285016711 0 0.13967636330765321 0.013174792475989121 0 0.1458857290053831 0.021389540043380069 0 0.13916191736165201 0.019633136795163032 0 0.13967636330765321 0.013174792475989121 0 0.1458857290053831 0.021389540043380069 0 0.14010063181871271 0.02585166497444577 0 0.13916191736165201 0.019633136795163032 0 0.15656323758401319 0.020842958383828041 0 0.1458857290053831 0.021389540043380069 0 0.15175299049851881 0.02729842449465077 0 0.15656323758401319 0.020842958383828041 0 0.14873370341600839 0.01190124285016711 0 0.1458857290053831 0.021389540043380069 0 0.158601754226253 0.030081739901262169 0 0.15656323758401319 0.020842958383828041 0 0.15175299049851881 0.02729842449465077 0 0.158601754226253 0.030081739901262169 0 0.15175299049851881 0.02729842449465077 0 0.15159127196488009 0.032471007951428398 0 0.15175299049851881 0.02729842449465077 0 0.14523576613563741 0.02976945682372012 0 0.15159127196488009 0.032471007951428398 0 0.1458857290053831 0.021389540043380069 0 0.14523576613563741 0.02976945682372012 0 0.14010063181871271 0.02585166497444577 0 0.14523576613563741 0.02976945682372012 0 0.14010063181871271 0.02585166497444577 0 0.1391322595465444 0.03699933077486834 0 0.1458857290053831 0.021389540043380069 0 0.15175299049851881 0.02729842449465077 0 0.14523576613563741 0.02976945682372012 0 0.1309849453148588 0.01811654968683717 0 0.1391322595465444 0.03699933077486834 0 0.14010063181871271 0.02585166497444577 0 0.1309849453148588 0.01811654968683717 0 0.1391322595465444 0.03699933077486834 0 0.11917198148314 0.002581966002757949 0 0.13034027439662041 0.028127834929059549 0 0.1309849453148588 0.01811654968683717 0 0.13034027439662041 0.028127834929059549 0 0.1309849453148588 0.01811654968683717 0 0.1391322595465444 0.03699933077486834 0 0.1309849453148588 0.01811654968683717 0 0.13916191736165201 0.019633136795163032 0 0.13967636330765321 0.013174792475989121 0 0.14010063181871271 0.02585166497444577 0 0.1309849453148588 0.01811654968683717 0 0.13916191736165201 0.019633136795163032 0 0.14127976741107601 0.00215554095495248 0 0.13362755423293271 0.0080562160832345926 0 0.1228376310831711 -0.00076623140119310329 0 0.1309849453148588 0.01811654968683717 0 0.13362755423293271 0.0080562160832345926 0 0.1228376310831711 -0.00076623140119310329 0 0.1309849453148588 0.01811654968683717 0 0.1228376310831711 -0.00076623140119310329 0 0.1309849453148588 0.01811654968683717 0 0.13362755423293271 0.0080562160832345926 0 0.13967636330765321 0.013174792475989121 0 0.14127976741107601 0.00215554095495248 0 0.13362755423293271 0.0080562160832345926 0 0.13967636330765321 0.013174792475989121 0 0.15183666351233449 0.050700262892952028 0 0.15919757845585511 0.069002327358520896 0 0.15048711395973299 0.060532750562707877 0 0.15183666351233449 0.050700262892952028 0 0.15919757845585511 0.069002327358520896 0 0.14215194880052681 0.055145346777992182 0 0.15048711395973299 0.060532750562707877 0 0.13253998066004699 0.064315925604492674 0 0.1415085673101022 0.053673703855360522 0 0.14215194880052681 0.055145346777992182 0 0.15183666351233449 0.050700262892952028 0 0.1415085673101022 0.053673703855360522 0 0.15183666351233449 0.050700262892952028 0 0.1415085673101022 0.053673703855360522 0 0.15183666351233449 0.050700262892952028 0 0.14453550543306221 0.044729731242042367 0 0.1415085673101022 0.053673703855360522 0 0.14215194880052681 0.055145346777992182 0 0.14215194880052681 0.055145346777992182 0 0.15048711395973299 0.060532750562707877 0 0.15183666351233449 0.050700262892952028 0 0.1415085673101022 0.053673703855360522 0 0.14453550543306221 0.044729731242042367 0 0.1391322595465444 0.03699933077486834 0 0.15183666351233449 0.050700262892952028 0 0.14566961722181801 0.035366614883496988 0 0.1566962317421734 0.039838803654011962 0 0.15183666351233449 0.050700262892952028 0 0.14566961722181801 0.035366614883496988 0 0.1566962317421734 0.039838803654011962 0 0.15159127196488009 0.032471007951428398 0 0.14566961722181801 0.035366614883496988 0 0.1566962317421734 0.039838803654011962 0 0.158601754226253 0.030081739901262169 0 0.15159127196488009 0.032471007951428398 0 0.14566961722181801 0.035366614883496988 0 0.14453550543306221 0.044729731242042367 0 0.1391322595465444 0.03699933077486834 0 0.14523576613563741 0.02976945682372012 0 0.15159127196488009 0.032471007951428398 0 0.14566961722181801 0.035366614883496988 0 0.14523576613563741 0.02976945682372012 0 0.14566961722181801 0.035366614883496988 0 0.1391322595465444 0.03699933077486834 0 0.15183666351233449 0.050700262892952028 0 0.14566961722181801 0.035366614883496988 0 0.14453550543306221 0.044729731242042367 0 0.13034027439662041 0.028127834929059549 0 0.1415085673101022 0.053673703855360522 0 0.13034027439662041 0.028127834929059549 0 0.1415085673101022 0.053673703855360522 0 0.1391322595465444 0.03699933077486834 0 0.12367169586596689 0.04413069599522032 0 0.13034027439662041 0.028127834929059549 0 0.1415085673101022 0.053673703855360522 0 0.11892469151436 0.060175562481194378 0 0.12367169586596689 0.04413069599522032 0 0.1415085673101022 0.053673703855360522 0 0.11892469151436 0.060175562481194378 0 0.1415085673101022 0.053673703855360522 0 0.11892469151436 0.060175562481194378 0 0.1415085673101022 0.053673703855360522 0 0.13253998066004699 0.064315925604492674 0 0.1415085673101022 0.053673703855360522 0 0.14215194880052681 0.055145346777992182 0 0.13253998066004699 0.064315925604492674 0 0.13253998066004699 0.064315925604492674 0 0.13121537104960351 0.072689189806444385 0 0.15446329543616341 0.069626104104570485 0 0.1243405792371938 0.066503547411893488 0 0.13253998066004699 0.064315925604492674 0 0.13121537104960351 0.072689189806444385 0 0.11892469151436 0.060175562481194378 0 0.1243405792371938 0.066503547411893488 0 0.13253998066004699 0.064315925604492674 0 0.13121537104960351 0.072689189806444385 0 0.14336397744542301 0.076431171561807093 0 0.13288821721910599 0.083857800247139097 0 0.15048711395973299 0.060532750562707877 0 0.13253998066004699 0.064315925604492674 0 0.15446329543616341 0.069626104104570485 0 0.13121537104960351 0.072689189806444385 0 0.15446329543616341 0.069626104104570485 0 0.13121537104960351 0.072689189806444385 0 0.14336397744542301 0.076431171561807093 0 0.15446329543616341 0.069626104104570485 0 0.13253998066004699 0.064315925604492674 0 0.15446329543616341 0.069626104104570485 0 0.14336397744542301 0.076431171561807093 0 0.15145508435945571 0.07730097997971673 0 0.15446329543616341 0.069626104104570485 0 0.15145508435945571 0.07730097997971673 0 0.15998651034928929 0.070963915351755544 0 0.15635019231632599 0.084708360937410687 0 0.15145508435945571 0.07730097997971673 0 0.15446329543616341 0.069626104104570485 0 0.15998651034928929 0.070963915351755544 0 0.15048711395973299 0.060532750562707877 0 0.15446329543616341 0.069626104104570485 0 0.15919757845585511 0.069002327358520896 0 0.1449478564828334 0.088262465871273704 0 0.15304430801011831 0.09759233646353245 0 0.15635019231632599 0.084708360937410687 0 0.15145508435945571 0.07730097997971673 0 0.1449478564828334 0.088262465871273704 0 0.15635019231632599 0.084708360937410687 0 0.14336397744542301 0.076431171561807093 0 0.15145508435945571 0.07730097997971673 0 0.1449478564828334 0.088262465871273704 0 0.1449478564828334 0.088262465871273704 0 0.13288821721910599 0.083857800247139097 0 0.1333435253298102 0.095432768439741328 0 0.14336397744542301 0.076431171561807093 0 0.1449478564828334 0.088262465871273704 0 0.13288821721910599 0.083857800247139097 0 0.1225478872688979 0.090713611373926736 0 0.1210037722340596 0.082520495593825793 0 0.13288821721910599 0.083857800247139097 0 0.1210037722340596 0.082520495593825793 0 0.13121537104960351 0.072689189806444385 0 0.13288821721910599 0.083857800247139097 0 0.1225478872688979 0.090713611373926736 0 0.13288821721910599 0.083857800247139097 0 0.1333435253298102 0.095432768439741328 0 0.1449478564828334 0.088262465871273704 0 0.1368974078767736 0.107501873099266 0 0.1333435253298102 0.095432768439741328 0 0.12018819637303869 0.10164151191590461 0 0.1368974078767736 0.107501873099266 0 0.1333435253298102 0.095432768439741328 0 0.12018819637303869 0.10164151191590461 0 0.1225478872688979 0.090713611373926736 0 0.1333435253298102 0.095432768439741328 0 0.11707998843366239 0.12090166170324231 0 0.14061487869327599 0.12738787364596069 0 0.1368974078767736 0.107501873099266 0 0.14061487869327599 0.12738787364596069 0 0.1368974078767736 0.107501873099266 0 0.1574927946018469 0.1127881056222175 0 0.14061487869327599 0.12738787364596069 0 0.16208469833826319 0.13464304631642149 0 0.1574927946018469 0.1127881056222175 0 0.1368974078767736 0.107501873099266 0 0.15304430801011831 0.09759233646353245 0 0.1574927946018469 0.1127881056222175 0 0.1449478564828334 0.088262465871273704 0 0.1368974078767736 0.107501873099266 0 0.15304430801011831 0.09759233646353245 0 0.15304430801011831 0.09759233646353245 0 0.1695332887728116 0.094700876787494351 0 0.1574927946018469 0.1127881056222175 0 0.1695332887728116 0.094700876787494351 0 0.1574927946018469 0.1127881056222175 0 0.1790800671963392 0.1184378382232308 0 0.16208469833826319 0.13464304631642149 0 0.1574927946018469 0.1127881056222175 0 0.1790800671963392 0.1184378382232308 0 0.1885688884481975 0.1093901779912298 0 0.1790800671963392 0.1184378382232308 0 0.1832996600419958 0.1003897382564244 0 0.1885688884481975 0.1093901779912298 0 0.1790800671963392 0.1184378382232308 0 0.1858372065203453 0.1184994265274882 0 0.1885688884481975 0.1093901779912298 0 0.1858372065203453 0.1184994265274882 0 0.1885688884481975 0.1093901779912298 0 0.1790800671963392 0.1184378382232308 0 0.19325819231563421 0.12959887947710741 0 0.1790800671963392 0.1184378382232308 0 0.1858372065203453 0.1184994265274882 0 0.1695332887728116 0.094700876787494351 0 0.1790800671963392 0.1184378382232308 0 0.1695332887728116 0.094700876787494351 0 0.1790800671963392 0.1184378382232308 0 0.1832996600419958 0.1003897382564244 0 0.1695332887728116 0.094700876787494351 0 0.1832996600419958 0.1003897382564244 0 0.18493574174144031 0.087819629641268118 0 0.1929726046438287 0.094705252597794665 0 0.1832996600419958 0.1003897382564244 0 0.18493574174144031 0.087819629641268118 0 0.1973763208394673 0.08002032720436178 0 0.18493574174144031 0.087819629641268118 0 0.17868141559437861 0.075492121278057239 0 0.1695332887728116 0.094700876787494351 0 0.18493574174144031 0.087819629641268118 0 0.17868141559437861 0.075492121278057239 0 0.1973763208394673 0.08002032720436178 0 0.17868141559437861 0.075492121278057239 0 0.18079222374313991 0.066157073385880324 0 0.17868141559437861 0.075492121278057239 0 0.18079222374313991 0.066157073385880324 0 0.15998651034928929 0.070963915351755544 0 0.18079222374313991 0.066157073385880324 0 0.15919757845585511 0.069002327358520896 0 0.18079222374313991 0.066157073385880324 0 0.15919757845585511 0.069002327358520896 0 0.15998651034928929 0.070963915351755544 0 0.17868141559437861 0.075492121278057239 0 0.15998651034928929 0.070963915351755544 0 0.15446329543616341 0.069626104104570485 0 0.15919757845585511 0.069002327358520896 0 0.15998651034928929 0.070963915351755544 0 0.15446329543616341 0.069626104104570485 0 0.15919757845585511 0.069002327358520896 0 0.15446329543616341 0.069626104104570485 0 0.15998651034928929 0.070963915351755544 0 0.15919757845585511 0.069002327358520896 0 0.15998651034928929 0.070963915351755544 0 0.1695332887728116 0.094700876787494351 0 0.17868141559437861 0.075492121278057239 0 0.15998651034928929 0.070963915351755544 0 0.15304430801011831 0.09759233646353245 0 0.1695332887728116 0.094700876787494351 0 0.15635019231632599 0.084708360937410687 0 0.1695332887728116 0.094700876787494351 0 0.15998651034928929 0.070963915351755544 0 0.1695332887728116 0.094700876787494351 0 0.15998651034928929 0.070963915351755544 0 0.15635019231632599 0.084708360937410687 0 0.097740131103692757 0.47211576306312553 0 0.10228396963995549 0.48764264937867408 0 0.092199203719590395 0.48872928857719472 0 0.097740131103692757 0.47211576306312553 0 0.1146358595090817 0.48605788153156299 0 0.097740131103692757 0.47211576306312553 0 0.10228396963995549 0.48764264937867408 0 0.1146358595090817 0.48605788153156299 0 0.1038255785689283 0.5 0 0.10228396963995549 0.48764264937867408 0 0.092199203719590395 0.48872928857719472 0 0.1038255785689283 0.5 0 0.10228396963995549 0.48764264937867408 0 0.1146358595090817 0.48605788153156299 0 0.1146358595090817 0.48605788153156299 0 0.13153158791447089 0.50000000000000033 0 0.1038255785689283 0.5 0 0.1146358595090817 0.48605788153156299 0 0.13153158791447089 0.50000000000000033 0 0.097740131103692757 0.47211576306312553 0 0.1146358595090817 0.48605788153156299 0 0.1160915578241386 0.4641835533930308 0 0.1146358595090817 0.48605788153156299 0 0.1160915578241386 0.4641835533930308 0 0.13792901651589951 0.46760966493884959 0 0.1160915578241386 0.4641835533930308 0 0.1237280261196836 0.44463014715047522 0 0.10202961426548091 0.45002724093957291 0 0.1237280261196836 0.44463014715047522 0 0.1057649319772677 0.43759517983083812 0 0.10202961426548091 0.45002724093957291 0 0.1057649319772677 0.43759517983083812 0 0.10202961426548091 0.45002724093957291 0 0.08764391112498858 0.43163178618934439 0 0.097740131103692757 0.47211576306312553 0 0.1160915578241386 0.4641835533930308 0 0.10202961426548091 0.45002724093957291 0 0.080844402698305312 0.45817364459468618 0 0.076730675362011974 0.47423156549521001 0 0.097740131103692757 0.47211576306312553 0 0.080844402698305312 0.45817364459468618 0 0.097740131103692757 0.47211576306312553 0 0.10202961426548091 0.45002724093957291 0 0.080844402698305312 0.45817364459468618 0 0.097740131103692757 0.47211576306312553 0 0.080844402698305312 0.45817364459468618 0 0.076730675362011974 0.47423156549521001 0 0.080844402698305312 0.45817364459468618 0 0.08764391112498858 0.43163178618934439 0 0.10202961426548091 0.45002724093957291 0 0.080844402698305312 0.45817364459468618 0 0.08764391112498858 0.43163178618934439 0 0.080844402698305312 0.45817364459468618 0 0.07540768018483697 0.44030754071393319 0 0.08764391112498858 0.43163178618934439 0 0.080844402698305312 0.45817364459468618 0 0.07540768018483697 0.44030754071393319 0 0.061556592319121653 0.44225761358074578 0 0.080844402698305312 0.45817364459468618 0 0.061556592319121653 0.44225761358074578 0 0.080844402698305312 0.45817364459468618 0 0.067859653170709522 0.45426422462270638 0 0.061556592319121653 0.44225761358074578 0 0.080844402698305312 0.45817364459468618 0 0.064346854003363874 0.46736183993319841 0 0.076730675362011974 0.47423156549521001 0 0.064346854003363874 0.46736183993319841 0 0.067859653170709522 0.45426422462270638 0 0.056076759981020123 0.44443419347066321 0 0.080844402698305312 0.45817364459468618 0 0.064346854003363874 0.46736183993319841 0 0.067859653170709522 0.45426422462270638 0 0.076730675362011974 0.47423156549521001 0 0.072616948025712127 0.490289486395732 0 0.064346854003363874 0.46736183993319841 0 0.072616948025712127 0.490289486395732 0 0.058055043786226751 0.49051055052906067 0 0.064346854003363874 0.46736183993319841 0 0.072616948025712127 0.490289486395732 0 0.064346854003363874 0.46736183993319841 0 0.076730675362011974 0.47423156549521001 0 0.072616948025712127 0.490289486395732 0 0.076730675362011974 0.47423156549521001 0 0.082075002421626492 0.48449271935339733 0 0.072616948025712127 0.490289486395732 0 0.097740131103692757 0.47211576306312553 0 0.076730675362011974 0.47423156549521001 0 0.082075002421626492 0.48449271935339733 0 0.097740131103692757 0.47211576306312553 0 0.092199203719590395 0.48872928857719472 0 0.082075002421626492 0.48449271935339733 0 0.1038255785689283 0.5 0 0.092199203719590395 0.48872928857719472 0 0.076119569223385697 0.50000000000000089 0 0.092199203719590395 0.48872928857719472 0 0.082075002421626492 0.48449271935339733 0 0.076119569223385697 0.50000000000000089 0 0.072616948025712127 0.490289486395732 0 0.07012930311136284 0.49999999999999661 0 0.076119569223385697 0.50000000000000089 0 0.072616948025712127 0.490289486395732 0 0.07012930311136284 0.49999999999999661 0 0.076119569223385697 0.50000000000000089 0 0.072616948025712127 0.490289486395732 0 0.082075002421626492 0.48449271935339733 0 0.076119569223385697 0.50000000000000089 0 0.072616948025712127 0.490289486395732 0 0.072616948025712127 0.490289486395732 0 0.07012930311136284 0.49999999999999661 0 0.058055043786226751 0.49051055052906067 0 0.058055043786226751 0.49051055052906067 0 0.046280597366186747 0.47957307303049429 0 0.044860440428939378 0.4999999999999995 0 0.07012930311136284 0.49999999999999661 0 0.058055043786226751 0.49051055052906067 0 0.044860440428939378 0.4999999999999995 0 0.064346854003363874 0.46736183993319841 0 0.058055043786226751 0.49051055052906067 0 0.046280597366186747 0.47957307303049429 0 0.046280597366186747 0.47957307303049429 0 0.047700754303434179 0.45914614606098908 0 0.046280597366186747 0.47957307303049429 0 0.029897162037545319 0.4839753813588808 0 0.03521852719449324 0.46736449501777538 0 0.044860440428939378 0.4999999999999995 0 0.01907995414838232 0.5 0 0.029897162037545319 0.4839753813588808 0 0.046280597366186747 0.47957307303049429 0 0.044860440428939378 0.4999999999999995 0 0.046280597366186747 0.47957307303049429 0 0.044860440428939378 0.4999999999999995 0 0.029897162037545319 0.4839753813588808 0 0.01907995414838232 0.5 0 0.029897162037545319 0.4839753813588808 0 0.01223017135109394 0.48399563131022733 0 0.029897162037545319 0.4839753813588808 0 0.02313076419329519 0.4718947066398041 0 0.01223017135109394 0.48399563131022733 0 0.029897162037545319 0.4839753813588808 0 0.02313076419329519 0.4718947066398041 0 0.03521852719449324 0.46736449501777538 0 0.02313076419329519 0.4718947066398041 0 0.01223017135109394 0.48399563131022733 0 0.01319884020628341 0.47022233111689332 0 -0.003880604538310756 0.48346324919380129 0 0.01223017135109394 0.48399563131022733 0 0.0050866533922729329 0.47701524235381432 0 0.01223017135109394 0.48399563131022733 0 0.01319884020628341 0.47022233111689332 0 0.0050866533922729329 0.47701524235381432 0 0.01319884020628341 0.47022233111689332 0 0.0053167838454733218 0.46943384557929257 0 0.0050866533922729329 0.47701524235381432 0 -0.001026908195020756 0.47486914558720472 0 0.0053167838454733218 0.46943384557929257 0 0.0050866533922729329 0.47701524235381432 0 -0.003880604538310756 0.48346324919380129 0 -0.001026908195020756 0.47486914558720472 0 0.0050866533922729329 0.47701524235381432 0 -0.0067005321321746969 0.5 0 0.01907995414838232 0.5 0 0.01223017135109394 0.48399563131022733 0 -0.0067005321321746969 0.5 0 -0.003880604538310756 0.48346324919380129 0 0.01223017135109394 0.48399563131022733 0 0.0094816941431487278 0.45086042579757712 0 0.01399183751309625 0.44462120914047132 0 0.0048617880261327502 0.44584476697033082 0 0.0094816941431487278 0.45086042579757712 0 0.01399183751309625 0.44462120914047132 0 0.016302396861864351 0.45114502888407948 0 0.01049598620797234 0.43767394788706171 0 0.01399183751309625 0.44462120914047132 0 0.0048617880261327502 0.44584476697033082 0 0.01049598620797234 0.43767394788706171 0 0.01399183751309625 0.44462120914047132 0 0.020379531913139331 0.43685778481219928 0 0.01049598620797234 0.43767394788706171 0 0.0048617880261327502 0.44584476697033082 0 0.01049598620797234 0.43767394788706171 0 0.0048617880261327502 0.44584476697033082 0 0.0065189226172944724 0.43188650626448272 0 0.0094816941431487278 0.45086042579757712 0 0.0048617880261327502 0.44584476697033082 0 0.0015605482097463411 0.45063228640423969 0 0.0048617880261327502 0.44584476697033082 0 0.0015605482097463411 0.45063228640423969 0 0.0094816941431487278 0.45086042579757712 0 0.0048617880261327502 0.44584476697033082 0 0.0015605482097463411 0.45063228640423969 0 0.0080738590363113663 0.46132998490476868 0 0.01222090350615627 0.45893997922115709 0 0.0015605482097463411 0.45063228640423969 0 0.01222090350615627 0.45893997922115709 0 -0.0094095992007081283 0.46654139838691122 0 0.0053167838454733218 0.46943384557929257 0 0.0080738590363113663 0.46132998490476868 0 0.0094816941431487278 0.45086042579757712 0 0.0015605482097463411 0.45063228640423969 0 0.01222090350615627 0.45893997922115709 0 -0.0094095992007081283 0.46654139838691122 0 0.0015605482097463411 0.45063228640423969 0 0.0080738590363113663 0.46132998490476868 0 0.0080738590363113663 0.46132998490476868 0 0.01222090350615627 0.45893997922115709 0 0.025557317273330941 0.45611857142262657 0 0.01319884020628341 0.47022233111689332 0 0.0080738590363113663 0.46132998490476868 0 0.025557317273330941 0.45611857142262657 0 0.01319884020628341 0.47022233111689332 0 0.0053167838454733218 0.46943384557929257 0 0.0080738590363113663 0.46132998490476868 0 0.0094816941431487278 0.45086042579757712 0 0.01222090350615627 0.45893997922115709 0 0.016302396861864351 0.45114502888407948 0 0.01222090350615627 0.45893997922115709 0 0.025557317273330941 0.45611857142262657 0 0.016302396861864351 0.45114502888407948 0 0.0080738590363113663 0.46132998490476868 0 0.025557317273330941 0.45611857142262657 0 0.02313076419329519 0.4718947066398041 0 0.01319884020628341 0.47022233111689332 0 0.025557317273330941 0.45611857142262657 0 0.02313076419329519 0.4718947066398041 0 0.025557317273330941 0.45611857142262657 0 0.03521852719449324 0.46736449501777538 0 0.025557317273330941 0.45611857142262657 0 0.029497972404799989 0.4465970104894148 0 0.021231693005787571 0.44530579808828252 0 0.025557317273330941 0.45611857142262657 0 0.016302396861864351 0.45114502888407948 0 0.021231693005787571 0.44530579808828252 0 0.01399183751309625 0.44462120914047132 0 0.016302396861864351 0.45114502888407948 0 0.021231693005787571 0.44530579808828252 0 0.01399183751309625 0.44462120914047132 0 0.021231693005787571 0.44530579808828252 0 0.020379531913139331 0.43685778481219928 0 0.029497972404799989 0.4465970104894148 0 0.021231693005787571 0.44530579808828252 0 0.030311313049230751 0.43763339856834432 0 0.021231693005787571 0.44530579808828252 0 0.030311313049230751 0.43763339856834432 0 0.020379531913139331 0.43685778481219928 0 0.038697605999956301 0.44825738244890739 0 0.047700754303434179 0.45914614606098908 0 0.049120911240681603 0.43871921909148398 0 0.029497972404799989 0.4465970104894148 0 0.038697605999956301 0.44825738244890739 0 0.040333793699140981 0.43958103258297831 0 0.029497972404799989 0.4465970104894148 0 0.030311313049230751 0.43763339856834432 0 0.040333793699140981 0.43958103258297831 0 0.025557317273330941 0.45611857142262657 0 0.029497972404799989 0.4465970104894148 0 0.038697605999956301 0.44825738244890739 0 0.038697605999956301 0.44825738244890739 0 0.040333793699140981 0.43958103258297831 0 0.049120911240681603 0.43871921909148398 0 0.046280597366186747 0.47957307303049429 0 0.03521852719449324 0.46736449501777538 0 0.047700754303434179 0.45914614606098908 0 0.025557317273330941 0.45611857142262657 0 0.038697605999956301 0.44825738244890739 0 0.03521852719449324 0.46736449501777538 0 0.038697605999956301 0.44825738244890739 0 0.03521852719449324 0.46736449501777538 0 0.047700754303434179 0.45914614606098908 0 0.064346854003363874 0.46736183993319841 0 0.056076759981020123 0.44443419347066321 0 0.064346854003363874 0.46736183993319841 0 0.046280597366186747 0.47957307303049429 0 0.047700754303434179 0.45914614606098908 0 0.064346854003363874 0.46736183993319841 0 0.047700754303434179 0.45914614606098908 0 0.056076759981020123 0.44443419347066321 0 0.047700754303434179 0.45914614606098908 0 0.049120911240681603 0.43871921909148398 0 0.056076759981020123 0.44443419347066321 0 0.047700754303434179 0.45914614606098908 0 0.049120911240681603 0.43871921909148398 0 0.067859653170709522 0.45426422462270638 0 0.056076759981020123 0.44443419347066321 0 0.061556592319121653 0.44225761358074578 0 0.056076759981020123 0.44443419347066321 0 0.061556592319121653 0.44225761358074578 0 0.059201111644200437 0.43099696977894508 0 0.056076759981020123 0.44443419347066321 0 0.047806665958676359 0.42150654700812801 0 0.049120911240681603 0.43871921909148398 0 0.056076759981020123 0.44443419347066321 0 0.047806665958676359 0.42150654700812801 0 0.056076759981020123 0.44443419347066321 0 0.059201111644200437 0.43099696977894508 0 0.047806665958676359 0.42150654700812801 0 0.059201111644200437 0.43099696977894508 0 0.058979725365252707 0.4176193763442323 0 0.047806665958676359 0.42150654700812801 0 0.058979725365252707 0.4176193763442323 0 0.039536571936328653 0.39857890054559408 0 0.063240005814886313 0.40658319209587829 0 0.058979725365252707 0.4176193763442323 0 0.047806665958676359 0.42150654700812801 0 0.039536571936328653 0.39857890054559408 0 0.035113551011259521 0.41687403621696922 0 0.02872917033170445 0.40503675834663061 0 0.039536571936328653 0.39857890054559408 0 0.047806665958676359 0.42150654700812801 0 0.039536571936328653 0.39857890054559408 0 0.047806665958676359 0.42150654700812801 0 0.035113551011259521 0.41687403621696922 0 0.039536571936328653 0.39857890054559408 0 0.049120911240681603 0.43871921909148398 0 0.047806665958676359 0.42150654700812801 0 0.039708047704291503 0.4306454839277386 0 0.040333793699140981 0.43958103258297831 0 0.049120911240681603 0.43871921909148398 0 0.039708047704291503 0.4306454839277386 0 0.047806665958676359 0.42150654700812801 0 0.035113551011259521 0.41687403621696922 0 0.039708047704291503 0.4306454839277386 0 0.035113551011259521 0.41687403621696922 0 0.039708047704291503 0.4306454839277386 0 0.028741688689164512 0.42811504149697438 0 0.030311313049230751 0.43763339856834432 0 0.039708047704291503 0.4306454839277386 0 0.028741688689164512 0.42811504149697438 0 0.030311313049230751 0.43763339856834432 0 0.040333793699140981 0.43958103258297831 0 0.039708047704291503 0.4306454839277386 0 0.030311313049230751 0.43763339856834432 0 0.020379531913139331 0.43685778481219928 0 0.028741688689164512 0.42811504149697438 0 0.01049598620797234 0.43767394788706171 0 0.020379531913139331 0.43685778481219928 0 0.01750467301358458 0.42779731369206181 0 0.020379531913139331 0.43685778481219928 0 0.01750467301358458 0.42779731369206181 0 0.028741688689164512 0.42811504149697438 0 0.01750467301358458 0.42779731369206181 0 0.028741688689164512 0.42811504149697438 0 0.02615916144738779 0.41736148597675132 0 0.035113551011259521 0.41687403621696922 0 0.028741688689164512 0.42811504149697438 0 0.02615916144738779 0.41736148597675132 0 0.02615916144738779 0.41736148597675132 0 0.010437450069317761 0.40463061763750507 0 0.02872917033170445 0.40503675834663061 0 0.02615916144738779 0.41736148597675132 0 0.01517065216307991 0.41806138940930709 0 0.010437450069317761 0.40463061763750507 0 0.035113551011259521 0.41687403621696922 0 0.02615916144738779 0.41736148597675132 0 0.02872917033170445 0.40503675834663061 0 0.01750467301358458 0.42779731369206181 0 0.02615916144738779 0.41736148597675132 0 0.01517065216307991 0.41806138940930709 0 -0.003174347114314008 0.41591217031924949 0 0.0065813241220295041 0.42245614033091039 0 0.010437450069317761 0.40463061763750507 0 -0.0064316016559190746 0.3999483233353413 0 -0.003174347114314008 0.41591217031924949 0 0.010437450069317761 0.40463061763750507 0 0.01517065216307991 0.41806138940930709 0 0.0065813241220295041 0.42245614033091039 0 0.010437450069317761 0.40463061763750507 0 -0.003174347114314008 0.41591217031924949 0 0.010437450069317761 0.40463061763750507 0 -0.003174347114314008 0.41591217031924949 0 0.0065813241220295041 0.42245614033091039 0 -0.0026301228576318379 0.42717885202372191 0 -0.003174347114314008 0.41591217031924949 0 0.0065813241220295041 0.42245614033091039 0 -0.0026301228576318379 0.42717885202372191 0 0.0065813241220295041 0.42245614033091039 0 0.0065189226172944724 0.43188650626448272 0 -0.0026301228576318379 0.42717885202372191 0 0.0048617880261327502 0.44584476697033082 0 0.0065189226172944724 0.43188650626448272 0 0.01049598620797234 0.43767394788706171 0 0.01750467301358458 0.42779731369206181 0 0.0065189226172944724 0.43188650626448272 0 0.01750467301358458 0.42779731369206181 0 0.0065813241220295041 0.42245614033091039 0 0.0065189226172944724 0.43188650626448272 0 0.01750467301358458 0.42779731369206181 0 0.01517065216307991 0.41806138940930709 0 0.0065813241220295041 0.42245614033091039 0 -0.0042030409966118051 0.38380869400061962 0 0.01009735409817194 0.38238429504652488 0 0.02404924725294803 0.393349064955759 0 -0.0042030409966118051 0.38380869400061962 0 0.02404924725294803 0.393349064955759 0 0.01009735409817194 0.38238429504652488 0 0.0197357255374827 0.37571737083264412 0 0.011110712074150059 0.37343232972227269 0 -0.001064505034491721 0.37161458349227261 0 0.01009735409817194 0.38238429504652488 0 0.011110712074150059 0.37343232972227269 0 -0.001064505034491721 0.37161458349227261 0 -0.0042030409966118051 0.38380869400061962 0 0.01009735409817194 0.38238429504652488 0 -0.0042030409966118051 0.38380869400061962 0 0.01009735409817194 0.38238429504652488 0 -0.0042030409966118051 0.38380869400061962 0 0.010437450069317761 0.40463061763750507 0 0.02404924725294803 0.393349064955759 0 0.010437450069317761 0.40463061763750507 0 0.02872917033170445 0.40503675834663061 0 0.02404924725294803 0.393349064955759 0 0.010437450069317761 0.40463061763750507 0 0.02404924725294803 0.393349064955759 0 0.02872917033170445 0.40503675834663061 0 0.02404924725294803 0.393349064955759 0 0.039536571936328653 0.39857890054559408 0 0.02404924725294803 0.393349064955759 0 0.034519904376963118 0.38467091111880503 0 0.02404924725294803 0.393349064955759 0 0.0197357255374827 0.37571737083264412 0 0.034519904376963118 0.38467091111880503 0 0.01009735409817194 0.38238429504652488 0 0.02404924725294803 0.393349064955759 0 0.0197357255374827 0.37571737083264412 0 0.034519904376963118 0.38467091111880503 0 0.050307067216076778 0.37158640017128619 0 0.034519904376963118 0.38467091111880503 0 0.039536571936328653 0.39857890054559408 0 0.056773536515482913 0.38908479613358171 0 0.02404924725294803 0.393349064955759 0 0.039536571936328653 0.39857890054559408 0 0.034519904376963118 0.38467091111880503 0 0.039536571936328653 0.39857890054559408 0 0.02404924725294803 0.393349064955759 0 0.034519904376963118 0.38467091111880503 0 0.039536571936328653 0.39857890054559408 0 0.039536571936328653 0.39857890054559408 0 0.063240005814886313 0.40658319209587829 0 0.039536571936328653 0.39857890054559408 0 0.056773536515482913 0.38908479613358171 0 0.063240005814886313 0.40658319209587829 0 0.056773536515482913 0.38908479613358171 0 0.063240005814886313 0.40658319209587829 0 0.056773536515482913 0.38908479613358171 0 0.059721524030669819 0.37431687333309788 0 0.050307067216076778 0.37158640017128619 0 0.056773536515482913 0.38908479613358171 0 0.050307067216076778 0.37158640017128619 0 0.034519904376963118 0.38467091111880503 0 0.056773536515482913 0.38908479613358171 0 0.050307067216076778 0.37158640017128619 0 0.056773536515482913 0.38908479613358171 0 0.069041936002645535 0.37820082441249081 0 0.059721524030669819 0.37431687333309788 0 0.056773536515482913 0.38908479613358171 0 0.069041936002645535 0.37820082441249081 0 0.068225210254675303 0.39186969982647402 0 0.069041936002645535 0.37820082441249081 0 0.078928226936330073 0.3918395352538776 0 0.068225210254675303 0.39186969982647402 0 0.069041936002645535 0.37820082441249081 0 0.087739402474845588 0.37833299208434412 0 0.078928226936330073 0.3918395352538776 0 0.087739402474845588 0.37833299208434412 0 0.078928226936330073 0.3918395352538776 0 0.094443419551670932 0.40508992778400232 0 0.078928226936330073 0.3918395352538776 0 0.080832552055978585 0.40498983155533402 0 0.094443419551670932 0.40508992778400232 0 0.080832552055978585 0.40498983155533402 0 0.073695702888484968 0.40005040040525608 0 0.075088081656536507 0.41058410832735293 0 0.078928226936330073 0.3918395352538776 0 0.080832552055978585 0.40498983155533402 0 0.073695702888484968 0.40005040040525608 0 0.056773536515482913 0.38908479613358171 0 0.068225210254675303 0.39186969982647402 0 0.063240005814886313 0.40658319209587829 0 0.073695702888484968 0.40005040040525608 0 0.063240005814886313 0.40658319209587829 0 0.075088081656536507 0.41058410832735293 0 0.078928226936330073 0.3918395352538776 0 0.073695702888484968 0.40005040040525608 0 0.068225210254675303 0.39186969982647402 0 0.073695702888484968 0.40005040040525608 0 0.068225210254675303 0.39186969982647402 0 0.063240005814886313 0.40658319209587829 0 0.058979725365252707 0.4176193763442323 0 0.063240005814886313 0.40658319209587829 0 0.071585814596931419 0.42916711849095618 0 0.063240005814886313 0.40658319209587829 0 0.075088081656536507 0.41058410832735293 0 0.071585814596931419 0.42916711849095618 0 0.063240005814886313 0.40658319209587829 0 0.071585814596931419 0.42916711849095618 0 0.063240005814886313 0.40658319209587829 0 0.075088081656536507 0.41058410832735293 0 0.075088081656536507 0.41058410832735293 0 0.071585814596931419 0.42916711849095618 0 0.082007329246870417 0.41738518600618091 0 0.061556592319121653 0.44225761358074578 0 0.059201111644200437 0.43099696977894508 0 0.071585814596931419 0.42916711849095618 0 0.07540768018483697 0.44030754071393319 0 0.061556592319121653 0.44225761358074578 0 0.071585814596931419 0.42916711849095618 0 0.059201111644200437 0.43099696977894508 0 0.058979725365252707 0.4176193763442323 0 0.071585814596931419 0.42916711849095618 0 0.07540768018483697 0.44030754071393319 0 0.071585814596931419 0.42916711849095618 0 0.08764391112498858 0.43163178618934439 0 0.071585814596931419 0.42916711849095618 0 0.08764391112498858 0.43163178618934439 0 0.082007329246870417 0.41738518600618091 0 0.08764391112498858 0.43163178618934439 0 0.082007329246870417 0.41738518600618091 0 0.094443419551670932 0.40508992778400232 0 0.08764391112498858 0.43163178618934439 0 0.094443419551670932 0.40508992778400232 0 0.080832552055978585 0.40498983155533402 0 0.075088081656536507 0.41058410832735293 0 0.082007329246870417 0.41738518600618091 0 0.080832552055978585 0.40498983155533402 0 0.082007329246870417 0.41738518600618091 0 0.094443419551670932 0.40508992778400232 0 0.08764391112498858 0.43163178618934439 0 0.1096581763989177 0.42409154504396013 0 0.094443419551670932 0.40508992778400232 0 0.1096581763989177 0.42409154504396013 0 0.11163148259572971 0.40863234267508453 0 0.094443419551670932 0.40508992778400232 0 0.1057649319772677 0.43759517983083812 0 0.08764391112498858 0.43163178618934439 0 0.1096581763989177 0.42409154504396013 0 0.1237280261196836 0.44463014715047522 0 0.1096581763989177 0.42409154504396013 0 0.13502200614688589 0.42010390008240672 0 0.1237280261196836 0.44463014715047522 0 0.1057649319772677 0.43759517983083812 0 0.1096581763989177 0.42409154504396013 0 0.11163148259572971 0.40863234267508453 0 0.1236499924648251 0.3984302041169589 0 0.13502200614688589 0.42010390008240672 0 0.1096581763989177 0.42409154504396013 0 0.11163148259572971 0.40863234267508453 0 0.13502200614688589 0.42010390008240672 0 0.11163148259572971 0.40863234267508453 0 0.1236499924648251 0.3984302041169589 0 0.10863659533572551 0.39290197353284961 0 0.10863659533572551 0.39290197353284961 0 0.114060711710889 0.37342974127053702 0 0.12550685613774351 0.37951055496914998 0 0.1236499924648251 0.3984302041169589 0 0.10863659533572551 0.39290197353284961 0 0.12550685613774351 0.37951055496914998 0 0.1012429279783533 0.37854806937866009 0 0.10863659533572551 0.39290197353284961 0 0.114060711710889 0.37342974127053702 0 0.087739402474845588 0.37833299208434412 0 0.1012429279783533 0.37854806937866009 0 0.094443419551670932 0.40508992778400232 0 0.11163148259572971 0.40863234267508453 0 0.10863659533572551 0.39290197353284961 0 0.094443419551670932 0.40508992778400232 0 0.1012429279783533 0.37854806937866009 0 0.094443419551670932 0.40508992778400232 0 0.1012429279783533 0.37854806937866009 0 0.10863659533572551 0.39290197353284961 0 0.094443419551670932 0.40508992778400232 0 0.10055213054656729 0.36013865237867942 0 0.1100489009895301 0.33374314175173209 0 0.10055213054656729 0.36013865237867942 0 0.1100489009895301 0.33374314175173209 0 0.08625589277749264 0.346999797836966 0 0.1069344999541316 0.36147573913557879 0 0.10055213054656729 0.36013865237867942 0 0.1165634558871128 0.3492406052842485 0 0.10055213054656729 0.36013865237867942 0 0.1165634558871128 0.3492406052842485 0 0.1100489009895301 0.33374314175173209 0 0.087739402474845588 0.37833299208434412 0 0.1012429279783533 0.37854806937866009 0 0.1069344999541316 0.36147573913557879 0 0.1012429279783533 0.37854806937866009 0 0.1069344999541316 0.36147573913557879 0 0.114060711710889 0.37342974127053702 0 0.1069344999541316 0.36147573913557879 0 0.10055213054656729 0.36013865237867942 0 0.081229983254247365 0.36650003300062722 0 0.1069344999541316 0.36147573913557879 0 0.081229983254247365 0.36650003300062722 0 0.114060711710889 0.37342974127053702 0 0.1326390166540157 0.35645144527053041 0 0.12550685613774351 0.37951055496914998 0 0.1069344999541316 0.36147573913557879 0 0.114060711710889 0.37342974127053702 0 0.1326390166540157 0.35645144527053041 0 0.1069344999541316 0.36147573913557879 0 0.1165634558871128 0.3492406052842485 0 0.1326390166540157 0.35645144527053041 0 0.1069344999541316 0.36147573913557879 0 0.1326390166540157 0.35645144527053041 0 0.1165634558871128 0.3492406052842485 0 0.1100489009895301 0.33374314175173209 0 0.13264273129131951 0.33439404788472138 0 0.1100489009895301 0.33374314175173209 0 0.099713977183769634 0.31807175575135088 0 0.11954567143249289 0.30734763112478491 0 0.1100489009895301 0.33374314175173209 0 0.11954567143249289 0.30734763112478491 0 0.13264273129131951 0.33439404788472138 0 0.1100489009895301 0.33374314175173209 0 0.11954567143249289 0.30734763112478491 0 0.1100489009895301 0.33374314175173209 0 0.099713977183769634 0.31807175575135088 0 0.083894735805945045 0.32735700357097808 0 0.1100489009895301 0.33374314175173209 0 0.083894735805945045 0.32735700357097808 0 0.08625589277749264 0.346999797836966 0 0.083894735805945045 0.32735700357097808 0 0.068148884279383815 0.34110740296781622 0 0.08625589277749264 0.346999797836966 0 0.099713977183769634 0.31807175575135088 0 0.083894735805945045 0.32735700357097808 0 0.079241751540062577 0.3091409184095229 0 0.083894735805945045 0.32735700357097808 0 0.067542665246266162 0.32227296773822012 0 0.079241751540062577 0.3091409184095229 0 0.067542665246266162 0.32227296773822012 0 0.068148884279383815 0.34110740296781622 0 0.052098030758102709 0.32848813316288678 0 0.083894735805945045 0.32735700357097808 0 0.067542665246266162 0.32227296773822012 0 0.068148884279383815 0.34110740296781622 0 0.068148884279383815 0.34110740296781622 0 0.072981575438615956 0.35429511825148829 0 0.08625589277749264 0.346999797836966 0 0.068148884279383815 0.34110740296781622 0 0.072981575438615956 0.35429511825148829 0 0.059971533893319953 0.35265308331869138 0 0.072981575438615956 0.35429511825148829 0 0.066555082361941326 0.36578627017444021 0 0.059971533893319953 0.35265308331869138 0 0.10055213054656729 0.36013865237867942 0 0.08625589277749264 0.346999797836966 0 0.081229983254247365 0.36650003300062722 0 0.072981575438615956 0.35429511825148829 0 0.08625589277749264 0.346999797836966 0 0.081229983254247365 0.36650003300062722 0 0.087739402474845588 0.37833299208434412 0 0.1069344999541316 0.36147573913557879 0 0.081229983254247365 0.36650003300062722 0 0.069041936002645535 0.37820082441249081 0 0.087739402474845588 0.37833299208434412 0 0.081229983254247365 0.36650003300062722 0 0.069041936002645535 0.37820082441249081 0 0.081229983254247365 0.36650003300062722 0 0.066555082361941326 0.36578627017444021 0 0.072981575438615956 0.35429511825148829 0 0.081229983254247365 0.36650003300062722 0 0.066555082361941326 0.36578627017444021 0 0.069041936002645535 0.37820082441249081 0 0.066555082361941326 0.36578627017444021 0 0.059721524030669819 0.37431687333309788 0 0.055929998057201551 0.36692607577369102 0 0.050307067216076778 0.37158640017128619 0 0.041108453413194898 0.34669476624024848 0 0.066555082361941326 0.36578627017444021 0 0.059721524030669819 0.37431687333309788 0 0.055929998057201551 0.36692607577369102 0 0.059721524030669819 0.37431687333309788 0 0.055929998057201551 0.36692607577369102 0 0.050307067216076778 0.37158640017128619 0 0.066555082361941326 0.36578627017444021 0 0.055929998057201551 0.36692607577369102 0 0.059971533893319953 0.35265308331869138 0 0.055929998057201551 0.36692607577369102 0 0.050307067216076778 0.37158640017128619 0 0.055929998057201551 0.36692607577369102 0 0.059971533893319953 0.35265308331869138 0 0.041108453413194898 0.34669476624024848 0 0.059971533893319953 0.35265308331869138 0 0.041108453413194898 0.34669476624024848 0 0.053731959496234848 0.34189436452501393 0 0.068148884279383815 0.34110740296781622 0 0.059971533893319953 0.35265308331869138 0 0.053731959496234848 0.34189436452501393 0 0.050307067216076778 0.37158640017128619 0 0.041108453413194898 0.34669476624024848 0 0.036325720293778493 0.35734230210966361 0 0.050307067216076778 0.37158640017128619 0 0.041108453413194898 0.34669476624024848 0 0.041108453413194898 0.34669476624024848 0 0.036325720293778493 0.35734230210966361 0 0.028822601092593811 0.34272768621728472 0 0.034519904376963118 0.38467091111880503 0 0.036565816098641138 0.36791040757449411 0 0.02482466364838485 0.35779225034500489 0 0.034519904376963118 0.38467091111880503 0 0.050307067216076778 0.37158640017128619 0 0.036565816098641138 0.36791040757449411 0 0.050307067216076778 0.37158640017128619 0 0.036325720293778493 0.35734230210966361 0 0.036565816098641138 0.36791040757449411 0 0.036325720293778493 0.35734230210966361 0 0.036565816098641138 0.36791040757449411 0 0.02482466364838485 0.35779225034500489 0 0.034519904376963118 0.38467091111880503 0 0.02482466364838485 0.35779225034500489 0 0.0197357255374827 0.37571737083264412 0 0.034519904376963118 0.38467091111880503 0 0.02482466364838485 0.35779225034500489 0 0.0197357255374827 0.37571737083264412 0 0.015674273695437339 0.36401306951764911 0 0.02482466364838485 0.35779225034500489 0 0.015674273695437339 0.36401306951764911 0 0.02482466364838485 0.35779225034500489 0 0.015768167676543349 0.35713923686247862 0 0.02482466364838485 0.35779225034500489 0 0.01512942291980679 0.33091358957120492 0 0.02482466364838485 0.35779225034500489 0 0.01512942291980679 0.33091358957120492 0 0.028822601092593811 0.34272768621728472 0 0.036325720293778493 0.35734230210966361 0 0.02482466364838485 0.35779225034500489 0 0.028822601092593811 0.34272768621728472 0 0.02482466364838485 0.35779225034500489 0 0.012196298529549159 0.34905700984651278 0 0.01512942291980679 0.33091358957120492 0 0.02482466364838485 0.35779225034500489 0 0.015768167676543349 0.35713923686247862 0 0.012196298529549159 0.34905700984651278 0 0.01037743483280206 0.35769461774074762 0 0.012196298529549159 0.34905700984651278 0 0.0032447233134405931 0.35422125060834359 0 0.015768167676543349 0.35713923686247862 0 0.01037743483280206 0.35769461774074762 0 0.012196298529549159 0.34905700984651278 0 -0.002583240235104544 0.34489224502179239 0 0.012196298529549159 0.34905700984651278 0 0.0065182143906638264 0.33911035096943482 0 -0.002583240235104544 0.34489224502179239 0 0.012196298529549159 0.34905700984651278 0 0.0032447233134405931 0.35422125060834359 0 0.01037743483280206 0.35769461774074762 0 0.0032447233134405931 0.35422125060834359 0 0.0039428335920915006 0.36531030276633031 0 -0.0064988099748367559 0.35299106404641623 0 0.0032447233134405931 0.35422125060834359 0 0.0039428335920915006 0.36531030276633031 0 -0.001064505034491721 0.37161458349227261 0 0.015674273695437339 0.36401306951764911 0 0.0039428335920915006 0.36531030276633031 0 -0.001064505034491721 0.37161458349227261 0 0.015674273695437339 0.36401306951764911 0 0.011110712074150059 0.37343232972227269 0 -0.001064505034491721 0.37161458349227261 0 0.015674273695437339 0.36401306951764911 0 0.0197357255374827 0.37571737083264412 0 0.015674273695437339 0.36401306951764911 0 0.011110712074150059 0.37343232972227269 0 0.015674273695437339 0.36401306951764911 0 0.01037743483280206 0.35769461774074762 0 0.0039428335920915006 0.36531030276633031 0 0.015674273695437339 0.36401306951764911 0 0.015768167676543349 0.35713923686247862 0 0.01037743483280206 0.35769461774074762 0 -0.00058836015198596755 0.32088344941533808 0 0.01512942291980679 0.33091358957120492 0 0.0054341821912287152 0.30403492879740468 0 0.01512942291980679 0.33091358957120492 0 0.0054341821912287152 0.30403492879740468 0 0.01512942291980679 0.33091358957120492 0 0.018796167632194181 0.3134157872639986 0 0.0054341821912287152 0.30403492879740468 0 0.012196298529549159 0.34905700984651278 0 0.01512942291980679 0.33091358957120492 0 0.0065182143906638264 0.33911035096943482 0 -0.0025616559074486049 0.3329031852911295 0 -0.00058836015198596755 0.32088344941533808 0 0.01512942291980679 0.33091358957120492 0 -0.0025616559074486049 0.3329031852911295 0 0.01512942291980679 0.33091358957120492 0 0.0065182143906638264 0.33911035096943482 0 -0.0025616559074486049 0.3329031852911295 0 -0.002583240235104544 0.34489224502179239 0 0.0065182143906638264 0.33911035096943482 0 0.01512942291980679 0.33091358957120492 0 0.028822601092593811 0.34272768621728472 0 0.031909839610312053 0.3218031323092112 0 0.01512942291980679 0.33091358957120492 0 0.018796167632194181 0.3134157872639986 0 0.031909839610312053 0.3218031323092112 0 0.031909839610312053 0.3218031323092112 0 0.052098030758102709 0.32848813316288678 0 0.054329923847836643 0.30527138057989611 0 0.041108453413194898 0.34669476624024848 0 0.031909839610312053 0.3218031323092112 0 0.041108453413194898 0.34669476624024848 0 0.028822601092593811 0.34272768621728472 0 0.031909839610312053 0.3218031323092112 0 0.041108453413194898 0.34669476624024848 0 0.031909839610312053 0.3218031323092112 0 0.052098030758102709 0.32848813316288678 0 0.041108453413194898 0.34669476624024848 0 0.052098030758102709 0.32848813316288678 0 0.053731959496234848 0.34189436452501393 0 0.068148884279383815 0.34110740296781622 0 0.052098030758102709 0.32848813316288678 0 0.053731959496234848 0.34189436452501393 0 0.067542665246266162 0.32227296773822012 0 0.052098030758102709 0.32848813316288678 0 0.054329923847836643 0.30527138057989611 0 0.054329923847836643 0.30527138057989611 0 0.058643640903709077 0.2841886380467647 0 0.070108093408202884 0.28237758711201172 0 0.054329923847836643 0.30527138057989611 0 0.058643640903709077 0.2841886380467647 0 0.046708945964444748 0.28470371633566799 0 0.054329923847836643 0.30527138057989611 0 0.070108093408202884 0.28237758711201172 0 0.033299114928103571 0.2853556706935409 0 0.038381760441483573 0.30030485014671859 0 0.022711225807429191 0.29691149837817382 0 0.054329923847836643 0.30527138057989611 0 0.046708945964444748 0.28470371633566799 0 0.038381760441483573 0.30030485014671859 0 0.046708945964444748 0.28470371633566799 0 0.033299114928103571 0.2853556706935409 0 0.038381760441483573 0.30030485014671859 0 0.031909839610312053 0.3218031323092112 0 0.054329923847836643 0.30527138057989611 0 0.038381760441483573 0.30030485014671859 0 0.031909839610312053 0.3218031323092112 0 0.022711225807429191 0.29691149837817382 0 0.018796167632194181 0.3134157872639986 0 0.031909839610312053 0.3218031323092112 0 0.022711225807429191 0.29691149837817382 0 0.018796167632194181 0.3134157872639986 0 0.022711225807429191 0.29691149837817382 0 0.0054341821912287152 0.30403492879740468 0 0.031909839610312053 0.3218031323092112 0 0.038381760441483573 0.30030485014671859 0 0.022711225807429191 0.29691149837817382 0 0.022711225807429191 0.29691149837817382 0 0.0097135815956244098 0.28932323485025419 0 0.01496997692118909 0.27919024420183391 0 0.033299114928103571 0.2853556706935409 0 0.022711225807429191 0.29691149837817382 0 0.01496997692118909 0.27919024420183391 0 -0.0042610585373493576 0.2771562680236046 0 0.0097135815956244098 0.28932323485025419 0 0.01496997692118909 0.27919024420183391 0 -0.0042610585373493576 0.2771562680236046 0 0.0097135815956244098 0.28932323485025419 0 0.0054341821912287152 0.30403492879740468 0 0.022711225807429191 0.29691149837817382 0 0.0097135815956244098 0.28932323485025419 0 0.0054341821912287152 0.30403492879740468 0 -0.0042610585373493576 0.2771562680236046 0 0.0054341821912287152 0.30403492879740468 0 0.012156823249103331 0.25259817100369902 0 0.0071094060709509964 0.26564087220093879 0 0.023079021189564172 0.26593697868694532 0 -0.0082457657602449386 0.25246627485226031 0 0.012156823249103331 0.25259817100369902 0 0.0071094060709509964 0.26564087220093879 0 0.0071094060709509964 0.26564087220093879 0 0.01496997692118909 0.27919024420183391 0 0.023079021189564172 0.26593697868694532 0 -0.0042610585373493576 0.2771562680236046 0 0.0071094060709509964 0.26564087220093879 0 0.01496997692118909 0.27919024420183391 0 0.033299114928103571 0.2853556706935409 0 0.01496997692118909 0.27919024420183391 0 0.023079021189564172 0.26593697868694532 0 0.012156823249103331 0.25259817100369902 0 0.023079021189564172 0.26593697868694532 0 0.030652172791378579 0.25229956247347313 0 0.023079021189564172 0.26593697868694532 0 0.030652172791378579 0.25229956247347313 0 0.04073495957405681 0.26035892983227987 0 0.044937254539659167 0.2379713478153713 0 0.030652172791378579 0.25229956247347313 0 0.04073495957405681 0.26035892983227987 0 0.033299114928103571 0.2853556706935409 0 0.023079021189564172 0.26593697868694532 0 0.04073495957405681 0.26035892983227987 0 0.033299114928103571 0.2853556706935409 0 0.04073495957405681 0.26035892983227987 0 0.046708945964444748 0.28470371633566799 0 0.033299114928103571 0.2853556706935409 0 0.04073495957405681 0.26035892983227987 0 0.046708945964444748 0.28470371633566799 0 0.04073495957405681 0.26035892983227987 0 0.054656664038459993 0.27221644551962948 0 0.058643640903709077 0.2841886380467647 0 0.046708945964444748 0.28470371633566799 0 0.054656664038459993 0.27221644551962948 0 0.054656664038459993 0.27221644551962948 0 0.05595459183600883 0.25980758553240452 0 0.063151913248908592 0.26702092668087168 0 0.054656664038459993 0.27221644551962948 0 0.063151913248908592 0.26702092668087168 0 0.062868354845155253 0.27542318723842002 0 0.058643640903709077 0.2841886380467647 0 0.054656664038459993 0.27221644551962948 0 0.062868354845155253 0.27542318723842002 0 0.058643640903709077 0.2841886380467647 0 0.062868354845155253 0.27542318723842002 0 0.06481936793225318 0.27971168374165578 0 0.052294646587479003 0.2493466198794505 0 0.04073495957405681 0.26035892983227987 0 0.05595459183600883 0.25980758553240452 0 0.04073495957405681 0.26035892983227987 0 0.054656664038459993 0.27221644551962948 0 0.05595459183600883 0.25980758553240452 0 0.05595459183600883 0.25980758553240452 0 0.066495423171073403 0.25816184380531082 0 0.063151913248908592 0.26702092668087168 0 0.052294646587479003 0.2493466198794505 0 0.05595459183600883 0.25980758553240452 0 0.06034442261467237 0.25120339486286308 0 0.05595459183600883 0.25980758553240452 0 0.06034442261467237 0.25120339486286308 0 0.066495423171073403 0.25816184380531082 0 0.067445722382230539 0.24771064348785149 0 0.066495423171073403 0.25816184380531082 0 0.074707437689247702 0.25389633834412328 0 0.067445722382230539 0.24771064348785149 0 0.06034442261467237 0.25120339486286308 0 0.066495423171073403 0.25816184380531082 0 0.066495423171073403 0.25816184380531082 0 0.070468357435777063 0.2657419037057816 0 0.063151913248908592 0.26702092668087168 0 0.066495423171073403 0.25816184380531082 0 0.074357597956477339 0.26064435546358339 0 0.070468357435777063 0.2657419037057816 0 0.074357597956477339 0.26064435546358339 0 0.075194191089397802 0.26640127341757941 0 0.070468357435777063 0.2657419037057816 0 0.074357597956477339 0.26064435546358339 0 0.080427883817154544 0.25791465254204288 0 0.078852294536213494 0.26175012096666261 0 0.074357597956477339 0.26064435546358339 0 0.078852294536213494 0.26175012096666261 0 0.075194191089397802 0.26640127341757941 0 0.066495423171073403 0.25816184380531082 0 0.074357597956477339 0.26064435546358339 0 0.074707437689247702 0.25389633834412328 0 0.074357597956477339 0.26064435546358339 0 0.074707437689247702 0.25389633834412328 0 0.080427883817154544 0.25791465254204288 0 0.085975255819246227 0.24304742420893821 0 0.080478695998155714 0.25165019938018113 0 0.085886262968569133 0.25948379364412733 0 0.080478695998155714 0.25165019938018113 0 0.080427883817154544 0.25791465254204288 0 0.085886262968569133 0.25948379364412733 0 0.10166443252893551 0.23659000017624271 0 0.085886262968569133 0.25948379364412733 0 0.093061372415253377 0.25945310375487363 0 0.074707437689247702 0.25389633834412328 0 0.080478695998155714 0.25165019938018113 0 0.080427883817154544 0.25791465254204288 0 0.078852294536213494 0.26175012096666261 0 0.085886262968569133 0.25948379364412733 0 0.075194191089397802 0.26640127341757941 0 0.080427883817154544 0.25791465254204288 0 0.078852294536213494 0.26175012096666261 0 0.085886262968569133 0.25948379364412733 0 0.093061372415253377 0.25945310375487363 0 0.088669334409182038 0.27365465257629329 0 0.074192652952093263 0.28111713417870732 0 0.093061372415253377 0.25945310375487363 0 0.074192652952093263 0.28111713417870732 0 0.085886262968569133 0.25948379364412733 0 0.093061372415253377 0.25945310375487363 0 0.074192652952093263 0.28111713417870732 0 0.088669334409182038 0.27365465257629329 0 0.090629520296699906 0.27989165378522829 0 0.096617072050330918 0.27420358010706619 0 0.088669334409182038 0.27365465257629329 0 0.090629520296699906 0.27989165378522829 0 0.083300485689734874 0.28178689503457671 0 0.093061372415253377 0.25945310375487363 0 0.088669334409182038 0.27365465257629329 0 0.097208854645582696 0.26674380090640232 0 0.088669334409182038 0.27365465257629329 0 0.074192652952093263 0.28111713417870732 0 0.083300485689734874 0.28178689503457671 0 0.085886262968569133 0.25948379364412733 0 0.072732619288592745 0.27411268144752271 0 0.070108093408202884 0.28237758711201172 0 0.085886262968569133 0.25948379364412733 0 0.074192652952093263 0.28111713417870732 0 0.070108093408202884 0.28237758711201172 0 0.085886262968569133 0.25948379364412733 0 0.070108093408202884 0.28237758711201172 0 0.085886262968569133 0.25948379364412733 0 0.072732619288592745 0.27411268144752271 0 0.075194191089397802 0.26640127341757941 0 0.072732619288592745 0.27411268144752271 0 0.075194191089397802 0.26640127341757941 0 0.068678803079962825 0.27092621584326698 0 0.075194191089397802 0.26640127341757941 0 0.070468357435777063 0.2657419037057816 0 0.068678803079962825 0.27092621584326698 0 0.068678803079962825 0.27092621584326698 0 0.063151913248908592 0.26702092668087168 0 0.062868354845155253 0.27542318723842002 0 0.070468357435777063 0.2657419037057816 0 0.068678803079962825 0.27092621584326698 0 0.063151913248908592 0.26702092668087168 0 0.072732619288592745 0.27411268144752271 0 0.067657382571945521 0.27685732256942691 0 0.070108093408202884 0.28237758711201172 0 0.067657382571945521 0.27685732256942691 0 0.06481936793225318 0.27971168374165578 0 0.070108093408202884 0.28237758711201172 0 0.072732619288592745 0.27411268144752271 0 0.068678803079962825 0.27092621584326698 0 0.067657382571945521 0.27685732256942691 0 0.067657382571945521 0.27685732256942691 0 0.062868354845155253 0.27542318723842002 0 0.06481936793225318 0.27971168374165578 0 0.068678803079962825 0.27092621584326698 0 0.067657382571945521 0.27685732256942691 0 0.062868354845155253 0.27542318723842002 0 0.058643640903709077 0.2841886380467647 0 0.06481936793225318 0.27971168374165578 0 0.070108093408202884 0.28237758711201172 0 0.054329923847836643 0.30527138057989611 0 0.070108093408202884 0.28237758711201172 0 0.07616196246918229 0.29401120062856562 0 0.070108093408202884 0.28237758711201172 0 0.07616196246918229 0.29401120062856562 0 0.077305327314718786 0.28670206069564769 0 0.074192652952093263 0.28111713417870732 0 0.070108093408202884 0.28237758711201172 0 0.077305327314718786 0.28670206069564769 0 0.054329923847836643 0.30527138057989611 0 0.07616196246918229 0.29401120062856562 0 0.079241751540062577 0.3091409184095229 0 0.067542665246266162 0.32227296773822012 0 0.054329923847836643 0.30527138057989611 0 0.079241751540062577 0.3091409184095229 0 0.07616196246918229 0.29401120062856562 0 0.079241751540062577 0.3091409184095229 0 0.093760017070794913 0.30048783451418309 0 0.099713977183769634 0.31807175575135088 0 0.079241751540062577 0.3091409184095229 0 0.093760017070794913 0.30048783451418309 0 0.07616196246918229 0.29401120062856562 0 0.086675975183887061 0.28808357667035972 0 0.093760017070794913 0.30048783451418309 0 0.074192652952093263 0.28111713417870732 0 0.077305327314718786 0.28670206069564769 0 0.083300485689734874 0.28178689503457671 0 0.077305327314718786 0.28670206069564769 0 0.083300485689734874 0.28178689503457671 0 0.086675975183887061 0.28808357667035972 0 0.07616196246918229 0.29401120062856562 0 0.077305327314718786 0.28670206069564769 0 0.086675975183887061 0.28808357667035972 0 0.090629520296699906 0.27989165378522829 0 0.083300485689734874 0.28178689503457671 0 0.086675975183887061 0.28808357667035972 0 0.090629520296699906 0.27989165378522829 0 0.086675975183887061 0.28808357667035972 0 0.1012207646153751 0.28627192450051492 0 0.086675975183887061 0.28808357667035972 0 0.1012207646153751 0.28627192450051492 0 0.093760017070794913 0.30048783451418309 0 0.099713977183769634 0.31807175575135088 0 0.093760017070794913 0.30048783451418309 0 0.11954567143249289 0.30734763112478491 0 0.1012207646153751 0.28627192450051492 0 0.093760017070794913 0.30048783451418309 0 0.11954567143249289 0.30734763112478491 0 0.11954567143249289 0.30734763112478491 0 0.1141818460752707 0.27714397317686529 0 0.12904244187545569 0.2809521204978378 0 0.1012207646153751 0.28627192450051492 0 0.11954567143249289 0.30734763112478491 0 0.1141818460752707 0.27714397317686529 0 0.11954567143249289 0.30734763112478491 0 0.12904244187545569 0.2809521204978378 0 0.1141818460752707 0.27714397317686529 0 0.11615378911320511 0.26032519799560372 0 0.1048644735931679 0.26655228778042589 0 0.1141818460752707 0.27714397317686529 0 0.11615378911320511 0.26032519799560372 0 0.12904244187545569 0.2809521204978378 0 0.1152979079485152 0.2467056018988516 0 0.1250676346401875 0.24796443701554319 0 0.11615378911320511 0.26032519799560372 0 0.1152979079485152 0.2467056018988516 0 0.11615378911320511 0.26032519799560372 0 0.10650461767427161 0.25132517155921902 0 0.11615378911320511 0.26032519799560372 0 0.1028320207599793 0.25985538031335248 0 0.1048644735931679 0.26655228778042589 0 0.1028320207599793 0.25985538031335248 0 0.097208854645582696 0.26674380090640232 0 0.1048644735931679 0.26655228778042589 0 0.11615378911320511 0.26032519799560372 0 0.1028320207599793 0.25985538031335248 0 0.10650461767427161 0.25132517155921902 0 0.093061372415253377 0.25945310375487363 0 0.1028320207599793 0.25985538031335248 0 0.10650461767427161 0.25132517155921902 0 0.093061372415253377 0.25945310375487363 0 0.1028320207599793 0.25985538031335248 0 0.097208854645582696 0.26674380090640232 0 0.088669334409182038 0.27365465257629329 0 0.097208854645582696 0.26674380090640232 0 0.096617072050330918 0.27420358010706619 0 0.097208854645582696 0.26674380090640232 0 0.096617072050330918 0.27420358010706619 0 0.1048644735931679 0.26655228778042589 0 0.1141818460752707 0.27714397317686529 0 0.096617072050330918 0.27420358010706619 0 0.1048644735931679 0.26655228778042589 0 0.1012207646153751 0.28627192450051492 0 0.1141818460752707 0.27714397317686529 0 0.096617072050330918 0.27420358010706619 0 0.090629520296699906 0.27989165378522829 0 0.1012207646153751 0.28627192450051492 0 0.096617072050330918 0.27420358010706619 0 0.1384713120865835 0.25773302092121009 0 0.12904244187545569 0.2809521204978378 0 0.15915390062653459 0.27760612704708998 0 0.1514273965657848 0.24085309905483679 0 0.1384713120865835 0.25773302092121009 0 0.156278998070083 0.25778272565978 0 0.1384713120865835 0.25773302092121009 0 0.15915390062653459 0.27760612704708998 0 0.156278998070083 0.25778272565978 0 0.1250676346401875 0.24796443701554319 0 0.11615378911320511 0.26032519799560372 0 0.1384713120865835 0.25773302092121009 0 0.11615378911320511 0.26032519799560372 0 0.1384713120865835 0.25773302092121009 0 0.12904244187545569 0.2809521204978378 0 0.11954567143249289 0.30734763112478491 0 0.12904244187545569 0.2809521204978378 0 0.14488164426314301 0.29594920495010729 0 0.11954567143249289 0.30734763112478491 0 0.14488164426314301 0.29594920495010729 0 0.15139514334923471 0.31791608062108467 0 0.14488164426314301 0.29594920495010729 0 0.16637322996135739 0.30016678813796199 0 0.15139514334923471 0.31791608062108467 0 0.12904244187545569 0.2809521204978378 0 0.14488164426314301 0.29594920495010729 0 0.15915390062653459 0.27760612704708998 0 0.14488164426314301 0.29594920495010729 0 0.16637322996135739 0.30016678813796199 0 0.15915390062653459 0.27760612704708998 0 0.16637322996135739 0.30016678813796199 0 0.18265278236186541 0.28020603593405619 0 0.15915390062653459 0.27760612704708998 0 0.16637322996135739 0.30016678813796199 0 0.18588027836364171 0.30417070427619303 0 0.17427563080372541 0.32515257599924119 0 0.16637322996135739 0.30016678813796199 0 0.18588027836364171 0.30417070427619303 0 0.18265278236186541 0.28020603593405619 0 0.18265278236186541 0.28020603593405619 0 0.15915390062653459 0.27760612704708998 0 0.17660728565697029 0.25284173787090108 0 0.18265278236186541 0.28020603593405619 0 0.17660728565697029 0.25284173787090108 0 0.20178717474815569 0.26483037668696541 0 0.1514273965657848 0.24085309905483679 0 0.156278998070083 0.25778272565978 0 0.17660728565697029 0.25284173787090108 0 0.15915390062653459 0.27760612704708998 0 0.156278998070083 0.25778272565978 0 0.17660728565697029 0.25284173787090108 0 0.1971008006350988 0.24422433182354611 0 0.17660728565697029 0.25284173787090108 0 0.20178717474815569 0.26483037668696541 0 0.17660728565697029 0.25284173787090108 0 0.20178717474815569 0.26483037668696541 0 0.18265278236186541 0.28020603593405619 0 0.20178717474815569 0.26483037668696541 0 0.20721699074389299 0.28586320426344869 0 0.20178717474815569 0.26483037668696541 0 0.22696706383934109 0.27681901550302962 0 0.20721699074389299 0.28586320426344869 0 0.20178717474815569 0.26483037668696541 0 0.22696706383934109 0.27681901550302962 0 0.1971008006350988 0.24422433182354611 0 0.20178717474815569 0.26483037668696541 0 0.2257125065402284 0.25431107802280528 0 0.20178717474815569 0.26483037668696541 0 0.2257125065402284 0.25431107802280528 0 0.22696706383934109 0.27681901550302962 0 0.2257125065402284 0.25431107802280528 0 0.23435940432808119 0.2558835225658645 0 0.2376751292839718 0.27741240132337408 0 0.2257125065402284 0.25431107802280528 0 0.22696706383934109 0.27681901550302962 0 0.2376751292839718 0.27741240132337408 0 0.2257125065402284 0.25431107802280528 0 0.2376751292839718 0.27741240132337408 0 0.22696706383934109 0.27681901550302962 0 0.2376751292839718 0.27741240132337408 0 0.2318681827461313 0.28775992326468519 0 0.23435940432808119 0.2558835225658645 0 0.2434397278092077 0.27846069768541332 0 0.2376751292839718 0.27741240132337408 0 0.23435940432808119 0.2558835225658645 0 0.2434397278092077 0.27846069768541332 0 0.23435940432808119 0.2558835225658645 0 0.2434397278092077 0.27846069768541332 0 0.24763005152173001 0.25910176257370959 0 0.2459873280094696 0.23707215699401071 0 0.23435940432808119 0.2558835225658645 0 0.24763005152173001 0.25910176257370959 0 0.24963775202771521 0.30051372462394288 0 0.22557231514573739 0.29747977878921561 0 0.2305146992996441 0.31691702429977642 0 0.2376751292839718 0.27741240132337408 0 0.24963775202771521 0.30051372462394288 0 0.2318681827461313 0.28775992326468519 0 0.2434397278092077 0.27846069768541332 0 0.25252005129033422 0.30103787280496203 0 0.2434397278092077 0.27846069768541332 0 0.2376751292839718 0.27741240132337408 0 0.24963775202771521 0.30051372462394288 0 0.2434397278092077 0.27846069768541332 0 0.24963775202771521 0.30051372462394288 0 0.25252005129033422 0.30103787280496203 0 0.24963775202771521 0.30051372462394288 0 0.2318681827461313 0.28775992326468519 0 0.22557231514573739 0.29747977878921561 0 0.2376751292839718 0.27741240132337408 0 0.24963775202771521 0.30051372462394288 0 0.22696706383934109 0.27681901550302962 0 0.2318681827461313 0.28775992326468519 0 0.22192971392309441 0.28686454206331458 0 0.2318681827461313 0.28775992326468519 0 0.22192971392309441 0.28686454206331458 0 0.22557231514573739 0.29747977878921561 0 0.22557231514573739 0.29747977878921561 0 0.21067009246602381 0.31050760251916348 0 0.2305146992996441 0.31691702429977642 0 0.22557231514573739 0.29747977878921561 0 0.2305146992996441 0.31691702429977642 0 0.22557231514573739 0.29747977878921561 0 0.21067009246602381 0.31050760251916348 0 0.20721699074389299 0.28586320426344869 0 0.22192971392309441 0.28686454206331458 0 0.22557231514573739 0.29747977878921561 0 0.20721699074389299 0.28586320426344869 0 0.22696706383934109 0.27681901550302962 0 0.22192971392309441 0.28686454206331458 0 0.20721699074389299 0.28586320426344869 0 0.18588027836364171 0.30417070427619303 0 0.18265278236186541 0.28020603593405619 0 0.20721699074389299 0.28586320426344869 0 0.18588027836364171 0.30417070427619303 0 0.21067009246602381 0.31050760251916348 0 0.20721699074389299 0.28586320426344869 0 0.18588027836364171 0.30417070427619303 0 0.21067009246602381 0.31050760251916348 0 0.1975742485098208 0.32622361772240582 0 0.1975742485098208 0.32622361772240582 0 0.2097525667536678 0.34137856367538538 0 0.18404805005378369 0.34640285754043382 0 0.1975742485098208 0.32622361772240582 0 0.2097525667536678 0.34137856367538538 0 0.2167937380965417 0.3262762156054137 0 0.21067009246602381 0.31050760251916348 0 0.1975742485098208 0.32622361772240582 0 0.2167937380965417 0.3262762156054137 0 0.21067009246602381 0.31050760251916348 0 0.2167937380965417 0.3262762156054137 0 0.2305146992996441 0.31691702429977642 0 0.2305146992996441 0.31691702429977642 0 0.2354570834535519 0.33635426981033711 0 0.2167937380965417 0.3262762156054137 0 0.2305146992996441 0.31691702429977642 0 0.2354570834535519 0.33635426981033711 0 0.2097525667536678 0.34137856367538538 0 0.2167937380965417 0.3262762156054137 0 0.2354570834535519 0.33635426981033711 0 0.2097525667536678 0.34137856367538538 0 0.2354570834535519 0.33635426981033711 0 0.2097525667536678 0.34137856367538538 0 0.2354570834535519 0.33635426981033711 0 0.22572342153310379 0.35183723080414581 0 0.2354570834535519 0.33635426981033711 0 0.24833100513142109 0.32161764704062729 0 0.26518788721623437 0.33054298393043219 0 0.24963775202771521 0.30051372462394288 0 0.2305146992996441 0.31691702429977642 0 0.24833100513142109 0.32161764704062729 0 0.2305146992996441 0.31691702429977642 0 0.2354570834535519 0.33635426981033711 0 0.24833100513142109 0.32161764704062729 0 0.2354570834535519 0.33635426981033711 0 0.24217950803475169 0.36279199964721098 0 0.25397109136889212 0.34953950795812871 0 0.2354570834535519 0.33635426981033711 0 0.24217950803475169 0.36279199964721098 0 0.22572342153310379 0.35183723080414581 0 0.2354570834535519 0.33635426981033711 0 0.24217950803475169 0.36279199964721098 0 0.24217950803475169 0.36279199964721098 0 0.22572342153310379 0.35183723080414581 0 0.21637712922286109 0.36651385017664678 0 0.24217950803475169 0.36279199964721098 0 0.21637712922286109 0.36651385017664678 0 0.22693728272114971 0.38251641872149622 0 0.2097525667536678 0.34137856367538538 0 0.22572342153310379 0.35183723080414581 0 0.21637712922286109 0.36651385017664678 0 0.2097525667536678 0.34137856367538538 0 0.21637712922286109 0.36651385017664678 0 0.19198276408895759 0.36846918068195189 0 0.2097525667536678 0.34137856367538538 0 0.19198276408895759 0.36846918068195189 0 0.18404805005378369 0.34640285754043382 0 0.2097525667536678 0.34137856367538538 0 0.18404805005378369 0.34640285754043382 0 0.21637712922286109 0.36651385017664678 0 0.19198276408895759 0.36846918068195189 0 0.2008438189570996 0.38963870543367402 0 0.1583435333538997 0.35142715140548209 0 0.18404805005378369 0.34640285754043382 0 0.17157629822801171 0.38002160271682978 0 0.19198276408895759 0.36846918068195189 0 0.18404805005378369 0.34640285754043382 0 0.17157629822801171 0.38002160271682978 0 0.1583435333538997 0.35142715140548209 0 0.14756927440754089 0.37573381366887992 0 0.17157629822801171 0.38002160271682978 0 0.1583435333538997 0.35142715140548209 0 0.18404805005378369 0.34640285754043382 0 0.1583435333538997 0.35142715140548209 0 0.17427563080372541 0.32515257599924119 0 0.15139514334923471 0.31791608062108467 0 0.1975742485098208 0.32622361772240582 0 0.18404805005378369 0.34640285754043382 0 0.17427563080372541 0.32515257599924119 0 0.1583435333538997 0.35142715140548209 0 0.18404805005378369 0.34640285754043382 0 0.17427563080372541 0.32515257599924119 0 0.18588027836364171 0.30417070427619303 0 0.1975742485098208 0.32622361772240582 0 0.17427563080372541 0.32515257599924119 0 0.16637322996135739 0.30016678813796199 0 0.17427563080372541 0.32515257599924119 0 0.15139514334923471 0.31791608062108467 0 0.1583435333538997 0.35142715140548209 0 0.15139514334923471 0.31791608062108467 0 0.13264273129131951 0.33439404788472138 0 0.11954567143249289 0.30734763112478491 0 0.15139514334923471 0.31791608062108467 0 0.13264273129131951 0.33439404788472138 0 0.1165634558871128 0.3492406052842485 0 0.13264273129131951 0.33439404788472138 0 0.1326390166540157 0.35645144527053041 0 0.1326390166540157 0.35645144527053041 0 0.14756927440754089 0.37573381366887992 0 0.12550685613774351 0.37951055496914998 0 0.1583435333538997 0.35142715140548209 0 0.1326390166540157 0.35645144527053041 0 0.14756927440754089 0.37573381366887992 0 0.1583435333538997 0.35142715140548209 0 0.1326390166540157 0.35645144527053041 0 0.1583435333538997 0.35142715140548209 0 0.13264273129131951 0.33439404788472138 0 0.1326390166540157 0.35645144527053041 0 0.1528019220027558 0.40532518960412911 0 0.14756927440754089 0.37573381366887992 0 0.13567422075440499 0.38715007620423969 0 0.14756927440754089 0.37573381366887992 0 0.12550685613774351 0.37951055496914998 0 0.13567422075440499 0.38715007620423969 0 0.1236499924648251 0.3984302041169589 0 0.12550685613774351 0.37951055496914998 0 0.13567422075440499 0.38715007620423969 0 0.1236499924648251 0.3984302041169589 0 0.1528019220027558 0.40532518960412911 0 0.13567422075440499 0.38715007620423969 0 0.1528019220027558 0.40532518960412911 0 0.13502200614688589 0.42010390008240672 0 0.17098438647877001 0.42850314348833868 0 0.13502200614688589 0.42010390008240672 0 0.17098438647877001 0.42850314348833868 0 0.1532788809183856 0.44756588495706878 0 0.1236499924648251 0.3984302041169589 0 0.1528019220027558 0.40532518960412911 0 0.13502200614688589 0.42010390008240672 0 0.1237280261196836 0.44463014715047522 0 0.13502200614688589 0.42010390008240672 0 0.1532788809183856 0.44756588495706878 0 0.1528019220027558 0.40532518960412911 0 0.17098438647877001 0.42850314348833868 0 0.1528019220027558 0.40532518960412911 0 0.17098438647877001 0.42850314348833868 0 0.17902253221663289 0.40492788695933207 0 0.17098438647877001 0.42850314348833868 0 0.19890623541652749 0.42115079355368912 0 0.18916685095478419 0.4516810973725483 0 0.17098438647877001 0.42850314348833868 0 0.17902253221663289 0.40492788695933207 0 0.19890623541652749 0.42115079355368912 0 0.17902253221663289 0.40492788695933207 0 0.17157629822801171 0.38002160271682978 0 0.2008438189570996 0.38963870543367402 0 0.1528019220027558 0.40532518960412911 0 0.17902253221663289 0.40492788695933207 0 0.17157629822801171 0.38002160271682978 0 0.1528019220027558 0.40532518960412911 0 0.14756927440754089 0.37573381366887992 0 0.17157629822801171 0.38002160271682978 0 0.17902253221663289 0.40492788695933207 0 0.2008438189570996 0.38963870543367402 0 0.19890623541652749 0.42115079355368912 0 0.19198276408895759 0.36846918068195189 0 0.17157629822801171 0.38002160271682978 0 0.2008438189570996 0.38963870543367402 0 0.2008438189570996 0.38963870543367402 0 0.22638402477508329 0.40440780886586492 0 0.19890623541652749 0.42115079355368912 0 0.2008438189570996 0.38963870543367402 0 0.22693728272114971 0.38251641872149622 0 0.22638402477508329 0.40440780886586492 0 0.21637712922286109 0.36651385017664678 0 0.2008438189570996 0.38963870543367402 0 0.22693728272114971 0.38251641872149622 0 0.22693728272114971 0.38251641872149622 0 0.22638402477508329 0.40440780886586492 0 0.24890193261595259 0.38922972948408457 0 0.22638402477508329 0.40440780886586492 0 0.24890193261595259 0.38922972948408457 0 0.25562435719715348 0.41566745932095828 0 0.24217950803475169 0.36279199964721098 0 0.24890193261595259 0.38922972948408457 0 0.24217950803475169 0.36279199964721098 0 0.22693728272114971 0.38251641872149622 0 0.24890193261595259 0.38922972948408457 0 0.22638402477508329 0.40440780886586492 0 0.23929670148200641 0.42651558303428039 0 0.25562435719715348 0.41566745932095828 0 0.22638402477508329 0.40440780886586492 0 0.23929670148200641 0.42651558303428039 0 0.21947817947708001 0.42577831055793047 0 0.23929670148200641 0.42651558303428039 0 0.21947817947708001 0.42577831055793047 0 0.23265016418236131 0.44461914726881641 0 0.21947817947708001 0.42577831055793047 0 0.19890623541652749 0.42115079355368912 0 0.21144352365240529 0.44700262568134053 0 0.22638402477508329 0.40440780886586492 0 0.21947817947708001 0.42577831055793047 0 0.19890623541652749 0.42115079355368912 0 0.19890623541652749 0.42115079355368912 0 0.18916685095478419 0.4516810973725483 0 0.21144352365240529 0.44700262568134053 0 0.18916685095478419 0.4516810973725483 0 0.20734931543079829 0.47485905125675792 0 0.18916685095478419 0.4516810973725483 0 0.21144352365240529 0.44700262568134053 0 0.20734931543079829 0.47485905125675792 0 0.21144352365240529 0.44700262568134053 0 0.22111039645288069 0.46392735407830132 0 0.20734931543079829 0.47485905125675792 0 0.21144352365240529 0.44700262568134053 0 0.23265016418236131 0.44461914726881641 0 0.22111039645288069 0.46392735407830132 0 0.21947817947708001 0.42577831055793047 0 0.21144352365240529 0.44700262568134053 0 0.23265016418236131 0.44461914726881641 0 0.23265016418236131 0.44461914726881641 0 0.22111039645288069 0.46392735407830132 0 0.24508980140621781 0.46623513653650361 0 0.22111039645288069 0.46392735407830132 0 0.24508980140621781 0.46623513653650361 0 0.23265016418236131 0.44461914726881641 0 0.24508980140621781 0.46623513653650361 0 0.26234678177835441 0.44210518915783192 0 0.23929670148200641 0.42651558303428039 0 0.23265016418236131 0.44461914726881641 0 0.26234678177835441 0.44210518915783192 0 0.2479606543192433 0.5 0 0.23772208332050199 0.48786840683281429 0 0.2255317799068125 0.49803700514096738 0 0.2479606543192433 0.5 0 0.23772208332050199 0.48786840683281429 0 0.25513941322049821 0.48355515434954122 0 0.24508980140621781 0.46623513653650361 0 0.23688712964706901 0.4763018139788181 0 0.25513941322049821 0.48355515434954122 0 0.23772208332050199 0.48786840683281429 0 0.23688712964706901 0.4763018139788181 0 0.25513941322049821 0.48355515434954122 0 0.22111039645288069 0.46392735407830132 0 0.23688712964706901 0.4763018139788181 0 0.22537395383524639 0.47992301809693011 0 0.22537395383524639 0.47992301809693011 0 0.2255317799068125 0.49803700514096738 0 0.20734931543079829 0.47485905125675792 0 0.23772208332050199 0.48786840683281429 0 0.23688712964706901 0.4763018139788181 0 0.22537395383524639 0.47992301809693011 0 0.22111039645288069 0.46392735407830132 0 0.24508980140621781 0.46623513653650361 0 0.23688712964706901 0.4763018139788181 0 0.23772208332050199 0.48786840683281429 0 0.22537395383524639 0.47992301809693011 0 0.2255317799068125 0.49803700514096738 0 0.2479606543192433 0.5 0 0.21885338771805021 0.5 0 0.2255317799068125 0.49803700514096738 0 0.21885338771805021 0.5 0 0.2255317799068125 0.49803700514096738 0 0.20734931543079829 0.47485905125675792 0 0.21885338771805021 0.5 0 0.20734931543079829 0.47485905125675792 0 0.1897461211168571 0.5 0 0.2255317799068125 0.49803700514096738 0 0.20734931543079829 0.47485905125675792 0 0.22111039645288069 0.46392735407830132 0 0.22537395383524639 0.47992301809693011 0 0.20734931543079829 0.47485905125675792 0 0.18916685095478419 0.4516810973725483 0 0.20734931543079829 0.47485905125675792 0 0.18375498264642379 0.4799820804674747 0 0.20734931543079829 0.47485905125675792 0 0.1897461211168571 0.5 0 0.18375498264642379 0.4799820804674747 0 0.1897461211168571 0.5 0 0.1606388545156639 0.5 0 0.18375498264642379 0.4799820804674747 0 0.1606388545156639 0.5 0 0.16284299929429041 0.47286735670979418 0 0.18375498264642379 0.4799820804674747 0 0.17098438647877001 0.42850314348833868 0 0.18916685095478419 0.4516810973725483 0 0.1532788809183856 0.44756588495706878 0 0.18916685095478419 0.4516810973725483 0 0.16284299929429041 0.47286735670979418 0 0.18375498264642379 0.4799820804674747 0 0.18916685095478419 0.4516810973725483 0 0.16284299929429041 0.47286735670979418 0 0.1532788809183856 0.44756588495706878 0 0.17098438647877001 0.42850314348833868 0 0.18916685095478419 0.4516810973725483 0 0.16284299929429041 0.47286735670979418 0 0.1532788809183856 0.44756588495706878 0 0.13792901651589951 0.46760966493884959 0 0.1160915578241386 0.4641835533930308 0 0.1237280261196836 0.44463014715047522 0 0.13792901651589951 0.46760966493884959 0 0.1237280261196836 0.44463014715047522 0 0.1532788809183856 0.44756588495706878 0 0.13792901651589951 0.46760966493884959 0 0.1146358595090817 0.48605788153156299 0 0.13792901651589951 0.46760966493884959 0 0.14375381424303349 0.48699105670781317 0 0.1146358595090817 0.48605788153156299 0 0.13153158791447089 0.50000000000000033 0 0.14375381424303349 0.48699105670781317 0 0.1606388545156639 0.5 0 0.13153158791447089 0.50000000000000033 0 0.14375381424303349 0.48699105670781317 0 0.1606388545156639 0.5 0 0.16284299929429041 0.47286735670979418 0 0.14375381424303349 0.48699105670781317 0 0.16284299929429041 0.47286735670979418 0 0.13792901651589951 0.46760966493884959 0 0.14375381424303349 0.48699105670781317 0 0.35818797179075601 0.47458138126870081 0 0.34642182508771258 0.48585203466637861 0 0.33573625410597768 0.47071191077640329 0 0.35818797179075601 0.47458138126870081 0 0.34642182508771258 0.48585203466637861 0 0.35839011049240282 0.5 0 0.34642182508771258 0.48585203466637861 0 0.35839011049240282 0.5 0 0.33128271396841408 0.5 0 0.35818797179075601 0.47458138126870081 0 0.35839011049240282 0.5 0 0.37951078222479251 0.47868038482078018 0 0.35839011049240282 0.5 0 0.37951078222479251 0.47868038482078018 0 0.38549750701639152 0.5 0 0.35818797179075601 0.47458138126870081 0 0.37565915938479377 0.45849116020829678 0 0.37951078222479251 0.47868038482078018 0 0.35818797179075601 0.47458138126870081 0 0.35384759317055892 0.4558722467826386 0 0.37565915938479377 0.45849116020829678 0 0.3672128213662551 0.44140310366938379 0 0.35384759317055892 0.4558722467826386 0 0.37565915938479377 0.45849116020829678 0 0.35041805056504127 0.44039830756831011 0 0.35384759317055892 0.4558722467826386 0 0.33587130181052999 0.44964761720473639 0 0.3672128213662551 0.44140310366938379 0 0.35041805056504127 0.44039830756831011 0 0.35384759317055892 0.4558722467826386 0 0.35818797179075601 0.47458138126870081 0 0.35384759317055892 0.4558722467826386 0 0.33573625410597768 0.47071191077640329 0 0.33587130181052999 0.44964761720473639 0 0.32245641590876828 0.45710047073305682 0 0.33573625410597768 0.47071191077640329 0 0.35384759317055892 0.4558722467826386 0 0.33587130181052999 0.44964761720473639 0 0.33573625410597768 0.47071191077640329 0 0.35041805056504127 0.44039830756831011 0 0.33587130181052999 0.44964761720473639 0 0.34011375395909899 0.42827966665244982 0 0.33587130181052999 0.44964761720473639 0 0.32313042491148092 0.43915640659962429 0 0.34011375395909899 0.42827966665244982 0 0.33587130181052999 0.44964761720473639 0 0.32313042491148092 0.43915640659962429 0 0.32245641590876828 0.45710047073305682 0 0.32313042491148092 0.43915640659962429 0 0.32245641590876828 0.45710047073305682 0 0.3069723578181176 0.44921026163567479 0 0.32313042491148092 0.43915640659962429 0 0.3069723578181176 0.44921026163567479 0 0.30967478190587899 0.43248339293908478 0 0.32245641590876828 0.45710047073305682 0 0.31479002533830769 0.47294309924184441 0 0.33573625410597768 0.47071191077640329 0 0.32245641590876828 0.45710047073305682 0 0.31479002533830769 0.47294309924184441 0 0.3069723578181176 0.44921026163567479 0 0.31479002533830769 0.47294309924184441 0 0.33573625410597768 0.47071191077640329 0 0.33128271396841408 0.5 0 0.34642182508771258 0.48585203466637861 0 0.33573625410597768 0.47071191077640329 0 0.33128271396841408 0.5 0 0.31479002533830769 0.47294309924184441 0 0.33128271396841408 0.5 0 0.30417531744442527 0.5 0 0.31479002533830769 0.47294309924184441 0 0.30417531744442527 0.5 0 0.29074220063683293 0.48758109823480927 0 0.31479002533830769 0.47294309924184441 0 0.29192961584893129 0.47074300911827521 0 0.29074220063683293 0.48758109823480927 0 0.31479002533830769 0.47294309924184441 0 0.29192961584893129 0.47074300911827521 0 0.29192961584893129 0.47074300911827521 0 0.29074220063683293 0.48758109823480927 0 0.27306856363999571 0.4842714594973539 0 0.30417531744442527 0.5 0 0.29074220063683293 0.48758109823480927 0 0.27706792092043642 0.500000000000002 0 0.27706792092043642 0.500000000000002 0 0.27306856363999571 0.4842714594973539 0 0.25513941322049821 0.48355515434954122 0 0.29074220063683293 0.48758109823480927 0 0.27706792092043642 0.500000000000002 0 0.27306856363999571 0.4842714594973539 0 0.27706792092043642 0.500000000000002 0 0.27306856363999571 0.4842714594973539 0 0.29192961584893129 0.47074300911827521 0 0.26906920635955489 0.46854291899470579 0 0.27306856363999571 0.4842714594973539 0 0.25513941322049821 0.48355515434954122 0 0.26906920635955489 0.46854291899470579 0 0.29192961584893129 0.47074300911827521 0 0.27306856363999571 0.4842714594973539 0 0.26906920635955489 0.46854291899470579 0 0.27306856363999571 0.4842714594973539 0 0.26906920635955489 0.46854291899470579 0 0.24508980140621781 0.46623513653650361 0 0.25513941322049821 0.48355515434954122 0 0.26906920635955489 0.46854291899470579 0 0.2479606543192433 0.5 0 0.27706792092043642 0.500000000000002 0 0.25513941322049821 0.48355515434954122 0 0.24508980140621781 0.46623513653650361 0 0.26906920635955489 0.46854291899470579 0 0.24508980140621781 0.46623513653650361 0 0.26234678177835441 0.44210518915783192 0 0.26906920635955489 0.46854291899470579 0 0.29192961584893129 0.47074300911827521 0 0.26906920635955489 0.46854291899470579 0 0.2825318911539082 0.44937975844880462 0 0.26234678177835441 0.44210518915783192 0 0.26906920635955489 0.46854291899470579 0 0.26234678177835441 0.44210518915783192 0 0.26906920635955489 0.46854291899470579 0 0.2825318911539082 0.44937975844880462 0 0.26234678177835441 0.44210518915783192 0 0.2825318911539082 0.44937975844880462 0 0.2735489225425754 0.42398780939214897 0 0.2825318911539082 0.44937975844880462 0 0.3069723578181176 0.44921026163567479 0 0.29424437368670248 0.43173942196487358 0 0.29192961584893129 0.47074300911827521 0 0.2825318911539082 0.44937975844880462 0 0.3069723578181176 0.44921026163567479 0 0.31479002533830769 0.47294309924184441 0 0.29192961584893129 0.47074300911827521 0 0.3069723578181176 0.44921026163567479 0 0.3069723578181176 0.44921026163567479 0 0.30967478190587899 0.43248339293908478 0 0.29424437368670248 0.43173942196487358 0 0.30967478190587899 0.43248339293908478 0 0.3045281829251868 0.41996349248923659 0 0.31949857018790712 0.42234738200601463 0 0.30967478190587899 0.43248339293908478 0 0.3045281829251868 0.41996349248923659 0 0.29424437368670248 0.43173942196487358 0 0.31221380766262308 0.41141105291454111 0 0.3045281829251868 0.41996349248923659 0 0.30175255758949709 0.40539483602959481 0 0.31221380766262308 0.41141105291454111 0 0.3045281829251868 0.41996349248923659 0 0.31949857018790712 0.42234738200601463 0 0.3045281829251868 0.41996349248923659 0 0.29116822628179151 0.41527777958226658 0 0.30175255758949709 0.40539483602959481 0 0.29116822628179151 0.41527777958226658 0 0.2735489225425754 0.42398780939214897 0 0.28009549588900451 0.40671294327225221 0 0.29116822628179151 0.41527777958226658 0 0.29046685710439091 0.40365495696152731 0 0.30175255758949709 0.40539483602959481 0 0.29116822628179151 0.41527777958226658 0 0.28009549588900451 0.40671294327225221 0 0.29046685710439091 0.40365495696152731 0 0.29116822628179151 0.41527777958226658 0 0.29424437368670248 0.43173942196487358 0 0.2735489225425754 0.42398780939214897 0 0.3045281829251868 0.41996349248923659 0 0.29116822628179151 0.41527777958226658 0 0.29424437368670248 0.43173942196487358 0 0.2825318911539082 0.44937975844880462 0 0.29424437368670248 0.43173942196487358 0 0.2735489225425754 0.42398780939214897 0 0.2735489225425754 0.42398780939214897 0 0.28009549588900451 0.40671294327225221 0 0.26594594197715632 0.40587542564026857 0 0.2735489225425754 0.42398780939214897 0 0.25562435719715348 0.41566745932095828 0 0.26594594197715632 0.40587542564026857 0 0.26234678177835441 0.44210518915783192 0 0.25562435719715348 0.41566745932095828 0 0.23929670148200641 0.42651558303428039 0 0.26234678177835441 0.44210518915783192 0 0.25562435719715348 0.41566745932095828 0 0.26234678177835441 0.44210518915783192 0 0.2735489225425754 0.42398780939214897 0 0.25562435719715348 0.41566745932095828 0 0.24890193261595259 0.38922972948408457 0 0.27155900164109531 0.39377918673189899 0 0.26817635423288699 0.37969346344739391 0 0.24890193261595259 0.38922972948408457 0 0.26817635423288699 0.37969346344739391 0 0.26082178769032438 0.36496323128775521 0 0.24890193261595259 0.38922972948408457 0 0.25562435719715348 0.41566745932095828 0 0.24890193261595259 0.38922972948408457 0 0.27155900164109531 0.39377918673189899 0 0.26594594197715632 0.40587542564026857 0 0.24890193261595259 0.38922972948408457 0 0.25562435719715348 0.41566745932095828 0 0.26594594197715632 0.40587542564026857 0 0.28009549588900451 0.40671294327225221 0 0.27155900164109531 0.39377918673189899 0 0.26594594197715632 0.40587542564026857 0 0.28009549588900451 0.40671294327225221 0 0.27155900164109531 0.39377918673189899 0 0.2841626669368148 0.39603484022980262 0 0.27155900164109531 0.39377918673189899 0 0.27917556467927279 0.38707504911542251 0 0.2841626669368148 0.39603484022980262 0 0.27917556467927279 0.38707504911542251 0 0.27737653217987568 0.3763299637903077 0 0.28641533258273322 0.38531457319514678 0 0.27155900164109531 0.39377918673189899 0 0.27917556467927279 0.38707504911542251 0 0.26817635423288699 0.37969346344739391 0 0.26817635423288699 0.37969346344739391 0 0.27737653217987568 0.3763299637903077 0 0.26995518240551242 0.36922466410125959 0 0.27917556467927279 0.38707504911542251 0 0.26817635423288699 0.37969346344739391 0 0.27737653217987568 0.3763299637903077 0 0.27917556467927279 0.38707504911542251 0 0.28749669470930389 0.39059918652862902 0 0.28641533258273322 0.38531457319514678 0 0.28749669470930389 0.39059918652862902 0 0.28641533258273322 0.38531457319514678 0 0.29321390271680048 0.38636149671614523 0 0.28641533258273322 0.38531457319514678 0 0.29321390271680048 0.38636149671614523 0 0.29155132770994241 0.38145409056705559 0 0.28749669470930389 0.39059918652862902 0 0.29321390271680048 0.38636149671614523 0 0.2951553388248469 0.39485438569372039 0 0.29321390271680048 0.38636149671614523 0 0.2951553388248469 0.39485438569372039 0 0.30172663999730548 0.38411556817588999 0 0.2951337916801352 0.37545299726164849 0 0.29155132770994241 0.38145409056705559 0 0.29028041611347422 0.37131190521640561 0 0.29650911823343812 0.38027524721939082 0 0.2951337916801352 0.37545299726164849 0 0.29155132770994241 0.38145409056705559 0 0.29321390271680048 0.38636149671614523 0 0.29650911823343812 0.38027524721939082 0 0.29155132770994241 0.38145409056705559 0 0.28009549588900451 0.40671294327225221 0 0.2841626669368148 0.39603484022980262 0 0.29046685710439091 0.40365495696152731 0 0.27917556467927279 0.38707504911542251 0 0.28749669470930389 0.39059918652862902 0 0.2841626669368148 0.39603484022980262 0 0.28749669470930389 0.39059918652862902 0 0.2841626669368148 0.39603484022980262 0 0.2951553388248469 0.39485438569372039 0 0.2841626669368148 0.39603484022980262 0 0.2951553388248469 0.39485438569372039 0 0.29046685710439091 0.40365495696152731 0 0.2951553388248469 0.39485438569372039 0 0.29046685710439091 0.40365495696152731 0 0.30175255758949709 0.40539483602959481 0 0.2951553388248469 0.39485438569372039 0 0.30416997859767031 0.39496190780794832 0 0.30172663999730548 0.38411556817588999 0 0.2951553388248469 0.39485438569372039 0 0.30175255758949709 0.40539483602959481 0 0.30416997859767031 0.39496190780794832 0 0.30416997859767031 0.39496190780794832 0 0.31194754139156228 0.39992908639018659 0 0.31058504665001713 0.38993607806902841 0 0.31221380766262308 0.41141105291454111 0 0.30175255758949709 0.40539483602959481 0 0.31194754139156228 0.39992908639018659 0 0.30175255758949709 0.40539483602959481 0 0.30416997859767031 0.39496190780794832 0 0.31194754139156228 0.39992908639018659 0 0.29650911823343812 0.38027524721939082 0 0.30172663999730548 0.38411556817588999 0 0.30091992906300691 0.3739920833762147 0 0.30172663999730548 0.38411556817588999 0 0.31077839752677883 0.37658419253607489 0 0.30091992906300691 0.3739920833762147 0 0.29650911823343812 0.38027524721939082 0 0.2951337916801352 0.37545299726164849 0 0.30091992906300691 0.3739920833762147 0 0.29321390271680048 0.38636149671614523 0 0.29650911823343812 0.38027524721939082 0 0.30172663999730548 0.38411556817588999 0 0.30416997859767031 0.39496190780794832 0 0.30172663999730548 0.38411556817588999 0 0.31058504665001713 0.38993607806902841 0 0.30172663999730548 0.38411556817588999 0 0.31058504665001713 0.38993607806902841 0 0.31077839752677883 0.37658419253607489 0 0.31077839752677883 0.37658419253607489 0 0.31867525833463911 0.38494833593070971 0 0.32306703930603953 0.37623237809600169 0 0.31058504665001713 0.38993607806902841 0 0.31867525833463911 0.38494833593070971 0 0.31878199461777879 0.39362573130725731 0 0.31058504665001713 0.38993607806902841 0 0.31077839752677883 0.37658419253607489 0 0.31867525833463911 0.38494833593070971 0 0.31867525833463911 0.38494833593070971 0 0.32306703930603953 0.37623237809600169 0 0.32934203852673438 0.38871677178939867 0 0.31867525833463911 0.38494833593070971 0 0.32934203852673438 0.38871677178939867 0 0.31878199461777879 0.39362573130725731 0 0.32306703930603953 0.37623237809600169 0 0.33555471090824662 0.37714848622012531 0 0.32934203852673438 0.38871677178939867 0 0.33555471090824662 0.37714848622012531 0 0.32934203852673438 0.38871677178939867 0 0.34865402358820241 0.38746960960344728 0 0.32934203852673438 0.38871677178939867 0 0.33838050486014071 0.40132571833470809 0 0.34865402358820241 0.38746960960344728 0 0.32934203852673438 0.38871677178939867 0 0.33838050486014071 0.40132571833470809 0 0.32336008818594092 0.40459838435696299 0 0.32934203852673438 0.38871677178939867 0 0.32336008818594092 0.40459838435696299 0 0.31878199461777879 0.39362573130725731 0 0.31194754139156228 0.39992908639018659 0 0.31058504665001713 0.38993607806902841 0 0.31878199461777879 0.39362573130725731 0 0.31221380766262308 0.41141105291454111 0 0.31194754139156228 0.39992908639018659 0 0.32336008818594092 0.40459838435696299 0 0.31194754139156228 0.39992908639018659 0 0.32336008818594092 0.40459838435696299 0 0.31878199461777879 0.39362573130725731 0 0.31221380766262308 0.41141105291454111 0 0.32336008818594092 0.40459838435696299 0 0.31949857018790712 0.42234738200601463 0 0.32336008818594092 0.40459838435696299 0 0.31949857018790712 0.42234738200601463 0 0.33335541567677851 0.41413927737501682 0 0.32313042491148092 0.43915640659962429 0 0.31949857018790712 0.42234738200601463 0 0.34011375395909899 0.42827966665244982 0 0.32313042491148092 0.43915640659962429 0 0.30967478190587899 0.43248339293908478 0 0.31949857018790712 0.42234738200601463 0 0.31949857018790712 0.42234738200601463 0 0.34011375395909899 0.42827966665244982 0 0.33335541567677851 0.41413927737501682 0 0.34011375395909899 0.42827966665244982 0 0.33335541567677851 0.41413927737501682 0 0.35251535500997389 0.4097633894025835 0 0.33838050486014071 0.40132571833470809 0 0.33335541567677851 0.41413927737501682 0 0.35251535500997389 0.4097633894025835 0 0.33838050486014071 0.40132571833470809 0 0.32336008818594092 0.40459838435696299 0 0.33335541567677851 0.41413927737501682 0 0.34011375395909899 0.42827966665244982 0 0.35251535500997389 0.4097633894025835 0 0.3591301267131588 0.42602683944016839 0 0.3672128213662551 0.44140310366938379 0 0.35041805056504127 0.44039830756831011 0 0.3591301267131588 0.42602683944016839 0 0.35041805056504127 0.44039830756831011 0 0.34011375395909899 0.42827966665244982 0 0.3591301267131588 0.42602683944016839 0 0.3672128213662551 0.44140310366938379 0 0.3591301267131588 0.42602683944016839 0 0.37786999239799629 0.42201923841731348 0 0.3591301267131588 0.42602683944016839 0 0.36674031876838431 0.41287021939491358 0 0.37786999239799629 0.42201923841731348 0 0.35251535500997389 0.4097633894025835 0 0.36674031876838431 0.41287021939491358 0 0.36672310374365391 0.3972274770167053 0 0.36674031876838431 0.41287021939491358 0 0.37714557779446961 0.40580011292323048 0 0.37786999239799629 0.42201923841731348 0 0.35251535500997389 0.4097633894025835 0 0.3591301267131588 0.42602683944016839 0 0.36674031876838431 0.41287021939491358 0 0.36674031876838431 0.41287021939491358 0 0.36672310374365391 0.3972274770167053 0 0.37714557779446961 0.40580011292323048 0 0.36672310374365391 0.3972274770167053 0 0.34865402358820241 0.38746960960344728 0 0.36927583114563117 0.37168826674887129 0 0.36672310374365391 0.3972274770167053 0 0.36927583114563117 0.37168826674887129 0 0.38594138320053972 0.39504117240748449 0 0.34865402358820241 0.38746960960344728 0 0.34769055634412588 0.36745966958429022 0 0.36927583114563117 0.37168826674887129 0 0.33555471090824662 0.37714848622012531 0 0.34865402358820241 0.38746960960344728 0 0.34769055634412588 0.36745966958429022 0 0.35251535500997389 0.4097633894025835 0 0.36672310374365391 0.3972274770167053 0 0.34865402358820241 0.38746960960344728 0 0.33838050486014071 0.40132571833470809 0 0.35251535500997389 0.4097633894025835 0 0.34865402358820241 0.38746960960344728 0 0.35261027909072251 0.34833536109025781 0 0.34769055634412588 0.36745966958429022 0 0.33944519881702218 0.35670643516570921 0 0.35261027909072251 0.34833536109025781 0 0.34769055634412588 0.36745966958429022 0 0.36927583114563117 0.37168826674887129 0 0.35261027909072251 0.34833536109025781 0 0.36927583114563117 0.37168826674887129 0 0.35261027909072251 0.34833536109025781 0 0.36927583114563117 0.37168826674887129 0 0.38014707859742553 0.358601566133181 0 0.35261027909072251 0.34833536109025781 0 0.37418757138316661 0.34003979241565702 0 0.38014707859742553 0.358601566133181 0 0.37418757138316661 0.34003979241565702 0 0.36114413796306788 0.32433110896381118 0 0.38634354889032002 0.32367976249598251 0 0.35261027909072251 0.34833536109025781 0 0.37418757138316661 0.34003979241565702 0 0.36114413796306788 0.32433110896381118 0 0.36114413796306788 0.32433110896381118 0 0.38634354889032002 0.32367976249598251 0 0.36114413796306788 0.32433110896381118 0 0.36246687595182442 0.30494518477727961 0 0.38634354889032002 0.32367976249598251 0 0.36114413796306788 0.32433110896381118 0 0.33594472703581602 0.32498245543164278 0 0.36114413796306788 0.32433110896381118 0 0.33594472703581602 0.32498245543164278 0 0.34448717235649018 0.30756264321984922 0 0.35261027909072251 0.34833536109025781 0 0.36114413796306788 0.32433110896381118 0 0.33594472703581602 0.32498245543164278 0 0.35261027909072251 0.34833536109025781 0 0.33594472703581602 0.32498245543164278 0 0.35261027909072251 0.34833536109025781 0 0.33361265820108371 0.33601463685995558 0 0.33594472703581602 0.32498245543164278 0 0.35261027909072251 0.34833536109025781 0 0.33361265820108371 0.33601463685995558 0 0.33117650937159632 0.34590223044488833 0 0.33361265820108371 0.33601463685995558 0 0.33594472703581602 0.32498245543164278 0 0.32592845192929348 0.32524135296818618 0 0.33361265820108371 0.33601463685995558 0 0.32240332357799001 0.33561178436480271 0 0.33117650937159632 0.34590223044488833 0 0.33594472703581602 0.32498245543164278 0 0.32420479997372442 0.30853167071016102 0 0.33594472703581602 0.32498245543164278 0 0.32592845192929348 0.32524135296818618 0 0.32420479997372442 0.30853167071016102 0 0.33594472703581602 0.32498245543164278 0 0.32420479997372442 0.30853167071016102 0 0.34448717235649018 0.30756264321984922 0 0.33594472703581602 0.32498245543164278 0 0.32592845192929348 0.32524135296818618 0 0.32592845192929348 0.32524135296818618 0 0.31778971146991503 0.31788997842391498 0 0.32420479997372442 0.30853167071016102 0 0.32592845192929348 0.32524135296818618 0 0.31591730865868939 0.32743152395768732 0 0.31778971146991503 0.31788997842391498 0 0.31591730865868939 0.32743152395768732 0 0.31778971146991503 0.31788997842391498 0 0.30920411140212778 0.3196886032463338 0 0.32240332357799001 0.33561178436480271 0 0.31863003654071292 0.34601962911411782 0 0.33117650937159632 0.34590223044488833 0 0.33361265820108371 0.33601463685995558 0 0.32592845192929348 0.32524135296818618 0 0.32240332357799001 0.33561178436480271 0 0.32592845192929348 0.32524135296818618 0 0.31591730865868939 0.32743152395768732 0 0.32240332357799001 0.33561178436480271 0 0.31591730865868939 0.32743152395768732 0 0.32240332357799001 0.33561178436480271 0 0.31164832743931292 0.33689503642828789 0 0.32240332357799001 0.33561178436480271 0 0.31863003654071292 0.34601962911411782 0 0.31164832743931292 0.33689503642828789 0 0.31863003654071292 0.34601962911411782 0 0.30992842843050988 0.3457112388019602 0 0.31164832743931292 0.33689503642828789 0 0.31863003654071292 0.34601962911411782 0 0.30992842843050988 0.3457112388019602 0 0.31160887743439081 0.35478490180041172 0 0.32445766980723489 0.35579424438156659 0 0.31686549990355672 0.36548826773678422 0 0.31160887743439081 0.35478490180041172 0 0.31863003654071292 0.34601962911411782 0 0.32445766980723489 0.35579424438156659 0 0.31160887743439081 0.35478490180041172 0 0.31863003654071292 0.34601962911411782 0 0.32445766980723489 0.35579424438156659 0 0.33117650937159632 0.34590223044488833 0 0.35261027909072251 0.34833536109025781 0 0.33117650937159632 0.34590223044488833 0 0.33944519881702218 0.35670643516570921 0 0.32445766980723489 0.35579424438156659 0 0.33117650937159632 0.34590223044488833 0 0.33944519881702218 0.35670643516570921 0 0.33555471090824662 0.37714848622012531 0 0.34769055634412588 0.36745966958429022 0 0.3290198967761308 0.36586400202748842 0 0.34769055634412588 0.36745966958429022 0 0.33944519881702218 0.35670643516570921 0 0.3290198967761308 0.36586400202748842 0 0.32445766980723489 0.35579424438156659 0 0.33944519881702218 0.35670643516570921 0 0.3290198967761308 0.36586400202748842 0 0.32306703930603953 0.37623237809600169 0 0.33555471090824662 0.37714848622012531 0 0.3290198967761308 0.36586400202748842 0 0.32306703930603953 0.37623237809600169 0 0.3290198967761308 0.36586400202748842 0 0.31686549990355672 0.36548826773678422 0 0.32445766980723489 0.35579424438156659 0 0.3290198967761308 0.36586400202748842 0 0.31686549990355672 0.36548826773678422 0 0.31077839752677883 0.37658419253607489 0 0.32306703930603953 0.37623237809600169 0 0.31686549990355672 0.36548826773678422 0 0.31077839752677883 0.37658419253607489 0 0.30653952356419251 0.36486132392814918 0 0.30091992906300691 0.3739920833762147 0 0.31077839752677883 0.37658419253607489 0 0.31686549990355672 0.36548826773678422 0 0.30653952356419251 0.36486132392814918 0 0.31686549990355672 0.36548826773678422 0 0.30653952356419251 0.36486132392814918 0 0.31160887743439081 0.35478490180041172 0 0.30653952356419251 0.36486132392814918 0 0.29956039950038399 0.36055845947794762 0 0.29968882481084308 0.36620473963642819 0 0.30653952356419251 0.36486132392814918 0 0.29956039950038399 0.36055845947794762 0 0.30450437459886343 0.35739179545954242 0 0.29956039950038399 0.36055845947794762 0 0.29968882481084308 0.36620473963642819 0 0.2946843591870788 0.36349444767638139 0 0.29968882481084308 0.36620473963642819 0 0.30091992906300691 0.3739920833762147 0 0.29515321138997108 0.36891281366618561 0 0.30653952356419251 0.36486132392814918 0 0.29968882481084308 0.36620473963642819 0 0.30091992906300691 0.3739920833762147 0 0.2951337916801352 0.37545299726164849 0 0.30091992906300691 0.3739920833762147 0 0.29515321138997108 0.36891281366618561 0 0.30992842843050988 0.3457112388019602 0 0.31160887743439081 0.35478490180041172 0 0.30300584901730271 0.34938636887413438 0 0.30992842843050988 0.3457112388019602 0 0.30300584901730271 0.34938636887413438 0 0.30284961949963451 0.34180688944884569 0 0.31160887743439081 0.35478490180041172 0 0.30450437459886343 0.35739179545954242 0 0.30300584901730271 0.34938636887413438 0 0.30653952356419251 0.36486132392814918 0 0.31160887743439081 0.35478490180041172 0 0.30450437459886343 0.35739179545954242 0 0.30450437459886343 0.35739179545954242 0 0.29772286606791931 0.35422336501427332 0 0.30300584901730271 0.34938636887413438 0 0.29956039950038399 0.36055845947794762 0 0.30450437459886343 0.35739179545954242 0 0.29772286606791931 0.35422336501427332 0 0.29772286606791931 0.35422336501427332 0 0.30300584901730271 0.34938636887413438 0 0.29508057650716829 0.34607515835053693 0 0.30300584901730271 0.34938636887413438 0 0.29508057650716829 0.34607515835053693 0 0.30284961949963451 0.34180688944884569 0 0.29508057650716829 0.34607515835053693 0 0.29128433478161492 0.3514692197730912 0 0.28696318970460172 0.34507386829548542 0 0.29772286606791931 0.35422336501427332 0 0.29508057650716829 0.34607515835053693 0 0.29128433478161492 0.3514692197730912 0 0.29128433478161492 0.3514692197730912 0 0.29260686737414288 0.35803349489433017 0 0.28831593146678952 0.35482697607295582 0 0.29772286606791931 0.35422336501427332 0 0.29128433478161492 0.3514692197730912 0 0.29260686737414288 0.35803349489433017 0 0.29956039950038399 0.36055845947794762 0 0.29772286606791931 0.35422336501427332 0 0.29260686737414288 0.35803349489433017 0 0.29260686737414288 0.35803349489433017 0 0.28714468874269172 0.35854684035017659 0 0.29097547274489571 0.36086700820637557 0 0.29260686737414288 0.35803349489433017 0 0.28714468874269172 0.35854684035017659 0 0.28831593146678952 0.35482697607295582 0 0.28714468874269172 0.35854684035017659 0 0.28946597567566928 0.3633932499046143 0 0.27836960746308909 0.35599853724874359 0 0.28714468874269172 0.35854684035017659 0 0.28392422607346179 0.35383006020545288 0 0.27836960746308909 0.35599853724874359 0 0.28714468874269172 0.35854684035017659 0 0.28392422607346179 0.35383006020545288 0 0.28831593146678952 0.35482697607295582 0 0.28392422607346179 0.35383006020545288 0 0.28273558166129192 0.34922596943765521 0 0.28101653893848899 0.35208327708388421 0 0.28392422607346179 0.35383006020545288 0 0.28831593146678952 0.35482697607295582 0 0.2863539578433606 0.35136140079780598 0 0.29128433478161492 0.3514692197730912 0 0.28831593146678952 0.35482697607295582 0 0.2863539578433606 0.35136140079780598 0 0.29128433478161492 0.3514692197730912 0 0.2863539578433606 0.35136140079780598 0 0.28696318970460172 0.34507386829548542 0 0.2863539578433606 0.35136140079780598 0 0.28273558166129192 0.34922596943765521 0 0.28696318970460172 0.34507386829548542 0 0.28392422607346179 0.35383006020545288 0 0.2863539578433606 0.35136140079780598 0 0.28273558166129192 0.34922596943765521 0 0.28696318970460172 0.34507386829548542 0 0.28013569367420871 0.34584772387197749 0 0.28119375649751349 0.3415044430455576 0 0.28273558166129192 0.34922596943765521 0 0.28696318970460172 0.34507386829548542 0 0.28013569367420871 0.34584772387197749 0 0.29155132770994241 0.38145409056705559 0 0.29028041611347422 0.37131190521640561 0 0.27836960746308909 0.35599853724874359 0 0.28641533258273322 0.38531457319514678 0 0.29155132770994241 0.38145409056705559 0 0.2754302243437341 0.35800137086985789 0 0.29155132770994241 0.38145409056705559 0 0.2754302243437341 0.35800137086985789 0 0.27836960746308909 0.35599853724874359 0 0.29155132770994241 0.38145409056705559 0 0.27836960746308909 0.35599853724874359 0 0.29028041611347422 0.37131190521640561 0 0.29515321138997108 0.36891281366618561 0 0.28946597567566928 0.3633932499046143 0 0.2951337916801352 0.37545299726164849 0 0.29028041611347422 0.37131190521640561 0 0.29515321138997108 0.36891281366618561 0 0.29968882481084308 0.36620473963642819 0 0.29515321138997108 0.36891281366618561 0 0.2946843591870788 0.36349444767638139 0 0.29515321138997108 0.36891281366618561 0 0.2946843591870788 0.36349444767638139 0 0.28946597567566928 0.3633932499046143 0 0.29956039950038399 0.36055845947794762 0 0.29260686737414288 0.35803349489433017 0 0.2946843591870788 0.36349444767638139 0 0.28714468874269172 0.35854684035017659 0 0.29097547274489571 0.36086700820637557 0 0.28946597567566928 0.3633932499046143 0 0.2946843591870788 0.36349444767638139 0 0.29097547274489571 0.36086700820637557 0 0.28946597567566928 0.3633932499046143 0 0.29260686737414288 0.35803349489433017 0 0.2946843591870788 0.36349444767638139 0 0.29097547274489571 0.36086700820637557 0 0.29028041611347422 0.37131190521640561 0 0.28946597567566928 0.3633932499046143 0 0.27836960746308909 0.35599853724874359 0 0.28641533258273322 0.38531457319514678 0 0.2754302243437341 0.35800137086985789 0 0.27737653217987568 0.3763299637903077 0 0.28641533258273322 0.38531457319514678 0 0.2754302243437341 0.35800137086985789 0 0.27737653217987568 0.3763299637903077 0 0.27292546410526491 0.36629585246079138 0 0.2754302243437341 0.35800137086985789 0 0.27737653217987568 0.3763299637903077 0 0.26995518240551242 0.36922466410125959 0 0.27292546410526491 0.36629585246079138 0 0.26817635423288699 0.37969346344739391 0 0.26995518240551242 0.36922466410125959 0 0.26082178769032438 0.36496323128775521 0 0.26995518240551242 0.36922466410125959 0 0.26893991749193752 0.36162741108174062 0 0.26082178769032438 0.36496323128775521 0 0.26893991749193752 0.36162741108174062 0 0.27292546410526491 0.36629585246079138 0 0.2754302243437341 0.35800137086985789 0 0.26995518240551242 0.36922466410125959 0 0.26893991749193752 0.36162741108174062 0 0.27292546410526491 0.36629585246079138 0 0.2754302243437341 0.35800137086985789 0 0.26518788721623437 0.33054298393043219 0 0.2754302243437341 0.35800137086985789 0 0.27836960746308909 0.35599853724874359 0 0.26518788721623437 0.33054298393043219 0 0.2754302243437341 0.35800137086985789 0 0.26469999689944002 0.35285812485780471 0 0.26518788721623437 0.33054298393043219 0 0.27836960746308909 0.35599853724874359 0 0.28101653893848899 0.35208327708388421 0 0.2797945401242129 0.34946851842389731 0 0.28392422607346179 0.35383006020545288 0 0.27836960746308909 0.35599853724874359 0 0.28101653893848899 0.35208327708388421 0 0.27836960746308909 0.35599853724874359 0 0.2797945401242129 0.34946851842389731 0 0.27671527888398562 0.3441870844772259 0 0.28013569367420871 0.34584772387197749 0 0.2797945401242129 0.34946851842389731 0 0.27671527888398562 0.3441870844772259 0 0.28013569367420871 0.34584772387197749 0 0.27671527888398562 0.3441870844772259 0 0.28119375649751349 0.3415044430455576 0 0.28273558166129192 0.34922596943765521 0 0.28013569367420871 0.34584772387197749 0 0.2797945401242129 0.34946851842389731 0 0.28273558166129192 0.34922596943765521 0 0.28101653893848899 0.35208327708388421 0 0.2797945401242129 0.34946851842389731 0 0.26893991749193752 0.36162741108174062 0 0.2754302243437341 0.35800137086985789 0 0.26469999689944002 0.35285812485780471 0 0.26469999689944002 0.35285812485780471 0 0.25397109136889212 0.34953950795812871 0 0.26518788721623437 0.33054298393043219 0 0.26469999689944002 0.35285812485780471 0 0.25397109136889212 0.34953950795812871 0 0.26082178769032438 0.36496323128775521 0 0.24217950803475169 0.36279199964721098 0 0.25397109136889212 0.34953950795812871 0 0.26082178769032438 0.36496323128775521 0 0.24217950803475169 0.36279199964721098 0 0.24890193261595259 0.38922972948408457 0 0.26082178769032438 0.36496323128775521 0 0.26893991749193752 0.36162741108174062 0 0.26469999689944002 0.35285812485780471 0 0.26082178769032438 0.36496323128775521 0 0.26160037477145948 0.32361504792451118 0 0.26961523156275707 0.31863310602586059 0 0.25252005129033422 0.30103787280496203 0 0.24833100513142109 0.32161764704062729 0 0.26160037477145948 0.32361504792451118 0 0.26518788721623437 0.33054298393043219 0 0.24963775202771521 0.30051372462394288 0 0.24833100513142109 0.32161764704062729 0 0.26160037477145948 0.32361504792451118 0 0.26160037477145948 0.32361504792451118 0 0.26518788721623437 0.33054298393043219 0 0.26731122343739822 0.32545953491366858 0 0.26160037477145948 0.32361504792451118 0 0.26518788721623437 0.33054298393043219 0 0.2354570834535519 0.33635426981033711 0 0.26518788721623437 0.33054298393043219 0 0.2354570834535519 0.33635426981033711 0 0.25397109136889212 0.34953950795812871 0 0.26518788721623437 0.33054298393043219 0 0.27836960746308909 0.35599853724874359 0 0.27671527888398562 0.3441870844772259 0 0.26518788721623437 0.33054298393043219 0 0.26518788721623437 0.33054298393043219 0 0.2728414001991406 0.32904700177387047 0 0.26518788721623437 0.33054298393043219 0 0.2728414001991406 0.32904700177387047 0 0.26731122343739822 0.32545953491366858 0 0.27836960746308909 0.35599853724874359 0 0.26518788721623437 0.33054298393043219 0 0.26518788721623437 0.33054298393043219 0 0.2728414001991406 0.32904700177387047 0 0.27786043041236869 0.33471626715991409 0 0.27671527888398562 0.3441870844772259 0 0.26518788721623437 0.33054298393043219 0 0.27786043041236869 0.33471626715991409 0 0.27671527888398562 0.3441870844772259 0 0.28119375649751349 0.3415044430455576 0 0.27786043041236869 0.33471626715991409 0 0.2728414001991406 0.32904700177387047 0 0.27786043041236869 0.33471626715991409 0 0.27936204924768121 0.32498307102898349 0 0.27786043041236869 0.33471626715991409 0 0.27936204924768121 0.32498307102898349 0 0.28525590824973168 0.33019860290154568 0 0.2728414001991406 0.32904700177387047 0 0.27936204924768121 0.32498307102898349 0 0.26961523156275707 0.31863310602586059 0 0.2728414001991406 0.32904700177387047 0 0.26731122343739822 0.32545953491366858 0 0.26961523156275707 0.31863310602586059 0 0.26160037477145948 0.32361504792451118 0 0.26731122343739822 0.32545953491366858 0 0.26961523156275707 0.31863310602586059 0 0.27936204924768121 0.32498307102898349 0 0.26961523156275707 0.31863310602586059 0 0.28133089707177739 0.31565660162935461 0 0.26961523156275707 0.31863310602586059 0 0.28133089707177739 0.31565660162935461 0 0.27162220014601168 0.30819847959926649 0 0.28133089707177739 0.31565660162935461 0 0.28926842799031183 0.32164684668335553 0 0.29289622389348391 0.31173450207074938 0 0.27936204924768121 0.32498307102898349 0 0.28926842799031183 0.32164684668335553 0 0.28525590824973168 0.33019860290154568 0 0.27936204924768121 0.32498307102898349 0 0.28133089707177739 0.31565660162935461 0 0.28926842799031183 0.32164684668335553 0 0.28926842799031183 0.32164684668335553 0 0.29270679870612148 0.33133919612790758 0 0.29864702146159328 0.32643954785611667 0 0.28926842799031183 0.32164684668335553 0 0.28525590824973168 0.33019860290154568 0 0.29270679870612148 0.33133919612790758 0 0.28926842799031183 0.32164684668335553 0 0.30057412006284873 0.3182848580649148 0 0.29864702146159328 0.32643954785611667 0 0.28926842799031183 0.32164684668335553 0 0.30057412006284873 0.3182848580649148 0 0.29289622389348391 0.31173450207074938 0 0.28696318970460172 0.34507386829548542 0 0.28119375649751349 0.3415044430455576 0 0.28563489893157912 0.33697664508827291 0 0.28696318970460172 0.34507386829548542 0 0.28563489893157912 0.33697664508827291 0 0.29440715639490739 0.33866623850310912 0 0.28119375649751349 0.3415044430455576 0 0.27786043041236869 0.33471626715991409 0 0.28563489893157912 0.33697664508827291 0 0.28563489893157912 0.33697664508827291 0 0.28525590824973168 0.33019860290154568 0 0.29270679870612148 0.33133919612790758 0 0.27786043041236869 0.33471626715991409 0 0.28563489893157912 0.33697664508827291 0 0.28525590824973168 0.33019860290154568 0 0.29270679870612148 0.33133919612790758 0 0.29440715639490739 0.33866623850310912 0 0.30302737920860612 0.33410729573504611 0 0.28563489893157912 0.33697664508827291 0 0.29270679870612148 0.33133919612790758 0 0.29440715639490739 0.33866623850310912 0 0.29508057650716829 0.34607515835053693 0 0.28696318970460172 0.34507386829548542 0 0.29440715639490739 0.33866623850310912 0 0.29508057650716829 0.34607515835053693 0 0.29440715639490739 0.33866623850310912 0 0.30284961949963451 0.34180688944884569 0 0.29440715639490739 0.33866623850310912 0 0.30284961949963451 0.34180688944884569 0 0.30302737920860612 0.33410729573504611 0 0.29270679870612148 0.33133919612790758 0 0.30302737920860612 0.33410729573504611 0 0.29864702146159328 0.32643954785611667 0 0.30302737920860612 0.33410729573504611 0 0.29864702146159328 0.32643954785611667 0 0.30648676239126638 0.32698903389663531 0 0.30302737920860612 0.33410729573504611 0 0.31164832743931292 0.33689503642828789 0 0.30648676239126638 0.32698903389663531 0 0.31591730865868939 0.32743152395768732 0 0.31164832743931292 0.33689503642828789 0 0.30648676239126638 0.32698903389663531 0 0.30284961949963451 0.34180688944884569 0 0.30302737920860612 0.33410729573504611 0 0.31164832743931292 0.33689503642828789 0 0.30992842843050988 0.3457112388019602 0 0.30284961949963451 0.34180688944884569 0 0.31164832743931292 0.33689503642828789 0 0.30057412006284873 0.3182848580649148 0 0.3075048900192453 0.30846754722968978 0 0.29289622389348391 0.31173450207074938 0 0.30057412006284873 0.3182848580649148 0 0.29864702146159328 0.32643954785611667 0 0.30648676239126638 0.32698903389663531 0 0.30057412006284873 0.3182848580649148 0 0.30648676239126638 0.32698903389663531 0 0.30920411140212778 0.3196886032463338 0 0.31591730865868939 0.32743152395768732 0 0.30648676239126638 0.32698903389663531 0 0.30920411140212778 0.3196886032463338 0 0.30057412006284873 0.3182848580649148 0 0.30920411140212778 0.3196886032463338 0 0.3075048900192453 0.30846754722968978 0 0.31778971146991503 0.31788997842391498 0 0.30920411140212778 0.3196886032463338 0 0.3075048900192453 0.30846754722968978 0 0.3075048900192453 0.30846754722968978 0 0.29694347339530303 0.29848366127231912 0 0.31246487291163488 0.29208088598867771 0 0.3075048900192453 0.30846754722968978 0 0.29694347339530303 0.29848366127231912 0 0.29289622389348391 0.31173450207074938 0 0.31246487291163488 0.29208088598867771 0 0.29888580149873889 0.28140566667868477 0 0.31966717048778492 0.28020807462702291 0 0.29694347339530303 0.29848366127231912 0 0.31246487291163488 0.29208088598867771 0 0.29888580149873889 0.28140566667868477 0 0.29694347339530303 0.29848366127231912 0 0.29888580149873889 0.28140566667868477 0 0.28532215262680061 0.29218967158653381 0 0.29888580149873889 0.28140566667868477 0 0.28532215262680061 0.29218967158653381 0 0.27597263544757811 0.27926985653850322 0 0.29694347339530303 0.29848366127231912 0 0.29289622389348391 0.31173450207074938 0 0.28421062956037713 0.3046253325656294 0 0.29694347339530303 0.29848366127231912 0 0.28532215262680061 0.29218967158653381 0 0.28421062956037713 0.3046253325656294 0 0.28133089707177739 0.31565660162935461 0 0.29289622389348391 0.31173450207074938 0 0.28421062956037713 0.3046253325656294 0 0.28133089707177739 0.31565660162935461 0 0.28421062956037713 0.3046253325656294 0 0.27162220014601168 0.30819847959926649 0 0.28421062956037713 0.3046253325656294 0 0.27162220014601168 0.30819847959926649 0 0.27073357959762612 0.29469717476731772 0 0.28532215262680061 0.29218967158653381 0 0.28421062956037713 0.3046253325656294 0 0.27073357959762612 0.29469717476731772 0 0.27073357959762612 0.29469717476731772 0 0.25964825064670849 0.2811944406245902 0 0.27597263544757811 0.27926985653850322 0 0.28532215262680061 0.29218967158653381 0 0.27073357959762612 0.29469717476731772 0 0.27597263544757811 0.27926985653850322 0 0.2434397278092077 0.27846069768541332 0 0.25252005129033422 0.30103787280496203 0 0.25964825064670849 0.2811944406245902 0 0.27073357959762612 0.29469717476731772 0 0.25252005129033422 0.30103787280496203 0 0.25964825064670849 0.2811944406245902 0 0.24963775202771521 0.30051372462394288 0 0.26160037477145948 0.32361504792451118 0 0.26160037477145948 0.32361504792451118 0 0.25252005129033422 0.30103787280496203 0 0.24963775202771521 0.30051372462394288 0 0.26160037477145948 0.32361504792451118 0 0.25252005129033422 0.30103787280496203 0 0.27162220014601168 0.30819847959926649 0 0.27073357959762612 0.29469717476731772 0 0.25252005129033422 0.30103787280496203 0 0.26961523156275707 0.31863310602586059 0 0.27162220014601168 0.30819847959926649 0 0.25252005129033422 0.30103787280496203 0 0.26005695654466249 0.26476207857526007 0 0.25877170878786238 0.25302463852503437 0 0.26784118605052742 0.25766384122118591 0 0.26005695654466249 0.26476207857526007 0 0.26877199542094288 0.271185286046489 0 0.26784118605052742 0.25766384122118591 0 0.24763005152173001 0.25910176257370959 0 0.26005695654466249 0.26476207857526007 0 0.25877170878786238 0.25302463852503437 0 0.26005695654466249 0.26476207857526007 0 0.25964825064670849 0.2811944406245902 0 0.26877199542094288 0.271185286046489 0 0.2434397278092077 0.27846069768541332 0 0.26005695654466249 0.26476207857526007 0 0.25964825064670849 0.2811944406245902 0 0.2434397278092077 0.27846069768541332 0 0.24763005152173001 0.25910176257370959 0 0.26005695654466249 0.26476207857526007 0 0.25964825064670849 0.2811944406245902 0 0.26877199542094288 0.271185286046489 0 0.27597263544757811 0.27926985653850322 0 0.26877199542094288 0.271185286046489 0 0.27597263544757811 0.27926985653850322 0 0.27647749418933931 0.26389562134405542 0 0.27597263544757811 0.27926985653850322 0 0.27647749418933931 0.26389562134405542 0 0.28921799240021828 0.26815650339571012 0 0.27647749418933931 0.26389562134405542 0 0.27542464597538868 0.25681776053554017 0 0.28272693040926428 0.25881526167589219 0 0.27647749418933931 0.26389562134405542 0 0.26784118605052742 0.25766384122118591 0 0.27542464597538868 0.25681776053554017 0 0.26877199542094288 0.271185286046489 0 0.27647749418933931 0.26389562134405542 0 0.26784118605052742 0.25766384122118591 0 0.26784118605052742 0.25766384122118591 0 0.27542464597538868 0.25681776053554017 0 0.27283394916361492 0.24742619336605559 0 0.25877170878786238 0.25302463852503437 0 0.26784118605052742 0.25766384122118591 0 0.27283394916361492 0.24742619336605559 0 0.27542464597538868 0.25681776053554017 0 0.28272693040926428 0.25881526167589219 0 0.27283394916361492 0.24742619336605559 0 0.28272693040926428 0.25881526167589219 0 0.29968057031776052 0.25778022973809978 0 0.27283394916361492 0.24742619336605559 0 0.28272693040926428 0.25881526167589219 0 0.28921799240021828 0.26815650339571012 0 0.29968057031776052 0.25778022973809978 0 0.29968057031776052 0.25778022973809978 0 0.27283394916361492 0.24742619336605559 0 0.29968057031776052 0.25778022973809978 0 0.27283394916361492 0.24742619336605559 0 0.3016365876598241 0.24719201463661561 0 0.27647749418933931 0.26389562134405542 0 0.28272693040926428 0.25881526167589219 0 0.28921799240021828 0.26815650339571012 0 0.28921799240021828 0.26815650339571012 0 0.29917140266547992 0.2696271248040239 0 0.29968057031776052 0.25778022973809978 0 0.29888580149873889 0.28140566667868477 0 0.27597263544757811 0.27926985653850322 0 0.28921799240021828 0.26815650339571012 0 0.29888580149873889 0.28140566667868477 0 0.28921799240021828 0.26815650339571012 0 0.29917140266547992 0.2696271248040239 0 0.30890124644520212 0.27116609940360098 0 0.29968057031776052 0.25778022973809978 0 0.32652719147190618 0.26813426611014402 0 0.29888580149873889 0.28140566667868477 0 0.30890124644520212 0.27116609940360098 0 0.31966717048778492 0.28020807462702291 0 0.29888580149873889 0.28140566667868477 0 0.29917140266547992 0.2696271248040239 0 0.30890124644520212 0.27116609940360098 0 0.29917140266547992 0.2696271248040239 0 0.30890124644520212 0.27116609940360098 0 0.29968057031776052 0.25778022973809978 0 0.29968057031776052 0.25778022973809978 0 0.31432639173362298 0.2563396134856944 0 0.3016365876598241 0.24719201463661561 0 0.29968057031776052 0.25778022973809978 0 0.32652719147190618 0.26813426611014402 0 0.29968057031776052 0.25778022973809978 0 0.31432639173362298 0.2563396134856944 0 0.32652719147190618 0.26813426611014402 0 0.31432639173362298 0.2563396134856944 0 0.32946121748500129 0.25225194345791829 0 0.3016365876598241 0.24719201463661561 0 0.31432639173362298 0.2563396134856944 0 0.32946121748500129 0.25225194345791829 0 0.32652719147190618 0.26813426611014402 0 0.32946121748500129 0.25225194345791829 0 0.35728584731017871 0.25731187227922109 0 0.32946121748500129 0.25225194345791829 0 0.33854302537622011 0.27351786473126699 0 0.35728584731017871 0.25731187227922109 0 0.32946121748500129 0.25225194345791829 0 0.33854302537622011 0.27351786473126699 0 0.32652719147190618 0.26813426611014402 0 0.33854302537622011 0.27351786473126699 0 0.32652719147190618 0.26813426611014402 0 0.31966717048778492 0.28020807462702291 0 0.30890124644520212 0.27116609940360098 0 0.32652719147190618 0.26813426611014402 0 0.31966717048778492 0.28020807462702291 0 0.31246487291163488 0.29208088598867771 0 0.31966717048778492 0.28020807462702291 0 0.33172871425663403 0.29269405324557379 0 0.31778971146991503 0.31788997842391498 0 0.3075048900192453 0.30846754722968978 0 0.32420479997372442 0.30853167071016102 0 0.31246487291163488 0.29208088598867771 0 0.32420479997372442 0.30853167071016102 0 0.31246487291163488 0.29208088598867771 0 0.32420479997372442 0.30853167071016102 0 0.33172871425663403 0.29269405324557379 0 0.3075048900192453 0.30846754722968978 0 0.31246487291163488 0.29208088598867771 0 0.32420479997372442 0.30853167071016102 0 0.32420479997372442 0.30853167071016102 0 0.33172871425663403 0.29269405324557379 0 0.34448717235649018 0.30756264321984922 0 0.33854302537622011 0.27351786473126699 0 0.31966717048778492 0.28020807462702291 0 0.33172871425663403 0.29269405324557379 0 0.33172871425663403 0.29269405324557379 0 0.3503635169770366 0.28966006865463678 0 0.34448717235649018 0.30756264321984922 0 0.33854302537622011 0.27351786473126699 0 0.33172871425663403 0.29269405324557379 0 0.3503635169770366 0.28966006865463678 0 0.3503635169770366 0.28966006865463678 0 0.34448717235649018 0.30756264321984922 0 0.36246687595182442 0.30494518477727961 0 0.36114413796306788 0.32433110896381118 0 0.34448717235649018 0.30756264321984922 0 0.36246687595182442 0.30494518477727961 0 0.36246687595182442 0.30494518477727961 0 0.37008896088821891 0.27907488192658342 0 0.38127772340545701 0.29855436992749679 0 0.3503635169770366 0.28966006865463678 0 0.36246687595182442 0.30494518477727961 0 0.37008896088821891 0.27907488192658342 0 0.37008896088821891 0.27907488192658342 0 0.35728584731017871 0.25731187227922109 0 0.35441181453934328 0.27463334472066592 0 0.37008896088821891 0.27907488192658342 0 0.35728584731017871 0.25731187227922109 0 0.38511047713535562 0.2623718011005241 0 0.35728584731017871 0.25731187227922109 0 0.38511047713535562 0.2623718011005241 0 0.37293454716760283 0.2396311516560117 0 0.35728584731017871 0.25731187227922109 0 0.38511047713535562 0.2623718011005241 0 0.33854302537622011 0.27351786473126699 0 0.3503635169770366 0.28966006865463678 0 0.35441181453934328 0.27463334472066592 0 0.33854302537622011 0.27351786473126699 0 0.35728584731017871 0.25731187227922109 0 0.35441181453934328 0.27463334472066592 0 0.3503635169770366 0.28966006865463678 0 0.37008896088821891 0.27907488192658342 0 0.35441181453934328 0.27463334472066592 0 0.4059739891301799 0.26616584566893298 0 0.38511047713535562 0.2623718011005241 0 0.39575362435311728 0.2822497143692822 0 0.4059739891301799 0.26616584566893298 0 0.39575362435311728 0.2822497143692822 0 0.41466985898722469 0.28617745239982811 0 0.4059739891301799 0.26616584566893298 0 0.38511047713535562 0.2623718011005241 0 0.39933451681408499 0.24222051247515669 0 0.4059739891301799 0.26616584566893298 0 0.38511047713535562 0.2623718011005241 0 0.38511047713535562 0.2623718011005241 0 0.37293454716760283 0.2396311516560117 0 0.37008896088821891 0.27907488192658342 0 0.38511047713535562 0.2623718011005241 0 0.39575362435311728 0.2822497143692822 0 0.38511047713535562 0.2623718011005241 0 0.39575362435311728 0.2822497143692822 0 0.37008896088821891 0.27907488192658342 0 0.38127772340545701 0.29855436992749679 0 0.39575362435311728 0.2822497143692822 0 0.38127772340545701 0.29855436992749679 0 0.39341545683502421 0.31015448597301559 0 0.38634354889032002 0.32367976249598251 0 0.38127772340545701 0.29855436992749679 0 0.38634354889032002 0.32367976249598251 0 0.36246687595182442 0.30494518477727961 0 0.38127772340545701 0.29855436992749679 0 0.38634354889032002 0.32367976249598251 0 0.38127772340545701 0.29855436992749679 0 0.39341545683502421 0.31015448597301559 0 0.40639677157087911 0.30212762763804019 0 0.39341545683502421 0.31015448597301559 0 0.40639677157087911 0.30212762763804019 0 0.4081981699382346 0.3139513768470385 0 0.39575362435311728 0.2822497143692822 0 0.40639677157087911 0.30212762763804019 0 0.38127772340545701 0.29855436992749679 0 0.39575362435311728 0.2822497143692822 0 0.40639677157087911 0.30212762763804019 0 0.39575362435311728 0.2822497143692822 0 0.41466985898722469 0.28617745239982811 0 0.40639677157087911 0.30212762763804019 0 0.41466985898722469 0.28617745239982811 0 0.40639677157087911 0.30212762763804019 0 0.42063747895650733 0.30228076741981708 0 0.40639677157087911 0.30212762763804019 0 0.417039918788641 0.32200554090679828 0 0.40639677157087911 0.30212762763804019 0 0.42063747895650733 0.30228076741981708 0 0.41590325438833858 0.31571238371771643 0 0.42063747895650733 0.30228076741981708 0 0.43554340190627211 0.31006971119553528 0 0.43241978878766019 0.29428086906555412 0 0.42063747895650733 0.30228076741981708 0 0.43554340190627211 0.31006971119553528 0 0.41590325438833858 0.31571238371771643 0 0.43241978878766019 0.29428086906555412 0 0.42683750112500368 0.26995989023734401 0 0.43795337608323548 0.28151673092589807 0 0.41466985898722469 0.28617745239982811 0 0.43241978878766019 0.29428086906555412 0 0.42683750112500368 0.26995989023734401 0 0.43241978878766019 0.29428086906555412 0 0.42683750112500368 0.26995989023734401 0 0.41466985898722469 0.28617745239982811 0 0.42063747895650733 0.30228076741981708 0 0.43241978878766019 0.29428086906555412 0 0.4059739891301799 0.26616584566893298 0 0.42683750112500368 0.26995989023734401 0 0.4059739891301799 0.26616584566893298 0 0.41466985898722469 0.28617745239982811 0 0.42683750112500368 0.26995989023734401 0 0.4059739891301799 0.26616584566893298 0 0.42683750112500368 0.26995989023734401 0 0.42092918023873821 0.24421844589255121 0 0.4059739891301799 0.26616584566893298 0 0.39933451681408499 0.24222051247515669 0 0.42092918023873821 0.24421844589255121 0 0.42683750112500368 0.26995989023734401 0 0.44089414042045799 0.25771217685885472 0 0.42092918023873821 0.24421844589255121 0 0.42683750112500368 0.26995989023734401 0 0.42092918023873821 0.24421844589255121 0 0.44089414042045799 0.25771217685885472 0 0.45301423403414209 0.26007999789895508 0 0.4569230610569987 0.24819013429900669 0 0.44089414042045799 0.25771217685885472 0 0.45301423403414209 0.26007999789895508 0 0.44973892600361531 0.27412453072026172 0 0.42683750112500368 0.26995989023734401 0 0.44089414042045799 0.25771217685885472 0 0.44973892600361531 0.27412453072026172 0 0.42683750112500368 0.26995989023734401 0 0.44973892600361531 0.27412453072026172 0 0.43795337608323548 0.28151673092589807 0 0.42683750112500368 0.26995989023734401 0 0.44973892600361531 0.27412453072026172 0 0.44973892600361531 0.27412453072026172 0 0.46478170596961249 0.26323965275109401 0 0.47264035088222628 0.27828917120318131 0 0.44973892600361531 0.27412453072026172 0 0.47264035088222628 0.27828917120318131 0 0.44973892600361531 0.27412453072026172 0 0.47264035088222628 0.27828917120318131 0 0.46226850420995219 0.28814127863090738 0 0.45301423403414209 0.26007999789895508 0 0.44973892600361531 0.27412453072026172 0 0.46478170596961249 0.26323965275109401 0 0.46478170596961249 0.26323965275109401 0 0.47264035088222628 0.27828917120318131 0 0.46478170596961249 0.26323965275109401 0 0.4569230610569987 0.24819013429900669 0 0.45301423403414209 0.26007999789895508 0 0.46478170596961249 0.26323965275109401 0 0.4569230610569987 0.24819013429900669 0 0.46478170596961249 0.26323965275109401 0 0.46750550623703407 0.25349570762290419 0 0.47341939214644252 0.26170481890296848 0 0.46478170596961249 0.26323965275109401 0 0.46750550623703407 0.25349570762290419 0 0.4569230610569987 0.24819013429900669 0 0.47341939214644252 0.26170481890296848 0 0.48489893488970792 0.25686202981026901 0 0.47278153852907701 0.24486280325581439 0 0.46750550623703407 0.25349570762290419 0 0.47341939214644252 0.26170481890296848 0 0.47278153852907701 0.24486280325581439 0 0.47341939214644252 0.26170481890296848 0 0.47278153852907701 0.24486280325581439 0 0.47341939214644252 0.26170481890296848 0 0.48000757765913032 0.26759533659828072 0 0.48489893488970792 0.25686202981026901 0 0.47341939214644252 0.26170481890296848 0 0.47405724576380859 0.27854683455012252 0 0.48000757765913032 0.26759533659828072 0 0.47341939214644252 0.26170481890296848 0 0.47264035088222628 0.27828917120318131 0 0.47405724576380859 0.27854683455012252 0 0.46478170596961249 0.26323965275109401 0 0.47341939214644252 0.26170481890296848 0 0.47264035088222628 0.27828917120318131 0 0.47405724576380859 0.27854683455012252 0 0.47415752390174082 0.28119459874267072 0 0.50000000000001354 0.28326454295050368 0 0.47341939214644252 0.26170481890296848 0 0.47405724576380859 0.27854683455012252 0 0.47264035088222628 0.27828917120318131 0 0.47405724576380859 0.27854683455012252 0 0.47405724576380859 0.27854683455012252 0 0.47415752390174082 0.28119459874267072 0 0.47264035088222628 0.27828917120318131 0 0.47405724576380859 0.27854683455012252 0 0.47415752390174082 0.28119459874267072 0 0.47264035088222628 0.27828917120318131 0 0.47415752390174082 0.28119459874267072 0 0.47405724576380859 0.27854683455012252 0 0.48000757765913032 0.26759533659828072 0 0.48909471086131839 0.26954423778064313 0 0.47405724576380859 0.27854683455012252 0 0.50000000000001354 0.28326454295050368 0 0.47405724576380859 0.27854683455012252 0 0.48909471086131839 0.26954423778064313 0 0.50000000000001354 0.28326454295050368 0 0.48909471086131839 0.26954423778064313 0 0.5 0.25553121794514477 0 0.50000000000001354 0.28326454295050368 0 0.5 0.25553121794514477 0 0.48489893488970792 0.25686202981026901 0 0.48903365503734891 0.24299047468837701 0 0.48909471086131839 0.26954423778064313 0 0.5 0.25553121794514477 0 0.48489893488970792 0.25686202981026901 0 0.48000757765913032 0.26759533659828072 0 0.48909471086131839 0.26954423778064313 0 0.48489893488970792 0.25686202981026901 0 0.48223131843763373 0.29665613456690521 0 0.49274985611107969 0.31679941989990179 0 0.48223131843763373 0.29665613456690521 0 0.49274985611107969 0.31679941989990179 0 0.48532411314893581 0.31403081790115361 0 0.49298554246438231 0.30475618362627349 0 0.48223131843763373 0.29665613456690521 0 0.49274985611107969 0.31679941989990179 0 0.49298554246438231 0.30475618362627349 0 0.4969609953088156 0.2924242547978898 0 0.5 0.31314492524039728 0 0.49298554246438231 0.30475618362627349 0 0.4969609953088156 0.2924242547978898 0 0.48223131843763373 0.29665613456690521 0 0.49298554246438231 0.30475618362627349 0 0.49274985611107969 0.31679941989990179 0 0.5 0.31314492524039728 0 0.4969609953088156 0.2924242547978898 0 0.50000000000001354 0.28326454295050368 0 0.5 0.31314492524039728 0 0.47415752390174082 0.28119459874267072 0 0.4969609953088156 0.2924242547978898 0 0.50000000000001354 0.28326454295050368 0 0.47415752390174082 0.28119459874267072 0 0.4969609953088156 0.2924242547978898 0 0.48223131843763373 0.29665613456690521 0 0.4969609953088156 0.2924242547978898 0 0.48223131843763373 0.29665613456690521 0 0.47415752390174082 0.28119459874267072 0 0.47482369694213911 0.29878436615117387 0 0.47415752390174082 0.28119459874267072 0 0.47482369694213911 0.29878436615117387 0 0.46226850420995219 0.28814127863090738 0 0.47415752390174082 0.28119459874267072 0 0.48223131843763373 0.29665613456690521 0 0.47482369694213911 0.29878436615117387 0 0.47415752390174082 0.28119459874267072 0 0.48223131843763373 0.29665613456690521 0 0.47264035088222628 0.27828917120318131 0 0.47415752390174082 0.28119459874267072 0 0.46226850420995219 0.28814127863090738 0 0.48223131843763373 0.29665613456690521 0 0.48022688714188239 0.30485617861310249 0 0.48532411314893581 0.31403081790115361 0 0.47482369694213911 0.29878436615117387 0 0.4785284200388214 0.30995339583317788 0 0.47567910166728178 0.32137064515506791 0 0.47482369694213911 0.29878436615117387 0 0.46683928615616721 0.31034493157342358 0 0.47567910166728178 0.32137064515506791 0 0.47482369694213911 0.29878436615117387 0 0.47567910166728178 0.32137064515506791 0 0.47482369694213911 0.29878436615117387 0 0.48022688714188239 0.30485617861310249 0 0.4785284200388214 0.30995339583317788 0 0.48223131843763373 0.29665613456690521 0 0.47482369694213911 0.29878436615117387 0 0.48022688714188239 0.30485617861310249 0 0.48223131843763373 0.29665613456690521 0 0.47482369694213911 0.29878436615117387 0 0.48022688714188239 0.30485617861310249 0 0.4785284200388214 0.30995339583317788 0 0.48532411314893581 0.31403081790115361 0 0.47482369694213911 0.29878436615117387 0 0.46683928615616721 0.31034493157342358 0 0.45518354942420552 0.3044270386733543 0 0.47482369694213911 0.29878436615117387 0 0.45518354942420552 0.3044270386733543 0 0.46683928615616721 0.31034493157342358 0 0.45518354942420552 0.3044270386733543 0 0.46090063033065398 0.31457074158430443 0 0.47482369694213911 0.29878436615117387 0 0.45518354942420552 0.3044270386733543 0 0.46226850420995219 0.28814127863090738 0 0.45518354942420552 0.3044270386733543 0 0.46226850420995219 0.28814127863090738 0 0.44650245416143669 0.29205179777212908 0 0.44973892600361531 0.27412453072026172 0 0.46226850420995219 0.28814127863090738 0 0.44650245416143669 0.29205179777212908 0 0.44973892600361531 0.27412453072026172 0 0.44650245416143669 0.29205179777212908 0 0.43795337608323548 0.28151673092589807 0 0.43241978878766019 0.29428086906555412 0 0.44650245416143669 0.29205179777212908 0 0.43795337608323548 0.28151673092589807 0 0.43554340190627211 0.31006971119553528 0 0.45518354942420552 0.3044270386733543 0 0.44650245416143669 0.29205179777212908 0 0.43554340190627211 0.31006971119553528 0 0.43241978878766019 0.29428086906555412 0 0.44650245416143669 0.29205179777212908 0 0.43554340190627211 0.31006971119553528 0 0.45518354942420552 0.3044270386733543 0 0.44590058407496119 0.32214035093537202 0 0.43554340190627211 0.31006971119553528 0 0.45518354942420552 0.3044270386733543 0 0.44438162939182968 0.33527616080122319 0 0.43941431748234389 0.34697694962204328 0 0.43138153093963261 0.33684778794266318 0 0.44438162939182968 0.33527616080122319 0 0.43138153093963261 0.33684778794266318 0 0.43736796180383269 0.33070162376080392 0 0.44590058407496119 0.32214035093537202 0 0.44438162939182968 0.33527616080122319 0 0.43736796180383269 0.33070162376080392 0 0.44590058407496119 0.32214035093537202 0 0.44438162939182968 0.33527616080122319 0 0.45938090137280319 0.33331169935871768 0 0.44438162939182968 0.33527616080122319 0 0.45466128638888681 0.34537342559846479 0 0.43941431748234389 0.34697694962204328 0 0.44438162939182968 0.33527616080122319 0 0.45938090137280319 0.33331169935871768 0 0.45466128638888681 0.34537342559846479 0 0.45938090137280319 0.33331169935871768 0 0.47648750655815691 0.34271593104932652 0 0.45466128638888681 0.34537342559846479 0 0.45518354942420552 0.3044270386733543 0 0.44590058407496119 0.32214035093537202 0 0.46090063033065398 0.31457074158430443 0 0.44590058407496119 0.32214035093537202 0 0.47567910166728178 0.32137064515506791 0 0.44590058407496119 0.32214035093537202 0 0.45938090137280319 0.33331169935871768 0 0.47567910166728178 0.32137064515506791 0 0.44590058407496119 0.32214035093537202 0 0.46090063033065398 0.31457074158430443 0 0.47567910166728178 0.32137064515506791 0 0.46683928615616721 0.31034493157342358 0 0.46090063033065398 0.31457074158430443 0 0.47567910166728178 0.32137064515506791 0 0.4785284200388214 0.30995339583317788 0 0.48037384835626529 0.31664076505113292 0 0.47567910166728178 0.32137064515506791 0 0.48037384835626529 0.31664076505113292 0 0.48196375857002199 0.32120820131513239 0 0.47567910166728178 0.32137064515506791 0 0.48037384835626529 0.31664076505113292 0 0.48196375857002199 0.32120820131513239 0 0.48532411314893581 0.31403081790115361 0 0.4785284200388214 0.30995339583317788 0 0.48037384835626529 0.31664076505113292 0 0.48532411314893581 0.31403081790115361 0 0.48196375857002199 0.32120820131513239 0 0.48271443300740718 0.32966898805558448 0 0.48700966075600671 0.32276244140519528 0 0.48196375857002199 0.32120820131513239 0 0.47567910166728178 0.32137064515506791 0 0.48271443300740718 0.32966898805558448 0 0.48196375857002199 0.32120820131513239 0 0.47567910166728178 0.32137064515506791 0 0.47567910166728178 0.32137064515506791 0 0.47648750655815691 0.34271593104932652 0 0.47567910166728178 0.32137064515506791 0 0.47648750655815691 0.34271593104932652 0 0.48271443300740718 0.32966898805558448 0 0.45938090137280319 0.33331169935871768 0 0.47567910166728178 0.32137064515506791 0 0.47648750655815691 0.34271593104932652 0 0.47648750655815691 0.34271593104932652 0 0.48271443300740718 0.32966898805558448 0 0.49227852706914571 0.3310448133387906 0 0.47648750655815691 0.34271593104932652 0 0.5 0.34302530753029081 0 0.49227852706914571 0.3310448133387906 0 0.5 0.34302530753029081 0 0.49227852706914571 0.3310448133387906 0 0.5 0.31314492524039728 0 0.49227852706914571 0.3310448133387906 0 0.49274985611107969 0.31679941989990179 0 0.5 0.31314492524039728 0 0.48196375857002199 0.32120820131513239 0 0.48532411314893581 0.31403081790115361 0 0.48700966075600671 0.32276244140519528 0 0.49274985611107969 0.31679941989990179 0 0.48532411314893581 0.31403081790115361 0 0.48700966075600671 0.32276244140519528 0 0.48271443300740718 0.32966898805558448 0 0.49227852706914571 0.3310448133387906 0 0.48700966075600671 0.32276244140519528 0 0.49227852706914571 0.3310448133387906 0 0.49274985611107969 0.31679941989990179 0 0.48700966075600671 0.32276244140519528 0 0.5 0.37290568982018429 0 0.48906820236105919 0.3579654986752378 0 0.48477613844387402 0.38021688004838439 0 0.47648750655815691 0.34271593104932652 0 0.5 0.34302530753029081 0 0.48906820236105919 0.3579654986752378 0 0.5 0.34302530753029081 0 0.5 0.37290568982018429 0 0.48906820236105919 0.3579654986752378 0 0.47648750655815691 0.34271593104932652 0 0.4736556537454587 0.3678330253399309 0 0.4628011452372443 0.35721885356897543 0 0.47648750655815691 0.34271593104932652 0 0.48906820236105919 0.3579654986752378 0 0.4736556537454587 0.3678330253399309 0 0.48906820236105919 0.3579654986752378 0 0.4736556537454587 0.3678330253399309 0 0.48477613844387402 0.38021688004838439 0 0.4736556537454587 0.3678330253399309 0 0.45151374504626951 0.36758660991241321 0 0.46980882541715813 0.38208294099771128 0 0.4736556537454587 0.3678330253399309 0 0.4628011452372443 0.35721885356897543 0 0.45151374504626951 0.36758660991241321 0 0.47648750655815691 0.34271593104932652 0 0.4628011452372443 0.35721885356897543 0 0.45466128638888681 0.34537342559846479 0 0.4628011452372443 0.35721885356897543 0 0.45466128638888681 0.34537342559846479 0 0.45151374504626951 0.36758660991241321 0 0.43941431748234389 0.34697694962204328 0 0.45151374504626951 0.36758660991241321 0 0.43248649325656402 0.35912170041613489 0 0.45466128638888681 0.34537342559846479 0 0.43941431748234389 0.34697694962204328 0 0.45151374504626951 0.36758660991241321 0 0.45151374504626951 0.36758660991241321 0 0.4343808670510142 0.37207818795490849 0 0.43248649325656402 0.35912170041613489 0 0.4343808670510142 0.37207818795490849 0 0.41565945607251759 0.36236511110304392 0 0.42235721568131929 0.38220686924127689 0 0.4343808670510142 0.37207818795490849 0 0.41565945607251759 0.36236511110304392 0 0.43248649325656402 0.35912170041613489 0 0.41565945607251759 0.36236511110304392 0 0.40683499004542412 0.37566900985645529 0 0.42235721568131929 0.38220686924127689 0 0.41565945607251759 0.36236511110304392 0 0.42423344021441339 0.3469403641650044 0 0.40881868850316022 0.34319093436892228 0 0.41565945607251759 0.36236511110304392 0 0.40881868850316022 0.34319093436892228 0 0.40255325820206211 0.35440744329028528 0 0.41565945607251759 0.36236511110304392 0 0.42423344021441339 0.3469403641650044 0 0.43248649325656402 0.35912170041613489 0 0.43941431748234389 0.34697694962204328 0 0.42423344021441339 0.3469403641650044 0 0.43248649325656402 0.35912170041613489 0 0.43941431748234389 0.34697694962204328 0 0.42423344021441339 0.3469403641650044 0 0.43138153093963261 0.33684778794266318 0 0.43138153093963261 0.33684778794266318 0 0.43736796180383269 0.33070162376080392 0 0.42780810280890752 0.32854219536395729 0 0.43138153093963261 0.33684778794266318 0 0.42780810280890752 0.32854219536395729 0 0.41974391964010321 0.33544292333485398 0 0.42780810280890752 0.32854219536395729 0 0.41816216709540432 0.32913892271221878 0 0.41974391964010321 0.33544292333485398 0 0.42423344021441339 0.3469403641650044 0 0.43138153093963261 0.33684778794266318 0 0.41974391964010321 0.33544292333485398 0 0.44590058407496119 0.32214035093537202 0 0.417039918788641 0.32200554090679828 0 0.43554340190627211 0.31006971119553528 0 0.42610184512817068 0.31856760869421968 0 0.41590325438833858 0.31571238371771643 0 0.44590058407496119 0.32214035093537202 0 0.42610184512817068 0.31856760869421968 0 0.417039918788641 0.32200554090679828 0 0.44590058407496119 0.32214035093537202 0 0.42780810280890752 0.32854219536395729 0 0.417039918788641 0.32200554090679828 0 0.44590058407496119 0.32214035093537202 0 0.43736796180383269 0.33070162376080392 0 0.42780810280890752 0.32854219536395729 0 0.43554340190627211 0.31006971119553528 0 0.41590325438833858 0.31571238371771643 0 0.43554340190627211 0.31006971119553528 0 0.44590058407496119 0.32214035093537202 0 0.42610184512817068 0.31856760869421968 0 0.40639677157087911 0.30212762763804019 0 0.417039918788641 0.32200554090679828 0 0.4081981699382346 0.3139513768470385 0 0.40639677157087911 0.30212762763804019 0 0.41590325438833858 0.31571238371771643 0 0.417039918788641 0.32200554090679828 0 0.42610184512817068 0.31856760869421968 0 0.41590325438833858 0.31571238371771643 0 0.417039918788641 0.32200554090679828 0 0.417039918788641 0.32200554090679828 0 0.41816216709540432 0.32913892271221878 0 0.41176425843116088 0.33156610519561941 0 0.42780810280890752 0.32854219536395729 0 0.417039918788641 0.32200554090679828 0 0.41816216709540432 0.32913892271221878 0 0.42423344021441339 0.3469403641650044 0 0.41974391964010321 0.33544292333485398 0 0.40881868850316022 0.34319093436892228 0 0.41816216709540432 0.32913892271221878 0 0.41974391964010321 0.33544292333485398 0 0.41176425843116088 0.33156610519561941 0 0.417039918788641 0.32200554090679828 0 0.41176425843116088 0.33156610519561941 0 0.40171431040203109 0.33103781916521291 0 0.41176425843116088 0.33156610519561941 0 0.40881868850316022 0.34319093436892228 0 0.40171431040203109 0.33103781916521291 0 0.41974391964010321 0.33544292333485398 0 0.41176425843116088 0.33156610519561941 0 0.40881868850316022 0.34319093436892228 0 0.40171431040203109 0.33103781916521291 0 0.38634354889032002 0.32367976249598251 0 0.39069281237429682 0.34525116339505252 0 0.40881868850316022 0.34319093436892228 0 0.40171431040203109 0.33103781916521291 0 0.39069281237429682 0.34525116339505252 0 0.417039918788641 0.32200554090679828 0 0.40171431040203109 0.33103781916521291 0 0.38634354889032002 0.32367976249598251 0 0.417039918788641 0.32200554090679828 0 0.4081981699382346 0.3139513768470385 0 0.38634354889032002 0.32367976249598251 0 0.39341545683502421 0.31015448597301559 0 0.4081981699382346 0.3139513768470385 0 0.38634354889032002 0.32367976249598251 0 0.417039918788641 0.32200554090679828 0 0.38634354889032002 0.32367976249598251 0 0.38634354889032002 0.32367976249598251 0 0.39069281237429682 0.34525116339505252 0 0.37418757138316661 0.34003979241565702 0 0.38634354889032002 0.32367976249598251 0 0.39069281237429682 0.34525116339505252 0 0.37418757138316661 0.34003979241565702 0 0.38014707859742553 0.358601566133181 0 0.39069281237429682 0.34525116339505252 0 0.38014707859742553 0.358601566133181 0 0.39504207585827378 0.36682256429412252 0 0.39069281237429682 0.34525116339505252 0 0.36927583114563117 0.37168826674887129 0 0.38014707859742553 0.358601566133181 0 0.3861818138235471 0.37714139125663793 0 0.38014707859742553 0.358601566133181 0 0.39504207585827378 0.36682256429412252 0 0.3861818138235471 0.37714139125663793 0 0.41565945607251759 0.36236511110304392 0 0.39504207585827378 0.36682256429412252 0 0.40683499004542412 0.37566900985645529 0 0.41565945607251759 0.36236511110304392 0 0.39504207585827378 0.36682256429412252 0 0.40255325820206211 0.35440744329028528 0 0.39504207585827378 0.36682256429412252 0 0.40255325820206211 0.35440744329028528 0 0.39069281237429682 0.34525116339505252 0 0.40881868850316022 0.34319093436892228 0 0.40255325820206211 0.35440744329028528 0 0.39069281237429682 0.34525116339505252 0 0.39504207585827378 0.36682256429412252 0 0.39069281237429682 0.34525116339505252 0 0.3993913393422508 0.38839396519319253 0 0.39020643165102042 0.40750290438779102 0 0.40342788129008578 0.41136751416027151 0 0.3993913393422508 0.38839396519319253 0 0.40342788129008578 0.41136751416027151 0 0.41247484703898341 0.39668929567888889 0 0.3993913393422508 0.38839396519319253 0 0.38594138320053972 0.39504117240748449 0 0.39020643165102042 0.40750290438779102 0 0.39504207585827378 0.36682256429412252 0 0.3993913393422508 0.38839396519319253 0 0.40683499004542412 0.37566900985645529 0 0.39504207585827378 0.36682256429412252 0 0.3993913393422508 0.38839396519319253 0 0.39504207585827378 0.36682256429412252 0 0.3993913393422508 0.38839396519319253 0 0.3861818138235471 0.37714139125663793 0 0.3993913393422508 0.38839396519319253 0 0.41247484703898341 0.39668929567888889 0 0.40683499004542412 0.37566900985645529 0 0.36927583114563117 0.37168826674887129 0 0.38594138320053972 0.39504117240748449 0 0.3993913393422508 0.38839396519319253 0 0.3861818138235471 0.37714139125663793 0 0.38594138320053972 0.39504117240748449 0 0.36927583114563117 0.37168826674887129 0 0.3861818138235471 0.37714139125663793 0 0.38594138320053972 0.39504117240748449 0 0.36672310374365391 0.3972274770167053 0 0.38594138320053972 0.39504117240748449 0 0.37714557779446961 0.40580011292323048 0 0.38594138320053972 0.39504117240748449 0 0.37714557779446961 0.40580011292323048 0 0.39020643165102042 0.40750290438779102 0 0.37714557779446961 0.40580011292323048 0 0.39020643165102042 0.40750290438779102 0 0.37786999239799629 0.42201923841731348 0 0.39020643165102042 0.40750290438779102 0 0.37786999239799629 0.42201923841731348 0 0.39620875860206523 0.42610388639599522 0 0.3672128213662551 0.44140310366938379 0 0.37786999239799629 0.42201923841731348 0 0.38861509636247821 0.44175005125570632 0 0.37786999239799629 0.42201923841731348 0 0.39620875860206523 0.42610388639599522 0 0.38861509636247821 0.44175005125570632 0 0.39620875860206523 0.42610388639599522 0 0.40342788129008578 0.41136751416027151 0 0.4165515890159211 0.43106581875832262 0 0.39020643165102042 0.40750290438779102 0 0.39620875860206523 0.42610388639599522 0 0.40342788129008578 0.41136751416027151 0 0.40342788129008578 0.41136751416027151 0 0.4194649070479346 0.41075775866906961 0 0.4165515890159211 0.43106581875832262 0 0.40342788129008578 0.41136751416027151 0 0.4194649070479346 0.41075775866906961 0 0.41247484703898341 0.39668929567888889 0 0.39620875860206523 0.42610388639599522 0 0.4165515890159211 0.43106581875832262 0 0.40679533173472487 0.44514780784289609 0 0.4165515890159211 0.43106581875832262 0 0.44107028692003247 0.43153611533185032 0 0.4165515890159211 0.43106581875832262 0 0.43527838440837918 0.41507327228856877 0 0.44107028692003247 0.43153611533185032 0 0.4194649070479346 0.41075775866906961 0 0.4165515890159211 0.43106581875832262 0 0.43527838440837918 0.41507327228856877 0 0.4194649070479346 0.41075775866906961 0 0.43527838440837918 0.41507327228856877 0 0.42844040697821201 0.39890611008127758 0 0.43527838440837918 0.41507327228856877 0 0.42844040697821201 0.39890611008127758 0 0.44356544647064411 0.40084295107477419 0 0.42844040697821201 0.39890611008127758 0 0.43978627658039499 0.38550810048347522 0 0.44356544647064411 0.40084295107477419 0 0.4194649070479346 0.41075775866906961 0 0.42844040697821201 0.39890611008127758 0 0.41247484703898341 0.39668929567888889 0 0.42844040697821201 0.39890611008127758 0 0.41247484703898341 0.39668929567888889 0 0.42235721568131929 0.38220686924127689 0 0.41247484703898341 0.39668929567888889 0 0.40683499004542412 0.37566900985645529 0 0.42235721568131929 0.38220686924127689 0 0.4343808670510142 0.37207818795490849 0 0.42235721568131929 0.38220686924127689 0 0.43978627658039499 0.38550810048347522 0 0.42844040697821201 0.39890611008127758 0 0.42235721568131929 0.38220686924127689 0 0.43978627658039499 0.38550810048347522 0 0.45151374504626951 0.36758660991241321 0 0.4343808670510142 0.37207818795490849 0 0.43978627658039499 0.38550810048347522 0 0.45151374504626951 0.36758660991241321 0 0.43978627658039499 0.38550810048347522 0 0.45722528454721961 0.3906654768237981 0 0.43978627658039499 0.38550810048347522 0 0.44356544647064411 0.40084295107477419 0 0.45722528454721961 0.3906654768237981 0 0.44356544647064411 0.40084295107477419 0 0.45722528454721961 0.3906654768237981 0 0.45594545333092312 0.41337501331873322 0 0.45722528454721961 0.3906654768237981 0 0.47568108772685191 0.39367102650606373 0 0.46881626912638691 0.40427363304328218 0 0.45722528454721961 0.3906654768237981 0 0.46881626912638691 0.40427363304328218 0 0.45594545333092312 0.41337501331873322 0 0.45151374504626951 0.36758660991241321 0 0.45722528454721961 0.3906654768237981 0 0.46980882541715813 0.38208294099771128 0 0.45722528454721961 0.3906654768237981 0 0.46980882541715813 0.38208294099771128 0 0.47568108772685191 0.39367102650606373 0 0.4736556537454587 0.3678330253399309 0 0.46980882541715813 0.38208294099771128 0 0.48477613844387402 0.38021688004838439 0 0.47568108772685191 0.39367102650606373 0 0.48702766555901961 0.39491075051184021 0 0.48477613844387402 0.38021688004838439 0 0.46980882541715813 0.38208294099771128 0 0.47568108772685191 0.39367102650606373 0 0.48477613844387402 0.38021688004838439 0 0.47568108772685191 0.39367102650606373 0 0.46881626912638691 0.40427363304328218 0 0.48151606592710777 0.40452093291302588 0 0.47568108772685191 0.39367102650606373 0 0.48151606592710777 0.40452093291302588 0 0.48702766555901961 0.39491075051184021 0 0.48702766555901961 0.39491075051184021 0 0.49874079622209128 0.38660437256818281 0 0.49442423947517328 0.40954054052354433 0 0.5 0.40278607211007789 0 0.49874079622209128 0.38660437256818281 0 0.49442423947517328 0.40954054052354433 0 0.49874079622209128 0.38660437256818281 0 0.49442423947517328 0.40954054052354433 0 0.48151606592710777 0.40452093291302588 0 0.48702766555901961 0.39491075051184021 0 0.49442423947517328 0.40954054052354433 0 0.5 0.37290568982018429 0 0.5 0.40278607211007789 0 0.49874079622209128 0.38660437256818281 0 0.5 0.37290568982018429 0 0.49874079622209128 0.38660437256818281 0 0.48477613844387402 0.38021688004838439 0 0.48702766555901961 0.39491075051184021 0 0.49874079622209128 0.38660437256818281 0 0.48477613844387402 0.38021688004838439 0 0.49010768272825528 0.43247670847890568 0 0.49999999999999839 0.43266645439997159 0 0.49442423947517328 0.40954054052354433 0 0.49010768272825528 0.43247670847890568 0 0.49999999999999839 0.43266645439997159 0 0.5 0.40278607211007789 0 0.49999999999999839 0.43266645439997159 0 0.49442423947517328 0.40954054052354433 0 0.49010768272825528 0.43247670847890568 0 0.49442423947517328 0.40954054052354433 0 0.47768739680387268 0.41777805257305989 0 0.48151606592710777 0.40452093291302588 0 0.49442423947517328 0.40954054052354433 0 0.47768739680387268 0.41777805257305989 0 0.49010768272825528 0.43247670847890568 0 0.49442423947517328 0.40954054052354433 0 0.46881626912638691 0.40427363304328218 0 0.48151606592710777 0.40452093291302588 0 0.47768739680387268 0.41777805257305989 0 0.49010768272825528 0.43247670847890568 0 0.47768739680387268 0.41777805257305989 0 0.4655889848241439 0.43200641190537797 0 0.49010768272825528 0.43247670847890568 0 0.4655889848241439 0.43200641190537797 0 0.47536631759922843 0.44556886167195853 0 0.49010768272825528 0.43247670847890568 0 0.4655889848241439 0.43200641190537797 0 0.4655889848241439 0.43200641190537797 0 0.44107028692003247 0.43153611533185032 0 0.4655889848241439 0.43200641190537797 0 0.45594545333092312 0.41337501331873322 0 0.44107028692003247 0.43153611533185032 0 0.4655889848241439 0.43200641190537797 0 0.44107028692003247 0.43153611533185032 0 0.4606865760628292 0.44801704672434101 0 0.47768739680387268 0.41777805257305989 0 0.4655889848241439 0.43200641190537797 0 0.45594545333092312 0.41337501331873322 0 0.46881626912638691 0.40427363304328218 0 0.47768739680387268 0.41777805257305989 0 0.45594545333092312 0.41337501331873322 0 0.43527838440837918 0.41507327228856877 0 0.45594545333092312 0.41337501331873322 0 0.44107028692003247 0.43153611533185032 0 0.43527838440837918 0.41507327228856877 0 0.44356544647064411 0.40084295107477419 0 0.45594545333092312 0.41337501331873322 0 0.49999999999999839 0.43266645439997159 0 0.48505572566105232 0.45932045051458531 0 0.5 0.5 0 0.44107028692003247 0.43153611533185032 0 0.44376664188615123 0.45979150936037488 0 0.4606865760628292 0.44801704672434101 0 0.44376664188615123 0.45979150936037488 0 0.46112241578244989 0.46478661640483648 0 0.45121200239437631 0.4807671998253365 0 0.44376664188615123 0.45979150936037488 0 0.46112241578244989 0.46478661640483648 0 0.4606865760628292 0.44801704672434101 0 0.46112241578244989 0.46478661640483648 0 0.4606865760628292 0.44801704672434101 0 0.47539261871986088 0.45602369073658289 0 0.4655889848241439 0.43200641190537797 0 0.4606865760628292 0.44801704672434101 0 0.47536631759922843 0.44556886167195853 0 0.49010768272825528 0.43247670847890568 0 0.47536631759922843 0.44556886167195853 0 0.48505572566105232 0.45932045051458531 0 0.4606865760628292 0.44801704672434101 0 0.47536631759922843 0.44556886167195853 0 0.47539261871986088 0.45602369073658289 0 0.47539261871986088 0.45602369073658289 0 0.47110615765410929 0.47801184536829172 0 0.47539261871986088 0.45602369073658289 0 0.48505572566105232 0.45932045051458531 0 0.47110615765410929 0.47801184536829172 0 0.46112241578244989 0.46478661640483648 0 0.47539261871986088 0.45602369073658289 0 0.47110615765410929 0.47801184536829172 0 0.47536631759922843 0.44556886167195853 0 0.47539261871986088 0.45602369073658289 0 0.48505572566105232 0.45932045051458531 0 0.49010768272825528 0.43247670847890568 0 0.48505572566105232 0.45932045051458531 0 0.49010768272825528 0.43247670847890568 0 0.49999999999999839 0.43266645439997159 0 0.48505572566105232 0.45932045051458531 0 0.48505572566105232 0.45932045051458531 0 0.5 0.5 0 0.48000376859384941 0.48616419255026477 0 0.5 0.5 0 0.48000376859384941 0.48616419255026477 0 0.46681969658835759 0.50000000000000044 0 0.48505572566105232 0.45932045051458531 0 0.47110615765410929 0.47801184536829172 0 0.48000376859384941 0.48616419255026477 0 0.48505572566105232 0.45932045051458531 0 0.48000376859384941 0.48616419255026477 0 0.47110615765410929 0.47801184536829172 0 0.46681969658835759 0.50000000000000044 0 0.47110615765410929 0.47801184536829172 0 0.48000376859384941 0.48616419255026477 0 0.46681969658835759 0.50000000000000044 0 0.47110615765410929 0.47801184536829172 0 0.46681969658835759 0.50000000000000044 0 0.45121200239437631 0.4807671998253365 0 0.46112241578244989 0.46478661640483648 0 0.47110615765410929 0.47801184536829172 0 0.45121200239437631 0.4807671998253365 0 0.44376664188615123 0.45979150936037488 0 0.45121200239437631 0.4807671998253365 0 0.42408561830569141 0.47732830779616442 0 0.46681969658835759 0.50000000000000044 0 0.45121200239437631 0.4807671998253365 0 0.43971230006436901 0.5 0 0.45121200239437631 0.4807671998253365 0 0.43971230006436901 0.5 0 0.42408561830569141 0.47732830779616442 0 0.43971230006436901 0.5 0 0.41260490354038032 0.5 0 0.42408561830569141 0.47732830779616442 0 0.41260490354038032 0.5 0 0.42408561830569141 0.47732830779616442 0 0.40044085355502113 0.48368683573266119 0 0.42408561830569141 0.47732830779616442 0 0.40050545668784993 0.46242548604636152 0 0.40044085355502113 0.48368683573266119 0 0.44376664188615123 0.45979150936037488 0 0.42408561830569141 0.47732830779616442 0 0.42267709028742451 0.45339185591380432 0 0.44107028692003247 0.43153611533185032 0 0.44376664188615123 0.45979150936037488 0 0.42267709028742451 0.45339185591380432 0 0.4165515890159211 0.43106581875832262 0 0.44107028692003247 0.43153611533185032 0 0.42267709028742451 0.45339185591380432 0 0.4165515890159211 0.43106581875832262 0 0.42267709028742451 0.45339185591380432 0 0.40679533173472487 0.44514780784289609 0 0.42408561830569141 0.47732830779616442 0 0.42267709028742451 0.45339185591380432 0 0.40050545668784993 0.46242548604636152 0 0.42267709028742451 0.45339185591380432 0 0.40679533173472487 0.44514780784289609 0 0.40050545668784993 0.46242548604636152 0 0.40679533173472487 0.44514780784289609 0 0.40050545668784993 0.46242548604636152 0 0.38861509636247821 0.44175005125570632 0 0.39620875860206523 0.42610388639599522 0 0.40679533173472487 0.44514780784289609 0 0.38861509636247821 0.44175005125570632 0 0.3672128213662551 0.44140310366938379 0 0.38861509636247821 0.44175005125570632 0 0.37565915938479377 0.45849116020829678 0 0.40050545668784993 0.46242548604636152 0 0.37565915938479377 0.45849116020829678 0 0.37951078222479251 0.47868038482078018 0 0.40050545668784993 0.46242548604636152 0 0.38861509636247821 0.44175005125570632 0 0.37565915938479377 0.45849116020829678 0 0.37951078222479251 0.47868038482078018 0 0.38549750701639152 0.5 0 0.40044085355502113 0.48368683573266119 0 0.41260490354038032 0.5 0 0.38549750701639152 0.5 0 0.40044085355502113 0.48368683573266119 0 0.40050545668784993 0.46242548604636152 0 0.37951078222479251 0.47868038482078018 0 0.40044085355502113 0.48368683573266119 0 0.3285700774521132 0.069227507684709172 0 0.34376262838779448 0.090160381808613591 0 0.3285700774521132 0.069227507684709172 0 0.34376262838779448 0.090160381808613591 0 0.3570119940846016 0.07655140493877155 0 0.3285700774521132 0.069227507684709172 0 0.31851483003181857 0.089032350953859848 0 0.34376262838779448 0.090160381808613591 0 0.3285700774521132 0.069227507684709172 0 0.31851483003181857 0.089032350953859848 0 0.30262144479489489 0.063472250579192202 0 0.31851483003181857 0.089032350953859848 0 0.32257158209111758 0.11034462767622299 0 0.33741607394213652 0.1036774965936159 0 0.31851483003181857 0.089032350953859848 0 0.32257158209111758 0.11034462767622299 0 0.29867863108980142 0.1045573716884185 0 0.32257158209111758 0.11034462767622299 0 0.32933038512457441 0.1245201253257071 0 0.3207185438207466 0.1263919595033525 0 0.32257158209111758 0.11034462767622299 0 0.31156748461804079 0.12537242366950921 0 0.3207185438207466 0.1263919595033525 0 0.32933038512457441 0.1245201253257071 0 0.34646453309243358 0.11613188366402739 0 0.34441400131097022 0.1288917011053414 0 0.32257158209111758 0.11034462767622299 0 0.33741607394213652 0.1036774965936159 0 0.34646453309243358 0.11613188366402739 0 0.32257158209111758 0.11034462767622299 0 0.34646453309243358 0.11613188366402739 0 0.32257158209111758 0.11034462767622299 0 0.32933038512457441 0.1245201253257071 0 0.34646453309243358 0.11613188366402739 0 0.31851483003181857 0.089032350953859848 0 0.33741607394213652 0.1036774965936159 0 0.34376262838779448 0.090160381808613591 0 0.35895517932347593 0.111093255932518 0 0.36286728541875429 0.096218484345557367 0 0.34376262838779448 0.090160381808613591 0 0.33741607394213652 0.1036774965936159 0 0.35895517932347593 0.111093255932518 0 0.34376262838779448 0.090160381808613591 0 0.35895517932347593 0.111093255932518 0 0.34376262838779448 0.090160381808613591 0 0.34646453309243358 0.11613188366402739 0 0.35895517932347593 0.111093255932518 0 0.37035748409374952 0.12191913965183331 0 0.34646453309243358 0.11613188366402739 0 0.37035748409374952 0.12191913965183331 0 0.33741607394213652 0.1036774965936159 0 0.34646453309243358 0.11613188366402739 0 0.35895517932347593 0.111093255932518 0 0.34646453309243358 0.11613188366402739 0 0.37035748409374952 0.12191913965183331 0 0.34441400131097022 0.1288917011053414 0 0.35895517932347593 0.111093255932518 0 0.36901916600157941 0.1100142775002767 0 0.37035748409374952 0.12191913965183331 0 0.36901916600157941 0.1100142775002767 0 0.37035748409374952 0.12191913965183331 0 0.37815432920295677 0.1109533992790251 0 0.37035748409374952 0.12191913965183331 0 0.37511757494472903 0.123072110010257 0 0.37035748409374952 0.12191913965183331 0 0.37169283910029199 0.12815165521797289 0 0.37511757494472903 0.123072110010257 0 0.36286728541875429 0.096218484345557367 0 0.37455144446510141 0.10193275935197101 0 0.37400882161871279 0.083619613235024759 0 0.35895517932347593 0.111093255932518 0 0.36901916600157941 0.1100142775002767 0 0.36286728541875429 0.096218484345557367 0 0.36901916600157941 0.1100142775002767 0 0.36286728541875429 0.096218484345557367 0 0.37455144446510141 0.10193275935197101 0 0.36901916600157941 0.1100142775002767 0 0.37455144446510141 0.10193275935197101 0 0.37815432920295677 0.1109533992790251 0 0.36286728541875429 0.096218484345557367 0 0.37400882161871279 0.083619613235024759 0 0.3570119940846016 0.07655140493877155 0 0.36286728541875429 0.096218484345557367 0 0.34376262838779448 0.090160381808613591 0 0.3570119940846016 0.07655140493877155 0 0.3285700774521132 0.069227507684709172 0 0.3570119940846016 0.07655140493877155 0 0.3540274811898364 0.057481719132925622 0 0.37400882161871279 0.083619613235024759 0 0.3570119940846016 0.07655140493877155 0 0.37883567044039879 0.062600723425798879 0 0.3570119940846016 0.07655140493877155 0 0.3540274811898364 0.057481719132925622 0 0.37883567044039879 0.062600723425798879 0 0.36884998715724038 0.048654936693666287 0 0.3540274811898364 0.057481719132925622 0 0.37883567044039879 0.062600723425798879 0 0.36884998715724038 0.048654936693666287 0 0.36096242836060388 0.032492650360987897 0 0.3540274811898364 0.057481719132925622 0 0.36884998715724038 0.048654936693666287 0 0.36096242836060388 0.032492650360987897 0 0.38366251926208489 0.041581833616573027 0 0.36096242836060388 0.032492650360987897 0 0.3540274811898364 0.057481719132925622 0 0.33343548863743699 0.044422356914628619 0 0.36096242836060388 0.032492650360987897 0 0.34150772405548108 0.025325389551572871 0 0.33343548863743699 0.044422356914628619 0 0.36096242836060388 0.032492650360987897 0 0.33343548863743699 0.044422356914628619 0 0.36934971840039982 0.01412264887454192 0 0.38120377069012762 0.010554394007073271 0 0.36845156083710567 -0.0060515153414843056 0 0.36934971840039982 0.01412264887454192 0 0.35188933009005469 0.012921367503740049 0 0.36845156083710567 -0.0060515153414843056 0 0.36096242836060388 0.032492650360987897 0 0.38848936808377088 0.020562943807347231 0 0.36096242836060388 0.032492650360987897 0 0.36934971840039982 0.01412264887454192 0 0.35188933009005469 0.012921367503740049 0 0.36096242836060388 0.032492650360987897 0 0.36934971840039982 0.01412264887454192 0 0.38848936808377088 0.020562943807347231 0 0.36096242836060388 0.032492650360987897 0 0.35188933009005469 0.012921367503740049 0 0.34150772405548108 0.025325389551572871 0 0.35188933009005469 0.012921367503740049 0 0.36845156083710567 -0.0060515153414843056 0 0.34114057903213352 -0.00099436838624600288 0 0.32992396985460443 0.01263339996306794 0 0.31382959722716158 0.0040627785689932028 0 0.34114057903213352 -0.00099436838624600288 0 0.35188933009005469 0.012921367503740049 0 0.32992396985460443 0.01263339996306794 0 0.34114057903213352 -0.00099436838624600288 0 0.32992396985460443 0.01263339996306794 0 0.34150772405548108 0.025325389551572871 0 0.32077834005703848 0.02927741351548363 0 0.35188933009005469 0.012921367503740049 0 0.32992396985460443 0.01263339996306794 0 0.34150772405548108 0.025325389551572871 0 0.32992396985460443 0.01263339996306794 0 0.32077834005703848 0.02927741351548363 0 0.31391214704691389 0.015516024244919061 0 0.32992396985460443 0.01263339996306794 0 0.31391214704691389 0.015516024244919061 0 0.31382959722716158 0.0040627785689932028 0 0.31382959722716158 0.0040627785689932028 0 0.34183048761771712 -0.0039986291523161147 0 0.31382959722716158 0.0040627785689932028 0 0.34114057903213352 -0.00099436838624600288 0 0.31382959722716158 0.0040627785689932028 0 0.30752965714041391 0.0058765203804442539 0 0.32194573769061952 -0.0077676308935595512 0 0.3285700774521132 0.069227507684709172 0 0.3540274811898364 0.057481719132925622 0 0.33343548863743699 0.044422356914628619 0 0.34150772405548108 0.025325389551572871 0 0.32077834005703848 0.02927741351548363 0 0.33343548863743699 0.044422356914628619 0 0.32077834005703848 0.02927741351548363 0 0.33343548863743699 0.044422356914628619 0 0.31337752651643169 0.04829463356080467 0 0.3285700774521132 0.069227507684709172 0 0.31337752651643169 0.04829463356080467 0 0.3285700774521132 0.069227507684709172 0 0.33343548863743699 0.044422356914628619 0 0.31337752651643169 0.04829463356080467 0 0.3285700774521132 0.069227507684709172 0 0.31337752651643169 0.04829463356080467 0 0.30262144479489489 0.063472250579192202 0 0.31337752651643169 0.04829463356080467 0 0.29190445549758398 0.041801895735158197 0 0.30262144479489489 0.063472250579192202 0 0.31337752651643169 0.04829463356080467 0 0.29818497558074802 0.027361759436901809 0 0.31337752651643169 0.04829463356080467 0 0.29190445549758398 0.041801895735158197 0 0.29818497558074802 0.027361759436901809 0 0.32077834005703848 0.02927741351548363 0 0.31337752651643169 0.04829463356080467 0 0.29818497558074802 0.027361759436901809 0 0.29190445549758398 0.041801895735158197 0 0.29818497558074802 0.027361759436901809 0 0.28149235485467722 0.028426230672526639 0 0.29190445549758398 0.041801895735158197 0 0.28562393541442521 0.056242032033416753 0 0.26921605588191849 0.040519794607793452 0 0.29190445549758398 0.041801895735158197 0 0.29818497558074802 0.027361759436901809 0 0.29190445549758398 0.041801895735158197 0 0.28562393541442521 0.056242032033416753 0 0.29190445549758398 0.041801895735158197 0 0.28562393541442521 0.056242032033416753 0 0.30262144479489489 0.063472250579192202 0 0.2978295874258669 0.0070254842464454832 0 0.30752965714041391 0.0058765203804442539 0 0.2978295874258669 0.0070254842464454832 0 0.30752965714041391 0.0058765203804442539 0 0.29396858594285019 -0.001032612778502764 0 0.31382959722716158 0.0040627785689932028 0 0.30752965714041391 0.0058765203804442539 0 0.31391214704691389 0.015516024244919061 0 0.30752965714041391 0.0058765203804442539 0 0.30398999522707459 0.014014891057021139 0 0.30752965714041391 0.0058765203804442539 0 0.30398999522707459 0.014014891057021139 0 0.31391214704691389 0.015516024244919061 0 0.31382959722716158 0.0040627785689932028 0 0.30752965714041391 0.0058765203804442539 0 0.2978295874258669 0.0070254842464454832 0 0.30752965714041391 0.0058765203804442539 0 0.30398999522707459 0.014014891057021139 0 0.2978295874258669 0.0070254842464454832 0 0.30398999522707459 0.014014891057021139 0 0.31391214704691389 0.015516024244919061 0 0.30398999522707459 0.014014891057021139 0 0.29818497558074802 0.027361759436901809 0 0.32077834005703848 0.02927741351548363 0 0.31391214704691389 0.015516024244919061 0 0.29818497558074802 0.027361759436901809 0 0.30398999522707459 0.014014891057021139 0 0.29818497558074802 0.027361759436901809 0 0.30398999522707459 0.014014891057021139 0 0.29818497558074802 0.027361759436901809 0 0.28690172397702512 0.011815266518820099 0 0.29818497558074802 0.027361759436901809 0 0.28149235485467722 0.028426230672526639 0 0.28690172397702512 0.011815266518820099 0 0.29818497558074802 0.027361759436901809 0 0.28690172397702512 0.011815266518820099 0 0.28690172397702512 0.011815266518820099 0 0.28687677889875068 0.001725005618485562 0 0.27267603034966698 -0.0077854348569651906 0 0.2978295874258669 0.0070254842464454832 0 0.30398999522707459 0.014014891057021139 0 0.28690172397702512 0.011815266518820099 0 0.2978295874258669 0.0070254842464454832 0 0.28690172397702512 0.011815266518820099 0 0.29376575238797509 0.0077779804816672602 0 0.2978295874258669 0.0070254842464454832 0 0.28690172397702512 0.011815266518820099 0 0.2978295874258669 0.0070254842464454832 0 0.28687677889875068 0.001725005618485562 0 0.29376575238797509 0.0077779804816672602 0 0.28690172397702512 0.011815266518820099 0 0.28687677889875068 0.001725005618485562 0 0.29376575238797509 0.0077779804816672602 0 0.2978295874258669 0.0070254842464454832 0 0.29376575238797509 0.0077779804816672602 0 0.28690172397702512 0.011815266518820099 0 0.26939274767164711 0.0040745279013861191 0 0.27267603034966698 -0.0077854348569651906 0 0.28690172397702512 0.011815266518820099 0 0.26440570944936082 0.018291830038140541 0 0.28690172397702512 0.011815266518820099 0 0.26939274767164711 0.0040745279013861191 0 0.26440570944936082 0.018291830038140541 0 0.28690172397702512 0.011815266518820099 0 0.27267603034966698 -0.0077854348569651906 0 0.28149235485467722 0.028426230672526639 0 0.26440570944936082 0.018291830038140541 0 0.26921605588191849 0.040519794607793452 0 0.28149235485467722 0.028426230672526639 0 0.28690172397702512 0.011815266518820099 0 0.26440570944936082 0.018291830038140541 0 0.24190969492169709 0.024768393557462999 0 0.26440570944936082 0.018291830038140541 0 0.2485551203034157 0.0102848256948572 0 0.24190969492169709 0.024768393557462999 0 0.26440570944936082 0.018291830038140541 0 0.24190969492169709 0.024768393557462999 0 0.26440570944936082 0.018291830038140541 0 0.25291178968964928 0.037547667281027097 0 0.2485551203034157 0.0102848256948572 0 0.26440570944936082 0.018291830038140541 0 0.25894279220913391 0.003459445712386486 0 0.26939274767164711 0.0040745279013861191 0 0.26440570944936082 0.018291830038140541 0 0.25894279220913391 0.003459445712386486 0 0.2485551203034157 0.0102848256948572 0 0.25894279220913391 0.003459445712386486 0 0.2479891295484222 -0.0022684572774312019 0 0.26939274767164711 0.0040745279013861191 0 0.25894279220913391 0.003459445712386486 0 0.26317147738524183 -0.0038637327990410169 0 0.28562393541442521 0.056242032033416753 0 0.27026274557325353 0.056119745337220257 0 0.26921605588191849 0.040519794607793452 0 0.28562393541442521 0.056242032033416753 0 0.27026274557325353 0.056119745337220257 0 0.27167623587568768 0.070814912161459326 0 0.29190445549758398 0.041801895735158197 0 0.28149235485467722 0.028426230672526639 0 0.26921605588191849 0.040519794607793452 0 0.26921605588191849 0.040519794607793452 0 0.25291178968964928 0.037547667281027097 0 0.25425538404847059 0.057624927133231481 0 0.26440570944936082 0.018291830038140541 0 0.26921605588191849 0.040519794607793452 0 0.25291178968964928 0.037547667281027097 0 0.27026274557325353 0.056119745337220257 0 0.26921605588191849 0.040519794607793452 0 0.25425538404847059 0.057624927133231481 0 0.27026274557325353 0.056119745337220257 0 0.25425538404847059 0.057624927133231481 0 0.27167623587568768 0.070814912161459326 0 0.25425538404847059 0.057624927133231481 0 0.27167623587568768 0.070814912161459326 0 0.25282536794073712 0.073272794188635415 0 0.26618138576237349 0.084067315497028519 0 0.27167623587568768 0.070814912161459326 0 0.25425538404847059 0.057624927133231481 0 0.25282536794073712 0.073272794188635415 0 0.27167623587568768 0.070814912161459326 0 0.25089272908716931 0.092982859712809007 0 0.26618138576237349 0.084067315497028519 0 0.27478568008848531 0.098770115700614086 0 0.25282536794073712 0.073272794188635415 0 0.25089272908716931 0.092982859712809007 0 0.26618138576237349 0.084067315497028519 0 0.26618138576237349 0.084067315497028519 0 0.28181267844286689 0.084890460016538952 0 0.27478568008848531 0.098770115700614086 0 0.26618138576237349 0.084067315497028519 0 0.27167623587568768 0.070814912161459326 0 0.28181267844286689 0.084890460016538952 0 0.27167623587568768 0.070814912161459326 0 0.2870451550563029 0.071072764848292863 0 0.28181267844286689 0.084890460016538952 0 0.2870451550563029 0.071072764848292863 0 0.29673814540623761 0.08207029957157172 0 0.30262144479489489 0.063472250579192202 0 0.28562393541442521 0.056242032033416753 0 0.2870451550563029 0.071072764848292863 0 0.30262144479489489 0.063472250579192202 0 0.28562393541442521 0.056242032033416753 0 0.27167623587568768 0.070814912161459326 0 0.2870451550563029 0.071072764848292863 0 0.2870451550563029 0.071072764848292863 0 0.28181267844286689 0.084890460016538952 0 0.29673814540623761 0.08207029957157172 0 0.28181267844286689 0.084890460016538952 0 0.29673814540623761 0.08207029957157172 0 0.29867863108980142 0.1045573716884185 0 0.31851483003181857 0.089032350953859848 0 0.29673814540623761 0.08207029957157172 0 0.30262144479489489 0.063472250579192202 0 0.31851483003181857 0.089032350953859848 0 0.29673814540623761 0.08207029957157172 0 0.29867863108980142 0.1045573716884185 0 0.2991284260398443 0.1226428311133997 0 0.29867863108980142 0.1045573716884185 0 0.31156748461804079 0.12537242366950921 0 0.32257158209111758 0.11034462767622299 0 0.29867863108980142 0.1045573716884185 0 0.31156748461804079 0.12537242366950921 0 0.32257158209111758 0.11034462767622299 0 0.29867863108980142 0.1045573716884185 0 0.29867863108980142 0.1045573716884185 0 0.27478568008848531 0.098770115700614086 0 0.29867863108980142 0.1045573716884185 0 0.27783009132198788 0.1122622341296569 0 0.27478568008848531 0.098770115700614086 0 0.28181267844286689 0.084890460016538952 0 0.29867863108980142 0.1045573716884185 0 0.27478568008848531 0.098770115700614086 0 0.2991284260398443 0.1226428311133997 0 0.29867863108980142 0.1045573716884185 0 0.28707615928971691 0.1208096883177448 0 0.29867863108980142 0.1045573716884185 0 0.28707615928971691 0.1208096883177448 0 0.27783009132198788 0.1122622341296569 0 0.2991284260398443 0.1226428311133997 0 0.28707615928971691 0.1208096883177448 0 0.29671346303214241 0.12961196471325551 0 0.26302281242735981 0.111198171579071 0 0.27515289576754948 0.1294134834453334 0 0.28707615928971691 0.1208096883177448 0 0.27783009132198788 0.1122622341296569 0 0.27515289576754948 0.1294134834453334 0 0.27783009132198788 0.1122622341296569 0 0.26302281242735981 0.111198171579071 0 0.27515289576754948 0.1294134834453334 0 0.26302281242735981 0.111198171579071 0 0.26007351669183237 0.1253037732749688 0 0.27515289576754948 0.1294134834453334 0 0.27783009132198788 0.1122622341296569 0 0.27478568008848531 0.098770115700614086 0 0.26302281242735981 0.111198171579071 0 0.25089272908716931 0.092982859712809007 0 0.26302281242735981 0.111198171579071 0 0.2496952397761337 0.1160329650041991 0 0.25089272908716931 0.092982859712809007 0 0.26302281242735981 0.111198171579071 0 0.25089272908716931 0.092982859712809007 0 0.27478568008848531 0.098770115700614086 0 0.26302281242735981 0.111198171579071 0 0.25089272908716931 0.092982859712809007 0 0.27478568008848531 0.098770115700614086 0 0.2471064899150823 0.133463067737116 0 0.2496952397761337 0.1160329650041991 0 0.26007351669183237 0.1253037732749688 0 0.2496952397761337 0.1160329650041991 0 0.26302281242735981 0.111198171579071 0 0.26007351669183237 0.1253037732749688 0 0.2471064899150823 0.133463067737116 0 0.26212056590251792 0.13860634342131159 0 0.25227113898158787 0.14916335431643429 0 0.2471064899150823 0.133463067737116 0 0.26212056590251792 0.13860634342131159 0 0.26007351669183237 0.1253037732749688 0 0.27515289576754948 0.1294134834453334 0 0.28728297910773942 0.14762879531159581 0 0.27515289576754948 0.1294134834453334 0 0.27408945104382287 0.14431330872834849 0 0.28728297910773942 0.14762879531159581 0 0.26212056590251792 0.13860634342131159 0 0.26007351669183237 0.1253037732749688 0 0.27515289576754948 0.1294134834453334 0 0.26212056590251792 0.13860634342131159 0 0.27515289576754948 0.1294134834453334 0 0.27408945104382287 0.14431330872834849 0 0.27408945104382287 0.14431330872834849 0 0.27716137478162928 0.15889869399298601 0 0.28728297910773942 0.14762879531159581 0 0.26212056590251792 0.13860634342131159 0 0.27408945104382287 0.14431330872834849 0 0.26493391480523859 0.14953421755469451 0 0.27408945104382287 0.14431330872834849 0 0.26493391480523859 0.14953421755469451 0 0.27716137478162928 0.15889869399298601 0 0.26493391480523859 0.14953421755469451 0 0.25227113898158787 0.14916335431643429 0 0.25784869618064837 0.16117632967822779 0 0.26212056590251792 0.13860634342131159 0 0.26493391480523859 0.14953421755469451 0 0.25227113898158787 0.14916335431643429 0 0.24342118736862761 0.16410875332904781 0 0.25227113898158787 0.14916335431643429 0 0.25784869618064837 0.16117632967822779 0 0.24342118736862761 0.16410875332904781 0 0.25784869618064837 0.16117632967822779 0 0.25421457754785548 0.17528354573505059 0 0.25784869618064837 0.16117632967822779 0 0.25421457754785548 0.17528354573505059 0 0.26798999978846311 0.16999528723303189 0 0.25421457754785548 0.17528354573505059 0 0.26688833639653942 0.18474270353269559 0 0.25113643024109478 0.19094495075723769 0 0.25421457754785548 0.17528354573505059 0 0.26688833639653942 0.18474270353269559 0 0.26798999978846311 0.16999528723303189 0 0.26688833639653942 0.18474270353269559 0 0.27899922157627788 0.1740987885831469 0 0.26798999978846311 0.16999528723303189 0 0.26688833639653942 0.18474270353269559 0 0.27899922157627788 0.1740987885831469 0 0.28165513110548479 0.1855437801635878 0 0.25784869618064837 0.16117632967822779 0 0.26798999978846311 0.16999528723303189 0 0.27716137478162928 0.15889869399298601 0 0.26493391480523859 0.14953421755469451 0 0.25784869618064837 0.16117632967822779 0 0.27716137478162928 0.15889869399298601 0 0.27899922157627788 0.1740987885831469 0 0.26798999978846311 0.16999528723303189 0 0.27716137478162928 0.15889869399298601 0 0.27716137478162928 0.15889869399298601 0 0.28838527260411961 0.16768800255462621 0 0.29642958482603432 0.1586868689393966 0 0.27899922157627788 0.1740987885831469 0 0.27716137478162928 0.15889869399298601 0 0.28838527260411961 0.16768800255462621 0 0.28838527260411961 0.16768800255462621 0 0.29642958482603432 0.1586868689393966 0 0.2990812202460017 0.16972771789266669 0 0.28165513110548479 0.1855437801635878 0 0.29057456817046978 0.17841330338653549 0 0.29442149412013968 0.19018242885082931 0 0.27899922157627788 0.1740987885831469 0 0.28165513110548479 0.1855437801635878 0 0.29057456817046978 0.17841330338653549 0 0.27899922157627788 0.1740987885831469 0 0.28838527260411961 0.16768800255462621 0 0.29057456817046978 0.17841330338653549 0 0.28838527260411961 0.16768800255462621 0 0.29057456817046978 0.17841330338653549 0 0.2990812202460017 0.16972771789266669 0 0.29057456817046978 0.17841330338653549 0 0.30085032626191438 0.18018504882584371 0 0.2990812202460017 0.16972771789266669 0 0.29057456817046978 0.17841330338653549 0 0.30085032626191438 0.18018504882584371 0 0.29442149412013968 0.19018242885082931 0 0.30085032626191438 0.18018504882584371 0 0.29442149412013968 0.19018242885082931 0 0.3080553032197017 0.1887293017033026 0 0.30085032626191438 0.18018504882584371 0 0.31056514142368619 0.1744383831500049 0 0.2990812202460017 0.16972771789266669 0 0.30085032626191438 0.18018504882584371 0 0.31056514142368619 0.1744383831500049 0 0.3080553032197017 0.1887293017033026 0 0.29642958482603432 0.1586868689393966 0 0.30747502192119819 0.16230778928688711 0 0.30151933753066762 0.14970454816787401 0 0.29642958482603432 0.1586868689393966 0 0.2990812202460017 0.16972771789266669 0 0.30747502192119819 0.16230778928688711 0 0.31056514142368619 0.1744383831500049 0 0.2990812202460017 0.16972771789266669 0 0.30747502192119819 0.16230778928688711 0 0.30747502192119819 0.16230778928688711 0 0.30151933753066762 0.14970454816787401 0 0.3129765302581462 0.1494710021231663 0 0.30151933753066762 0.14970454816787401 0 0.29882590938581222 0.14264553562683399 0 0.30718649112507979 0.14443915855455869 0 0.30151933753066762 0.14970454816787401 0 0.30718649112507979 0.14443915855455869 0 0.3129765302581462 0.1494710021231663 0 0.29882590938581222 0.14264553562683399 0 0.30718649112507979 0.14443915855455869 0 0.31229822968882548 0.13781435906697939 0 0.30718649112507979 0.14443915855455869 0 0.31229822968882548 0.13781435906697939 0 0.3129765302581462 0.1494710021231663 0 0.31229822968882548 0.13781435906697939 0 0.28502845800881449 0.13413009067030229 0 0.31229822968882548 0.13781435906697939 0 0.29671346303214241 0.12961196471325551 0 0.28502845800881449 0.13413009067030229 0 0.29882590938581222 0.14264553562683399 0 0.31229822968882548 0.13781435906697939 0 0.28502845800881449 0.13413009067030229 0 0.2991284260398443 0.1226428311133997 0 0.31156748461804079 0.12537242366950921 0 0.30438347209902411 0.12928289016934871 0 0.31229822968882548 0.13781435906697939 0 0.31156748461804079 0.12537242366950921 0 0.30438347209902411 0.12928289016934871 0 0.31229822968882548 0.13781435906697939 0 0.30438347209902411 0.12928289016934871 0 0.29671346303214241 0.12961196471325551 0 0.2991284260398443 0.1226428311133997 0 0.30438347209902411 0.12928289016934871 0 0.29671346303214241 0.12961196471325551 0 0.27515289576754948 0.1294134834453334 0 0.28502845800881449 0.13413009067030229 0 0.28728297910773942 0.14762879531159581 0 0.28707615928971691 0.1208096883177448 0 0.29671346303214241 0.12961196471325551 0 0.28502845800881449 0.13413009067030229 0 0.28707615928971691 0.1208096883177448 0 0.27515289576754948 0.1294134834453334 0 0.28502845800881449 0.13413009067030229 0 0.27716137478162928 0.15889869399298601 0 0.29642958482603432 0.1586868689393966 0 0.28728297910773942 0.14762879531159581 0 0.29642958482603432 0.1586868689393966 0 0.30151933753066762 0.14970454816787401 0 0.28728297910773942 0.14762879531159581 0 0.30151933753066762 0.14970454816787401 0 0.29882590938581222 0.14264553562683399 0 0.28728297910773942 0.14762879531159581 0 0.29882590938581222 0.14264553562683399 0 0.28502845800881449 0.13413009067030229 0 0.28728297910773942 0.14762879531159581 0 0.2459873280094696 0.23707215699401071 0 0.27381195783464701 0.24213208581531279 0 0.2459873280094696 0.23707215699401071 0 0.27381195783464701 0.24213208581531279 0 0.27283394916361492 0.24742619336605559 0 0.2459873280094696 0.23707215699401071 0 0.27283394916361492 0.24742619336605559 0 0.2459873280094696 0.23707215699401071 0 0.25877170878786238 0.25302463852503437 0 0.27283394916361492 0.24742619336605559 0 0.2459873280094696 0.23707215699401071 0 0.24763005152173001 0.25910176257370959 0 0.25877170878786238 0.25302463852503437 0 0.24332195560292991 0.2175119837032847 0 0.2459873280094696 0.23707215699401071 0 0.26947725056793032 0.22188821543332771 0 0.2459873280094696 0.23707215699401071 0 0.27381195783464701 0.24213208581531279 0 0.26947725056793032 0.22188821543332771 0 0.24332195560292991 0.2175119837032847 0 0.26947725056793032 0.22188821543332771 0 0.27381195783464701 0.24213208581531279 0 0.26947725056793032 0.22188821543332771 0 0.29563254553293061 0.22626444716337071 0 0.26947725056793032 0.22188821543332771 0 0.26383894902510108 0.20488334565775601 0 0.28252807440433819 0.20448568929014271 0 0.24828008483854189 0.20295934428596721 0 0.24332195560292991 0.2175119837032847 0 0.26383894902510108 0.20488334565775601 0 0.24332195560292991 0.2175119837032847 0 0.26947725056793032 0.22188821543332771 0 0.26383894902510108 0.20488334565775601 0 0.26688833639653942 0.18474270353269559 0 0.26383894902510108 0.20488334565775601 0 0.25113643024109478 0.19094495075723769 0 0.24828008483854189 0.20295934428596721 0 0.26383894902510108 0.20488334565775601 0 0.25113643024109478 0.19094495075723769 0 0.26688833639653942 0.18474270353269559 0 0.26383894902510108 0.20488334565775601 0 0.27369942293731819 0.19569303942008121 0 0.26383894902510108 0.20488334565775601 0 0.27369942293731819 0.19569303942008121 0 0.28252807440433819 0.20448568929014271 0 0.28165513110548479 0.1855437801635878 0 0.27369942293731819 0.19569303942008121 0 0.28252807440433819 0.20448568929014271 0 0.26688833639653942 0.18474270353269559 0 0.28165513110548479 0.1855437801635878 0 0.27369942293731819 0.19569303942008121 0 0.28165513110548479 0.1855437801635878 0 0.29442149412013968 0.19018242885082931 0 0.28252807440433819 0.20448568929014271 0 0.29442149412013968 0.19018242885082931 0 0.30168066081365352 0.2029210297493958 0 0.28252807440433819 0.20448568929014271 0 0.29442149412013968 0.19018242885082931 0 0.3080553032197017 0.1887293017033026 0 0.30168066081365352 0.2029210297493958 0 0.3080553032197017 0.1887293017033026 0 0.30168066081365352 0.2029210297493958 0 0.31674655555173881 0.19902842766084339 0 0.30168066081365352 0.2029210297493958 0 0.29563254553293061 0.22626444716337071 0 0.31377845179643721 0.21458276756770189 0 0.30168066081365352 0.2029210297493958 0 0.31377845179643721 0.21458276756770189 0 0.31674655555173881 0.19902842766084339 0 0.30168066081365352 0.2029210297493958 0 0.28252807440433819 0.20448568929014271 0 0.29563254553293061 0.22626444716337071 0 0.26947725056793032 0.22188821543332771 0 0.28252807440433819 0.20448568929014271 0 0.29563254553293061 0.22626444716337071 0 0.26947725056793032 0.22188821543332771 0 0.29563254553293061 0.22626444716337071 0 0.29563254553293061 0.22626444716337071 0 0.3217878404979308 0.23064067889341369 0 0.31377845179643721 0.21458276756770189 0 0.29563254553293061 0.22626444716337071 0 0.3217878404979308 0.23064067889341369 0 0.29563254553293061 0.22626444716337071 0 0.3016365876598241 0.24719201463661561 0 0.3217878404979308 0.23064067889341369 0 0.27381195783464701 0.24213208581531279 0 0.29563254553293061 0.22626444716337071 0 0.3016365876598241 0.24719201463661561 0 0.27381195783464701 0.24213208581531279 0 0.3016365876598241 0.24719201463661561 0 0.27381195783464701 0.24213208581531279 0 0.27283394916361492 0.24742619336605559 0 0.3016365876598241 0.24719201463661561 0 0.32946121748500129 0.25225194345791829 0 0.3217878404979308 0.23064067889341369 0 0.34556910970536658 0.23921390462248199 0 0.32946121748500129 0.25225194345791829 0 0.3016365876598241 0.24719201463661561 0 0.3217878404979308 0.23064067889341369 0 0.32946121748500129 0.25225194345791829 0 0.3016365876598241 0.24719201463661561 0 0.3217878404979308 0.23064067889341369 0 0.33460182177363001 0.21999966289075409 0 0.31377845179643721 0.21458276756770189 0 0.3217878404979308 0.23064067889341369 0 0.33460182177363001 0.21999966289075409 0 0.34556910970536658 0.23921390462248199 0 0.33460182177363001 0.21999966289075409 0 0.3278776259658665 0.2076214509036243 0 0.34419695055865512 0.20542025302645439 0 0.33460182177363001 0.21999966289075409 0 0.31377845179643721 0.21458276756770189 0 0.3278776259658665 0.2076214509036243 0 0.31377845179643721 0.21458276756770189 0 0.3278776259658665 0.2076214509036243 0 0.31674655555173881 0.19902842766084339 0 0.3278776259658665 0.2076214509036243 0 0.31674655555173881 0.19902842766084339 0 0.32893527636844411 0.194937601908272 0 0.3080553032197017 0.1887293017033026 0 0.31674655555173881 0.19902842766084339 0 0.32122387935841612 0.1836610840160959 0 0.31674655555173881 0.19902842766084339 0 0.32893527636844411 0.194937601908272 0 0.32122387935841612 0.1836610840160959 0 0.32893527636844411 0.194937601908272 0 0.34419695055865512 0.20542025302645439 0 0.33967484433078321 0.18584068278097349 0 0.32893527636844411 0.194937601908272 0 0.32122387935841612 0.1836610840160959 0 0.33967484433078321 0.18584068278097349 0 0.3278776259658665 0.2076214509036243 0 0.32893527636844411 0.194937601908272 0 0.34419695055865512 0.20542025302645439 0 0.35368837148756882 0.19334260062126429 0 0.34419695055865512 0.20542025302645439 0 0.33967484433078321 0.18584068278097349 0 0.35368837148756882 0.19334260062126429 0 0.36735815001373812 0.20351917688449569 0 0.34419695055865512 0.20542025302645439 0 0.36735815001373812 0.20351917688449569 0 0.36699199379966768 0.18628457072029089 0 0.38367398474104891 0.18179268717308689 0 0.35368837148756882 0.19334260062126429 0 0.36735815001373812 0.20351917688449569 0 0.36699199379966768 0.18628457072029089 0 0.36735815001373812 0.20351917688449569 0 0.35440095211752448 0.2225189223308488 0 0.37280151553833601 0.22024831863616021 0 0.36735815001373812 0.20351917688449569 0 0.37280151553833601 0.22024831863616021 0 0.38406378734192298 0.20777210545990279 0 0.36735815001373812 0.20351917688449569 0 0.34419695055865512 0.20542025302645439 0 0.35440095211752448 0.2225189223308488 0 0.33460182177363001 0.21999966289075409 0 0.34419695055865512 0.20542025302645439 0 0.35440095211752448 0.2225189223308488 0 0.35440095211752448 0.2225189223308488 0 0.37293454716760283 0.2396311516560117 0 0.34556910970536658 0.23921390462248199 0 0.33460182177363001 0.21999966289075409 0 0.35440095211752448 0.2225189223308488 0 0.34556910970536658 0.23921390462248199 0 0.35440095211752448 0.2225189223308488 0 0.37280151553833601 0.22024831863616021 0 0.37293454716760283 0.2396311516560117 0 0.32946121748500129 0.25225194345791829 0 0.35728584731017871 0.25731187227922109 0 0.34556910970536658 0.23921390462248199 0 0.35728584731017871 0.25731187227922109 0 0.37293454716760283 0.2396311516560117 0 0.34556910970536658 0.23921390462248199 0 0.33789665254535572 0.15537308983460499 0 0.33956800136883641 0.14149862746365649 0 0.32484504322689201 0.150618498474763 0 0.33789665254535572 0.15537308983460499 0 0.32484504322689201 0.150618498474763 0 0.32925575641373173 0.1625602653078303 0 0.33789665254535572 0.15537308983460499 0 0.33956800136883641 0.14149862746365649 0 0.35085012880757988 0.15547460686614431 0 0.31847051852819058 0.13586426255884801 0 0.34441400131097022 0.1288917011053414 0 0.32933038512457441 0.1245201253257071 0 0.31847051852819058 0.13586426255884801 0 0.34441400131097022 0.1288917011053414 0 0.33956800136883641 0.14149862746365649 0 0.31847051852819058 0.13586426255884801 0 0.34441400131097022 0.1288917011053414 0 0.31229822968882548 0.13781435906697939 0 0.33956800136883641 0.14149862746365649 0 0.31229822968882548 0.13781435906697939 0 0.33956800136883641 0.14149862746365649 0 0.31847051852819058 0.13586426255884801 0 0.32933038512457441 0.1245201253257071 0 0.3207185438207466 0.1263919595033525 0 0.31847051852819058 0.13586426255884801 0 0.31156748461804079 0.12537242366950921 0 0.3207185438207466 0.1263919595033525 0 0.31847051852819058 0.13586426255884801 0 0.31229822968882548 0.13781435906697939 0 0.31156748461804079 0.12537242366950921 0 0.31847051852819058 0.13586426255884801 0 0.31229822968882548 0.13781435906697939 0 0.33956800136883641 0.14149862746365649 0 0.32484504322689201 0.150618498474763 0 0.31229822968882548 0.13781435906697939 0 0.32484504322689201 0.150618498474763 0 0.3129765302581462 0.1494710021231663 0 0.32484504322689201 0.150618498474763 0 0.3129765302581462 0.1494710021231663 0 0.31772009751989111 0.15842714336302041 0 0.30747502192119819 0.16230778928688711 0 0.3129765302581462 0.1494710021231663 0 0.31772009751989111 0.15842714336302041 0 0.30747502192119819 0.16230778928688711 0 0.31772009751989111 0.15842714336302041 0 0.32080742045079952 0.16866520015094741 0 0.31056514142368619 0.1744383831500049 0 0.30747502192119819 0.16230778928688711 0 0.32080742045079952 0.16866520015094741 0 0.32080742045079952 0.16866520015094741 0 0.33131907253280629 0.1738795647946571 0 0.32925575641373173 0.1625602653078303 0 0.32484504322689201 0.150618498474763 0 0.31772009751989111 0.15842714336302041 0 0.32925575641373173 0.1625602653078303 0 0.31772009751989111 0.15842714336302041 0 0.32080742045079952 0.16866520015094741 0 0.32925575641373173 0.1625602653078303 0 0.31056514142368619 0.1744383831500049 0 0.3080553032197017 0.1887293017033026 0 0.32122387935841612 0.1836610840160959 0 0.31056514142368619 0.1744383831500049 0 0.32080742045079952 0.16866520015094741 0 0.32122387935841612 0.1836610840160959 0 0.32080742045079952 0.16866520015094741 0 0.32122387935841612 0.1836610840160959 0 0.33131907253280629 0.1738795647946571 0 0.33131907253280629 0.1738795647946571 0 0.33967484433078321 0.18584068278097349 0 0.34294625220664587 0.1683980952289891 0 0.32122387935841612 0.1836610840160959 0 0.33131907253280629 0.1738795647946571 0 0.33967484433078321 0.18584068278097349 0 0.33131907253280629 0.1738795647946571 0 0.32925575641373173 0.1625602653078303 0 0.34294625220664587 0.1683980952289891 0 0.33789665254535572 0.15537308983460499 0 0.32925575641373173 0.1625602653078303 0 0.34294625220664587 0.1683980952289891 0 0.34294625220664587 0.1683980952289891 0 0.35531914635495271 0.16562513299740311 0 0.35085012880757988 0.15547460686614431 0 0.33789665254535572 0.15537308983460499 0 0.34294625220664587 0.1683980952289891 0 0.35085012880757988 0.15547460686614431 0 0.34294625220664587 0.1683980952289891 0 0.35531914635495271 0.16562513299740311 0 0.35387202203434698 0.17803066266241011 0 0.35531914635495271 0.16562513299740311 0 0.35387202203434698 0.17803066266241011 0 0.36550295271590683 0.1690726970215666 0 0.35531914635495271 0.16562513299740311 0 0.36342437601028388 0.15714960320790561 0 0.35085012880757988 0.15547460686614431 0 0.33967484433078321 0.18584068278097349 0 0.34294625220664587 0.1683980952289891 0 0.35387202203434698 0.17803066266241011 0 0.35368837148756882 0.19334260062126429 0 0.33967484433078321 0.18584068278097349 0 0.35387202203434698 0.17803066266241011 0 0.35368837148756882 0.19334260062126429 0 0.35387202203434698 0.17803066266241011 0 0.36699199379966768 0.18628457072029089 0 0.37486327834919952 0.17324080595030389 0 0.36699199379966768 0.18628457072029089 0 0.36550295271590683 0.1690726970215666 0 0.35387202203434698 0.17803066266241011 0 0.36699199379966768 0.18628457072029089 0 0.36550295271590683 0.1690726970215666 0 0.36342437601028388 0.15714960320790561 0 0.36550295271590683 0.1690726970215666 0 0.38328418214017468 0.15581326888627101 0 0.37486327834919952 0.17324080595030389 0 0.36550295271590683 0.1690726970215666 0 0.38328418214017468 0.15581326888627101 0 0.35531914635495271 0.16562513299740311 0 0.36342437601028388 0.15714960320790561 0 0.36550295271590683 0.1690726970215666 0 0.36342437601028388 0.15714960320790561 0 0.36683777304884752 0.14518289586033359 0 0.38328418214017468 0.15581326888627101 0 0.36342437601028388 0.15714960320790561 0 0.36683777304884752 0.14518289586033359 0 0.35085012880757988 0.15547460686614431 0 0.33956800136883641 0.14149862746365649 0 0.36683777304884752 0.14518289586033359 0 0.33956800136883641 0.14149862746365649 0 0.36683777304884752 0.14518289586033359 0 0.35085012880757988 0.15547460686614431 0 0.37035748409374952 0.12191913965183331 0 0.34441400131097022 0.1288917011053414 0 0.33956800136883641 0.14149862746365649 0 0.34441400131097022 0.1288917011053414 0 0.35985245571789548 0.13256521397634091 0 0.37035748409374952 0.12191913965183331 0 0.34441400131097022 0.1288917011053414 0 0.35985245571789548 0.13256521397634091 0 0.33956800136883641 0.14149862746365649 0 0.36683777304884752 0.14518289586033359 0 0.35985245571789548 0.13256521397634091 0 0.36683777304884752 0.14518289586033359 0 0.37024230120578611 0.13336796185197819 0 0.3828943795393005 0.1298338505994551 0 0.36683777304884752 0.14518289586033359 0 0.35985245571789548 0.13256521397634091 0 0.37024230120578611 0.13336796185197819 0 0.35985245571789548 0.13256521397634091 0 0.37024230120578611 0.13336796185197819 0 0.37169283910029199 0.12815165521797289 0 0.37024230120578611 0.13336796185197819 0 0.37169283910029199 0.12815165521797289 0 0.3828943795393005 0.1298338505994551 0 0.37035748409374952 0.12191913965183331 0 0.35985245571789548 0.13256521397634091 0 0.37169283910029199 0.12815165521797289 0 0.37169283910029199 0.12815165521797289 0 0.3828943795393005 0.1298338505994551 0 0.37511757494472903 0.123072110010257 0 0.3828943795393005 0.1298338505994551 0 0.39816792615439378 0.12760480203569169 0 0.39443703245191569 0.14316330482662179 0 0.39816792615439378 0.12760480203569169 0 0.39443703245191569 0.14316330482662179 0 0.40813897635800228 0.13879757292358971 0 0.40355831469332321 0.14905262061052801 0 0.39443703245191569 0.14316330482662179 0 0.39831584160420508 0.1589856433255693 0 0.39443703245191569 0.14316330482662179 0 0.38328418214017468 0.15581326888627101 0 0.39831584160420508 0.1589856433255693 0 0.40355831469332321 0.14905262061052801 0 0.39831584160420508 0.1589856433255693 0 0.41313230378900101 0.1549252007201132 0 0.40355831469332321 0.14905262061052801 0 0.39443703245191569 0.14316330482662179 0 0.40813897635800228 0.13879757292358971 0 0.3828943795393005 0.1298338505994551 0 0.39443703245191569 0.14316330482662179 0 0.38328418214017468 0.15581326888627101 0 0.36683777304884752 0.14518289586033359 0 0.3828943795393005 0.1298338505994551 0 0.38328418214017468 0.15581326888627101 0 0.3828943795393005 0.1298338505994551 0 0.38328418214017468 0.15581326888627101 0 0.38328418214017468 0.15581326888627101 0 0.38367398474104891 0.18179268717308689 0 0.37486327834919952 0.17324080595030389 0 0.38328418214017468 0.15581326888627101 0 0.38367398474104891 0.18179268717308689 0 0.38328418214017468 0.15581326888627101 0 0.38367398474104891 0.18179268717308689 0 0.39626047774709761 0.17356948839180519 0 0.37486327834919952 0.17324080595030389 0 0.36699199379966768 0.18628457072029089 0 0.38367398474104891 0.18179268717308689 0 0.38367398474104891 0.18179268717308689 0 0.39626047774709761 0.17356948839180519 0 0.39402839101454218 0.18926537882500041 0 0.41201559310989622 0.1717711692121752 0 0.39402839101454218 0.18926537882500041 0 0.40911253846621609 0.1927355572029634 0 0.41201559310989622 0.1717711692121752 0 0.39402839101454218 0.18926537882500041 0 0.39626047774709761 0.17356948839180519 0 0.41201559310989622 0.1717711692121752 0 0.39402839101454218 0.18926537882500041 0 0.38328418214017468 0.15581326888627101 0 0.39626047774709761 0.17356948839180519 0 0.39831584160420508 0.1589856433255693 0 0.39626047774709761 0.17356948839180519 0 0.39831584160420508 0.1589856433255693 0 0.41201559310989622 0.1717711692121752 0 0.39831584160420508 0.1589856433255693 0 0.41201559310989622 0.1717711692121752 0 0.41313230378900101 0.1549252007201132 0 0.41201559310989622 0.1717711692121752 0 0.43000279520525009 0.1542769595993502 0 0.41201559310989622 0.1717711692121752 0 0.43000279520525009 0.1542769595993502 0 0.41313230378900101 0.1549252007201132 0 0.41201559310989622 0.1717711692121752 0 0.42496471626184562 0.18478050847474101 0 0.40911253846621609 0.1927355572029634 0 0.42496471626184562 0.18478050847474101 0 0.42886790669691233 0.1683305758749721 0 0.44390934378202151 0.1869955505783234 0 0.41201559310989622 0.1717711692121752 0 0.42496471626184562 0.18478050847474101 0 0.42886790669691233 0.1683305758749721 0 0.42886790669691233 0.1683305758749721 0 0.44390934378202151 0.1869955505783234 0 0.41201559310989622 0.1717711692121752 0 0.42886790669691233 0.1683305758749721 0 0.43000279520525009 0.1542769595993502 0 0.42886790669691233 0.1683305758749721 0 0.43000279520525009 0.1542769595993502 0 0.44221599041969212 0.16183818438693329 0 0.43000279520525009 0.1542769595993502 0 0.42332430940078591 0.1392784445062823 0 0.4479899973006039 0.1367827499865252 0 0.43000279520525009 0.1542769595993502 0 0.42332430940078591 0.1392784445062823 0 0.41313230378900101 0.1549252007201132 0 0.429848517254516 0.1255917524949702 0 0.42332430940078591 0.1392784445062823 0 0.41384889774502859 0.12525543762671809 0 0.429848517254516 0.1255917524949702 0 0.42332430940078591 0.1392784445062823 0 0.4479899973006039 0.1367827499865252 0 0.39816792615439378 0.12760480203569169 0 0.41384889774502859 0.12525543762671809 0 0.40813897635800228 0.13879757292358971 0 0.42332430940078591 0.1392784445062823 0 0.41384889774502859 0.12525543762671809 0 0.40813897635800228 0.13879757292358971 0 0.40355831469332321 0.14905262061052801 0 0.40813897635800228 0.13879757292358971 0 0.41313230378900101 0.1549252007201132 0 0.42332430940078591 0.1392784445062823 0 0.40813897635800228 0.13879757292358971 0 0.41313230378900101 0.1549252007201132 0 0.38511047713535562 0.2623718011005241 0 0.37293454716760283 0.2396311516560117 0 0.39933451681408499 0.24222051247515669 0 0.37293454716760283 0.2396311516560117 0 0.39933451681408499 0.24222051247515669 0 0.39045396999845727 0.2225958518425987 0 0.37280151553833601 0.22024831863616021 0 0.37293454716760283 0.2396311516560117 0 0.39045396999845727 0.2225958518425987 0 0.39933451681408499 0.24222051247515669 0 0.39045396999845727 0.2225958518425987 0 0.41502085935247712 0.2184770015477572 0 0.39045396999845727 0.2225958518425987 0 0.39965272480706299 0.2061417744041574 0 0.38406378734192298 0.20777210545990279 0 0.39045396999845727 0.2225958518425987 0 0.39965272480706299 0.2061417744041574 0 0.41502085935247712 0.2184770015477572 0 0.37280151553833601 0.22024831863616021 0 0.39045396999845727 0.2225958518425987 0 0.38406378734192298 0.20777210545990279 0 0.36735815001373812 0.20351917688449569 0 0.38367398474104891 0.18179268717308689 0 0.38406378734192298 0.20777210545990279 0 0.38367398474104891 0.18179268717308689 0 0.38406378734192298 0.20777210545990279 0 0.38367398474104891 0.18179268717308689 0 0.38406378734192298 0.20777210545990279 0 0.39402839101454218 0.18926537882500041 0 0.39965272480706299 0.2061417744041574 0 0.38406378734192298 0.20777210545990279 0 0.39402839101454218 0.18926537882500041 0 0.39965272480706299 0.2061417744041574 0 0.39402839101454218 0.18926537882500041 0 0.40911253846621609 0.1927355572029634 0 0.42496471626184562 0.18478050847474101 0 0.40911253846621609 0.1927355572029634 0 0.43133039545531981 0.20312972213906441 0 0.42496471626184562 0.18478050847474101 0 0.43133039545531981 0.20312972213906441 0 0.44390934378202151 0.1869955505783234 0 0.43133039545531981 0.20312972213906441 0 0.41502085935247712 0.2184770015477572 0 0.43839838412078092 0.2247149777195776 0 0.40911253846621609 0.1927355572029634 0 0.41502085935247712 0.2184770015477572 0 0.40911253846621609 0.1927355572029634 0 0.43133039545531981 0.20312972213906441 0 0.41502085935247712 0.2184770015477572 0 0.39965272480706299 0.2061417744041574 0 0.40911253846621609 0.1927355572029634 0 0.41502085935247712 0.2184770015477572 0 0.41502085935247712 0.2184770015477572 0 0.42092918023873821 0.24421844589255121 0 0.41502085935247712 0.2184770015477572 0 0.42092918023873821 0.24421844589255121 0 0.43839838412078092 0.2247149777195776 0 0.42092918023873821 0.24421844589255121 0 0.44272868649399699 0.2414724783298311 0 0.43839838412078092 0.2247149777195776 0 0.44089414042045799 0.25771217685885472 0 0.42092918023873821 0.24421844589255121 0 0.44272868649399699 0.2414724783298311 0 0.39933451681408499 0.24222051247515669 0 0.41502085935247712 0.2184770015477572 0 0.42092918023873821 0.24421844589255121 0 0.46750550623703407 0.25349570762290419 0 0.4569230610569987 0.24819013429900669 0 0.47278153852907701 0.24486280325581439 0 0.4569230610569987 0.24819013429900669 0 0.45723446189795819 0.23161380727854039 0 0.47278153852907701 0.24486280325581439 0 0.4569230610569987 0.24819013429900669 0 0.44272868649399699 0.2414724783298311 0 0.45723446189795819 0.23161380727854039 0 0.44089414042045799 0.25771217685885472 0 0.4569230610569987 0.24819013429900669 0 0.44272868649399699 0.2414724783298311 0 0.43839838412078092 0.2247149777195776 0 0.45723446189795819 0.23161380727854039 0 0.45895078086713059 0.20566052528167461 0 0.44272868649399699 0.2414724783298311 0 0.43839838412078092 0.2247149777195776 0 0.45723446189795819 0.23161380727854039 0 0.45723446189795819 0.23161380727854039 0 0.47399221795223978 0.22432549998502579 0 0.47278153852907701 0.24486280325581439 0 0.45723446189795819 0.23161380727854039 0 0.45895078086713059 0.20566052528167461 0 0.47399221795223978 0.22432549998502579 0 0.45895078086713059 0.20566052528167461 0 0.47399221795223978 0.22432549998502579 0 0.43133039545531981 0.20312972213906441 0 0.43839838412078092 0.2247149777195776 0 0.45895078086713059 0.20566052528167461 0 0.43133039545531981 0.20312972213906441 0 0.45895078086713059 0.20566052528167461 0 0.44390934378202151 0.1869955505783234 0 0.45895078086713059 0.20566052528167461 0 0.44390934378202151 0.1869955505783234 0 0.45895078086713059 0.20566052528167461 0 0.44390934378202151 0.1869955505783234 0 0.47471792995388828 0.18435875067661631 0 0.45895078086713059 0.20566052528167461 0 0.47967819324703809 0.2043502093285503 0 0.47471792995388828 0.18435875067661631 0 0.5 0.20006456793442701 0 0.47967819324703809 0.2043502093285503 0 0.47471792995388828 0.18435875067661631 0 0.5 0.20006456793442701 0 0.48813206750880261 0.21755351138133391 0 0.47967819324703809 0.2043502093285503 0 0.5 0.20006456793442701 0 0.48813206750880261 0.21755351138133391 0 0.5 0.22779789293978581 0 0.45895078086713059 0.20566052528167461 0 0.47967819324703809 0.2043502093285503 0 0.47399221795223978 0.22432549998502579 0 0.48813206750880261 0.21755351138133391 0 0.47967819324703809 0.2043502093285503 0 0.47399221795223978 0.22432549998502579 0 0.48813206750880261 0.21755351138133391 0 0.47399221795223978 0.22432549998502579 0 0.48903365503734891 0.24299047468837701 0 0.47399221795223978 0.22432549998502579 0 0.48903365503734891 0.24299047468837701 0 0.48813206750880261 0.21755351138133391 0 0.5 0.22779789293978581 0 0.48903365503734891 0.24299047468837701 0 0.5 0.25553121794514477 0 0.5 0.22779789293978581 0 0.48903365503734891 0.24299047468837701 0 0.48489893488970792 0.25686202981026901 0 0.48903365503734891 0.24299047468837701 0 0.47278153852907701 0.24486280325581439 0 0.47399221795223978 0.22432549998502579 0 0.48903365503734891 0.24299047468837701 0 0.47278153852907701 0.24486280325581439 0 0.4479899973006039 0.1367827499865252 0 0.46030990911367259 0.16280508589549539 0 0.47332178232586258 0.14483424446409521 0 0.4479899973006039 0.1367827499865252 0 0.47332178232586258 0.14483424446409521 0 0.46597719939595772 0.11928854037370019 0 0.4479899973006039 0.1367827499865252 0 0.46597719939595772 0.11928854037370019 0 0.429848517254516 0.1255917524949702 0 0.4479899973006039 0.1367827499865252 0 0.44441253831551758 0.1138689947079024 0 0.43000279520525009 0.1542769595993502 0 0.4479899973006039 0.1367827499865252 0 0.44221599041969212 0.16183818438693329 0 0.43000279520525009 0.1542769595993502 0 0.4479899973006039 0.1367827499865252 0 0.4479899973006039 0.1367827499865252 0 0.44221599041969212 0.16183818438693329 0 0.46030990911367259 0.16280508589549539 0 0.44221599041969212 0.16183818438693329 0 0.44390934378202151 0.1869955505783234 0 0.46030990911367259 0.16280508589549539 0 0.42886790669691233 0.1683305758749721 0 0.44221599041969212 0.16183818438693329 0 0.44390934378202151 0.1869955505783234 0 0.44390934378202151 0.1869955505783234 0 0.46030990911367259 0.16280508589549539 0 0.47471792995388828 0.18435875067661631 0 0.46030990911367259 0.16280508589549539 0 0.48162298028441808 0.16304382698580119 0 0.47332178232586258 0.14483424446409521 0 0.46030990911367259 0.16280508589549539 0 0.48162298028441808 0.16304382698580119 0 0.47471792995388828 0.18435875067661631 0 0.5 0.20006456793442701 0 0.47471792995388828 0.18435875067661631 0 0.5 0.17233124292906801 0 0.48162298028441808 0.16304382698580119 0 0.47471792995388828 0.18435875067661631 0 0.5 0.17233124292906801 0 0.48162298028441808 0.16304382698580119 0 0.5 0.17233124292906801 0 0.5 0.14459791792370899 0 0.48162298028441808 0.16304382698580119 0 0.5 0.14459791792370899 0 0.47332178232586258 0.14483424446409521 0 0.47332178232586258 0.14483424446409521 0 0.48369720064842647 0.1280225697211729 0 0.46597719939595772 0.11928854037370019 0 0.5 0.14459791792370899 0 0.48369720064842647 0.1280225697211729 0 0.5 0.1168645929183502 0 0.5 0.14459791792370899 0 0.47332178232586258 0.14483424446409521 0 0.48369720064842647 0.1280225697211729 0 0.48369720064842647 0.1280225697211729 0 0.5 0.1168645929183502 0 0.47911227232856668 0.09907818001940101 0 0.5 0.1168645929183502 0 0.47911227232856668 0.09907818001940101 0 0.5 0.089131267912991197 0 0.48369720064842647 0.1280225697211729 0 0.47911227232856668 0.09907818001940101 0 0.46597719939595772 0.11928854037370019 0 0.48592231416185638 0.0752646054103117 0 0.5 0.089131267912991197 0 0.5 0.06139794290763223 0 0.47911227232856668 0.09907818001940101 0 0.48592231416185638 0.0752646054103117 0 0.5 0.089131267912991197 0 0.47911227232856668 0.09907818001940101 0 0.48592231416185638 0.0752646054103117 0 0.46599422920766509 0.071585542922595516 0 0.48592231416185638 0.0752646054103117 0 0.46599422920766509 0.071585542922595516 0 0.47969083044660421 0.050503904472553283 0 0.47911227232856668 0.09907818001940101 0 0.46599422920766509 0.071585542922595516 0 0.45660210543223351 0.096238293732025512 0 0.46599422920766509 0.071585542922595516 0 0.44319262383460789 0.070531660330671375 0 0.45660210543223351 0.096238293732025512 0 0.44319262383460789 0.070531660330671375 0 0.45660210543223351 0.096238293732025512 0 0.43559540491542181 0.095634413362833848 0 0.46597719939595772 0.11928854037370019 0 0.45660210543223351 0.096238293732025512 0 0.44441253831551758 0.1138689947079024 0 0.47911227232856668 0.09907818001940101 0 0.46597719939595772 0.11928854037370019 0 0.45660210543223351 0.096238293732025512 0 0.45660210543223351 0.096238293732025512 0 0.44441253831551758 0.1138689947079024 0 0.43559540491542181 0.095634413362833848 0 0.4479899973006039 0.1367827499865252 0 0.46597719939595772 0.11928854037370019 0 0.44441253831551758 0.1138689947079024 0 0.429848517254516 0.1255917524949702 0 0.44441253831551758 0.1138689947079024 0 0.42416274095453271 0.1101558860989641 0 0.429848517254516 0.1255917524949702 0 0.41384889774502859 0.12525543762671809 0 0.42416274095453271 0.1101558860989641 0 0.41384889774502859 0.12525543762671809 0 0.42416274095453271 0.1101558860989641 0 0.40716605829359193 0.1120264799895512 0 0.39816792615439378 0.12760480203569169 0 0.41384889774502859 0.12525543762671809 0 0.40716605829359193 0.1120264799895512 0 0.40716605829359193 0.1120264799895512 0 0.41525133388600899 0.093407911538609431 0 0.39656535672550852 0.092974877928873267 0 0.42416274095453271 0.1101558860989641 0 0.40716605829359193 0.1120264799895512 0 0.41525133388600899 0.093407911538609431 0 0.42416274095453271 0.1101558860989641 0 0.43559540491542181 0.095634413362833848 0 0.41525133388600899 0.093407911538609431 0 0.44441253831551758 0.1138689947079024 0 0.42416274095453271 0.1101558860989641 0 0.43559540491542181 0.095634413362833848 0 0.43559540491542181 0.095634413362833848 0 0.4195547633014628 0.073570994746074828 0 0.41525133388600899 0.093407911538609431 0 0.43559540491542181 0.095634413362833848 0 0.4195547633014628 0.073570994746074828 0 0.44319262383460789 0.070531660330671375 0 0.43559540491542181 0.095634413362833848 0 0.4195547633014628 0.073570994746074828 0 0.44319262383460789 0.070531660330671375 0 0.4195547633014628 0.073570994746074828 0 0.42728191937221521 0.050914286525162993 0 0.4195547633014628 0.073570994746074828 0 0.39780951386322527 0.071813900777571313 0 0.40351412168750378 0.051507576129315842 0 0.4195547633014628 0.073570994746074828 0 0.40351412168750378 0.051507576129315842 0 0.4195547633014628 0.073570994746074828 0 0.41525133388600899 0.093407911538609431 0 0.39780951386322527 0.071813900777571313 0 0.41525133388600899 0.093407911538609431 0 0.39656535672550852 0.092974877928873267 0 0.39780951386322527 0.071813900777571313 0 0.37400882161871279 0.083619613235024759 0 0.37883567044039879 0.062600723425798879 0 0.39780951386322527 0.071813900777571313 0 0.37883567044039879 0.062600723425798879 0 0.3909554563133032 0.056876008487314757 0 0.37400882161871279 0.083619613235024759 0 0.39780951386322527 0.071813900777571313 0 0.37883567044039879 0.062600723425798879 0 0.37400882161871279 0.083619613235024759 0 0.39656535672550852 0.092974877928873267 0 0.38808178026068268 0.10392801007035141 0 0.37400882161871279 0.083619613235024759 0 0.39656535672550852 0.092974877928873267 0 0.39780951386322527 0.071813900777571313 0 0.37455144446510141 0.10193275935197101 0 0.37400882161871279 0.083619613235024759 0 0.38808178026068268 0.10392801007035141 0 0.37455144446510141 0.10193275935197101 0 0.38808178026068268 0.10392801007035141 0 0.37815432920295677 0.1109533992790251 0 0.37035748409374952 0.12191913965183331 0 0.38876177119367089 0.116972809820693 0 0.37035748409374952 0.12191913965183331 0 0.37511757494472903 0.123072110010257 0 0.38876177119367089 0.116972809820693 0 0.37035748409374952 0.12191913965183331 0 0.37815432920295677 0.1109533992790251 0 0.38876177119367089 0.116972809820693 0 0.3828943795393005 0.1298338505994551 0 0.37511757494472903 0.123072110010257 0 0.38876177119367089 0.116972809820693 0 0.3828943795393005 0.1298338505994551 0 0.39816792615439378 0.12760480203569169 0 0.38876177119367089 0.116972809820693 0 0.38808178026068268 0.10392801007035141 0 0.37815432920295677 0.1109533992790251 0 0.38876177119367089 0.116972809820693 0 0.40716605829359193 0.1120264799895512 0 0.38876177119367089 0.116972809820693 0 0.39816792615439378 0.12760480203569169 0 0.40716605829359193 0.1120264799895512 0 0.38876177119367089 0.116972809820693 0 0.40716605829359193 0.1120264799895512 0 0.38808178026068268 0.10392801007035141 0 0.38876177119367089 0.116972809820693 0 0.40716605829359193 0.1120264799895512 0 0.39656535672550852 0.092974877928873267 0 0.38808178026068268 0.10392801007035141 0 0.39895333728429933 0.027539300906755181 0 0.38848936808377088 0.020562943807347231 0 0.4122691541308795 0.010257189796790951 0 0.39895333728429933 0.027539300906755181 0 0.38848936808377088 0.020562943807347231 0 0.38747348007354487 0.029444157512556919 0 0.39212595536292472 0.0047271407553128551 0 0.4122691541308795 0.010257189796790951 0 0.40542454288086849 -0.004070234290400764 0 0.38848936808377088 0.020562943807347231 0 0.4122691541308795 0.010257189796790951 0 0.39212595536292472 0.0047271407553128551 0 0.38848936808377088 0.020562943807347231 0 0.4122691541308795 0.010257189796790951 0 0.39212595536292472 0.0047271407553128551 0 0.38120377069012762 0.010554394007073271 0 0.36845156083710567 -0.0060515153414843056 0 0.36934971840039982 0.01412264887454192 0 0.38120377069012762 0.010554394007073271 0 0.38848936808377088 0.020562943807347231 0 0.39212595536292472 0.0047271407553128551 0 0.38120377069012762 0.010554394007073271 0 0.38848936808377088 0.020562943807347231 0 0.39212595536292472 0.0047271407553128551 0 0.38848936808377088 0.020562943807347231 0 0.38848936808377088 0.020562943807347231 0 0.38747348007354487 0.029444157512556919 0 0.38366251926208489 0.041581833616573027 0 0.38848936808377088 0.020562943807347231 0 0.38366251926208489 0.041581833616573027 0 0.36096242836060388 0.032492650360987897 0 0.38848936808377088 0.020562943807347231 0 0.38366251926208489 0.041581833616573027 0 0.37883567044039879 0.062600723425798879 0 0.38366251926208489 0.041581833616573027 0 0.3909554563133032 0.056876008487314757 0 0.37883567044039879 0.062600723425798879 0 0.38366251926208489 0.041581833616573027 0 0.36884998715724038 0.048654936693666287 0 0.37883567044039879 0.062600723425798879 0 0.38366251926208489 0.041581833616573027 0 0.38366251926208489 0.041581833616573027 0 0.40351412168750378 0.051507576129315842 0 0.3909554563133032 0.056876008487314757 0 0.39780951386322527 0.071813900777571313 0 0.40351412168750378 0.051507576129315842 0 0.3909554563133032 0.056876008487314757 0 0.38747348007354487 0.029444157512556919 0 0.40351412168750378 0.051507576129315842 0 0.39895333728429933 0.027539300906755181 0 0.40351412168750378 0.051507576129315842 0 0.40867742594100492 0.02913313449165824 0 0.39895333728429933 0.027539300906755181 0 0.38747348007354487 0.029444157512556919 0 0.40351412168750378 0.051507576129315842 0 0.38747348007354487 0.029444157512556919 0 0.38366251926208489 0.041581833616573027 0 0.40351412168750378 0.051507576129315842 0 0.40351412168750378 0.051507576129315842 0 0.41712069737947322 0.039684074088297272 0 0.40867742594100492 0.02913313449165824 0 0.41712069737947322 0.039684074088297272 0 0.42900932251716922 0.027181299207052031 0 0.40867742594100492 0.02913313449165824 0 0.40351412168750378 0.051507576129315842 0 0.41712069737947322 0.039684074088297272 0 0.42728191937221521 0.050914286525162993 0 0.4195547633014628 0.073570994746074828 0 0.40351412168750378 0.051507576129315842 0 0.42728191937221521 0.050914286525162993 0 0.41712069737947322 0.039684074088297272 0 0.42728191937221521 0.050914286525162993 0 0.42900932251716922 0.027181299207052031 0 0.42728191937221521 0.050914286525162993 0 0.42900932251716922 0.027181299207052031 0 0.45357816737839107 0.043281393992262968 0 0.42900932251716922 0.027181299207052031 0 0.40867742594100492 0.02913313449165824 0 0.4122691541308795 0.010257189796790951 0 0.39895333728429933 0.027539300906755181 0 0.40867742594100492 0.02913313449165824 0 0.4122691541308795 0.010257189796790951 0 0.4122691541308795 0.010257189796790951 0 0.42733427856619571 -0.0085863840744332814 0 0.43604894017798812 -4.8564213765240817e-05 0 0.42900932251716922 0.027181299207052031 0 0.4122691541308795 0.010257189796790951 0 0.43604894017798812 -4.8564213765240817e-05 0 0.4122691541308795 0.010257189796790951 0 0.43604894017798812 -4.8564213765240817e-05 0 0.45021491583924189 0.016350560368503721 0 0.45982872622509668 -0.01035431822432146 0 0.43604894017798812 -4.8564213765240817e-05 0 0.42900932251716922 0.027181299207052031 0 0.45021491583924189 0.016350560368503721 0 0.43604894017798812 -4.8564213765240817e-05 0 0.42900932251716922 0.027181299207052031 0 0.45021491583924189 0.016350560368503721 0 0.45357816737839107 0.043281393992262968 0 0.45021491583924189 0.016350560368503721 0 0.45357816737839107 0.043281393992262968 0 0.47265027193171238 0.017829323700243871 0 0.45021491583924189 0.016350560368503721 0 0.47265027193171238 0.017829323700243871 0 0.45982872622509668 -0.01035431822432146 0 0.45357816737839107 0.043281393992262968 0 0.47969083044660421 0.050503904472553283 0 0.47265027193171238 0.017829323700243871 0 0.44319262383460789 0.070531660330671375 0 0.42728191937221521 0.050914286525162993 0 0.45357816737839107 0.043281393992262968 0 0.46599422920766509 0.071585542922595516 0 0.44319262383460789 0.070531660330671375 0 0.45357816737839107 0.043281393992262968 0 0.46599422920766509 0.071585542922595516 0 0.45357816737839107 0.043281393992262968 0 0.47969083044660421 0.050503904472553283 0 0.47969083044660421 0.050503904472553283 0 0.5 0.033664617902273368 0 0.47265027193171238 0.017829323700243871 0 0.48592231416185638 0.0752646054103117 0 0.47969083044660421 0.050503904472553283 0 0.5 0.06139794290763223 0 0.47969083044660421 0.050503904472553283 0 0.5 0.033664617902273368 0 0.5 0.06139794290763223 0 0.5 0.033664617902273368 0 0.47265027193171238 0.017829323700243871 0 0.5 0.0059312928969145204 0 0.47265027193171238 0.017829323700243871 0 0.5 0.0059312928969145204 0 0.48261795830076532 -0.0084137270416950408 0 0.5 0.0059312928969145204 0 0.48261795830076532 -0.0084137270416950408 0 0.5 -0.021802032108444391 0 0.47265027193171238 0.017829323700243871 0 0.48261795830076532 -0.0084137270416950408 0 0.45982872622509668 -0.01035431822432146 0 0.48261795830076532 -0.0084137270416950408 0 0.48385521188952352 -0.03103713942335571 0 0.45982872622509668 -0.01035431822432146 0 0.48385521188952352 -0.03103713942335571 0 0.46768790053651399 -0.040232759786602873 0 0.45982872622509668 -0.01035431822432146 0 0.48261795830076532 -0.0084137270416950408 0 0.48385521188952352 -0.03103713942335571 0 0.5 -0.021802032108444391 0 0.48385521188952352 -0.03103713942335571 0 0.49518245524492172 -0.045789595090724652 0 0.49482530481253351 -0.04804557135493729 0 0.5 -0.021802032108444391 0 0.49518245524492172 -0.045789595090724652 0 0.49999999999998263 -0.049535357113803247 0 0.48385521188952352 -0.03103713942335571 0 0.5 -0.021802032108444391 0 0.49518245524492172 -0.045789595090724652 0 0.49482530481253351 -0.04804557135493729 0 0.47636674367150789 -0.060588545727567042 0 0.49016972248203172 -0.07745302065780417 0 0.49999999999998263 -0.049535357113803247 0 0.49482530481253351 -0.04804557135493729 0 0.49016972248203172 -0.07745302065780417 0 0.49999999999998263 -0.049535357113803247 0 0.49482530481253351 -0.04804557135493729 0 0.49518245524492172 -0.045789595090724652 0 0.49999999999998263 -0.049535357113803247 0 0.49482530481253351 -0.04804557135493729 0 0.49518245524492172 -0.045789595090724652 0 0.49482530481253351 -0.04804557135493729 0 0.49482530481253351 -0.04804557135493729 0 0.47636674367150789 -0.060588545727567042 0 0.46768790053651399 -0.040232759786602873 0 0.49482530481253351 -0.04804557135493729 0 0.46768790053651399 -0.040232759786602873 0 0.48385521188952352 -0.03103713942335571 0 0.49482530481253351 -0.04804557135493729 0 0.46768790053651399 -0.040232759786602873 0 0.46768790053651399 -0.040232759786602873 0 0.44055049626049481 -0.03241994821826754 0 0.47636674367150789 -0.060588545727567042 0 0.46768790053651399 -0.040232759786602873 0 0.44971823816913109 -0.058611894661768998 0 0.46768790053651399 -0.040232759786602873 0 0.44971823816913109 -0.058611894661768998 0 0.44055049626049481 -0.03241994821826754 0 0.44971823816913109 -0.058611894661768998 0 0.44055049626049481 -0.03241994821826754 0 0.42776585910878662 -0.047462582859365887 0 0.44055049626049481 -0.03241994821826754 0 0.43862233638968018 -0.01433991032473066 0 0.45982872622509668 -0.01035431822432146 0 0.45982872622509668 -0.01035431822432146 0 0.43604894017798812 -4.8564213765240817e-05 0 0.43862233638968018 -0.01433991032473066 0 0.45982872622509668 -0.01035431822432146 0 0.43604894017798812 -4.8564213765240817e-05 0 0.46768790053651399 -0.040232759786602873 0 0.44055049626049481 -0.03241994821826754 0 0.45982872622509668 -0.01035431822432146 0 0.47499259514944292 -0.1202547269832886 0 0.48551414015152222 -0.10686046996066979 0 0.48085855782101261 -0.13626791926353529 0 0.47418157221881441 -0.11112465676427991 0 0.47528951870947961 -0.09927779745641295 0 0.46093003486481321 -0.11810563265674839 0 0.48551414015152222 -0.10686046996066979 0 0.48085855782101261 -0.13626791926353529 0 0.47499259514944292 -0.1202547269832886 0 0.46093003486481321 -0.11810563265674839 0 0.47239045088042492 -0.13005034139104371 0 0.47499259514944292 -0.1202547269832886 0 0.47418157221881441 -0.11112465676427991 0 0.46093003486481321 -0.11810563265674839 0 0.47499259514944292 -0.1202547269832886 0 0.47418157221881441 -0.11112465676427991 0 0.48551414015152222 -0.10686046996066979 0 0.48986304781109291 -0.1242692167884092 0 0.49384429699065369 -0.1173080088948287 0 0.48551414015152222 -0.10686046996066979 0 0.48986304781109291 -0.1242692167884092 0 0.48551414015152222 -0.10686046996066979 0 0.48085855782101261 -0.13626791926353529 0 0.49384429699065369 -0.1173080088948287 0 0.5 -0.1051480109548549 0 0.5 -0.13295433787538069 0 0.48986304781109291 -0.1242692167884092 0 0.49384429699065369 -0.1173080088948287 0 0.5 -0.13295433787538069 0 0.49384429699065369 -0.1173080088948287 0 0.48551414015152222 -0.10686046996066979 0 0.5 -0.1051480109548549 0 0.48551414015152222 -0.10686046996066979 0 0.5 -0.1051480109548549 0 0.49016972248203172 -0.07745302065780417 0 0.48551414015152222 -0.10686046996066979 0 0.47528951870947961 -0.09927779745641295 0 0.4786949329242487 -0.090297096352784045 0 0.47418157221881441 -0.11112465676427991 0 0.48551414015152222 -0.10686046996066979 0 0.47528951870947961 -0.09927779745641295 0 0.47494193394216588 -0.078729965701305249 0 0.4786949329242487 -0.090297096352784045 0 0.46755934933604398 -0.089164227987728051 0 0.47528951870947961 -0.09927779745641295 0 0.4786949329242487 -0.090297096352784045 0 0.46755934933604398 -0.089164227987728051 0 0.47494193394216588 -0.078729965701305249 0 0.4786949329242487 -0.090297096352784045 0 0.49016972248203172 -0.07745302065780417 0 0.48551414015152222 -0.10686046996066979 0 0.49016972248203172 -0.07745302065780417 0 0.5 -0.1051480109548549 0 0.49016972248203172 -0.07745302065780417 0 0.5 -0.077341684034329061 0 0.48551414015152222 -0.10686046996066979 0 0.4786949329242487 -0.090297096352784045 0 0.49016972248203172 -0.07745302065780417 0 0.49999999999998263 -0.049535357113803247 0 0.49016972248203172 -0.07745302065780417 0 0.5 -0.077341684034329061 0 0.49482530481253351 -0.04804557135493729 0 0.49016972248203172 -0.07745302065780417 0 0.47636674367150789 -0.060588545727567042 0 0.47494193394216588 -0.078729965701305249 0 0.49016972248203172 -0.07745302065780417 0 0.47636674367150789 -0.060588545727567042 0 0.47494193394216588 -0.078729965701305249 0 0.4592808493329405 -0.078369632624057675 0 0.47636674367150789 -0.060588545727567042 0 0.44971823816913109 -0.058611894661768998 0 0.4592808493329405 -0.078369632624057675 0 0.47636674367150789 -0.060588545727567042 0 0.4592808493329405 -0.078369632624057675 0 0.44971823816913109 -0.058611894661768998 0 0.44126951216661869 -0.079236189142810429 0 0.42731029070553322 -0.068277018127587574 0 0.44971823816913109 -0.058611894661768998 0 0.44126951216661869 -0.079236189142810429 0 0.4592808493329405 -0.078369632624057675 0 0.4592808493329405 -0.078369632624057675 0 0.44219495499437311 -0.096150719520548239 0 0.44126951216661869 -0.079236189142810429 0 0.4592808493329405 -0.078369632624057675 0 0.44219495499437311 -0.096150719520548239 0 0.47494193394216588 -0.078729965701305249 0 0.4592808493329405 -0.078369632624057675 0 0.46755934933604398 -0.089164227987728051 0 0.4592808493329405 -0.078369632624057675 0 0.46755934933604398 -0.089164227987728051 0 0.44219495499437311 -0.096150719520548239 0 0.46755934933604398 -0.089164227987728051 0 0.46093003486481321 -0.11810563265674839 0 0.46755934933604398 -0.089164227987728051 0 0.44219495499437311 -0.096150719520548239 0 0.46093003486481321 -0.11810563265674839 0 0.47528951870947961 -0.09927779745641295 0 0.46755934933604398 -0.089164227987728051 0 0.46093003486481321 -0.11810563265674839 0 0.441730170532879 -0.1159420230490274 0 0.46093003486481321 -0.11810563265674839 0 0.44582693855797939 -0.1311402400572215 0 0.44219495499437311 -0.096150719520548239 0 0.441730170532879 -0.1159420230490274 0 0.46093003486481321 -0.11810563265674839 0 0.42510906065580589 -0.11393180641703871 0 0.40802316631723889 -0.13171289331352951 0 0.40725115801851319 -0.1169919833964142 0 0.42510906065580589 -0.11393180641703871 0 0.40802316631723889 -0.13171289331352951 0 0.40725115801851319 -0.1169919833964142 0 0.42510906065580589 -0.11393180641703871 0 0.4147200547274239 -0.1079547067436207 0 0.40725115801851319 -0.1169919833964142 0 0.4147200547274239 -0.1079547067436207 0 0.40692444267373179 -0.1088204768843429 0 0.441730170532879 -0.1159420230490274 0 0.42510906065580589 -0.11393180641703871 0 0.43087782981676859 -0.131879285754128 0 0.44219495499437311 -0.096150719520548239 0 0.42510906065580589 -0.11393180641703871 0 0.44219495499437311 -0.096150719520548239 0 0.441730170532879 -0.1159420230490274 0 0.42510906065580589 -0.11393180641703871 0 0.44219495499437311 -0.096150719520548239 0 0.42510906065580589 -0.11393180641703871 0 0.4234909377050316 -0.092737982748798881 0 0.42510906065580589 -0.11393180641703871 0 0.4147200547274239 -0.1079547067436207 0 0.4234909377050316 -0.092737982748798881 0 0.4147200547274239 -0.1079547067436207 0 0.40904120664506322 -0.09935874077938342 0 0.4234909377050316 -0.092737982748798881 0 0.4147200547274239 -0.1079547067436207 0 0.40692444267373179 -0.1088204768843429 0 0.40904120664506322 -0.09935874077938342 0 0.40904120664506322 -0.09935874077938342 0 0.4234909377050316 -0.092737982748798881 0 0.40226126486411301 -0.082186696628613137 0 0.4234909377050316 -0.092737982748798881 0 0.42731029070553322 -0.068277018127587574 0 0.40226126486411301 -0.082186696628613137 0 0.44126951216661869 -0.079236189142810429 0 0.4234909377050316 -0.092737982748798881 0 0.42731029070553322 -0.068277018127587574 0 0.44126951216661869 -0.079236189142810429 0 0.44219495499437311 -0.096150719520548239 0 0.4234909377050316 -0.092737982748798881 0 0.42731029070553322 -0.068277018127587574 0 0.40226126486411301 -0.082186696628613137 0 0.40783717842429862 -0.053396916639273179 0 0.40226126486411301 -0.082186696628613137 0 0.40783717842429862 -0.053396916639273179 0 0.38429333219820472 -0.067131704106828338 0 0.40226126486411301 -0.082186696628613137 0 0.40783717842429862 -0.053396916639273179 0 0.38429333219820472 -0.067131704106828338 0 0.38199460798391838 -0.085246791459625215 0 0.40226126486411301 -0.082186696628613137 0 0.38199460798391838 -0.085246791459625215 0 0.40226126486411301 -0.082186696628613137 0 0.39106825526090561 -0.1007030293946076 0 0.40226126486411301 -0.082186696628613137 0 0.39106825526090561 -0.1007030293946076 0 0.39668535130392929 -0.1109764766179535 0 0.40904120664506322 -0.09935874077938342 0 0.40226126486411301 -0.082186696628613137 0 0.39668535130392929 -0.1109764766179535 0 0.40226126486411301 -0.082186696628613137 0 0.39668535130392929 -0.1109764766179535 0 0.40692444267373179 -0.1088204768843429 0 0.40904120664506322 -0.09935874077938342 0 0.39668535130392929 -0.1109764766179535 0 0.39106825526090561 -0.1007030293946076 0 0.39668535130392929 -0.1109764766179535 0 0.39106825526090561 -0.1007030293946076 0 0.3799934613124491 -0.1141351934829782 0 0.39668535130392929 -0.1109764766179535 0 0.38199460798391838 -0.085246791459625215 0 0.39106825526090561 -0.1007030293946076 0 0.37706007999693841 -0.1011775095245466 0 0.39106825526090561 -0.1007030293946076 0 0.37706007999693841 -0.1011775095245466 0 0.3799934613124491 -0.1141351934829782 0 0.3799934613124491 -0.1141351934829782 0 0.39668535130392929 -0.1109764766179535 0 0.3932705088567644 -0.1286081277708763 0 0.3799934613124491 -0.1141351934829782 0 0.37104303648388809 -0.1272612894930944 0 0.3932705088567644 -0.1286081277708763 0 0.40224748518751269 -0.1211494002184121 0 0.3932705088567644 -0.1286081277708763 0 0.39668535130392929 -0.1109764766179535 0 0.3932705088567644 -0.1286081277708763 0 0.39668535130392929 -0.1109764766179535 0 0.40224748518751269 -0.1211494002184121 0 0.3932705088567644 -0.1286081277708763 0 0.40725115801851319 -0.1169919833964142 0 0.39668535130392929 -0.1109764766179535 0 0.40224748518751269 -0.1211494002184121 0 0.39668535130392929 -0.1109764766179535 0 0.40224748518751269 -0.1211494002184121 0 0.40725115801851319 -0.1169919833964142 0 0.40692444267373179 -0.1088204768843429 0 0.39668535130392929 -0.1109764766179535 0 0.40725115801851319 -0.1169919833964142 0 0.40224748518751269 -0.1211494002184121 0 0.40725115801851319 -0.1169919833964142 0 0.40224748518751269 -0.1211494002184121 0 0.40802316631723889 -0.13171289331352951 0 0.42156842614681772 -0.015954947998216139 0 0.41341309198447568 -0.024607136649931451 0 0.42934924071862562 -0.02029033689286578 0 0.41341309198447568 -0.024607136649931451 0 0.41617709331797431 -0.010335934375633319 0 0.42156842614681772 -0.015954947998216139 0 0.41341309198447568 -0.024607136649931451 0 0.41617709331797431 -0.010335934375633319 0 0.41341309198447568 -0.024607136649931451 0 0.40231254689356027 -0.037392070823486202 0 0.40309603266908228 -0.02802239201193971 0 0.41341309198447568 -0.024607136649931451 0 0.41078796895048542 -0.01389090533175278 0 0.39783226839882679 -0.020121444594939791 0 0.41341309198447568 -0.024607136649931451 0 0.41078796895048542 -0.01389090533175278 0 0.41617709331797431 -0.010335934375633319 0 0.41078796895048542 -0.01389090533175278 0 0.41617709331797431 -0.010335934375633319 0 0.40542454288086849 -0.004070234290400764 0 0.4122691541308795 0.010257189796790951 0 0.41617709331797431 -0.010335934375633319 0 0.40542454288086849 -0.004070234290400764 0 0.4122691541308795 0.010257189796790951 0 0.41617709331797431 -0.010335934375633319 0 0.42733427856619571 -0.0085863840744332814 0 0.42156842614681772 -0.015954947998216139 0 0.41617709331797431 -0.010335934375633319 0 0.42733427856619571 -0.0085863840744332814 0 0.42156842614681772 -0.015954947998216139 0 0.42733427856619571 -0.0085863840744332814 0 0.42934924071862562 -0.02029033689286578 0 0.43862233638968018 -0.01433991032473066 0 0.42733427856619571 -0.0085863840744332814 0 0.43604894017798812 -4.8564213765240817e-05 0 0.43862233638968018 -0.01433991032473066 0 0.42733427856619571 -0.0085863840744332814 0 0.42934924071862562 -0.02029033689286578 0 0.44055049626049481 -0.03241994821826754 0 0.43862233638968018 -0.01433991032473066 0 0.42934924071862562 -0.02029033689286578 0 0.44055049626049481 -0.03241994821826754 0 0.41341309198447568 -0.024607136649931451 0 0.42934924071862562 -0.02029033689286578 0 0.44055049626049481 -0.03241994821826754 0 0.41341309198447568 -0.024607136649931451 0 0.44055049626049481 -0.03241994821826754 0 0.41341309198447568 -0.024607136649931451 0 0.42776585910878662 -0.047462582859365887 0 0.44971823816913109 -0.058611894661768998 0 0.42731029070553322 -0.068277018127587574 0 0.42776585910878662 -0.047462582859365887 0 0.42731029070553322 -0.068277018127587574 0 0.42776585910878662 -0.047462582859365887 0 0.40783717842429862 -0.053396916639273179 0 0.41341309198447568 -0.024607136649931451 0 0.42776585910878662 -0.047462582859365887 0 0.40783717842429862 -0.053396916639273179 0 0.41341309198447568 -0.024607136649931451 0 0.40783717842429862 -0.053396916639273179 0 0.40231254689356027 -0.037392070823486202 0 0.41341309198447568 -0.024607136649931451 0 0.40783717842429862 -0.053396916639273179 0 0.40231254689356027 -0.037392070823486202 0 0.3981973431289102 -0.028872790202489229 0 0.40309603266908228 -0.02802239201193971 0 0.40231254689356027 -0.037392070823486202 0 0.38732801778773829 -0.04651698367670077 0 0.38934459454031273 -0.029067224222560958 0 0.40783717842429862 -0.053396916639273179 0 0.40231254689356027 -0.037392070823486202 0 0.38732801778773829 -0.04651698367670077 0 0.40231254689356027 -0.037392070823486202 0 0.38934459454031273 -0.029067224222560958 0 0.3981973431289102 -0.028872790202489229 0 0.38429333219820472 -0.067131704106828338 0 0.40783717842429862 -0.053396916639273179 0 0.38732801778773829 -0.04651698367670077 0 0.38429333219820472 -0.067131704106828338 0 0.38732801778773829 -0.04651698367670077 0 0.37042415964797237 -0.053058901563766692 0 0.38732801778773829 -0.04651698367670077 0 0.37068698927403948 -0.035605583580554698 0 0.37042415964797237 -0.053058901563766692 0 0.38732801778773829 -0.04651698367670077 0 0.38934459454031273 -0.029067224222560958 0 0.37068698927403948 -0.035605583580554698 0 0.38934459454031273 -0.029067224222560958 0 0.36983137800827248 -0.01206003687362641 0 0.37068698927403948 -0.035605583580554698 0 0.38934459454031273 -0.029067224222560958 0 0.39783226839882679 -0.020121444594939791 0 0.36983137800827248 -0.01206003687362641 0 0.39783226839882679 -0.020121444594939791 0 0.36983137800827248 -0.01206003687362641 0 0.38934459454031273 -0.029067224222560958 0 0.3981973431289102 -0.028872790202489229 0 0.39783226839882679 -0.020121444594939791 0 0.41341309198447568 -0.024607136649931451 0 0.39783226839882679 -0.020121444594939791 0 0.41341309198447568 -0.024607136649931451 0 0.39783226839882679 -0.020121444594939791 0 0.40309603266908228 -0.02802239201193971 0 0.3981973431289102 -0.028872790202489229 0 0.39783226839882679 -0.020121444594939791 0 0.40309603266908228 -0.02802239201193971 0 0.39212595536292472 0.0047271407553128551 0 0.39576254264207811 -0.011108662296721609 0 0.39212595536292472 0.0047271407553128551 0 0.40542454288086849 -0.004070234290400764 0 0.39576254264207811 -0.011108662296721609 0 0.41078796895048542 -0.01389090533175278 0 0.39783226839882679 -0.020121444594939791 0 0.39576254264207811 -0.011108662296721609 0 0.41078796895048542 -0.01389090533175278 0 0.39576254264207811 -0.011108662296721609 0 0.41078796895048542 -0.01389090533175278 0 0.40542454288086849 -0.004070234290400764 0 0.39576254264207811 -0.011108662296721609 0 0.39783226839882679 -0.020121444594939791 0 0.39576254264207811 -0.011108662296721609 0 0.39576254264207811 -0.011108662296721609 0 0.36983137800827248 -0.01206003687362641 0 0.36845156083710567 -0.0060515153414843056 0 0.39576254264207811 -0.011108662296721609 0 0.36845156083710567 -0.0060515153414843056 0 0.39212595536292472 0.0047271407553128551 0 0.39576254264207811 -0.011108662296721609 0 0.36845156083710567 -0.0060515153414843056 0 0.39783226839882679 -0.020121444594939791 0 0.39576254264207811 -0.011108662296721609 0 0.36983137800827248 -0.01206003687362641 0 0.36983137800827248 -0.01206003687362641 0 0.36845156083710567 -0.0060515153414843056 0 0.34183048761771712 -0.0039986291523161147 0 0.36983137800827248 -0.01206003687362641 0 0.35223914962217417 -0.02278106829858554 0 0.37068698927403948 -0.035605583580554698 0 0.36983137800827248 -0.01206003687362641 0 0.35223914962217417 -0.02278106829858554 0 0.34183048761771712 -0.0039986291523161147 0 0.36983137800827248 -0.01206003687362641 0 0.34183048761771712 -0.0039986291523161147 0 0.36845156083710567 -0.0060515153414843056 0 0.34114057903213352 -0.00099436838624600288 0 0.36845156083710567 -0.0060515153414843056 0 0.34183048761771712 -0.0039986291523161147 0 0.34114057903213352 -0.00099436838624600288 0 0.35223914962217417 -0.02278106829858554 0 0.34183048761771712 -0.0039986291523161147 0 0.33977780877024261 -0.017668132193127541 0 0.31382959722716158 0.0040627785689932028 0 0.34183048761771712 -0.0039986291523161147 0 0.34114057903213352 -0.00099436838624600288 0 0.34183048761771712 -0.0039986291523161147 0 0.33574973546384762 -0.01167659105592548 0 0.32194573769061952 -0.0077676308935595512 0 0.34183048761771712 -0.0039986291523161147 0 0.33574973546384762 -0.01167659105592548 0 0.33977780877024261 -0.017668132193127541 0 0.35223914962217417 -0.02278106829858554 0 0.33977780877024261 -0.017668132193127541 0 0.33879793226643329 -0.029417681387060649 0 0.33574973546384762 -0.01167659105592548 0 0.3302717388810405 -0.020466691071749941 0 0.3196214637881436 -0.021924893160697439 0 0.33977780877024261 -0.017668132193127541 0 0.33879793226643329 -0.029417681387060649 0 0.3302717388810405 -0.020466691071749941 0 0.33879793226643329 -0.029417681387060649 0 0.32862271298124018 -0.028919582591936679 0 0.3302717388810405 -0.020466691071749941 0 0.33574973546384762 -0.01167659105592548 0 0.33977780877024261 -0.017668132193127541 0 0.3302717388810405 -0.020466691071749941 0 0.3302717388810405 -0.020466691071749941 0 0.32526768976560849 -0.02407540610795475 0 0.3196214637881436 -0.021924893160697439 0 0.33574973546384762 -0.01167659105592548 0 0.3196214637881436 -0.021924893160697439 0 0.32862271298124018 -0.028919582591936679 0 0.3302717388810405 -0.020466691071749941 0 0.32526768976560849 -0.02407540610795475 0 0.32862271298124018 -0.028919582591936679 0 0.32095671603858011 -0.024994897592425049 0 0.3231679364015333 -0.033306441836977792 0 0.32862271298124018 -0.028919582591936679 0 0.32526768976560849 -0.02407540610795475 0 0.32095671603858011 -0.024994897592425049 0 0.32526768976560849 -0.02407540610795475 0 0.32095671603858011 -0.024994897592425049 0 0.3196214637881436 -0.021924893160697439 0 0.32095671603858011 -0.024994897592425049 0 0.3196214637881436 -0.021924893160697439 0 0.31660160940309118 -0.035871797032442469 0 0.32095671603858011 -0.024994897592425049 0 0.3196214637881436 -0.021924893160697439 0 0.33574973546384762 -0.01167659105592548 0 0.3196214637881436 -0.021924893160697439 0 0.32194573769061952 -0.0077676308935595512 0 0.30752965714041391 0.0058765203804442539 0 0.3196214637881436 -0.021924893160697439 0 0.32194573769061952 -0.0077676308935595512 0 0.31382959722716158 0.0040627785689932028 0 0.34183048761771712 -0.0039986291523161147 0 0.32194573769061952 -0.0077676308935595512 0 0.30752965714041391 0.0058765203804442539 0 0.3196214637881436 -0.021924893160697439 0 0.31292981148517318 -0.054457989835630861 0 0.33951515654934239 -0.057829064589421393 0 0.331762206516936 -0.074199649102278678 0 0.31292981148517318 -0.054457989835630861 0 0.32943454752299528 -0.042779626289088678 0 0.31292981148517318 -0.054457989835630861 0 0.32943454752299528 -0.042779626289088678 0 0.33951515654934239 -0.057829064589421393 0 0.31292981148517318 -0.054457989835630861 0 0.31660160940309118 -0.035871797032442469 0 0.32943454752299528 -0.042779626289088678 0 0.32095671603858011 -0.024994897592425049 0 0.31660160940309118 -0.035871797032442469 0 0.3231679364015333 -0.033306441836977792 0 0.32862271298124018 -0.028919582591936679 0 0.3231679364015333 -0.033306441836977792 0 0.32943454752299528 -0.042779626289088678 0 0.31660160940309118 -0.035871797032442469 0 0.3231679364015333 -0.033306441836977792 0 0.32943454752299528 -0.042779626289088678 0 0.33879793226643329 -0.029417681387060649 0 0.32943454752299528 -0.042779626289088678 0 0.35178468962230941 -0.045374559850196158 0 0.33879793226643329 -0.029417681387060649 0 0.32862271298124018 -0.028919582591936679 0 0.32943454752299528 -0.042779626289088678 0 0.32943454752299528 -0.042779626289088678 0 0.33951515654934239 -0.057829064589421393 0 0.35178468962230941 -0.045374559850196158 0 0.33951515654934239 -0.057829064589421393 0 0.35178468962230941 -0.045374559850196158 0 0.35802776935757019 -0.070665676604553529 0 0.35223914962217417 -0.02278106829858554 0 0.35178468962230941 -0.045374559850196158 0 0.37068698927403948 -0.035605583580554698 0 0.35223914962217417 -0.02278106829858554 0 0.33879793226643329 -0.029417681387060649 0 0.35178468962230941 -0.045374559850196158 0 0.35178468962230941 -0.045374559850196158 0 0.37068698927403948 -0.035605583580554698 0 0.37042415964797237 -0.053058901563766692 0 0.35178468962230941 -0.045374559850196158 0 0.37042415964797237 -0.053058901563766692 0 0.35802776935757019 -0.070665676604553529 0 0.38429333219820472 -0.067131704106828338 0 0.38199460798391838 -0.085246791459625215 0 0.35802776935757019 -0.070665676604553529 0 0.38429333219820472 -0.067131704106828338 0 0.37042415964797237 -0.053058901563766692 0 0.35802776935757019 -0.070665676604553529 0 0.38429333219820472 -0.067131704106828338 0 0.35802776935757019 -0.070665676604553529 0 0.38199460798391838 -0.085246791459625215 0 0.36577500316168848 -0.093055365242956031 0 0.35802776935757019 -0.070665676604553529 0 0.38199460798391838 -0.085246791459625215 0 0.37706007999693841 -0.1011775095245466 0 0.36577500316168848 -0.093055365242956031 0 0.35802776935757019 -0.070665676604553529 0 0.34487393367809682 -0.095216741312257352 0 0.331762206516936 -0.074199649102278678 0 0.36577500316168848 -0.093055365242956031 0 0.35802776935757019 -0.070665676604553529 0 0.34487393367809682 -0.095216741312257352 0 0.35802776935757019 -0.070665676604553529 0 0.331762206516936 -0.074199649102278678 0 0.3799934613124491 -0.1141351934829782 0 0.36192545204167298 -0.11208328153174781 0 0.37104303648388809 -0.1272612894930944 0 0.36192545204167298 -0.11208328153174781 0 0.35551888896884759 -0.1297027680154724 0 0.37104303648388809 -0.1272612894930944 0 0.37706007999693841 -0.1011775095245466 0 0.3799934613124491 -0.1141351934829782 0 0.36192545204167298 -0.11208328153174781 0 0.37706007999693841 -0.1011775095245466 0 0.36577500316168848 -0.093055365242956031 0 0.36192545204167298 -0.11208328153174781 0 0.36192545204167298 -0.11208328153174781 0 0.34487393367809682 -0.095216741312257352 0 0.34014121552940491 -0.1203166258242544 0 0.36577500316168848 -0.093055365242956031 0 0.36192545204167298 -0.11208328153174781 0 0.34487393367809682 -0.095216741312257352 0 0.36192545204167298 -0.11208328153174781 0 0.34014121552940491 -0.1203166258242544 0 0.35551888896884759 -0.1297027680154724 0 0.34014121552940491 -0.1203166258242544 0 0.32517348349888747 -0.118580130041643 0 0.32373683991627678 -0.1342707635111336 0 0.34014121552940491 -0.1203166258242544 0 0.32895182275083351 -0.1060869523066566 0 0.32517348349888747 -0.118580130041643 0 0.34487393367809682 -0.095216741312257352 0 0.34014121552940491 -0.1203166258242544 0 0.32895182275083351 -0.1060869523066566 0 0.34487393367809682 -0.095216741312257352 0 0.32895182275083351 -0.1060869523066566 0 0.32681031061177879 -0.089772122834636051 0 0.32895182275083351 -0.1060869523066566 0 0.31743464692623941 -0.099981704590172707 0 0.32681031061177879 -0.089772122834636051 0 0.31743464692623941 -0.099981704590172707 0 0.31638799147784608 -0.1118713826410174 0 0.30885616350321549 -0.1072846913931271 0 0.32895182275083351 -0.1060869523066566 0 0.31743464692623941 -0.099981704590172707 0 0.31638799147784608 -0.1118713826410174 0 0.32895182275083351 -0.1060869523066566 0 0.31638799147784608 -0.1118713826410174 0 0.32517348349888747 -0.118580130041643 0 0.31638799147784608 -0.1118713826410174 0 0.31399575267335023 -0.12250180558336519 0 0.30853123694459123 -0.1170064061326217 0 0.31638799147784608 -0.1118713826410174 0 0.31399575267335023 -0.12250180558336519 0 0.32517348349888747 -0.118580130041643 0 0.33951515654934239 -0.057829064589421393 0 0.35802776935757019 -0.070665676604553529 0 0.331762206516936 -0.074199649102278678 0 0.34487393367809682 -0.095216741312257352 0 0.331762206516936 -0.074199649102278678 0 0.32681031061177879 -0.089772122834636051 0 0.32681031061177879 -0.089772122834636051 0 0.30549664367630158 -0.077733621600003855 0 0.31220284993755582 -0.090742102146006851 0 0.331762206516936 -0.074199649102278678 0 0.32681031061177879 -0.089772122834636051 0 0.30549664367630158 -0.077733621600003855 0 0.31743464692623941 -0.099981704590172707 0 0.32681031061177879 -0.089772122834636051 0 0.31220284993755582 -0.090742102146006851 0 0.31292981148517318 -0.054457989835630861 0 0.331762206516936 -0.074199649102278678 0 0.30549664367630158 -0.077733621600003855 0 0.331762206516936 -0.074199649102278678 0 0.30549664367630158 -0.077733621600003855 0 0.31292981148517318 -0.054457989835630861 0 0.30549664367630158 -0.077733621600003855 0 0.29642507544735103 -0.06613635338217283 0 0.30549664367630158 -0.077733621600003855 0 0.29743178973804058 -0.092817056036521225 0 0.29642507544735103 -0.06613635338217283 0 0.29743178973804058 -0.092817056036521225 0 0.29642507544735103 -0.06613635338217283 0 0.31220284993755582 -0.090742102146006851 0 0.30524841693787119 -0.089877123387424693 0 0.30586238439958702 -0.098215713767166868 0 0.30549664367630158 -0.077733621600003855 0 0.31220284993755582 -0.090742102146006851 0 0.30524841693787119 -0.089877123387424693 0 0.30524841693787119 -0.089877123387424693 0 0.29743178973804058 -0.092817056036521225 0 0.30586238439958702 -0.098215713767166868 0 0.30549664367630158 -0.077733621600003855 0 0.30524841693787119 -0.089877123387424693 0 0.29743178973804058 -0.092817056036521225 0 0.29430385704143641 -0.093334685648855456 0 0.28333646668855839 -0.1038254721913715 0 0.27844545300264117 -0.078858311907156253 0 0.29743178973804058 -0.092817056036521225 0 0.29430385704143641 -0.093334685648855456 0 0.29347904805936648 -0.068220893163732282 0 0.29430385704143641 -0.093334685648855456 0 0.29347904805936648 -0.068220893163732282 0 0.27844545300264117 -0.078858311907156253 0 0.29430385704143641 -0.093334685648855456 0 0.29347904805936648 -0.068220893163732282 0 0.29743178973804058 -0.092817056036521225 0 0.29642507544735103 -0.06613635338217283 0 0.29347904805936648 -0.068220893163732282 0 0.28521560802072671 -0.062721316040594208 0 0.29347904805936648 -0.068220893163732282 0 0.27844545300264117 -0.078858311907156253 0 0.29347904805936648 -0.068220893163732282 0 0.27844545300264117 -0.078858311907156253 0 0.29642507544735103 -0.06613635338217283 0 0.29347904805936648 -0.068220893163732282 0 0.29301224914481439 -0.054007794946804598 0 0.29642507544735103 -0.06613635338217283 0 0.29347904805936648 -0.068220893163732282 0 0.29743178973804058 -0.092817056036521225 0 0.29843850402873079 -0.11949775869086959 0 0.29512866602350563 -0.1184484781339787 0 0.29843850402873079 -0.11949775869086959 0 0.29512866602350563 -0.1184484781339787 0 0.30010147488007238 -0.1276093355582181 0 0.29843850402873079 -0.11949775869086959 0 0.30554459793957989 -0.1238630007756472 0 0.30853123694459123 -0.1170064061326217 0 0.29843850402873079 -0.11949775869086959 0 0.30554459793957989 -0.1238630007756472 0 0.30010147488007238 -0.1276093355582181 0 0.31399575267335023 -0.12250180558336519 0 0.30554459793957989 -0.1238630007756472 0 0.30853123694459123 -0.1170064061326217 0 0.29843850402873079 -0.11949775869086959 0 0.30853123694459123 -0.1170064061326217 0 0.30885616350321549 -0.1072846913931271 0 0.31638799147784608 -0.1118713826410174 0 0.30853123694459123 -0.1170064061326217 0 0.30885616350321549 -0.1072846913931271 0 0.29843850402873079 -0.11949775869086959 0 0.30885616350321549 -0.1072846913931271 0 0.30586238439958702 -0.098215713767166868 0 0.29743178973804058 -0.092817056036521225 0 0.29843850402873079 -0.11949775869086959 0 0.30586238439958702 -0.098215713767166868 0 0.29743178973804058 -0.092817056036521225 0 0.29843850402873079 -0.11949775869086959 0 0.31743464692623941 -0.099981704590172707 0 0.30885616350321549 -0.1072846913931271 0 0.30586238439958702 -0.098215713767166868 0 0.31743464692623941 -0.099981704590172707 0 0.31220284993755582 -0.090742102146006851 0 0.30586238439958702 -0.098215713767166868 0 0.29430385704143641 -0.093334685648855456 0 0.29512866602350563 -0.1184484781339787 0 0.29430385704143641 -0.093334685648855456 0 0.28333646668855839 -0.1038254721913715 0 0.29512866602350563 -0.1184484781339787 0 0.29743178973804058 -0.092817056036521225 0 0.29430385704143641 -0.093334685648855456 0 0.29512866602350563 -0.1184484781339787 0 0.28333646668855839 -0.1038254721913715 0 0.29512866602350563 -0.1184484781339787 0 0.28822748037447399 -0.12879263247558709 0 0.28333646668855839 -0.1038254721913715 0 0.28822748037447399 -0.12879263247558709 0 0.26621118532108262 -0.1119181791838486 0 0.25741251913389712 -0.1305951081492244 0 0.28822748037447399 -0.12879263247558709 0 0.28333646668855839 -0.1038254721913715 0 0.26621118532108262 -0.1119181791838486 0 0.28822748037447399 -0.12879263247558709 0 0.28333646668855839 -0.1038254721913715 0 0.26621118532108262 -0.1119181791838486 0 0.26565518081306061 -0.08790840808238623 0 0.26621118532108262 -0.1119181791838486 0 0.25154255280112903 -0.1006059983499779 0 0.24954668948061209 -0.11284283178631641 0 0.26621118532108262 -0.1119181791838486 0 0.25154255280112903 -0.1006059983499779 0 0.26565518081306061 -0.08790840808238623 0 0.26621118532108262 -0.1119181791838486 0 0.25741251913389712 -0.1305951081492244 0 0.24954668948061209 -0.11284283178631641 0 0.27844545300264117 -0.078858311907156253 0 0.2741393958395883 -0.056877179510702792 0 0.28007443442101287 -0.061799103716356343 0 0.27844545300264117 -0.078858311907156253 0 0.2741393958395883 -0.056877179510702792 0 0.26628957168076178 -0.070692469674316694 0 0.27844545300264117 -0.078858311907156253 0 0.2741393958395883 -0.056877179510702792 0 0.28521560802072671 -0.062721316040594208 0 0.27844545300264117 -0.078858311907156253 0 0.28007443442101287 -0.061799103716356343 0 0.26628957168076178 -0.070692469674316694 0 0.27844545300264117 -0.078858311907156253 0 0.26565518081306061 -0.08790840808238623 0 0.28333646668855839 -0.1038254721913715 0 0.27844545300264117 -0.078858311907156253 0 0.26565518081306061 -0.08790840808238623 0 0.28333646668855839 -0.1038254721913715 0 0.27844545300264117 -0.078858311907156253 0 0.27844545300264117 -0.078858311907156253 0 0.26565518081306061 -0.08790840808238623 0 0.25154255280112903 -0.1006059983499779 0 0.25664035233608162 -0.078361863555500011 0 0.24390890644978661 -0.075150332687283522 0 0.25154255280112903 -0.1006059983499779 0 0.26565518081306061 -0.08790840808238623 0 0.25664035233608162 -0.078361863555500011 0 0.26628957168076178 -0.070692469674316694 0 0.26565518081306061 -0.08790840808238623 0 0.25664035233608162 -0.078361863555500011 0 0.25664035233608162 -0.078361863555500011 0 0.25256726729664603 -0.064532785491330763 0 0.24390890644978661 -0.075150332687283522 0 0.26628957168076178 -0.070692469674316694 0 0.25256726729664603 -0.064532785491330763 0 0.2741393958395883 -0.056877179510702792 0 0.26628957168076178 -0.070692469674316694 0 0.25664035233608162 -0.078361863555500011 0 0.25256726729664603 -0.064532785491330763 0 0.25256726729664603 -0.064532785491330763 0 0.25164978009717781 -0.053061021673298493 0 0.24617004458672351 -0.058202332164817121 0 0.25256726729664603 -0.064532785491330763 0 0.26131371929964131 -0.050907379716302707 0 0.27395317434556299 -0.0509436520349522 0 0.25256726729664603 -0.064532785491330763 0 0.25164978009717781 -0.053061021673298493 0 0.26131371929964131 -0.050907379716302707 0 0.25256726729664603 -0.064532785491330763 0 0.27395317434556299 -0.0509436520349522 0 0.25164978009717781 -0.053061021673298493 0 0.26131371929964131 -0.050907379716302707 0 0.2539732262079259 -0.044675773385505282 0 0.26131371929964131 -0.050907379716302707 0 0.26227784506780882 -0.045421506107560787 0 0.2539732262079259 -0.044675773385505282 0 0.26131371929964131 -0.050907379716302707 0 0.26742863268251632 -0.045985676557136583 0 0.26227784506780882 -0.045421506107560787 0 0.25256726729664603 -0.064532785491330763 0 0.27395317434556299 -0.0509436520349522 0 0.2741393958395883 -0.056877179510702792 0 0.26131371929964131 -0.050907379716302707 0 0.27395317434556299 -0.0509436520349522 0 0.26742863268251632 -0.045985676557136583 0 0.27395317434556299 -0.0509436520349522 0 0.2741393958395883 -0.056877179510702792 0 0.28351618772518777 -0.053458991616202503 0 0.2741393958395883 -0.056877179510702792 0 0.28007443442101287 -0.061799103716356343 0 0.28351618772518777 -0.053458991616202503 0 0.2807394014679111 -0.038000872253349499 0 0.27361436003936901 -0.034999677146069851 0 0.27240238673917438 -0.042113497984529957 0 0.2807394014679111 -0.038000872253349499 0 0.27361436003936901 -0.034999677146069851 0 0.28248009054126683 -0.027824818882371601 0 0.27395317434556299 -0.0509436520349522 0 0.2807394014679111 -0.038000872253349499 0 0.27240238673917438 -0.042113497984529957 0 0.27395317434556299 -0.0509436520349522 0 0.27240238673917438 -0.042113497984529957 0 0.26742863268251632 -0.045985676557136583 0 0.27361436003936901 -0.034999677146069851 0 0.27240238673917438 -0.042113497984529957 0 0.26639580208115188 -0.040117194771298603 0 0.27240238673917438 -0.042113497984529957 0 0.26742863268251632 -0.045985676557136583 0 0.26639580208115188 -0.040117194771298603 0 0.27361436003936901 -0.034999677146069851 0 0.26639580208115188 -0.040117194771298603 0 0.26859201328057281 -0.027442020841521631 0 0.2539732262079259 -0.044675773385505282 0 0.25845033672230949 -0.02738613623275089 0 0.26859201328057281 -0.027442020841521631 0 0.2539732262079259 -0.044675773385505282 0 0.25845033672230949 -0.02738613623275089 0 0.24422464309495209 -0.046986837608536558 0 0.25845033672230949 -0.02738613623275089 0 0.24422464309495209 -0.046986837608536558 0 0.26639580208115188 -0.040117194771298603 0 0.2539732262079259 -0.044675773385505282 0 0.26859201328057281 -0.027442020841521631 0 0.2539732262079259 -0.044675773385505282 0 0.26859201328057281 -0.027442020841521631 0 0.26639580208115188 -0.040117194771298603 0 0.26227784506780882 -0.045421506107560787 0 0.2539732262079259 -0.044675773385505282 0 0.26742863268251632 -0.045985676557136583 0 0.26639580208115188 -0.040117194771298603 0 0.26227784506780882 -0.045421506107560787 0 0.25013504981522988 -0.025019616072594848 0 0.25845033672230949 -0.02738613623275089 0 0.24524507923365879 -0.0330622213940093 0 0.25845033672230949 -0.02738613623275089 0 0.27267603034966698 -0.0077854348569651906 0 0.25845033672230949 -0.02738613623275089 0 0.25886508985187012 -0.013172853544477199 0 0.27267603034966698 -0.0077854348569651906 0 0.25013504981522988 -0.025019616072594848 0 0.25247407830029878 -0.019873092178793648 0 0.25845033672230949 -0.02738613623275089 0 0.25247407830029878 -0.019873092178793648 0 0.25845033672230949 -0.02738613623275089 0 0.25886508985187012 -0.013172853544477199 0 0.25598072684389089 -0.0058943492075353007 0 0.25006914023697918 -0.01208141302270524 0 0.2479891295484222 -0.0022684572774312019 0 0.25894279220913391 0.003459445712386486 0 0.25598072684389089 -0.0058943492075353007 0 0.2479891295484222 -0.0022684572774312019 0 0.25598072684389089 -0.0058943492075353007 0 0.25006914023697918 -0.01208141302270524 0 0.25886508985187012 -0.013172853544477199 0 0.25247407830029878 -0.019873092178793648 0 0.25006914023697918 -0.01208141302270524 0 0.25886508985187012 -0.013172853544477199 0 0.25886508985187012 -0.013172853544477199 0 0.26317147738524183 -0.0038637327990410169 0 0.27267603034966698 -0.0077854348569651906 0 0.25598072684389089 -0.0058943492075353007 0 0.25886508985187012 -0.013172853544477199 0 0.26317147738524183 -0.0038637327990410169 0 0.25894279220913391 0.003459445712386486 0 0.25598072684389089 -0.0058943492075353007 0 0.26317147738524183 -0.0038637327990410169 0 0.27267603034966698 -0.0077854348569651906 0 0.26859201328057281 -0.027442020841521631 0 0.28321080035321983 -0.010208268297538009 0 0.26939274767164711 0.0040745279013861191 0 0.26317147738524183 -0.0038637327990410169 0 0.27267603034966698 -0.0077854348569651906 0 0.28687677889875068 0.001725005618485562 0 0.27267603034966698 -0.0077854348569651906 0 0.28321080035321983 -0.010208268297538009 0 0.26859201328057281 -0.027442020841521631 0 0.28321080035321983 -0.010208268297538009 0 0.25845033672230949 -0.02738613623275089 0 0.27267603034966698 -0.0077854348569651906 0 0.26859201328057281 -0.027442020841521631 0 0.26859201328057281 -0.027442020841521631 0 0.28248009054126683 -0.027824818882371601 0 0.28321080035321983 -0.010208268297538009 0 0.27361436003936901 -0.034999677146069851 0 0.26859201328057281 -0.027442020841521631 0 0.28248009054126683 -0.027824818882371601 0 0.29465383366866438 -0.01919356567853802 0 0.28248009054126683 -0.027824818882371601 0 0.29533908139447967 -0.037354518578573179 0 0.29465383366866438 -0.01919356567853802 0 0.28248009054126683 -0.027824818882371601 0 0.28321080035321983 -0.010208268297538009 0 0.29465383366866438 -0.01919356567853802 0 0.29533908139447967 -0.037354518578573179 0 0.2978295874258669 0.0070254842464454832 0 0.28321080035321983 -0.010208268297538009 0 0.29396858594285019 -0.001032612778502764 0 0.2978295874258669 0.0070254842464454832 0 0.28687677889875068 0.001725005618485562 0 0.28321080035321983 -0.010208268297538009 0 0.29465383366866438 -0.01919356567853802 0 0.28321080035321983 -0.010208268297538009 0 0.29396858594285019 -0.001032612778502764 0 0.2978295874258669 0.0070254842464454832 0 0.28321080035321983 -0.010208268297538009 0 0.29465383366866438 -0.01919356567853802 0 0.29396858594285019 -0.001032612778502764 0 0.30752965714041391 0.0058765203804442539 0 0.29465383366866438 -0.01919356567853802 0 0.29396858594285019 -0.001032612778502764 0 0.30752965714041391 0.0058765203804442539 0 0.3196214637881436 -0.021924893160697439 0 0.29465383366866438 -0.01919356567853802 0 0.3196214637881436 -0.021924893160697439 0 0.29465383366866438 -0.01919356567853802 0 0.29533908139447967 -0.037354518578573179 0 0.3196214637881436 -0.021924893160697439 0 0.29533908139447967 -0.037354518578573179 0 0.3196214637881436 -0.021924893160697439 0 0.31660160940309118 -0.035871797032442469 0 0.29533908139447967 -0.037354518578573179 0 0.31292981148517318 -0.054457989835630861 0 0.31660160940309118 -0.035871797032442469 0 0.29533908139447967 -0.037354518578573179 0 0.31292981148517318 -0.054457989835630861 0 0.29642507544735103 -0.06613635338217283 0 0.31292981148517318 -0.054457989835630861 0 0.29642507544735103 -0.06613635338217283 0 0.29533908139447967 -0.037354518578573179 0 0.29642507544735103 -0.06613635338217283 0 0.29301224914481439 -0.054007794946804598 0 0.29533908139447967 -0.037354518578573179 0 0.27395317434556299 -0.0509436520349522 0 0.28351618772518777 -0.053458991616202503 0 0.29533908139447967 -0.037354518578573179 0 0.29301224914481439 -0.054007794946804598 0 0.28351618772518777 -0.053458991616202503 0 0.29533908139447967 -0.037354518578573179 0 0.29642507544735103 -0.06613635338217283 0 0.29533908139447967 -0.037354518578573179 0 0.29347904805936648 -0.068220893163732282 0 0.29301224914481439 -0.054007794946804598 0 0.28521560802072671 -0.062721316040594208 0 0.29347904805936648 -0.068220893163732282 0 0.29301224914481439 -0.054007794946804598 0 0.28521560802072671 -0.062721316040594208 0 0.29301224914481439 -0.054007794946804598 0 0.28351618772518777 -0.053458991616202503 0 0.28521560802072671 -0.062721316040594208 0 0.28007443442101287 -0.061799103716356343 0 0.28351618772518777 -0.053458991616202503 0 0.27395317434556299 -0.0509436520349522 0 0.29533908139447967 -0.037354518578573179 0 0.27395317434556299 -0.0509436520349522 0 0.2807394014679111 -0.038000872253349499 0 0.29533908139447967 -0.037354518578573179 0 0.2807394014679111 -0.038000872253349499 0 0.28248009054126683 -0.027824818882371601 0 0.29533908139447967 -0.037354518578573179 0 0.30290052143222262 -0.20369411332823331 0 0.28158405213751547 -0.22140539282722879 0 0.30290052143222262 -0.20369411332823331 0 0.28158405213751547 -0.22140539282722879 0 0.27747759048209231 -0.20168759245952969 0 0.28632476970011178 -0.18938030831719929 0 0.30290052143222262 -0.20369411332823331 0 0.2980095077463053 -0.17872695304401809 0 0.28632476970011178 -0.18938030831719929 0 0.30290052143222262 -0.20369411332823331 0 0.27747759048209231 -0.20168759245952969 0 0.30290052143222262 -0.20369411332823331 0 0.2980095077463053 -0.17872695304401809 0 0.32549301828835953 -0.18492261693889581 0 0.30290052143222262 -0.20369411332823331 0 0.2980095077463053 -0.17872695304401809 0 0.30290052143222262 -0.20369411332823331 0 0.30715254712033069 -0.22539943122446929 0 0.28158405213751547 -0.22140539282722879 0 0.30290052143222262 -0.20369411332823331 0 0.30715254712033069 -0.22539943122446929 0 0.30290052143222262 -0.20369411332823331 0 0.30715254712033069 -0.22539943122446929 0 0.32148368101975677 -0.2112815477794289 0 0.31140457280844042 -0.24710474912070499 0 0.29234931722919649 -0.23956849287787771 0 0.29718577407036301 -0.25519814195989071 0 0.30715254712033069 -0.22539943122446929 0 0.31140457280844042 -0.24710474912070499 0 0.29234931722919649 -0.23956849287787771 0 0.30715254712033069 -0.22539943122446929 0 0.31140457280844042 -0.24710474912070499 0 0.29234931722919649 -0.23956849287787771 0 0.27362138757170362 -0.2426007269765893 0 0.28009493911397709 -0.25531812806766069 0 0.29234931722919649 -0.23956849287787771 0 0.28158405213751547 -0.22140539282722879 0 0.27362138757170362 -0.2426007269765893 0 0.30715254712033069 -0.22539943122446929 0 0.29234931722919649 -0.23956849287787771 0 0.28158405213751547 -0.22140539282722879 0 0.28158405213751547 -0.22140539282722879 0 0.26621460642996558 -0.23052855599088379 0 0.27362138757170362 -0.2426007269765893 0 0.28158405213751547 -0.22140539282722879 0 0.26621460642996558 -0.23052855599088379 0 0.26307381511529532 -0.2143756044194241 0 0.26621460642996558 -0.23052855599088379 0 0.27362138757170362 -0.2426007269765893 0 0.26034160768121078 -0.2422716922893062 0 0.27362138757170362 -0.2426007269765893 0 0.26034160768121078 -0.2422716922893062 0 0.26515279713901752 -0.25474276698909742 0 0.26034160768121078 -0.2422716922893062 0 0.26515279713901752 -0.25474276698909742 0 0.25575058308532189 -0.25269357128633052 0 0.26034160768121078 -0.2422716922893062 0 0.25134951441318748 -0.22920843539767929 0 0.2499607574480687 -0.24385609709525671 0 0.25575058308532189 -0.25269357128633052 0 0.2462907050713771 -0.25204034373521428 0 0.2499607574480687 -0.24385609709525671 0 0.26034160768121078 -0.2422716922893062 0 0.25575058308532189 -0.25269357128633052 0 0.2499607574480687 -0.24385609709525671 0 0.26621460642996558 -0.23052855599088379 0 0.25134951441318748 -0.22920843539767929 0 0.26307381511529532 -0.2143756044194241 0 0.26621460642996558 -0.23052855599088379 0 0.26034160768121078 -0.2422716922893062 0 0.25134951441318748 -0.22920843539767929 0 0.25134951441318748 -0.22920843539767929 0 0.26307381511529532 -0.2143756044194241 0 0.24314545538918961 -0.20571013864437751 0 0.26307381511529532 -0.2143756044194241 0 0.2593871514889205 -0.19799184377322379 0 0.24314545538918961 -0.20571013864437751 0 0.26307381511529532 -0.2143756044194241 0 0.27747759048209231 -0.20168759245952969 0 0.2593871514889205 -0.19799184377322379 0 0.28158405213751547 -0.22140539282722879 0 0.26307381511529532 -0.2143756044194241 0 0.27747759048209231 -0.20168759245952969 0 0.27747759048209231 -0.20168759245952969 0 0.2593871514889205 -0.19799184377322379 0 0.269221803856454 -0.185599514949991 0 0.28632476970011178 -0.18938030831719929 0 0.27747759048209231 -0.20168759245952969 0 0.269221803856454 -0.185599514949991 0 0.2593871514889205 -0.19799184377322379 0 0.269221803856454 -0.185599514949991 0 0.2437278363918948 -0.18195096812212239 0 0.260919387449559 -0.16579352929295721 0 0.269221803856454 -0.185599514949991 0 0.2437278363918948 -0.18195096812212239 0 0.260919387449559 -0.16579352929295721 0 0.28401442498348639 -0.17719336780422379 0 0.260919387449559 -0.16579352929295721 0 0.27757308642867828 -0.16101723958663619 0 0.28401442498348639 -0.17719336780422379 0 0.260919387449559 -0.16579352929295721 0 0.27757308642867828 -0.16101723958663619 0 0.27224003922127837 -0.1473222684895614 0 0.260919387449559 -0.16579352929295721 0 0.269221803856454 -0.185599514949991 0 0.28401442498348639 -0.17719336780422379 0 0.28632476970011178 -0.18938030831719929 0 0.269221803856454 -0.185599514949991 0 0.28401442498348639 -0.17719336780422379 0 0.260919387449559 -0.16579352929295721 0 0.25452239946831973 -0.14829655140993131 0 0.27224003922127837 -0.1473222684895614 0 0.260919387449559 -0.16579352929295721 0 0.25452239946831973 -0.14829655140993131 0 0.23782434991563151 -0.15439369078169049 0 0.25741251913389712 -0.1305951081492244 0 0.25452239946831973 -0.14829655140993131 0 0.27224003922127837 -0.1473222684895614 0 0.27757308642867828 -0.16101723958663619 0 0.27224003922127837 -0.1473222684895614 0 0.2931184940603897 -0.15375979275980259 0 0.25741251913389712 -0.1305951081492244 0 0.27224003922127837 -0.1473222684895614 0 0.28822748037447399 -0.12879263247558709 0 0.29512866602350563 -0.1184484781339787 0 0.2959534750055749 -0.1435622706191019 0 0.29512866602350563 -0.1184484781339787 0 0.28822748037447399 -0.12879263247558709 0 0.2959534750055749 -0.1435622706191019 0 0.2959534750055749 -0.1435622706191019 0 0.2931184940603897 -0.15375979275980259 0 0.29606782433269818 -0.16881524064208181 0 0.28822748037447399 -0.12879263247558709 0 0.2959534750055749 -0.1435622706191019 0 0.2931184940603897 -0.15375979275980259 0 0.28822748037447399 -0.12879263247558709 0 0.2931184940603897 -0.15375979275980259 0 0.27224003922127837 -0.1473222684895614 0 0.28822748037447399 -0.12879263247558709 0 0.2931184940603897 -0.15375979275980259 0 0.2959534750055749 -0.1435622706191019 0 0.29606782433269818 -0.16881524064208181 0 0.2959534750055749 -0.1435622706191019 0 0.30786991093933941 -0.1327242262548293 0 0.31334084787329858 -0.14560100496875439 0 0.2959534750055749 -0.1435622706191019 0 0.30589655906226038 -0.156608858018214 0 0.31334084787329858 -0.14560100496875439 0 0.30589655906226038 -0.156608858018214 0 0.31666093946419188 -0.15748088094218049 0 0.31334084787329858 -0.14560100496875439 0 0.29512866602350563 -0.1184484781339787 0 0.2959534750055749 -0.1435622706191019 0 0.30010147488007238 -0.1276093355582181 0 0.2959534750055749 -0.1435622706191019 0 0.30786991093933941 -0.1327242262548293 0 0.30010147488007238 -0.1276093355582181 0 0.31399575267335023 -0.12250180558336519 0 0.30554459793957989 -0.1238630007756472 0 0.30786991093933941 -0.1327242262548293 0 0.30554459793957989 -0.1238630007756472 0 0.30786991093933941 -0.1327242262548293 0 0.30010147488007238 -0.1276093355582181 0 0.28401442498348639 -0.17719336780422379 0 0.29606782433269818 -0.16881524064208181 0 0.2980095077463053 -0.17872695304401809 0 0.28632476970011178 -0.18938030831719929 0 0.28401442498348639 -0.17719336780422379 0 0.2980095077463053 -0.17872695304401809 0 0.27757308642867828 -0.16101723958663619 0 0.2931184940603897 -0.15375979275980259 0 0.28401442498348639 -0.17719336780422379 0 0.2931184940603897 -0.15375979275980259 0 0.28401442498348639 -0.17719336780422379 0 0.29606782433269818 -0.16881524064208181 0 0.2931184940603897 -0.15375979275980259 0 0.29606782433269818 -0.16881524064208181 0 0.29606782433269818 -0.16881524064208181 0 0.30589655906226038 -0.156608858018214 0 0.31145366373618227 -0.1686264437044486 0 0.2959534750055749 -0.1435622706191019 0 0.29606782433269818 -0.16881524064208181 0 0.30589655906226038 -0.156608858018214 0 0.30589655906226038 -0.156608858018214 0 0.31145366373618227 -0.1686264437044486 0 0.31666093946419188 -0.15748088094218049 0 0.31145366373618227 -0.1686264437044486 0 0.2980095077463053 -0.17872695304401809 0 0.32549301828835953 -0.18492261693889581 0 0.29606782433269818 -0.16881524064208181 0 0.31145366373618227 -0.1686264437044486 0 0.2980095077463053 -0.17872695304401809 0 0.29606782433269818 -0.16881524064208181 0 0.2980095077463053 -0.17872695304401809 0 0.31145366373618227 -0.1686264437044486 0 0.32549301828835953 -0.18492261693889581 0 0.32738776678709508 -0.16545123116759969 0 0.31145366373618227 -0.1686264437044486 0 0.32738776678709508 -0.16545123116759969 0 0.31666093946419188 -0.15748088094218049 0 0.32738776678709508 -0.16545123116759969 0 0.31666093946419188 -0.15748088094218049 0 0.32968898845727718 -0.1497650634196834 0 0.32738776678709508 -0.16545123116759969 0 0.32968898845727718 -0.1497650634196834 0 0.34808551514449421 -0.1661511205495555 0 0.32549301828835953 -0.18492261693889581 0 0.32738776678709508 -0.16545123116759969 0 0.34808551514449421 -0.1661511205495555 0 0.32549301828835953 -0.18492261693889581 0 0.34808551514449421 -0.1661511205495555 0 0.32549301828835953 -0.18492261693889581 0 0.34808551514449421 -0.1661511205495555 0 0.34521429895780248 -0.1968392362703156 0 0.30786991093933941 -0.1327242262548293 0 0.32373683991627678 -0.1342707635111336 0 0.31334084787329858 -0.14560100496875439 0 0.31399575267335023 -0.12250180558336519 0 0.32517348349888747 -0.118580130041643 0 0.32373683991627678 -0.1342707635111336 0 0.31399575267335023 -0.12250180558336519 0 0.30786991093933941 -0.1327242262548293 0 0.32373683991627678 -0.1342707635111336 0 0.32373683991627678 -0.1342707635111336 0 0.31334084787329858 -0.14560100496875439 0 0.32968898845727718 -0.1497650634196834 0 0.31666093946419188 -0.15748088094218049 0 0.31334084787329858 -0.14560100496875439 0 0.32968898845727718 -0.1497650634196834 0 0.32373683991627678 -0.1342707635111336 0 0.32968898845727718 -0.1497650634196834 0 0.34485783347551252 -0.1433779188078016 0 0.32968898845727718 -0.1497650634196834 0 0.34485783347551252 -0.1433779188078016 0 0.34808551514449421 -0.1661511205495555 0 0.34014121552940491 -0.1203166258242544 0 0.32373683991627678 -0.1342707635111336 0 0.34485783347551252 -0.1433779188078016 0 0.34014121552940491 -0.1203166258242544 0 0.35551888896884759 -0.1297027680154724 0 0.34485783347551252 -0.1433779188078016 0 0.35551888896884759 -0.1297027680154724 0 0.34485783347551252 -0.1433779188078016 0 0.37067801200062889 -0.1473796241602153 0 0.34485783347551252 -0.1433779188078016 0 0.37067801200062889 -0.1473796241602153 0 0.34808551514449421 -0.1661511205495555 0 0.35551888896884759 -0.1297027680154724 0 0.37067801200062889 -0.1473796241602153 0 0.37104303648388809 -0.1272612894930944 0 0.34808551514449421 -0.1661511205495555 0 0.36752808638216261 -0.17990459429682831 0 0.34521429895780248 -0.1968392362703156 0 0.34808551514449421 -0.1661511205495555 0 0.37072349948513561 -0.1630779710757761 0 0.36752808638216261 -0.17990459429682831 0 0.37067801200062889 -0.1473796241602153 0 0.34808551514449421 -0.1661511205495555 0 0.37072349948513561 -0.1630779710757761 0 0.37067801200062889 -0.1473796241602153 0 0.34808551514449421 -0.1661511205495555 0 0.37072349948513561 -0.1630779710757761 0 0.36752808638216261 -0.17990459429682831 0 0.38565700028273392 -0.16791849986101029 0 0.36752808638216261 -0.17990459429682831 0 0.36890805570422369 -0.19954003101511669 0 0.34521429895780248 -0.1968392362703156 0 0.36752808638216261 -0.17990459429682831 0 0.36890805570422369 -0.19954003101511669 0 0.38551481473406651 -0.18910273675150999 0 0.36890805570422369 -0.19954003101511669 0 0.35851964138810982 -0.2171827375251118 0 0.37645297458065691 -0.21353851220024839 0 0.35851964138810982 -0.2171827375251118 0 0.34521429895780248 -0.1968392362703156 0 0.33865146772119931 -0.2184974665014994 0 0.36890805570422369 -0.19954003101511669 0 0.35851964138810982 -0.2171827375251118 0 0.34521429895780248 -0.1968392362703156 0 0.32549301828835953 -0.18492261693889581 0 0.34521429895780248 -0.1968392362703156 0 0.32148368101975677 -0.2112815477794289 0 0.34521429895780248 -0.1968392362703156 0 0.33865146772119931 -0.2184974665014994 0 0.32148368101975677 -0.2112815477794289 0 0.30290052143222262 -0.20369411332823331 0 0.32549301828835953 -0.18492261693889581 0 0.32148368101975677 -0.2112815477794289 0 0.30290052143222262 -0.20369411332823331 0 0.32549301828835953 -0.18492261693889581 0 0.31140457280844042 -0.24710474912070499 0 0.32841487832378857 -0.23419691532036521 0 0.32909477526671738 -0.25319804842994992 0 0.30715254712033069 -0.22539943122446929 0 0.31140457280844042 -0.24710474912070499 0 0.32841487832378857 -0.23419691532036521 0 0.30715254712033069 -0.22539943122446929 0 0.32148368101975677 -0.2112815477794289 0 0.32841487832378857 -0.23419691532036521 0 0.33865146772119931 -0.2184974665014994 0 0.32841487832378857 -0.23419691532036521 0 0.34678876975393269 -0.23153157971564481 0 0.33865146772119931 -0.2184974665014994 0 0.32148368101975677 -0.2112815477794289 0 0.32841487832378857 -0.23419691532036521 0 0.32841487832378857 -0.23419691532036521 0 0.34542116247921317 -0.24786541093840589 0 0.32909477526671738 -0.25319804842994992 0 0.32841487832378857 -0.23419691532036521 0 0.34542116247921317 -0.24786541093840589 0 0.34678876975393269 -0.23153157971564481 0 0.34542116247921317 -0.24786541093840589 0 0.36282952759798831 -0.23490181410806829 0 0.36211004630048071 -0.25874315800932568 0 0.34542116247921317 -0.24786541093840589 0 0.34678876975393269 -0.23153157971564481 0 0.36282952759798831 -0.23490181410806829 0 0.35851964138810982 -0.2171827375251118 0 0.33865146772119931 -0.2184974665014994 0 0.34678876975393269 -0.23153157971564481 0 0.35851964138810982 -0.2171827375251118 0 0.34678876975393269 -0.23153157971564481 0 0.36282952759798831 -0.23490181410806829 0 0.35851964138810982 -0.2171827375251118 0 0.37179579398026102 -0.22561915142401329 0 0.36282952759798831 -0.23490181410806829 0 0.35851964138810982 -0.2171827375251118 0 0.37179579398026102 -0.22561915142401329 0 0.37645297458065691 -0.21353851220024839 0 0.37179579398026102 -0.22561915142401329 0 0.36282952759798831 -0.23490181410806829 0 0.37754581309809132 -0.23651361028518689 0 0.36282952759798831 -0.23490181410806829 0 0.36876625398544938 -0.24898888889403961 0 0.36211004630048071 -0.25874315800932568 0 0.36282952759798831 -0.23490181410806829 0 0.36211004630048071 -0.25874315800932568 0 0.36282952759798831 -0.23490181410806829 0 0.36876625398544938 -0.24898888889403961 0 0.37754581309809132 -0.23651361028518689 0 0.37754581309809132 -0.23651361028518689 0 0.39300219267510322 -0.23842714914515989 0 0.3871149211879113 -0.25548270742864421 0 0.39300219267510322 -0.23842714914515989 0 0.3871149211879113 -0.25548270742864421 0 0.40207495352916539 -0.25113417058953519 0 0.39300219267510322 -0.23842714914515989 0 0.40723458142941671 -0.23497076085713389 0 0.40207495352916539 -0.25113417058953519 0 0.39851670543712209 -0.2244771902628257 0 0.41039622944065363 -0.2185270516157129 0 0.40723458142941671 -0.23497076085713389 0 0.39300219267510322 -0.23842714914515989 0 0.39851670543712209 -0.2244771902628257 0 0.40723458142941671 -0.23497076085713389 0 0.39300219267510322 -0.23842714914515989 0 0.39851670543712209 -0.2244771902628257 0 0.38505811203634721 -0.22522643630241351 0 0.39851670543712209 -0.2244771902628257 0 0.38505811203634721 -0.22522643630241351 0 0.39303519244684892 -0.21278300449704671 0 0.37754581309809132 -0.23651361028518689 0 0.39300219267510322 -0.23842714914515989 0 0.38505811203634721 -0.22522643630241351 0 0.37179579398026102 -0.22561915142401329 0 0.37754581309809132 -0.23651361028518689 0 0.38505811203634721 -0.22522643630241351 0 0.37179579398026102 -0.22561915142401329 0 0.38505811203634721 -0.22522643630241351 0 0.37645297458065691 -0.21353851220024839 0 0.38505811203634721 -0.22522643630241351 0 0.37645297458065691 -0.21353851220024839 0 0.39303519244684892 -0.21278300449704671 0 0.36890805570422369 -0.19954003101511669 0 0.37645297458065691 -0.21353851220024839 0 0.38544293285627962 -0.20314808770867229 0 0.37645297458065691 -0.21353851220024839 0 0.38544293285627962 -0.20314808770867229 0 0.39303519244684892 -0.21278300449704671 0 0.36890805570422369 -0.19954003101511669 0 0.38544293285627962 -0.20314808770867229 0 0.38551481473406651 -0.18910273675150999 0 0.38544293285627962 -0.20314808770867229 0 0.38551481473406651 -0.18910273675150999 0 0.40330362681560211 -0.20077615407943949 0 0.38551481473406651 -0.18910273675150999 0 0.40330362681560211 -0.20077615407943949 0 0.39995041381356911 -0.1868338584648204 0 0.40330362681560211 -0.20077615407943949 0 0.4125958117473455 -0.19170302267586259 0 0.39995041381356911 -0.1868338584648204 0 0.40330362681560211 -0.20077615407943949 0 0.39303519244684892 -0.21278300449704671 0 0.41039622944065363 -0.2185270516157129 0 0.38544293285627962 -0.20314808770867229 0 0.40330362681560211 -0.20077615407943949 0 0.39303519244684892 -0.21278300449704671 0 0.39851670543712209 -0.2244771902628257 0 0.39303519244684892 -0.21278300449704671 0 0.41039622944065363 -0.2185270516157129 0 0.40330362681560211 -0.20077615407943949 0 0.41039622944065363 -0.2185270516157129 0 0.42189732607146729 -0.20211324892629831 0 0.41039622944065363 -0.2185270516157129 0 0.42189732607146729 -0.20211324892629831 0 0.42790605200351661 -0.22140108800821251 0 0.40330362681560211 -0.20077615407943949 0 0.4125958117473455 -0.19170302267586259 0 0.42189732607146729 -0.20211324892629831 0 0.4125958117473455 -0.19170302267586259 0 0.42189732607146729 -0.20211324892629831 0 0.42233780496578233 -0.18319904235883591 0 0.42189732607146729 -0.20211324892629831 0 0.43389642119060762 -0.191962199940241 0 0.42233780496578233 -0.18319904235883591 0 0.42189732607146729 -0.20211324892629831 0 0.43389642119060762 -0.191962199940241 0 0.43723926749718739 -0.20471492206911249 0 0.43723926749718739 -0.20471492206911249 0 0.42790605200351661 -0.22140108800821251 0 0.44233814121790038 -0.22173902575952509 0 0.42189732607146729 -0.20211324892629831 0 0.43723926749718739 -0.20471492206911249 0 0.42790605200351661 -0.22140108800821251 0 0.43048550082884018 -0.24614270293406881 0 0.44233814121790038 -0.22173902575952509 0 0.42790605200351661 -0.22140108800821251 0 0.43048550082884018 -0.24614270293406881 0 0.44233814121790038 -0.22173902575952509 0 0.42790605200351661 -0.22140108800821251 0 0.43048550082884018 -0.24614270293406881 0 0.42088007225406548 -0.23367140350055049 0 0.43048550082884018 -0.24614270293406881 0 0.44582088554477811 -0.24525862245079941 0 0.43357426810421817 -0.25015303326672972 0 0.43048550082884018 -0.24614270293406881 0 0.42846035594967069 -0.25031232086228522 0 0.43357426810421817 -0.25015303326672972 0 0.43048550082884018 -0.24614270293406881 0 0.43357426810421817 -0.25015303326672972 0 0.43048550082884018 -0.24614270293406881 0 0.418537335240391 -0.2435876000290193 0 0.42846035594967069 -0.25031232086228522 0 0.43048550082884018 -0.24614270293406881 0 0.42846035594967069 -0.25031232086228522 0 0.43048550082884018 -0.24614270293406881 0 0.42088007225406548 -0.23367140350055049 0 0.43048550082884018 -0.24614270293406881 0 0.418537335240391 -0.2435876000290193 0 0.42088007225406548 -0.23367140350055049 0 0.418537335240391 -0.2435876000290193 0 0.40723458142941671 -0.23497076085713389 0 0.42088007225406548 -0.23367140350055049 0 0.418537335240391 -0.2435876000290193 0 0.40723458142941671 -0.23497076085713389 0 0.40207495352916539 -0.25113417058953519 0 0.418537335240391 -0.2435876000290193 0 0.40207495352916539 -0.25113417058953519 0 0.42846035594967069 -0.25031232086228522 0 0.41039622944065363 -0.2185270516157129 0 0.40723458142941671 -0.23497076085713389 0 0.42088007225406548 -0.23367140350055049 0 0.41039622944065363 -0.2185270516157129 0 0.42790605200351661 -0.22140108800821251 0 0.42088007225406548 -0.23367140350055049 0 0.3932705088567644 -0.1286081277708763 0 0.38946375456974969 -0.1482633138159434 0 0.40032650034539519 -0.13972272199131119 0 0.3932705088567644 -0.1286081277708763 0 0.38946375456974969 -0.1482633138159434 0 0.40224748518751269 -0.1211494002184121 0 0.40802316631723889 -0.13171289331352951 0 0.40224748518751269 -0.1211494002184121 0 0.40096691517672778 -0.13029828582353201 0 0.3932705088567644 -0.1286081277708763 0 0.40224748518751269 -0.1211494002184121 0 0.40096691517672778 -0.13029828582353201 0 0.40802316631723889 -0.13171289331352951 0 0.40096691517672778 -0.13029828582353201 0 0.40032650034539519 -0.13972272199131119 0 0.40802316631723889 -0.13171289331352951 0 0.40032650034539519 -0.13972272199131119 0 0.40802316631723889 -0.13171289331352951 0 0.40096691517672778 -0.13029828582353201 0 0.40032650034539519 -0.13972272199131119 0 0.3932705088567644 -0.1286081277708763 0 0.37067801200062889 -0.1473796241602153 0 0.37104303648388809 -0.1272612894930944 0 0.3932705088567644 -0.1286081277708763 0 0.37067801200062889 -0.1473796241602153 0 0.3932705088567644 -0.1286081277708763 0 0.37067801200062889 -0.1473796241602153 0 0.37072349948513561 -0.1630779710757761 0 0.38946375456974969 -0.1482633138159434 0 0.37067801200062889 -0.1473796241602153 0 0.3932705088567644 -0.1286081277708763 0 0.38946375456974969 -0.1482633138159434 0 0.40032650034539519 -0.13972272199131119 0 0.38946375456974969 -0.1482633138159434 0 0.40103769468862932 -0.15735650722112959 0 0.38946375456974969 -0.1482633138159434 0 0.40103769468862932 -0.15735650722112959 0 0.38565700028273392 -0.16791849986101029 0 0.40103769468862932 -0.15735650722112959 0 0.38565700028273392 -0.16791849986101029 0 0.40804365254297231 -0.17415516972609171 0 0.37072349948513561 -0.1630779710757761 0 0.38946375456974969 -0.1482633138159434 0 0.38565700028273392 -0.16791849986101029 0 0.38946375456974969 -0.1482633138159434 0 0.38565700028273392 -0.16791849986101029 0 0.38551481473406651 -0.18910273675150999 0 0.38565700028273392 -0.16791849986101029 0 0.39995041381356911 -0.1868338584648204 0 0.36752808638216261 -0.17990459429682831 0 0.38551481473406651 -0.18910273675150999 0 0.38565700028273392 -0.16791849986101029 0 0.38565700028273392 -0.16791849986101029 0 0.39995041381356911 -0.1868338584648204 0 0.40804365254297231 -0.17415516972609171 0 0.4125958117473455 -0.19170302267586259 0 0.40804365254297231 -0.17415516972609171 0 0.42233780496578233 -0.18319904235883591 0 0.4125958117473455 -0.19170302267586259 0 0.39995041381356911 -0.1868338584648204 0 0.40804365254297231 -0.17415516972609171 0 0.42233780496578233 -0.18319904235883591 0 0.43537196508735049 -0.18173276810905351 0 0.42169756570229522 -0.15672283071129131 0 0.43389642119060762 -0.191962199940241 0 0.42233780496578233 -0.18319904235883591 0 0.43537196508735049 -0.18173276810905351 0 0.43537196508735049 -0.18173276810905351 0 0.42169756570229522 -0.15672283071129131 0 0.43537196508735049 -0.18173276810905351 0 0.42169756570229522 -0.15672283071129131 0 0.44011919579772352 -0.15902857640534751 0 0.40804365254297231 -0.17415516972609171 0 0.42233780496578233 -0.18319904235883591 0 0.42169756570229522 -0.15672283071129131 0 0.40103769468862932 -0.15735650722112959 0 0.40804365254297231 -0.17415516972609171 0 0.42169756570229522 -0.15672283071129131 0 0.40032650034539519 -0.13972272199131119 0 0.40103769468862932 -0.15735650722112959 0 0.42169756570229522 -0.15672283071129131 0 0.42169756570229522 -0.15672283071129131 0 0.40802316631723889 -0.13171289331352951 0 0.40032650034539519 -0.13972272199131119 0 0.42169756570229522 -0.15672283071129131 0 0.40802316631723889 -0.13171289331352951 0 0.42169756570229522 -0.15672283071129131 0 0.43087782981676859 -0.131879285754128 0 0.44052259681213413 -0.14512254840888281 0 0.42169756570229522 -0.15672283071129131 0 0.44052259681213413 -0.14512254840888281 0 0.44011919579772352 -0.15902857640534751 0 0.42510906065580589 -0.11393180641703871 0 0.43087782981676859 -0.131879285754128 0 0.40802316631723889 -0.13171289331352951 0 0.42169756570229522 -0.15672283071129131 0 0.43087782981676859 -0.131879285754128 0 0.40802316631723889 -0.13171289331352951 0 0.46093003486481321 -0.11810563265674839 0 0.46623847963083442 -0.1374076686568538 0 0.47239045088042492 -0.13005034139104371 0 0.46093003486481321 -0.11810563265674839 0 0.45430072039358249 -0.1470470373257684 0 0.46093003486481321 -0.11810563265674839 0 0.46623847963083442 -0.1374076686568538 0 0.45430072039358249 -0.1470470373257684 0 0.46093003486481321 -0.11810563265674839 0 0.44582693855797939 -0.1311402400572215 0 0.45430072039358249 -0.1470470373257684 0 0.441730170532879 -0.1159420230490274 0 0.43087782981676859 -0.131879285754128 0 0.44582693855797939 -0.1311402400572215 0 0.43087782981676859 -0.131879285754128 0 0.44582693855797939 -0.1311402400572215 0 0.44052259681213413 -0.14512254840888281 0 0.44582693855797939 -0.1311402400572215 0 0.44052259681213413 -0.14512254840888281 0 0.45430072039358249 -0.1470470373257684 0 0.44052259681213413 -0.14512254840888281 0 0.45430072039358249 -0.1470470373257684 0 0.44011919579772352 -0.15902857640534751 0 0.46623847963083442 -0.1374076686568538 0 0.45430072039358249 -0.1470470373257684 0 0.46795215833203208 -0.14958538313512479 0 0.45430072039358249 -0.1470470373257684 0 0.46795215833203208 -0.14958538313512479 0 0.46249654728105127 -0.15875526896169859 0 0.46249654728105127 -0.15875526896169859 0 0.44767140592235177 -0.17598844199478861 0 0.4590637049386419 -0.17656280063954849 0 0.46795215833203208 -0.14958538313512479 0 0.46765797362325351 -0.16960743348544691 0 0.46249654728105127 -0.15875526896169859 0 0.46765797362325351 -0.16960743348544691 0 0.46249654728105127 -0.15875526896169859 0 0.4590637049386419 -0.17656280063954849 0 0.45430072039358249 -0.1470470373257684 0 0.46249654728105127 -0.15875526896169859 0 0.44767140592235177 -0.17598844199478861 0 0.46249654728105127 -0.15875526896169859 0 0.4590637049386419 -0.17656280063954849 0 0.45430072039358249 -0.1470470373257684 0 0.44011919579772352 -0.15902857640534751 0 0.44767140592235177 -0.17598844199478861 0 0.45430072039358249 -0.1470470373257684 0 0.44767140592235177 -0.17598844199478861 0 0.44767140592235177 -0.17598844199478861 0 0.45131049953134228 -0.18433764364674099 0 0.4590637049386419 -0.17656280063954849 0 0.43537196508735049 -0.18173276810905351 0 0.44011919579772352 -0.15902857640534751 0 0.44767140592235177 -0.17598844199478861 0 0.43389642119060762 -0.191962199940241 0 0.43537196508735049 -0.18173276810905351 0 0.44405046135624082 -0.18412940313962539 0 0.43537196508735049 -0.18173276810905351 0 0.44767140592235177 -0.17598844199478861 0 0.44405046135624082 -0.18412940313962539 0 0.44405046135624082 -0.18412940313962539 0 0.45131049953134228 -0.18433764364674099 0 0.4501360628432447 -0.19063724014234421 0 0.44767140592235177 -0.17598844199478861 0 0.44405046135624082 -0.18412940313962539 0 0.45131049953134228 -0.18433764364674099 0 0.46765797362325351 -0.16960743348544691 0 0.4590637049386419 -0.17656280063954849 0 0.45563086259623248 -0.19437033231739831 0 0.4590637049386419 -0.17656280063954849 0 0.45563086259623248 -0.19437033231739831 0 0.46765797362325351 -0.16960743348544691 0 0.45563086259623248 -0.19437033231739831 0 0.46765797362325351 -0.16960743348544691 0 0.46817453342310178 -0.17984984725849121 0 0.45563086259623248 -0.19437033231739831 0 0.45131049953134228 -0.18433764364674099 0 0.4590637049386419 -0.17656280063954849 0 0.45563086259623248 -0.19437033231739831 0 0.46817453342310178 -0.17984984725849121 0 0.47868008644015098 -0.18364062408913809 0 0.4864423059537345 -0.17561039486471769 0 0.46817453342310178 -0.17984984725849121 0 0.47868008644015098 -0.18364062408913809 0 0.47427671796452459 -0.19390449174425081 0 0.4864423059537345 -0.17561039486471769 0 0.5 -0.16076066479590659 0 0.5 -0.1885669917164324 0 0.47868008644015098 -0.18364062408913809 0 0.4864423059537345 -0.17561039486471769 0 0.5 -0.1885669917164324 0 0.4864423059537345 -0.17561039486471769 0 0.5 -0.16076066479590659 0 0.4874204893839118 -0.1629257968797283 0 0.5 -0.16076066479590659 0 0.4874204893839118 -0.1629257968797283 0 0.48836632050416018 -0.15319142364385391 0 0.46765797362325351 -0.16960743348544691 0 0.47968508465027437 -0.14484453465349531 0 0.46817453342310178 -0.17984984725849121 0 0.4864423059537345 -0.17561039486471769 0 0.47621222687475862 -0.15989320835224299 0 0.46765797362325351 -0.16960743348544691 0 0.46817453342310178 -0.17984984725849121 0 0.47621222687475862 -0.15989320835224299 0 0.4864423059537345 -0.17561039486471769 0 0.4874204893839118 -0.1629257968797283 0 0.47621222687475862 -0.15989320835224299 0 0.46817453342310178 -0.17984984725849121 0 0.47621222687475862 -0.15989320835224299 0 0.4874204893839118 -0.1629257968797283 0 0.47621222687475862 -0.15989320835224299 0 0.48836632050416018 -0.15319142364385391 0 0.46765797362325351 -0.16960743348544691 0 0.47621222687475862 -0.15989320835224299 0 0.47968508465027437 -0.14484453465349531 0 0.47621222687475862 -0.15989320835224299 0 0.48424992032641551 -0.13993656944599481 0 0.47621222687475862 -0.15989320835224299 0 0.48836632050416018 -0.15319142364385391 0 0.48424992032641551 -0.13993656944599481 0 0.46795215833203208 -0.14958538313512479 0 0.46765797362325351 -0.16960743348544691 0 0.47968508465027437 -0.14484453465349531 0 0.47621222687475862 -0.15989320835224299 0 0.47968508465027437 -0.14484453465349531 0 0.48424992032641551 -0.13993656944599481 0 0.46623847963083442 -0.1374076686568538 0 0.46795215833203208 -0.14958538313512479 0 0.47424994269801352 -0.1397372940967013 0 0.46795215833203208 -0.14958538313512479 0 0.47968508465027437 -0.14484453465349531 0 0.47424994269801352 -0.1397372940967013 0 0.47968508465027437 -0.14484453465349531 0 0.47994759956173211 -0.14051186616834291 0 0.47424994269801352 -0.1397372940967013 0 0.47968508465027437 -0.14484453465349531 0 0.48424992032641551 -0.13993656944599481 0 0.47994759956173211 -0.14051186616834291 0 0.5 -0.16076066479590659 0 0.48836632050416018 -0.15319142364385391 0 0.5 -0.13295433787538069 0 0.48836632050416018 -0.15319142364385391 0 0.5 -0.13295433787538069 0 0.48424992032641551 -0.13993656944599481 0 0.48916266477234061 -0.13224727383335569 0 0.48085855782101261 -0.13626791926353529 0 0.48424992032641551 -0.13993656944599481 0 0.5 -0.13295433787538069 0 0.48916266477234061 -0.13224727383335569 0 0.48424992032641551 -0.13993656944599481 0 0.48986304781109291 -0.1242692167884092 0 0.5 -0.13295433787538069 0 0.48916266477234061 -0.13224727383335569 0 0.48986304781109291 -0.1242692167884092 0 0.48916266477234061 -0.13224727383335569 0 0.48085855782101261 -0.13626791926353529 0 0.47499259514944292 -0.1202547269832886 0 0.48085855782101261 -0.13626791926353529 0 0.47239045088042492 -0.13005034139104371 0 0.48085855782101261 -0.13626791926353529 0 0.48424992032641551 -0.13993656944599481 0 0.47994759956173211 -0.14051186616834291 0 0.48085855782101261 -0.13626791926353529 0 0.47994759956173211 -0.14051186616834291 0 0.47424994269801352 -0.1397372940967013 0 0.48085855782101261 -0.13626791926353529 0 0.47424994269801352 -0.1397372940967013 0 0.47239045088042492 -0.13005034139104371 0 0.46623847963083442 -0.1374076686568538 0 0.47424994269801352 -0.1397372940967013 0 0.47239045088042492 -0.13005034139104371 0 0.45735248248792831 -0.2263504469462593 0 0.45606595353113982 -0.2348942090935259 0 0.45040787416373163 -0.22146407059246401 0 0.4593659812364308 -0.22004368230368379 0 0.45735248248792831 -0.2263504469462593 0 0.45040787416373163 -0.22146407059246401 0 0.4593659812364308 -0.22004368230368379 0 0.45735248248792831 -0.2263504469462593 0 0.47005683011064803 -0.22590290220369119 0 0.4593659812364308 -0.22004368230368379 0 0.46586242272604061 -0.21273545752659301 0 0.47005683011064803 -0.22590290220369119 0 0.45735248248792831 -0.2263504469462593 0 0.45606595353113982 -0.2348942090935259 0 0.47005683011064803 -0.22590290220369119 0 0.46661169077989217 -0.2415165845456661 0 0.45606595353113982 -0.2348942090935259 0 0.47005683011064803 -0.22590290220369119 0 0.46661169077989217 -0.2415165845456661 0 0.45571617873614662 -0.24946335937342859 0 0.47785808936807489 -0.24877368548012899 0 0.45571617873614662 -0.24946335937342859 0 0.47785808936807489 -0.24877368548012899 0 0.46661169077989217 -0.2415165845456661 0 0.45518121600666411 -0.24259067484840299 0 0.45571617873614662 -0.24946335937342859 0 0.46661169077989217 -0.2415165845456661 0 0.45518121600666411 -0.24259067484840299 0 0.45606595353113982 -0.2348942090935259 0 0.45571617873614662 -0.24946335937342859 0 0.43357426810421817 -0.25015303326672972 0 0.43048550082884018 -0.24614270293406881 0 0.44582088554477811 -0.24525862245079941 0 0.44233814121790038 -0.22173902575952509 0 0.45571617873614662 -0.24946335937342859 0 0.44582088554477811 -0.24525862245079941 0 0.43357426810421817 -0.25015303326672972 0 0.45518121600666411 -0.24259067484840299 0 0.45606595353113982 -0.2348942090935259 0 0.44582088554477811 -0.24525862245079941 0 0.45518121600666411 -0.24259067484840299 0 0.45571617873614662 -0.24946335937342859 0 0.44582088554477811 -0.24525862245079941 0 0.44582088554477811 -0.24525862245079941 0 0.44233814121790038 -0.22173902575952509 0 0.45040787416373163 -0.22146407059246401 0 0.44582088554477811 -0.24525862245079941 0 0.45040787416373163 -0.22146407059246401 0 0.45606595353113982 -0.2348942090935259 0 0.44582088554477811 -0.24525862245079941 0 0.45040787416373163 -0.22146407059246401 0 0.43723926749718739 -0.20471492206911249 0 0.44233814121790038 -0.22173902575952509 0 0.45499486278268447 -0.1976695187341285 0 0.45040787416373163 -0.22146407059246401 0 0.45499486278268447 -0.1976695187341285 0 0.44233814121790038 -0.22173902575952509 0 0.45040787416373163 -0.22146407059246401 0 0.45499486278268447 -0.1976695187341285 0 0.44233814121790038 -0.22173902575952509 0 0.45499486278268447 -0.1976695187341285 0 0.43723926749718739 -0.20471492206911249 0 0.44395992212319679 -0.19308347956624619 0 0.45499486278268447 -0.1976695187341285 0 0.43389642119060762 -0.191962199940241 0 0.44405046135624082 -0.18412940313962539 0 0.44395992212319679 -0.19308347956624619 0 0.43389642119060762 -0.191962199940241 0 0.43723926749718739 -0.20471492206911249 0 0.44395992212319679 -0.19308347956624619 0 0.44395992212319679 -0.19308347956624619 0 0.45499486278268447 -0.1976695187341285 0 0.45131049953134228 -0.18433764364674099 0 0.4501360628432447 -0.19063724014234421 0 0.45563086259623248 -0.19437033231739831 0 0.44395992212319679 -0.19308347956624619 0 0.4501360628432447 -0.19063724014234421 0 0.45499486278268447 -0.1976695187341285 0 0.44405046135624082 -0.18412940313962539 0 0.44395992212319679 -0.19308347956624619 0 0.4501360628432447 -0.19063724014234421 0 0.46817453342310178 -0.17984984725849121 0 0.46013683997144489 -0.19980648616473931 0 0.47427671796452459 -0.19390449174425081 0 0.46817453342310178 -0.17984984725849121 0 0.46013683997144489 -0.19980648616473931 0 0.46817453342310178 -0.17984984725849121 0 0.45563086259623248 -0.19437033231739831 0 0.46013683997144489 -0.19980648616473931 0 0.4501360628432447 -0.19063724014234421 0 0.45563086259623248 -0.19437033231739831 0 0.45499486278268447 -0.1976695187341285 0 0.45499486278268447 -0.1976695187341285 0 0.46013683997144489 -0.19980648616473931 0 0.45563086259623248 -0.19437033231739831 0 0.45499486278268447 -0.1976695187341285 0 0.45563086259623248 -0.19437033231739831 0 0.45499486278268447 -0.1976695187341285 0 0.46013683997144489 -0.19980648616473931 0 0.46013683997144489 -0.19980648616473931 0 0.46586242272604061 -0.21273545752659301 0 0.48006841998572208 -0.20808990240084899 0 0.45040787416373163 -0.22146407059246401 0 0.45499486278268447 -0.1976695187341285 0 0.4548395438527213 -0.21295904373074681 0 0.4593659812364308 -0.22004368230368379 0 0.45040787416373163 -0.22146407059246401 0 0.4548395438527213 -0.21295904373074681 0 0.4593659812364308 -0.22004368230368379 0 0.4548395438527213 -0.21295904373074681 0 0.46586242272604061 -0.21273545752659301 0 0.46013683997144489 -0.19980648616473931 0 0.4548395438527213 -0.21295904373074681 0 0.45499486278268447 -0.1976695187341285 0 0.46013683997144489 -0.19980648616473931 0 0.4548395438527213 -0.21295904373074681 0 0.46013683997144489 -0.19980648616473931 0 0.4548395438527213 -0.21295904373074681 0 0.46586242272604061 -0.21273545752659301 0 0.46013683997144489 -0.19980648616473931 0 0.48006841998572208 -0.20808990240084899 0 0.46586242272604061 -0.21273545752659301 0 0.48006841998572208 -0.20808990240084899 0 0.47005683011064803 -0.22590290220369119 0 0.46013683997144489 -0.19980648616473931 0 0.48006841998572208 -0.20808990240084899 0 0.47427671796452459 -0.19390449174425081 0 0.47868008644015098 -0.18364062408913809 0 0.47427671796452459 -0.19390449174425081 0 0.5 -0.1885669917164324 0 0.48006841998572208 -0.20808990240084899 0 0.47427671796452459 -0.19390449174425081 0 0.5 -0.1885669917164324 0 0.48006841998572208 -0.20808990240084899 0 0.5 -0.1885669917164324 0 0.49999999999999961 -0.21637331863695819 0 0.48006841998572208 -0.20808990240084899 0 0.49999999999999961 -0.21637331863695819 0 0.48006841998572208 -0.20808990240084899 0 0.49999999999999961 -0.21637331863695819 0 0.4862545149737133 -0.22430099187442659 0 0.49999999999999961 -0.21637331863695819 0 0.5 -0.2322286651118938 0 0.4862545149737133 -0.22430099187442659 0 0.5 -0.2322286651118938 0 0.4862545149737133 -0.22430099187442659 0 0.48731543898686108 -0.23834171508702701 0 0.4862545149737133 -0.22430099187442659 0 0.47005683011064803 -0.22590290220369119 0 0.48731543898686108 -0.23834171508702701 0 0.48006841998572208 -0.20808990240084899 0 0.4862545149737133 -0.22430099187442659 0 0.47005683011064803 -0.22590290220369119 0 0.46661169077989217 -0.2415165845456661 0 0.47005683011064803 -0.22590290220369119 0 0.48731543898686108 -0.23834171508702701 0 0.46661169077989217 -0.2415165845456661 0 0.47785808936807489 -0.24877368548012899 0 0.48731543898686108 -0.23834171508702701 0 0.47785808936807489 -0.24877368548012899 0 0.50000000000000333 -0.24808401158682941 0 0.48731543898686108 -0.23834171508702701 0 0.5 -0.2322286651118938 0 0.50000000000000333 -0.24808401158682941 0 0.48731543898686108 -0.23834171508702701 0 0.47785808936807489 -0.24877368548012899 0 0.50000000000000333 -0.24808401158682941 0 0.50000000000000333 -0.24808401158682941 0 0.48656724266228879 -0.26126228076250718 0 0.5 -0.26842994380811291 0 0.47785808936807489 -0.24877368548012899 0 0.50000000000000333 -0.24808401158682941 0 0.48656724266228879 -0.26126228076250718 0 0.5 -0.26842994380811291 0 0.48208681399926079 -0.27581357356502773 0 0.50000000000000111 -0.28877587602939642 0 0.48656724266228879 -0.26126228076250718 0 0.5 -0.26842994380811291 0 0.48208681399926079 -0.27581357356502773 0 0.48208681399926079 -0.27581357356502773 0 0.46068671901070851 -0.28535474144655731 0 0.48208681399926079 -0.27581357356502773 0 0.46768981413575761 -0.2649492641288182 0 0.46068671901070851 -0.28535474144655731 0 0.48656724266228879 -0.26126228076250718 0 0.48208681399926079 -0.27581357356502773 0 0.46768981413575761 -0.2649492641288182 0 0.47785808936807489 -0.24877368548012899 0 0.48656724266228879 -0.26126228076250718 0 0.46768981413575761 -0.2649492641288182 0 0.45571617873614662 -0.24946335937342859 0 0.47785808936807489 -0.24877368548012899 0 0.46768981413575761 -0.2649492641288182 0 0.45571617873614662 -0.24946335937342859 0 0.46768981413575761 -0.2649492641288182 0 0.44713049355746243 -0.26775388735664418 0 0.46768981413575761 -0.2649492641288182 0 0.44713049355746243 -0.26775388735664418 0 0.46068671901070851 -0.28535474144655731 0 0.44713049355746243 -0.26775388735664418 0 0.46068671901070851 -0.28535474144655731 0 0.45571617873614662 -0.24946335937342859 0 0.44713049355746243 -0.26775388735664418 0 0.43357426810421817 -0.25015303326672972 0 0.44713049355746243 -0.26775388735664418 0 0.43357426810421817 -0.25015303326672972 0 0.43808872290812301 -0.29542998993102848 0 0.44582747314286902 -0.31276753443956201 0 0.43031487288344161 -0.31703067604683871 0 0.43808872290812301 -0.29542998993102848 0 0.45932525709009708 -0.30194153040829069 0 0.44582747314286902 -0.31276753443956201 0 0.43808872290812301 -0.29542998993102848 0 0.46068671901070851 -0.28535474144655731 0 0.45932525709009708 -0.30194153040829069 0 0.43808872290812301 -0.29542998993102848 0 0.46068671901070851 -0.28535474144655731 0 0.44713049355746243 -0.26775388735664418 0 0.43808872290812301 -0.29542998993102848 0 0.46068671901070851 -0.28535474144655731 0 0.46068671901070851 -0.28535474144655731 0 0.47654280981399377 -0.30594164756046982 0 0.46068671901070851 -0.28535474144655731 0 0.45932525709009708 -0.30194153040829069 0 0.47654280981399377 -0.30594164756046982 0 0.45932525709009708 -0.30194153040829069 0 0.46020140703816609 -0.31790014661013011 0 0.44582747314286902 -0.31276753443956201 0 0.47654280981399377 -0.30594164756046982 0 0.46020140703816609 -0.31790014661013011 0 0.45932525709009708 -0.30194153040829069 0 0.47654280981399377 -0.30594164756046982 0 0.46020140703816609 -0.31790014661013011 0 0.47654280981399377 -0.30594164756046982 0 0.48452590656705868 -0.31630657706248883 0 0.48208681399926079 -0.27581357356502773 0 0.46068671901070851 -0.28535474144655731 0 0.47654280981399377 -0.30594164756046982 0 0.48208681399926079 -0.27581357356502773 0 0.47654280981399377 -0.30594164756046982 0 0.50000000000000111 -0.28877587602939642 0 0.50000000000000111 -0.28877587602939642 0 0.5 -0.31627016595707702 0 0.48452590656705868 -0.31630657706248883 0 0.47654280981399377 -0.30594164756046982 0 0.50000000000000111 -0.28877587602939642 0 0.47654280981399377 -0.30594164756046982 0 0.50000000000000111 -0.28877587602939642 0 0.48452590656705868 -0.31630657706248883 0 0.5 -0.31627016595707702 0 0.48452590656705868 -0.31630657706248883 0 0.4798244965011923 -0.33203805400226027 0 0.5 -0.31627016595707702 0 0.4798244965011923 -0.33203805400226027 0 0.5 -0.34376445588475768 0 0.4798244965011923 -0.33203805400226027 0 0.46847105179670839 -0.34389899480205388 0 0.46020140703816609 -0.31790014661013011 0 0.47654280981399377 -0.30594164756046982 0 0.47527365498010271 -0.31804660630883719 0 0.46020140703816609 -0.31790014661013011 0 0.48452590656705868 -0.31630657706248883 0 0.4798244965011923 -0.33203805400226027 0 0.47527365498010271 -0.31804660630883719 0 0.4798244965011923 -0.33203805400226027 0 0.47527365498010271 -0.31804660630883719 0 0.46020140703816609 -0.31790014661013011 0 0.47654280981399377 -0.30594164756046982 0 0.48452590656705868 -0.31630657706248883 0 0.47527365498010271 -0.31804660630883719 0 0.49999999999999711 -0.37125874581243851 0 0.48806042456369142 -0.35612155968098341 0 0.47674069655525092 -0.3698978429939776 0 0.4798244965011923 -0.33203805400226027 0 0.48806042456369142 -0.35612155968098341 0 0.5 -0.34376445588475768 0 0.49999999999999711 -0.37125874581243851 0 0.48806042456369142 -0.35612155968098341 0 0.5 -0.34376445588475768 0 0.4798244965011923 -0.33203805400226027 0 0.48806042456369142 -0.35612155968098341 0 0.46847105179670839 -0.34389899480205388 0 0.48806042456369142 -0.35612155968098341 0 0.47674069655525092 -0.3698978429939776 0 0.46847105179670839 -0.34389899480205388 0 0.47674069655525092 -0.3698978429939776 0 0.46847105179670839 -0.34389899480205388 0 0.47674069655525092 -0.3698978429939776 0 0.45392603783110008 -0.37108838658624999 0 0.46847105179670839 -0.34389899480205388 0 0.45392603783110008 -0.37108838658624999 0 0.46847105179670839 -0.34389899480205388 0 0.44672977628043381 -0.35017364189741718 0 0.45392603783110008 -0.37108838658624999 0 0.44672977628043381 -0.35017364189741718 0 0.42785183481717409 -0.36595316276467199 0 0.45392603783110008 -0.37108838658624999 0 0.42785183481717409 -0.36595316276467199 0 0.43242581624588322 -0.38730115333965082 0 0.46847105179670839 -0.34389899480205388 0 0.46020140703816609 -0.31790014661013011 0 0.46847105179670839 -0.34389899480205388 0 0.46020140703816609 -0.31790014661013011 0 0.45431986664039198 -0.33607192194780172 0 0.46847105179670839 -0.34389899480205388 0 0.44672977628043381 -0.35017364189741718 0 0.45431986664039198 -0.33607192194780172 0 0.44672977628043381 -0.35017364189741718 0 0.44127539957872802 -0.33175003730325792 0 0.42823689835664952 -0.34636857782623809 0 0.44672977628043381 -0.35017364189741718 0 0.45431986664039198 -0.33607192194780172 0 0.44127539957872802 -0.33175003730325792 0 0.46020140703816609 -0.31790014661013011 0 0.45431986664039198 -0.33607192194780172 0 0.44127539957872802 -0.33175003730325792 0 0.44127539957872802 -0.33175003730325792 0 0.44582747314286902 -0.31276753443956201 0 0.43031487288344161 -0.31703067604683871 0 0.46020140703816609 -0.31790014661013011 0 0.44127539957872802 -0.33175003730325792 0 0.46020140703816609 -0.31790014661013011 0 0.44127539957872802 -0.33175003730325792 0 0.44582747314286902 -0.31276753443956201 0 0.44127539957872802 -0.33175003730325792 0 0.43031487288344161 -0.31703067604683871 0 0.41707429101309201 -0.3297381436533145 0 0.44127539957872802 -0.33175003730325792 0 0.41707429101309201 -0.3297381436533145 0 0.42823689835664952 -0.34636857782623809 0 0.41707429101309201 -0.3297381436533145 0 0.42823689835664952 -0.34636857782623809 0 0.40866613474490449 -0.35252068697126149 0 0.41707429101309201 -0.3297381436533145 0 0.39289273070295128 -0.31558048689996993 0 0.41549072680553711 -0.30550523841549909 0 0.43031487288344161 -0.31703067604683871 0 0.41707429101309201 -0.3297381436533145 0 0.41549072680553711 -0.30550523841549909 0 0.44672977628043381 -0.35017364189741718 0 0.42785183481717409 -0.36595316276467199 0 0.42823689835664952 -0.34636857782623809 0 0.42785183481717409 -0.36595316276467199 0 0.40866613474490449 -0.35252068697126149 0 0.42785183481717409 -0.36595316276467199 0 0.42823689835664952 -0.34636857782623809 0 0.40866613474490449 -0.35252068697126149 0 0.42785183481717409 -0.36595316276467199 0 0.4111933065081313 -0.36805982019164402 0 0.41287057948892703 -0.38518927514730122 0 0.42785183481717409 -0.36595316276467199 0 0.40866613474490449 -0.35252068697126149 0 0.4111933065081313 -0.36805982019164402 0 0.39290052262193498 -0.35565000096393579 0 0.38249634533461108 -0.36797477098799591 0 0.39650622041158878 -0.3765742856902482 0 0.4111933065081313 -0.36805982019164402 0 0.39290052262193498 -0.35565000096393579 0 0.39650622041158878 -0.3765742856902482 0 0.40866613474490449 -0.35252068697126149 0 0.39290052262193498 -0.35565000096393579 0 0.38948043467263488 -0.33908821117785082 0 0.40866613474490449 -0.35252068697126149 0 0.38948043467263488 -0.33908821117785082 0 0.40866613474490449 -0.35252068697126149 0 0.4111933065081313 -0.36805982019164402 0 0.39290052262193498 -0.35565000096393579 0 0.39290052262193498 -0.35565000096393579 0 0.37818146540529818 -0.34934783795600571 0 0.38249634533461108 -0.36797477098799591 0 0.39290052262193498 -0.35565000096393579 0 0.37818146540529818 -0.34934783795600571 0 0.38948043467263488 -0.33908821117785082 0 0.37818146540529818 -0.34934783795600571 0 0.38249634533461108 -0.36797477098799591 0 0.37305712147220338 -0.36102055586376819 0 0.41707429101309201 -0.3297381436533145 0 0.40866613474490449 -0.35252068697126149 0 0.38948043467263488 -0.33908821117785082 0 0.41707429101309201 -0.3297381436533145 0 0.39289273070295128 -0.31558048689996993 0 0.38948043467263488 -0.33908821117785082 0 0.37818146540529818 -0.34934783795600571 0 0.38948043467263488 -0.33908821117785082 0 0.37212478857772979 -0.33864880005647208 0 0.38948043467263488 -0.33908821117785082 0 0.37029473460036533 -0.32565573538444043 0 0.38948043467263488 -0.33908821117785082 0 0.37029473460036533 -0.32565573538444043 0 0.37212478857772979 -0.33864880005647208 0 0.39289273070295128 -0.31558048689996993 0 0.38064079273778262 -0.31288188218018531 0 0.37029473460036533 -0.32565573538444043 0 0.39289273070295128 -0.31558048689996993 0 0.37029473460036533 -0.32565573538444043 0 0.39289273070295128 -0.31558048689996993 0 0.38948043467263488 -0.33908821117785082 0 0.37029473460036533 -0.32565573538444043 0 0.38064079273778262 -0.31288188218018531 0 0.37804720550635529 -0.30651687721429538 0 0.38870969627640167 -0.30439929484627132 0 0.38064079273778262 -0.31288188218018531 0 0.37804720550635529 -0.30651687721429538 0 0.37325959660283969 -0.31225701655594912 0 0.37804720550635529 -0.30651687721429538 0 0.38032829646105881 -0.29636137241382532 0 0.36761344479238373 -0.29508033606196837 0 0.37804720550635529 -0.30651687721429538 0 0.38870969627640167 -0.30439929484627132 0 0.38032829646105881 -0.29636137241382532 0 0.38870969627640167 -0.30439929484627132 0 0.3879772147484597 -0.29176707856862888 0 0.38032829646105881 -0.29636137241382532 0 0.39289273070295128 -0.31558048689996993 0 0.38064079273778262 -0.31288188218018531 0 0.38870969627640167 -0.30439929484627132 0 0.39289273070295128 -0.31558048689996993 0 0.39985527598894161 -0.30920798579428682 0 0.41549072680553711 -0.30550523841549909 0 0.39985527598894161 -0.30920798579428682 0 0.39681295496079538 -0.29611275996065012 0 0.40939030264251791 -0.28957609748361951 0 0.39985527598894161 -0.30920798579428682 0 0.40939030264251791 -0.28957609748361951 0 0.39289273070295128 -0.31558048689996993 0 0.41549072680553711 -0.30550523841549909 0 0.39289273070295128 -0.31558048689996993 0 0.38870969627640167 -0.30439929484627132 0 0.39985527598894161 -0.30920798579428682 0 0.38870969627640167 -0.30439929484627132 0 0.39681295496079538 -0.29611275996065012 0 0.3879772147484597 -0.29176707856862888 0 0.38870969627640167 -0.30439929484627132 0 0.39985527598894161 -0.30920798579428682 0 0.39681295496079538 -0.29611275996065012 0 0.39922652050867191 -0.28295197323892363 0 0.39681295496079538 -0.29611275996065012 0 0.40939030264251791 -0.28957609748361951 0 0.39922652050867191 -0.28295197323892363 0 0.39681295496079538 -0.29611275996065012 0 0.3879772147484597 -0.29176707856862888 0 0.39922652050867191 -0.28295197323892363 0 0.3879772147484597 -0.29176707856862888 0 0.38840358504398731 -0.28029486931936831 0 0.3879772147484597 -0.29176707856862888 0 0.37929392098169401 -0.28404327537796259 0 0.38840358504398731 -0.28029486931936831 0 0.38032829646105881 -0.29636137241382532 0 0.37929392098169401 -0.28404327537796259 0 0.36761344479238373 -0.29508033606196837 0 0.3879772147484597 -0.29176707856862888 0 0.38032829646105881 -0.29636137241382532 0 0.37929392098169401 -0.28404327537796259 0 0.37929392098169401 -0.28404327537796259 0 0.38326599173650672 -0.27147868498013239 0 0.3725796289452375 -0.26579697317357759 0 0.37929392098169401 -0.28404327537796259 0 0.38326599173650672 -0.27147868498013239 0 0.38840358504398731 -0.28029486931936831 0 0.38326599173650672 -0.27147868498013239 0 0.38840358504398731 -0.28029486931936831 0 0.39544519547575041 -0.26880031542545191 0 0.37754581309809132 -0.23651361028518689 0 0.3725796289452375 -0.26579697317357759 0 0.37754581309809132 -0.23651361028518689 0 0.3871149211879113 -0.25548270742864421 0 0.3725796289452375 -0.26579697317357759 0 0.38326599173650672 -0.27147868498013239 0 0.3871149211879113 -0.25548270742864421 0 0.39544519547575041 -0.26880031542545191 0 0.38326599173650672 -0.27147868498013239 0 0.3871149211879113 -0.25548270742864421 0 0.3725796289452375 -0.26579697317357759 0 0.3871149211879113 -0.25548270742864421 0 0.40207495352916539 -0.25113417058953519 0 0.39544519547575041 -0.26880031542545191 0 0.40207495352916539 -0.25113417058953519 0 0.39544519547575041 -0.26880031542545191 0 0.41892532929609411 -0.26994420917295231 0 0.39922652050867191 -0.28295197323892363 0 0.39544519547575041 -0.26880031542545191 0 0.41892532929609411 -0.26994420917295231 0 0.39922652050867191 -0.28295197323892363 0 0.38840358504398731 -0.28029486931936831 0 0.39544519547575041 -0.26880031542545191 0 0.41892532929609411 -0.26994420917295231 0 0.40939030264251791 -0.28957609748361951 0 0.41892532929609411 -0.26994420917295231 0 0.42674472615619141 -0.28201696019190231 0 0.40939030264251791 -0.28957609748361951 0 0.39922652050867191 -0.28295197323892363 0 0.41892532929609411 -0.26994420917295231 0 0.40939030264251791 -0.28957609748361951 0 0.40207495352916539 -0.25113417058953519 0 0.41892532929609411 -0.26994420917295231 0 0.42846035594967069 -0.25031232086228522 0 0.40207495352916539 -0.25113417058953519 0 0.42846035594967069 -0.25031232086228522 0 0.44713049355746243 -0.26775388735664418 0 0.4314427817274139 -0.26389233879167029 0 0.43357426810421817 -0.25015303326672972 0 0.41892532929609411 -0.26994420917295231 0 0.42846035594967069 -0.25031232086228522 0 0.41892532929609411 -0.26994420917295231 0 0.42846035594967069 -0.25031232086228522 0 0.4314427817274139 -0.26389233879167029 0 0.42846035594967069 -0.25031232086228522 0 0.4314427817274139 -0.26389233879167029 0 0.43357426810421817 -0.25015303326672972 0 0.42846035594967069 -0.25031232086228522 0 0.43357426810421817 -0.25015303326672972 0 0.41892532929609411 -0.26994420917295231 0 0.4314427817274139 -0.26389233879167029 0 0.42674472615619141 -0.28201696019190231 0 0.44713049355746243 -0.26775388735664418 0 0.4314427817274139 -0.26389233879167029 0 0.42674472615619141 -0.28201696019190231 0 0.43808872290812301 -0.29542998993102848 0 0.42674472615619141 -0.28201696019190231 0 0.41549072680553711 -0.30550523841549909 0 0.44713049355746243 -0.26775388735664418 0 0.43808872290812301 -0.29542998993102848 0 0.42674472615619141 -0.28201696019190231 0 0.43808872290812301 -0.29542998993102848 0 0.43031487288344161 -0.31703067604683871 0 0.41549072680553711 -0.30550523841549909 0 0.43808872290812301 -0.29542998993102848 0 0.41549072680553711 -0.30550523841549909 0 0.39985527598894161 -0.30920798579428682 0 0.41549072680553711 -0.30550523841549909 0 0.40939030264251791 -0.28957609748361951 0 0.42674472615619141 -0.28201696019190231 0 0.41549072680553711 -0.30550523841549909 0 0.40939030264251791 -0.28957609748361951 0 0.43773802119989941 -0.49999999999999978 0 0.45890943729545802 -0.4823892052391901 0 0.4796611806106722 -0.48718440019654963 0 0.43773802119989941 -0.49999999999999978 0 0.44535189907423273 -0.48425652050154361 0 0.43773802119989941 -0.49999999999999978 0 0.44535189907423273 -0.48425652050154361 0 0.45890943729545802 -0.4823892052391901 0 0.43920548674920379 -0.47249175324936749 0 0.44535189907423273 -0.48425652050154361 0 0.45296577694856682 -0.46851304100308783 0 0.43920548674920379 -0.47249175324936749 0 0.44535189907423273 -0.48425652050154361 0 0.42866409193048188 -0.47676758270227471 0 0.44535189907423273 -0.48425652050154361 0 0.45589009982111051 -0.4775459799915327 0 0.45296577694856682 -0.46851304100308783 0 0.44535189907423273 -0.48425652050154361 0 0.45296577694856682 -0.46851304100308783 0 0.45589009982111051 -0.4775459799915327 0 0.45890943729545802 -0.4823892052391901 0 0.46145872075250199 -0.4714816097570898 0 0.44535189907423273 -0.48425652050154361 0 0.45589009982111051 -0.4775459799915327 0 0.45890943729545802 -0.4823892052391901 0 0.45890943729545802 -0.4823892052391901 0 0.46145872075250199 -0.4714816097570898 0 0.47563876839417468 -0.4748936591889994 0 0.46145872075250199 -0.4714816097570898 0 0.45296577694856682 -0.46851304100308783 0 0.45589009982111051 -0.4775459799915327 0 0.46145872075250199 -0.4714816097570898 0 0.45296577694856682 -0.46851304100308783 0 0.43773802119989941 -0.49999999999999978 0 0.4796611806106722 -0.48718440019654963 0 0.5 -0.5 0 0.4796611806106722 -0.48718440019654963 0 0.5 -0.5 0 0.5 -0.47026069904804169 0 0.5 -0.47026069904804169 0 0.47563876839417468 -0.4748936591889994 0 0.47905351322328699 -0.46315238170412548 0 0.4796611806106722 -0.48718440019654963 0 0.5 -0.47026069904804169 0 0.47563876839417468 -0.4748936591889994 0 0.46145872075250199 -0.4714816097570898 0 0.47563876839417468 -0.4748936591889994 0 0.47905351322328699 -0.46315238170412548 0 0.45890943729545802 -0.4823892052391901 0 0.4796611806106722 -0.48718440019654963 0 0.47563876839417468 -0.4748936591889994 0 0.47905351322328699 -0.46315238170412548 0 0.45899603635761982 -0.45604406436020939 0 0.47905351322328699 -0.46315238170412548 0 0.4788951805990147 -0.44564391983896778 0 0.45899603635761982 -0.45604406436020939 0 0.5 -0.47026069904804169 0 0.47905351322328699 -0.46315238170412548 0 0.5 -0.44373220895607401 0 0.5 -0.47026069904804169 0 0.47905351322328699 -0.46315238170412548 0 0.5 -0.44373220895607401 0 0.4788951805990147 -0.44564391983896778 0 0.48552804520920678 -0.42799216931292611 0 0.47905351322328699 -0.46315238170412548 0 0.5 -0.44373220895607401 0 0.4788951805990147 -0.44564391983896778 0 0.4788951805990147 -0.44564391983896778 0 0.45899603635761982 -0.45604406436020939 0 0.46924702726821282 -0.43484773472326599 0 0.45899603635761982 -0.45604406436020939 0 0.46924702726821282 -0.43484773472326599 0 0.45899603635761982 -0.45604406436020939 0 0.44838303037477362 -0.43447900987216292 0 0.46924702726821282 -0.43484773472326599 0 0.46145872075250199 -0.4714816097570898 0 0.47905351322328699 -0.46315238170412548 0 0.45899603635761982 -0.45604406436020939 0 0.46145872075250199 -0.4714816097570898 0 0.45899603635761982 -0.45604406436020939 0 0.45296577694856682 -0.46851304100308783 0 0.45899603635761982 -0.45604406436020939 0 0.45296577694856682 -0.46851304100308783 0 0.44562172027540892 -0.45801600689332289 0 0.45296577694856682 -0.46851304100308783 0 0.42984017904353489 -0.46042986879056458 0 0.43920548674920379 -0.47249175324936749 0 0.45296577694856682 -0.46851304100308783 0 0.42984017904353489 -0.46042986879056458 0 0.44562172027540892 -0.45801600689332289 0 0.43764883001816302 -0.44847867026387339 0 0.42984017904353489 -0.46042986879056458 0 0.45899603635761982 -0.45604406436020939 0 0.44562172027540892 -0.45801600689332289 0 0.45296577694856682 -0.46851304100308783 0 0.45296577694856682 -0.46851304100308783 0 0.42984017904353489 -0.46042986879056458 0 0.45899603635761982 -0.45604406436020939 0 0.44562172027540892 -0.45801600689332289 0 0.43764883001816302 -0.44847867026387339 0 0.45899603635761982 -0.45604406436020939 0 0.43764883001816302 -0.44847867026387339 0 0.44838303037477362 -0.43447900987216292 0 0.43764883001816302 -0.44847867026387339 0 0.44838303037477362 -0.43447900987216292 0 0.43199803478474752 -0.43480066315574151 0 0.45899603635761982 -0.45604406436020939 0 0.43764883001816302 -0.44847867026387339 0 0.44838303037477362 -0.43447900987216292 0 0.43524810038533429 -0.42324892749070769 0 0.43199803478474752 -0.43480066315574151 0 0.44838303037477362 -0.43447900987216292 0 0.45481320319103757 -0.41743251132042969 0 0.43524810038533429 -0.42324892749070769 0 0.45481320319103757 -0.41743251132042969 0 0.43477646914432833 -0.40550992295969079 0 0.43524810038533429 -0.42324892749070769 0 0.45481320319103757 -0.41743251132042969 0 0.46680969583490778 -0.41274858841526157 0 0.46924702726821282 -0.43484773472326599 0 0.45481320319103757 -0.41743251132042969 0 0.46680969583490778 -0.41274858841526157 0 0.46697148891275431 -0.40002921638500172 0 0.44838303037477362 -0.43447900987216292 0 0.45481320319103757 -0.41743251132042969 0 0.46924702726821282 -0.43484773472326599 0 0.5 -0.44373220895607401 0 0.48552804520920678 -0.42799216931292611 0 0.5 -0.40208557795999961 0 0.46924702726821282 -0.43484773472326599 0 0.48552804520920678 -0.42799216931292611 0 0.47949801817880677 -0.41365140508632309 0 0.4788951805990147 -0.44564391983896778 0 0.46924702726821282 -0.43484773472326599 0 0.48552804520920678 -0.42799216931292611 0 0.46924702726821282 -0.43484773472326599 0 0.47949801817880677 -0.41365140508632309 0 0.48552804520920678 -0.42799216931292611 0 0.47949801817880677 -0.41365140508632309 0 0.5 -0.40208557795999961 0 0.46680969583490778 -0.41274858841526157 0 0.46924702726821282 -0.43484773472326599 0 0.47949801817880677 -0.41365140508632309 0 0.46680969583490778 -0.41274858841526157 0 0.47949801817880677 -0.41365140508632309 0 0.47485796399023311 -0.40328323013715978 0 0.47949801817880677 -0.41365140508632309 0 0.47485796399023311 -0.40328323013715978 0 0.48501034131379339 -0.39589669118590137 0 0.46680969583490778 -0.41274858841526157 0 0.47485796399023311 -0.40328323013715978 0 0.46697148891275431 -0.40002921638500172 0 0.47485796399023311 -0.40328323013715978 0 0.47548297721973709 -0.39513831255209197 0 0.46697148891275431 -0.40002921638500172 0 0.47548297721973709 -0.39513831255209197 0 0.47310568845609052 -0.38536867418522291 0 0.46697148891275431 -0.40002921638500172 0 0.47548297721973709 -0.39513831255209197 0 0.48501034131379339 -0.39589669118590137 0 0.47310568845609052 -0.38536867418522291 0 0.47485796399023311 -0.40328323013715978 0 0.47548297721973709 -0.39513831255209197 0 0.48501034131379339 -0.39589669118590137 0 0.47949801817880677 -0.41365140508632309 0 0.48974900908940078 -0.39245507544938019 0 0.47949801817880677 -0.41365140508632309 0 0.5 -0.40208557795999961 0 0.48974900908940078 -0.39245507544938019 0 0.47949801817880677 -0.41365140508632309 0 0.48974900908940078 -0.39245507544938019 0 0.48501034131379339 -0.39589669118590137 0 0.49999999999999711 -0.37125874581243851 0 0.5 -0.40208557795999961 0 0.48974900908940078 -0.39245507544938019 0 0.49999999999999711 -0.37125874581243851 0 0.47674069655525092 -0.3698978429939776 0 0.48974900908940078 -0.39245507544938019 0 0.49999999999999711 -0.37125874581243851 0 0.48974900908940078 -0.39245507544938019 0 0.47674069655525092 -0.3698978429939776 0 0.48501034131379339 -0.39589669118590137 0 0.47310568845609052 -0.38536867418522291 0 0.47674069655525092 -0.3698978429939776 0 0.48974900908940078 -0.39245507544938019 0 0.48501034131379339 -0.39589669118590137 0 0.47674069655525092 -0.3698978429939776 0 0.48501034131379339 -0.39589669118590137 0 0.45392603783110008 -0.37108838658624999 0 0.47310568845609052 -0.38536867418522291 0 0.45155556879862868 -0.3944603689424081 0 0.47674069655525092 -0.3698978429939776 0 0.45392603783110008 -0.37108838658624999 0 0.47310568845609052 -0.38536867418522291 0 0.45481320319103757 -0.41743251132042969 0 0.46697148891275431 -0.40002921638500172 0 0.45155556879862868 -0.3944603689424081 0 0.47310568845609052 -0.38536867418522291 0 0.46697148891275431 -0.40002921638500172 0 0.45155556879862868 -0.3944603689424081 0 0.45481320319103757 -0.41743251132042969 0 0.45155556879862868 -0.3944603689424081 0 0.43477646914432833 -0.40550992295969079 0 0.45155556879862868 -0.3944603689424081 0 0.43242581624588322 -0.38730115333965082 0 0.43477646914432833 -0.40550992295969079 0 0.45392603783110008 -0.37108838658624999 0 0.45155556879862868 -0.3944603689424081 0 0.43242581624588322 -0.38730115333965082 0 0.42785183481717409 -0.36595316276467199 0 0.43242581624588322 -0.38730115333965082 0 0.41287057948892703 -0.38518927514730122 0 0.43242581624588322 -0.38730115333965082 0 0.43477646914432833 -0.40550992295969079 0 0.41749483707519452 -0.40538692165420498 0 0.43242581624588322 -0.38730115333965082 0 0.41749483707519452 -0.40538692165420498 0 0.41287057948892703 -0.38518927514730122 0 0.41749483707519452 -0.40538692165420498 0 0.41287057948892703 -0.38518927514730122 0 0.40336078828097621 -0.40362515372992341 0 0.4111933065081313 -0.36805982019164402 0 0.41287057948892703 -0.38518927514730122 0 0.39650622041158878 -0.3765742856902482 0 0.41287057948892703 -0.38518927514730122 0 0.39650622041158878 -0.3765742856902482 0 0.39372170841196569 -0.3925803949292499 0 0.38249634533461108 -0.36797477098799591 0 0.39650622041158878 -0.3765742856902482 0 0.37900977316023637 -0.39091548517495972 0 0.39650622041158878 -0.3765742856902482 0 0.37900977316023637 -0.39091548517495972 0 0.39372170841196569 -0.3925803949292499 0 0.38249634533461108 -0.36797477098799591 0 0.37900977316023637 -0.39091548517495972 0 0.36724772315424481 -0.38247146420994571 0 0.37900977316023637 -0.39091548517495972 0 0.39372170841196569 -0.3925803949292499 0 0.37842665921942997 -0.40887405987875969 0 0.37900977316023637 -0.39091548517495972 0 0.37842665921942997 -0.40887405987875969 0 0.36824105802713031 -0.4000969440192842 0 0.39372170841196569 -0.3925803949292499 0 0.39194747191700757 -0.41402513481906722 0 0.37842665921942997 -0.40887405987875969 0 0.41287057948892703 -0.38518927514730122 0 0.39372170841196569 -0.3925803949292499 0 0.40336078828097621 -0.40362515372992341 0 0.39372170841196569 -0.3925803949292499 0 0.40336078828097621 -0.40362515372992341 0 0.39194747191700757 -0.41402513481906722 0 0.40336078828097621 -0.40362515372992341 0 0.39194747191700757 -0.41402513481906722 0 0.41036500379586138 -0.42217021861448573 0 0.39194747191700757 -0.41402513481906722 0 0.37842665921942997 -0.40887405987875969 0 0.3754845505291648 -0.42231636227288599 0 0.39194747191700757 -0.41402513481906722 0 0.38276612650569841 -0.43173139982273478 0 0.39495441733924969 -0.43334788207120151 0 0.39194747191700757 -0.41402513481906722 0 0.3754845505291648 -0.42231636227288599 0 0.38276612650569841 -0.43173139982273478 0 0.38276612650569841 -0.43173139982273478 0 0.39495441733924969 -0.43334788207120151 0 0.38358898323347101 -0.44426352436551808 0 0.39495441733924969 -0.43334788207120151 0 0.41630162367870638 -0.44091327616753739 0 0.39194747191700757 -0.41402513481906722 0 0.39495441733924969 -0.43334788207120151 0 0.41036500379586138 -0.42217021861448573 0 0.41036500379586138 -0.42217021861448573 0 0.42295569064062533 -0.42699492369753778 0 0.41630162367870638 -0.44091327616753739 0 0.39495441733924969 -0.43334788207120151 0 0.41036500379586138 -0.42217021861448573 0 0.41630162367870638 -0.44091327616753739 0 0.41749483707519452 -0.40538692165420498 0 0.40336078828097621 -0.40362515372992341 0 0.41036500379586138 -0.42217021861448573 0 0.41749483707519452 -0.40538692165420498 0 0.41036500379586138 -0.42217021861448573 0 0.42458756094721539 -0.41613405657310448 0 0.41036500379586138 -0.42217021861448573 0 0.42458756094721539 -0.41613405657310448 0 0.42295569064062533 -0.42699492369753778 0 0.43477646914432833 -0.40550992295969079 0 0.41749483707519452 -0.40538692165420498 0 0.42458756094721539 -0.41613405657310448 0 0.43477646914432833 -0.40550992295969079 0 0.42458756094721539 -0.41613405657310448 0 0.43524810038533429 -0.42324892749070769 0 0.43199803478474752 -0.43480066315574151 0 0.42295569064062533 -0.42699492369753778 0 0.41630162367870638 -0.44091327616753739 0 0.43524810038533429 -0.42324892749070769 0 0.43199803478474752 -0.43480066315574151 0 0.42295569064062533 -0.42699492369753778 0 0.42458756094721539 -0.41613405657310448 0 0.43524810038533429 -0.42324892749070769 0 0.42295569064062533 -0.42699492369753778 0 0.43764883001816302 -0.44847867026387339 0 0.41630162367870638 -0.44091327616753739 0 0.43764883001816302 -0.44847867026387339 0 0.42984017904353489 -0.46042986879056458 0 0.41630162367870638 -0.44091327616753739 0 0.43764883001816302 -0.44847867026387339 0 0.43199803478474752 -0.43480066315574151 0 0.41630162367870638 -0.44091327616753739 0 0.42984017904353489 -0.46042986879056458 0 0.41583716859034447 -0.46620520778226737 0 0.42866409193048188 -0.47676758270227471 0 0.42984017904353489 -0.46042986879056458 0 0.4067145811385029 -0.45234669657804139 0 0.42984017904353489 -0.46042986879056458 0 0.41583716859034447 -0.46620520778226737 0 0.4067145811385029 -0.45234669657804139 0 0.41583716859034447 -0.46620520778226737 0 0.4067145811385029 -0.45234669657804139 0 0.40148396946935899 -0.46677367853588281 0 0.42984017904353489 -0.46042986879056458 0 0.4067145811385029 -0.45234669657804139 0 0.41630162367870638 -0.44091327616753739 0 0.4067145811385029 -0.45234669657804139 0 0.38358898323347101 -0.44426352436551808 0 0.39182712026942329 -0.45690385307896481 0 0.39495441733924969 -0.43334788207120151 0 0.4067145811385029 -0.45234669657804139 0 0.41630162367870638 -0.44091327616753739 0 0.39495441733924969 -0.43334788207120151 0 0.4067145811385029 -0.45234669657804139 0 0.38358898323347101 -0.44426352436551808 0 0.4067145811385029 -0.45234669657804139 0 0.38358898323347101 -0.44426352436551808 0 0.38358898323347101 -0.44426352436551808 0 0.37514595674159079 -0.45476526552439389 0 0.39182712026942329 -0.45690385307896481 0 0.38276612650569841 -0.43173139982273478 0 0.38358898323347101 -0.44426352436551808 0 0.36596817218281208 -0.43846752572535042 0 0.37514595674159079 -0.45476526552439389 0 0.38538716437757631 -0.46842775420537441 0 0.39182712026942329 -0.45690385307896481 0 0.37514595674159079 -0.45476526552439389 0 0.38538716437757631 -0.46842775420537441 0 0.37212180294075042 -0.46808428500039262 0 0.38538716437757631 -0.46842775420537441 0 0.39182712026942329 -0.45690385307896481 0 0.40148396946935899 -0.46677367853588281 0 0.4067145811385029 -0.45234669657804139 0 0.39182712026942329 -0.45690385307896481 0 0.40148396946935899 -0.46677367853588281 0 0.39434508200087892 -0.48168095957978257 0 0.4057717135424021 -0.48929931529832937 0 0.41138522724611992 -0.47610642689805982 0 0.38538716437757631 -0.46842775420537441 0 0.40148396946935899 -0.46677367853588281 0 0.39434508200087892 -0.48168095957978257 0 0.40148396946935899 -0.46677367853588281 0 0.39434508200087892 -0.48168095957978257 0 0.41138522724611992 -0.47610642689805982 0 0.38538716437757631 -0.46842775420537441 0 0.39434508200087892 -0.48168095957978257 0 0.37586822855092661 -0.48439202442808083 0 0.38538716437757631 -0.46842775420537441 0 0.37586822855092661 -0.48439202442808083 0 0.37212180294075042 -0.46808428500039262 0 0.39434508200087892 -0.48168095957978257 0 0.37586822855092661 -0.48439202442808083 0 0.39289039342582149 -0.5 0 0.37586822855092661 -0.48439202442808083 0 0.39289039342582149 -0.5 0 0.3704665795387827 -0.49999999999999961 0 0.39434508200087892 -0.48168095957978257 0 0.39289039342582149 -0.5 0 0.4057717135424021 -0.48929931529832937 0 0.39289039342582149 -0.5 0 0.4057717135424021 -0.48929931529832937 0 0.41531420731286051 -0.5 0 0.4057717135424021 -0.48929931529832937 0 0.41138522724611992 -0.47610642689805982 0 0.425256426736628 -0.48969697811313823 0 0.4057717135424021 -0.48929931529832937 0 0.41531420731286051 -0.5 0 0.425256426736628 -0.48969697811313823 0 0.41583716859034447 -0.46620520778226737 0 0.41138522724611992 -0.47610642689805982 0 0.42866409193048188 -0.47676758270227471 0 0.41138522724611992 -0.47610642689805982 0 0.42866409193048188 -0.47676758270227471 0 0.425256426736628 -0.48969697811313823 0 0.41583716859034447 -0.46620520778226737 0 0.40148396946935899 -0.46677367853588281 0 0.41138522724611992 -0.47610642689805982 0 0.44535189907423273 -0.48425652050154361 0 0.42866409193048188 -0.47676758270227471 0 0.425256426736628 -0.48969697811313823 0 0.43920548674920379 -0.47249175324936749 0 0.42984017904353489 -0.46042986879056458 0 0.42866409193048188 -0.47676758270227471 0 0.43773802119989941 -0.49999999999999978 0 0.44535189907423273 -0.48425652050154361 0 0.425256426736628 -0.48969697811313823 0 0.43773802119989941 -0.49999999999999978 0 0.41531420731286051 -0.5 0 0.425256426736628 -0.48969697811313823 0 0.32577547594680167 -0.48549728563522948 0 0.313100747974287 -0.5 0 0.34178366375653479 -0.5 0 0.32577547594680167 -0.48549728563522948 0 0.33309118936964399 -0.46704031311580291 0 0.30810638268294871 -0.47012115952174682 0 0.353331436476917 -0.48488928282810861 0 0.33309118936964399 -0.46704031311580291 0 0.32577547594680167 -0.48549728563522948 0 0.353331436476917 -0.48488928282810861 0 0.33309118936964399 -0.46704031311580291 0 0.32577547594680167 -0.48549728563522948 0 0.353331436476917 -0.48488928282810861 0 0.32577547594680167 -0.48549728563522948 0 0.34178366375653479 -0.5 0 0.353331436476917 -0.48488928282810861 0 0.34178366375653479 -0.5 0 0.353331436476917 -0.48488928282810861 0 0.3704665795387827 -0.49999999999999961 0 0.353331436476917 -0.48488928282810861 0 0.3704665795387827 -0.49999999999999961 0 0.37586822855092661 -0.48439202442808083 0 0.353331436476917 -0.48488928282810861 0 0.37586822855092661 -0.48439202442808083 0 0.353331436476917 -0.48488928282810861 0 0.3704665795387827 -0.49999999999999961 0 0.37586822855092661 -0.48439202442808083 0 0.353331436476917 -0.48488928282810861 0 0.36174609683149922 -0.47333229839911978 0 0.37586822855092661 -0.48439202442808083 0 0.36174609683149922 -0.47333229839911978 0 0.37212180294075042 -0.46808428500039262 0 0.353331436476917 -0.48488928282810861 0 0.3511187368843669 -0.46644655109408317 0 0.33309118936964399 -0.46704031311580291 0 0.353331436476917 -0.48488928282810861 0 0.36174609683149922 -0.47333229839911978 0 0.3511187368843669 -0.46644655109408317 0 0.3511187368843669 -0.46644655109408317 0 0.34821094164401439 -0.44963138573543099 0 0.33309118936964399 -0.46704031311580291 0 0.3511187368843669 -0.46644655109408317 0 0.36000734278227892 -0.4581682973830864 0 0.34821094164401439 -0.44963138573543099 0 0.36174609683149922 -0.47333229839911978 0 0.3511187368843669 -0.46644655109408317 0 0.36000734278227892 -0.4581682973830864 0 0.36174609683149922 -0.47333229839911978 0 0.36000734278227892 -0.4581682973830864 0 0.37212180294075042 -0.46808428500039262 0 0.37514595674159079 -0.45476526552439389 0 0.36000734278227892 -0.4581682973830864 0 0.37212180294075042 -0.46808428500039262 0 0.38358898323347101 -0.44426352436551808 0 0.37514595674159079 -0.45476526552439389 0 0.36596817218281208 -0.43846752572535042 0 0.37514595674159079 -0.45476526552439389 0 0.36000734278227892 -0.4581682973830864 0 0.36596817218281208 -0.43846752572535042 0 0.36596817218281208 -0.43846752572535042 0 0.34821094164401439 -0.44963138573543099 0 0.34622956703096991 -0.43300533851794337 0 0.36000734278227892 -0.4581682973830864 0 0.36596817218281208 -0.43846752572535042 0 0.34821094164401439 -0.44963138573543099 0 0.34821094164401439 -0.44963138573543099 0 0.33295970409203041 -0.44505156475946112 0 0.34622956703096991 -0.43300533851794337 0 0.34821094164401439 -0.44963138573543099 0 0.33295970409203041 -0.44505156475946112 0 0.33309118936964399 -0.46704031311580291 0 0.33295970409203041 -0.44505156475946112 0 0.33309118936964399 -0.46704031311580291 0 0.31285094226236981 -0.44919134340349842 0 0.33309118936964399 -0.46704031311580291 0 0.31285094226236981 -0.44919134340349842 0 0.33309118936964399 -0.46704031311580291 0 0.31285094226236981 -0.44919134340349842 0 0.30810638268294871 -0.47012115952174682 0 0.33295970409203041 -0.44505156475946112 0 0.31285094226236981 -0.44919134340349842 0 0.32443481461114221 -0.42819348402864749 0 0.31285094226236981 -0.44919134340349842 0 0.32443481461114221 -0.42819348402864749 0 0.30716585811758268 -0.42152601893676211 0 0.32443481461114221 -0.42819348402864749 0 0.3377381929345476 -0.41993594981441068 0 0.31826237910007699 -0.40611857650776678 0 0.32443481461114221 -0.42819348402864749 0 0.31826237910007699 -0.40611857650776678 0 0.30716585811758268 -0.42152601893676211 0 0.3377381929345476 -0.41993594981441068 0 0.33955155732169001 -0.40481801647484189 0 0.31826237910007699 -0.40611857650776678 0 0.32443481461114221 -0.42819348402864749 0 0.3377381929345476 -0.41993594981441068 0 0.34622956703096991 -0.43300533851794337 0 0.33295970409203041 -0.44505156475946112 0 0.32443481461114221 -0.42819348402864749 0 0.34622956703096991 -0.43300533851794337 0 0.3377381929345476 -0.41993594981441068 0 0.34622956703096991 -0.43300533851794337 0 0.35818280584871282 -0.41603879828427831 0 0.36596817218281208 -0.43846752572535042 0 0.34622956703096991 -0.43300533851794337 0 0.35818280584871282 -0.41603879828427831 0 0.3754845505291648 -0.42231636227288599 0 0.36596817218281208 -0.43846752572535042 0 0.35818280584871282 -0.41603879828427831 0 0.3754845505291648 -0.42231636227288599 0 0.38276612650569841 -0.43173139982273478 0 0.36596817218281208 -0.43846752572535042 0 0.37842665921942997 -0.40887405987875969 0 0.3754845505291648 -0.42231636227288599 0 0.35818280584871282 -0.41603879828427831 0 0.37842665921942997 -0.40887405987875969 0 0.35818280584871282 -0.41603879828427831 0 0.36824105802713031 -0.4000969440192842 0 0.3377381929345476 -0.41993594981441068 0 0.35818280584871282 -0.41603879828427831 0 0.33955155732169001 -0.40481801647484189 0 0.35818280584871282 -0.41603879828427831 0 0.35120943534252291 -0.3914849644630724 0 0.33955155732169001 -0.40481801647484189 0 0.35818280584871282 -0.41603879828427831 0 0.35120943534252291 -0.3914849644630724 0 0.36824105802713031 -0.4000969440192842 0 0.37900977316023637 -0.39091548517495972 0 0.36824105802713031 -0.4000969440192842 0 0.36724772315424481 -0.38247146420994571 0 0.35120943534252291 -0.3914849644630724 0 0.36824105802713031 -0.4000969440192842 0 0.36724772315424481 -0.38247146420994571 0 0.36724772315424481 -0.38247146420994571 0 0.3553956415560332 -0.375446985373177 0 0.36664078794155069 -0.36853845970684512 0 0.35120943534252291 -0.3914849644630724 0 0.3553956415560332 -0.375446985373177 0 0.34024068493209042 -0.37145909403295352 0 0.35120943534252291 -0.3914849644630724 0 0.36724772315424481 -0.38247146420994571 0 0.3553956415560332 -0.375446985373177 0 0.35120943534252291 -0.3914849644630724 0 0.33045907805143321 -0.38798152631774108 0 0.34024068493209042 -0.37145909403295352 0 0.33045907805143321 -0.38798152631774108 0 0.34024068493209042 -0.37145909403295352 0 0.32473595581008968 -0.36877041147622941 0 0.33045907805143321 -0.38798152631774108 0 0.33955155732169001 -0.40481801647484189 0 0.31826237910007699 -0.40611857650776678 0 0.35120943534252291 -0.3914849644630724 0 0.33045907805143321 -0.38798152631774108 0 0.33955155732169001 -0.40481801647484189 0 0.33045907805143321 -0.38798152631774108 0 0.31826237910007699 -0.40611857650776678 0 0.30852465471842783 -0.38296478278532459 0 0.33045907805143321 -0.38798152631774108 0 0.30852465471842783 -0.38296478278532459 0 0.32473595581008968 -0.36877041147622941 0 0.30852465471842783 -0.38296478278532459 0 0.30157177088572762 -0.39984768184154418 0 0.28524522637625171 -0.38748256695808048 0 0.31826237910007699 -0.40611857650776678 0 0.30852465471842783 -0.38296478278532459 0 0.30157177088572762 -0.39984768184154418 0 0.30157177088572762 -0.39984768184154418 0 0.28524522637625171 -0.38748256695808048 0 0.28909827497095891 -0.41314244090476959 0 0.30852465471842783 -0.38296478278532459 0 0.28524522637625171 -0.38748256695808048 0 0.29576167506738288 -0.36584798696867898 0 0.28524522637625171 -0.38748256695808048 0 0.26194523537769671 -0.38343407302417171 0 0.27628411724202862 -0.36524783617958329 0 0.26194523537769671 -0.38343407302417171 0 0.2677956642119742 -0.40840362680373948 0 0.24730388124056729 -0.40448370284608931 0 0.28524522637625171 -0.38748256695808048 0 0.26194523537769671 -0.38343407302417171 0 0.2677956642119742 -0.40840362680373948 0 0.28524522637625171 -0.38748256695808048 0 0.2677956642119742 -0.40840362680373948 0 0.28909827497095891 -0.41314244090476959 0 0.2677956642119742 -0.40840362680373948 0 0.27472650047210662 -0.43131219108599711 0 0.28909827497095891 -0.41314244090476959 0 0.2677956642119742 -0.40840362680373948 0 0.24845486683426421 -0.43056678600332871 0 0.24730388124056729 -0.40448370284608931 0 0.2677956642119742 -0.40840362680373948 0 0.27472650047210662 -0.43131219108599711 0 0.24845486683426421 -0.43056678600332871 0 0.27472650047210662 -0.43131219108599711 0 0.26710508502781599 -0.44926171113960661 0 0.24845486683426421 -0.43056678600332871 0 0.27472650047210662 -0.43131219108599711 0 0.29418269027227539 -0.43431919247607059 0 0.28909827497095891 -0.41314244090476959 0 0.29418269027227539 -0.43431919247607059 0 0.28909827497095891 -0.41314244090476959 0 0.30716585811758268 -0.42152601893676211 0 0.31826237910007699 -0.40611857650776678 0 0.30157177088572762 -0.39984768184154418 0 0.30716585811758268 -0.42152601893676211 0 0.30157177088572762 -0.39984768184154418 0 0.28909827497095891 -0.41314244090476959 0 0.30716585811758268 -0.42152601893676211 0 0.31285094226236981 -0.44919134340349842 0 0.29418269027227539 -0.43431919247607059 0 0.30716585811758268 -0.42152601893676211 0 0.31285094226236981 -0.44919134340349842 0 0.29418269027227539 -0.43431919247607059 0 0.28597809560131299 -0.4567624239266439 0 0.31285094226236981 -0.44919134340349842 0 0.28597809560131299 -0.4567624239266439 0 0.30810638268294871 -0.47012115952174682 0 0.28597809560131299 -0.4567624239266439 0 0.27356505094757272 -0.46654042127887851 0 0.28658471780149791 -0.47429793876749549 0 0.28597809560131299 -0.4567624239266439 0 0.28658471780149791 -0.47429793876749549 0 0.30810638268294871 -0.47012115952174682 0 0.27472650047210662 -0.43131219108599711 0 0.29418269027227539 -0.43431919247607059 0 0.28597809560131299 -0.4567624239266439 0 0.27472650047210662 -0.43131219108599711 0 0.28597809560131299 -0.4567624239266439 0 0.26710508502781599 -0.44926171113960661 0 0.26710508502781599 -0.44926171113960661 0 0.25055382002994903 -0.45112655962101422 0 0.24845486683426421 -0.43056678600332871 0 0.25055382002994903 -0.45112655962101422 0 0.25749380142066591 -0.46566674131117769 0 0.24452211955108941 -0.47321082899062988 0 0.26710508502781599 -0.44926171113960661 0 0.25055382002994903 -0.45112655962101422 0 0.25749380142066591 -0.46566674131117769 0 0.26710508502781599 -0.44926171113960661 0 0.25749380142066591 -0.46566674131117769 0 0.27356505094757272 -0.46654042127887851 0 0.28597809560131299 -0.4567624239266439 0 0.26710508502781599 -0.44926171113960661 0 0.27356505094757272 -0.46654042127887851 0 0.25749380142066591 -0.46566674131117769 0 0.27356505094757272 -0.46654042127887851 0 0.27066355488657068 -0.48671329124946883 0 0.27356505094757272 -0.46654042127887851 0 0.27066355488657068 -0.48671329124946883 0 0.28658471780149791 -0.47429793876749549 0 0.27066355488657068 -0.48671329124946883 0 0.24310759435645521 -0.48732129405658853 0 0.24452211955108941 -0.47321082899062988 0 0.25749380142066591 -0.46566674131117769 0 0.27066355488657068 -0.48671329124946883 0 0.24452211955108941 -0.47321082899062988 0 0.25573491640979129 -0.5 0 0.27066355488657068 -0.48671329124946883 0 0.24310759435645521 -0.48732129405658853 0 0.27066355488657068 -0.48671329124946883 0 0.24310759435645521 -0.48732129405658853 0 0.25573491640979129 -0.5 0 0.27066355488657068 -0.48671329124946883 0 0.2844178321920392 -0.5 0 0.27066355488657068 -0.48671329124946883 0 0.2844178321920392 -0.5 0 0.29821951541668618 -0.48610528844234918 0 0.27066355488657068 -0.48671329124946883 0 0.29821951541668618 -0.48610528844234918 0 0.27066355488657068 -0.48671329124946883 0 0.28658471780149791 -0.47429793876749549 0 0.29821951541668618 -0.48610528844234918 0 0.28658471780149791 -0.47429793876749549 0 0.30810638268294871 -0.47012115952174682 0 0.29821951541668618 -0.48610528844234918 0 0.32577547594680167 -0.48549728563522948 0 0.30810638268294871 -0.47012115952174682 0 0.29821951541668618 -0.48610528844234918 0 0.313100747974287 -0.5 0 0.2844178321920392 -0.5 0 0.29821951541668618 -0.48610528844234918 0 0.32577547594680167 -0.48549728563522948 0 0.29821951541668618 -0.48610528844234918 0 0.32577547594680167 -0.48549728563522948 0 0.313100747974287 -0.5 0 0.29821951541668618 -0.48610528844234918 0 0.330274064289036 -0.28402767586280209 0 0.34332234684577362 -0.29793808318023329 0 0.34457666422559302 -0.26801309975333321 0 0.330274064289036 -0.28402767586280209 0 0.34332234684577362 -0.29793808318023329 0 0.32977293544345387 -0.30596193421111573 0 0.34332234684577362 -0.29793808318023329 0 0.32977293544345387 -0.30596193421111573 0 0.34206802946595682 -0.32786306660713371 0 0.31744302567780058 -0.29875438106107682 0 0.32081511337912821 -0.31891284763754968 0 0.29956219729229971 -0.30996262866796498 0 0.32977293544345387 -0.30596193421111573 0 0.31744302567780058 -0.29875438106107682 0 0.32081511337912821 -0.31891284763754968 0 0.31744302567780058 -0.29875438106107682 0 0.315203972569992 -0.28599406388836862 0 0.30893165249025939 -0.29458973757352408 0 0.330274064289036 -0.28402767586280209 0 0.32977293544345387 -0.30596193421111573 0 0.31744302567780058 -0.29875438106107682 0 0.330274064289036 -0.28402767586280209 0 0.31744302567780058 -0.29875438106107682 0 0.315203972569992 -0.28599406388836862 0 0.31616400359283131 -0.27140021809428472 0 0.31565659849655159 -0.26881006701694032 0 0.34457666422559302 -0.26801309975333321 0 0.31616400359283131 -0.27140021809428472 0 0.31565659849655159 -0.26881006701694032 0 0.330274064289036 -0.28402767586280209 0 0.315203972569992 -0.28599406388836862 0 0.31616400359283131 -0.27140021809428472 0 0.31140457280844042 -0.24710474912070499 0 0.31565659849655159 -0.26881006701694032 0 0.31140457280844042 -0.24710474912070499 0 0.31565659849655159 -0.26881006701694032 0 0.32909477526671738 -0.25319804842994992 0 0.34542116247921317 -0.24786541093840589 0 0.32909477526671738 -0.25319804842994992 0 0.34457666422559302 -0.26801309975333321 0 0.31565659849655159 -0.26881006701694032 0 0.32909477526671738 -0.25319804842994992 0 0.34457666422559302 -0.26801309975333321 0 0.31565659849655159 -0.26881006701694032 0 0.34457666422559302 -0.26801309975333321 0 0.330274064289036 -0.28402767586280209 0 0.31616400359283131 -0.27140021809428472 0 0.34457666422559302 -0.26801309975333321 0 0.35327842571551671 -0.2677733001931194 0 0.36211004630048071 -0.25874315800932568 0 0.36139056500297317 -0.28258450191058321 0 0.34457666422559302 -0.26801309975333321 0 0.35327842571551671 -0.2677733001931194 0 0.36139056500297317 -0.28258450191058321 0 0.34457666422559302 -0.26801309975333321 0 0.35327842571551671 -0.2677733001931194 0 0.34542116247921317 -0.24786541093840589 0 0.35327842571551671 -0.2677733001931194 0 0.36211004630048071 -0.25874315800932568 0 0.34542116247921317 -0.24786541093840589 0 0.34457666422559302 -0.26801309975333321 0 0.34542116247921317 -0.24786541093840589 0 0.34457666422559302 -0.26801309975333321 0 0.35327842571551671 -0.2677733001931194 0 0.36876625398544938 -0.24898888889403961 0 0.37754581309809132 -0.23651361028518689 0 0.3725796289452375 -0.26579697317357759 0 0.36876625398544938 -0.24898888889403961 0 0.36211004630048071 -0.25874315800932568 0 0.3725796289452375 -0.26579697317357759 0 0.36211004630048071 -0.25874315800932568 0 0.36139056500297317 -0.28258450191058321 0 0.36211004630048071 -0.25874315800932568 0 0.3725796289452375 -0.26579697317357759 0 0.36139056500297317 -0.28258450191058321 0 0.3725796289452375 -0.26579697317357759 0 0.36761344479238373 -0.29508033606196837 0 0.3725796289452375 -0.26579697317357759 0 0.36139056500297317 -0.28258450191058321 0 0.36761344479238373 -0.29508033606196837 0 0.36139056500297317 -0.28258450191058321 0 0.36067108370546558 -0.30642584581184062 0 0.36139056500297317 -0.28258450191058321 0 0.36761344479238373 -0.29508033606196837 0 0.36067108370546558 -0.30642584581184062 0 0.37929392098169401 -0.28404327537796259 0 0.3725796289452375 -0.26579697317357759 0 0.36761344479238373 -0.29508033606196837 0 0.34332234684577362 -0.29793808318023329 0 0.36139056500297317 -0.28258450191058321 0 0.36067108370546558 -0.30642584581184062 0 0.34332234684577362 -0.29793808318023329 0 0.34457666422559302 -0.26801309975333321 0 0.34332234684577362 -0.29793808318023329 0 0.34457666422559302 -0.26801309975333321 0 0.36139056500297317 -0.28258450191058321 0 0.34332234684577362 -0.29793808318023329 0 0.36067108370546558 -0.30642584581184062 0 0.35385294866325562 -0.31815161708919842 0 0.37804720550635529 -0.30651687721429538 0 0.36761344479238373 -0.29508033606196837 0 0.37325959660283969 -0.31225701655594912 0 0.36761344479238373 -0.29508033606196837 0 0.37325959660283969 -0.31225701655594912 0 0.36522996683296982 -0.32210974174446261 0 0.36761344479238373 -0.29508033606196837 0 0.3626472606395299 -0.32436369895035932 0 0.36761344479238373 -0.29508033606196837 0 0.36067108370546558 -0.30642584581184062 0 0.3626472606395299 -0.32436369895035932 0 0.36067108370546558 -0.30642584581184062 0 0.35995160240795782 -0.33026718971309799 0 0.37325959660283969 -0.31225701655594912 0 0.36522996683296982 -0.32210974174446261 0 0.37029473460036533 -0.32565573538444043 0 0.36761344479238373 -0.29508033606196837 0 0.3626472606395299 -0.32436369895035932 0 0.36522996683296982 -0.32210974174446261 0 0.36067108370546558 -0.30642584581184062 0 0.3626472606395299 -0.32436369895035932 0 0.35995160240795782 -0.33026718971309799 0 0.38064079273778262 -0.31288188218018531 0 0.37325959660283969 -0.31225701655594912 0 0.37029473460036533 -0.32565573538444043 0 0.3626472606395299 -0.32436369895035932 0 0.37029473460036533 -0.32565573538444043 0 0.35995160240795782 -0.33026718971309799 0 0.37029473460036533 -0.32565573538444043 0 0.35995160240795782 -0.33026718971309799 0 0.3626472606395299 -0.32436369895035932 0 0.36522996683296982 -0.32210974174446261 0 0.37029473460036533 -0.32565573538444043 0 0.36522996683296982 -0.32210974174446261 0 0.37029473460036533 -0.32565573538444043 0 0.35995160240795782 -0.33026718971309799 0 0.35941557651728179 -0.34802939929915899 0 0.37029473460036533 -0.32565573538444043 0 0.37212478857772979 -0.33864880005647208 0 0.35995160240795782 -0.33026718971309799 0 0.3654326502107581 -0.34245967622864359 0 0.35995160240795782 -0.33026718971309799 0 0.35941557651728179 -0.34802939929915899 0 0.37212478857772979 -0.33864880005647208 0 0.3654326502107581 -0.34245967622864359 0 0.37040156667629781 -0.34671437794913718 0 0.37212478857772979 -0.33864880005647208 0 0.3654326502107581 -0.34245967622864359 0 0.35995160240795782 -0.33026718971309799 0 0.35995160240795782 -0.33026718971309799 0 0.35941557651728179 -0.34802939929915899 0 0.34162477060798069 -0.33843815246039383 0 0.35941557651728179 -0.34802939929915899 0 0.34146637893605181 -0.3422169952266676 0 0.34162477060798069 -0.33843815246039383 0 0.35995160240795782 -0.33026718971309799 0 0.34162477060798069 -0.33843815246039383 0 0.35995160240795782 -0.33026718971309799 0 0.34764647170350632 -0.33021231032179682 0 0.34162477060798069 -0.33843815246039383 0 0.35995160240795782 -0.33026718971309799 0 0.34764647170350632 -0.33021231032179682 0 0.35274785573456591 -0.3260756163463463 0 0.34764647170350632 -0.33021231032179682 0 0.34206802946595682 -0.32786306660713371 0 0.34162477060798069 -0.33843815246039383 0 0.34764647170350632 -0.33021231032179682 0 0.34206802946595682 -0.32786306660713371 0 0.35385294866325562 -0.31815161708919842 0 0.35274785573456591 -0.3260756163463463 0 0.34206802946595682 -0.32786306660713371 0 0.34764647170350632 -0.33021231032179682 0 0.35274785573456591 -0.3260756163463463 0 0.34206802946595682 -0.32786306660713371 0 0.34332234684577362 -0.29793808318023329 0 0.35385294866325562 -0.31815161708919842 0 0.34206802946595682 -0.32786306660713371 0 0.36067108370546558 -0.30642584581184062 0 0.35995160240795782 -0.33026718971309799 0 0.35385294866325562 -0.31815161708919842 0 0.35995160240795782 -0.33026718971309799 0 0.35385294866325562 -0.31815161708919842 0 0.35274785573456591 -0.3260756163463463 0 0.38249634533461108 -0.36797477098799591 0 0.36724772315424481 -0.38247146420994571 0 0.36664078794155069 -0.36853845970684512 0 0.38249634533461108 -0.36797477098799591 0 0.36664078794155069 -0.36853845970684512 0 0.37305712147220338 -0.36102055586376819 0 0.3553956415560332 -0.375446985373177 0 0.36664078794155069 -0.36853845970684512 0 0.35901533294662008 -0.36129221050145399 0 0.36664078794155069 -0.36853845970684512 0 0.37305712147220338 -0.36102055586376819 0 0.36517854466496658 -0.35714892472411869 0 0.36664078794155069 -0.36853845970684512 0 0.36517854466496658 -0.35714892472411869 0 0.35901533294662008 -0.36129221050145399 0 0.36517854466496658 -0.35714892472411869 0 0.35941557651728179 -0.34802939929915899 0 0.35901533294662008 -0.36129221050145399 0 0.36517854466496658 -0.35714892472411869 0 0.36469303305047901 -0.34973837317986511 0 0.35941557651728179 -0.34802939929915899 0 0.36517854466496658 -0.35714892472411869 0 0.37030234625384911 -0.35279401393457888 0 0.36469303305047901 -0.34973837317986511 0 0.37818146540529818 -0.34934783795600571 0 0.37305712147220338 -0.36102055586376819 0 0.37030234625384911 -0.35279401393457888 0 0.37305712147220338 -0.36102055586376819 0 0.36517854466496658 -0.35714892472411869 0 0.37030234625384911 -0.35279401393457888 0 0.37818146540529818 -0.34934783795600571 0 0.37212478857772979 -0.33864880005647208 0 0.37040156667629781 -0.34671437794913718 0 0.37818146540529818 -0.34934783795600571 0 0.37030234625384911 -0.35279401393457888 0 0.37040156667629781 -0.34671437794913718 0 0.37030234625384911 -0.35279401393457888 0 0.37040156667629781 -0.34671437794913718 0 0.36469303305047901 -0.34973837317986511 0 0.3654326502107581 -0.34245967622864359 0 0.37040156667629781 -0.34671437794913718 0 0.36469303305047901 -0.34973837317986511 0 0.36469303305047901 -0.34973837317986511 0 0.35941557651728179 -0.34802939929915899 0 0.3654326502107581 -0.34245967622864359 0 0.36469303305047901 -0.34973837317986511 0 0.35941557651728179 -0.34802939929915899 0 0.35003449333301101 -0.35574942476505861 0 0.34024068493209042 -0.37145909403295352 0 0.34146637893605181 -0.3422169952266676 0 0.35941557651728179 -0.34802939929915899 0 0.35003449333301101 -0.35574942476505861 0 0.34146637893605181 -0.3422169952266676 0 0.35941557651728179 -0.34802939929915899 0 0.34146637893605181 -0.3422169952266676 0 0.35941557651728179 -0.34802939929915899 0 0.35901533294662008 -0.36129221050145399 0 0.35941557651728179 -0.34802939929915899 0 0.35003449333301101 -0.35574942476505861 0 0.35901533294662008 -0.36129221050145399 0 0.35003449333301101 -0.35574942476505861 0 0.35901533294662008 -0.36129221050145399 0 0.34024068493209042 -0.37145909403295352 0 0.3553956415560332 -0.375446985373177 0 0.35901533294662008 -0.36129221050145399 0 0.34024068493209042 -0.37145909403295352 0 0.34024068493209042 -0.37145909403295352 0 0.33264239376833749 -0.35548373211026962 0 0.32473595581008968 -0.36877041147622941 0 0.34024068493209042 -0.37145909403295352 0 0.33264239376833749 -0.35548373211026962 0 0.34146637893605181 -0.3422169952266676 0 0.34024068493209042 -0.37145909403295352 0 0.34146637893605181 -0.3422169952266676 0 0.33264239376833749 -0.35548373211026962 0 0.32969677432389999 -0.34883746930945858 0 0.32350037713642671 -0.3535383953733186 0 0.33264239376833749 -0.35548373211026962 0 0.33484083241944268 -0.34588391539316982 0 0.34146637893605181 -0.3422169952266676 0 0.33264239376833749 -0.35548373211026962 0 0.33484083241944268 -0.34588391539316982 0 0.32969677432389999 -0.34883746930945858 0 0.33484083241944268 -0.34588391539316982 0 0.32969677432389999 -0.34883746930945858 0 0.33080291213000951 -0.34437854531234752 0 0.32969677432389999 -0.34883746930945858 0 0.33080291213000951 -0.34437854531234752 0 0.32576759743036687 -0.34544500479448842 0 0.32576759743036687 -0.34544500479448842 0 0.32008489300350967 -0.34478001059398899 0 0.32350037713642671 -0.3535383953733186 0 0.32969677432389999 -0.34883746930945858 0 0.32576759743036687 -0.34544500479448842 0 0.32350037713642671 -0.3535383953733186 0 0.32576759743036687 -0.34544500479448842 0 0.32008489300350967 -0.34478001059398899 0 0.3230261242077439 -0.3426129045732173 0 0.32008489300350967 -0.34478001059398899 0 0.31455300750316167 -0.34989325112993808 0 0.32350037713642671 -0.3535383953733186 0 0.32008489300350967 -0.34478001059398899 0 0.31455300750316167 -0.34989325112993808 0 0.31278358272303802 -0.34129775444127147 0 0.31455300750316167 -0.34989325112993808 0 0.32350037713642671 -0.3535383953733186 0 0.31266700858965563 -0.36105898834543543 0 0.33264239376833749 -0.35548373211026962 0 0.32350037713642671 -0.3535383953733186 0 0.32473595581008968 -0.36877041147622941 0 0.30852465471842783 -0.38296478278532459 0 0.31266700858965563 -0.36105898834543543 0 0.32473595581008968 -0.36877041147622941 0 0.32350037713642671 -0.3535383953733186 0 0.31266700858965563 -0.36105898834543543 0 0.32473595581008968 -0.36877041147622941 0 0.34332234684577362 -0.29793808318023329 0 0.34206802946595682 -0.32786306660713371 0 0.32977293544345387 -0.30596193421111573 0 0.34206802946595682 -0.32786306660713371 0 0.32081511337912821 -0.31891284763754968 0 0.34206802946595682 -0.32786306660713371 0 0.32602109842812482 -0.32927153728442071 0 0.32081511337912821 -0.31891284763754968 0 0.34206802946595682 -0.32786306660713371 0 0.32081511337912821 -0.31891284763754968 0 0.34206802946595682 -0.32786306660713371 0 0.34162477060798069 -0.33843815246039383 0 0.33801441914131958 -0.33597980122333287 0 0.34206802946595682 -0.32786306660713371 0 0.34162477060798069 -0.33843815246039383 0 0.34206802946595682 -0.32786306660713371 0 0.33503975802439162 -0.33352730776002742 0 0.32602109842812482 -0.32927153728442071 0 0.34206802946595682 -0.32786306660713371 0 0.33801441914131958 -0.33597980122333287 0 0.33503975802439162 -0.33352730776002742 0 0.34146637893605181 -0.3422169952266676 0 0.34162477060798069 -0.33843815246039383 0 0.33664845261102122 -0.34065682884787418 0 0.34146637893605181 -0.3422169952266676 0 0.34162477060798069 -0.33843815246039383 0 0.34162477060798069 -0.33843815246039383 0 0.33801441914131958 -0.33597980122333287 0 0.33664845261102122 -0.34065682884787418 0 0.34162477060798069 -0.33843815246039383 0 0.33664845261102122 -0.34065682884787418 0 0.33801441914131958 -0.33597980122333287 0 0.33664845261102122 -0.34065682884787418 0 0.334556636173299 -0.33621284741772872 0 0.33484083241944268 -0.34588391539316982 0 0.34146637893605181 -0.3422169952266676 0 0.33664845261102122 -0.34065682884787418 0 0.34146637893605181 -0.3422169952266676 0 0.33664845261102122 -0.34065682884787418 0 0.33080291213000951 -0.34437854531234752 0 0.33664845261102122 -0.34065682884787418 0 0.32753883147517121 -0.34023469067202677 0 0.33664845261102122 -0.34065682884787418 0 0.334556636173299 -0.33621284741772872 0 0.32852391491646382 -0.33468745183968091 0 0.33484083241944268 -0.34588391539316982 0 0.33080291213000951 -0.34437854531234752 0 0.33664845261102122 -0.34065682884787418 0 0.33503975802439162 -0.33352730776002742 0 0.32852391491646382 -0.33468745183968091 0 0.32602109842812482 -0.32927153728442071 0 0.334556636173299 -0.33621284741772872 0 0.33503975802439162 -0.33352730776002742 0 0.32852391491646382 -0.33468745183968091 0 0.33801441914131958 -0.33597980122333287 0 0.334556636173299 -0.33621284741772872 0 0.33503975802439162 -0.33352730776002742 0 0.32753883147517121 -0.34023469067202677 0 0.31871317492192791 -0.33999191223236508 0 0.30992165968220392 -0.33200201743577268 0 0.32852391491646382 -0.33468745183968091 0 0.32602109842812482 -0.32927153728442071 0 0.30992165968220392 -0.33200201743577268 0 0.33664845261102122 -0.34065682884787418 0 0.32852391491646382 -0.33468745183968091 0 0.30992165968220392 -0.33200201743577268 0 0.33664845261102122 -0.34065682884787418 0 0.32753883147517121 -0.34023469067202677 0 0.30992165968220392 -0.33200201743577268 0 0.32602109842812482 -0.32927153728442071 0 0.31516553794356478 -0.32688419612254632 0 0.30992165968220392 -0.33200201743577268 0 0.33664845261102122 -0.34065682884787418 0 0.30992165968220392 -0.33200201743577268 0 0.32753883147517121 -0.34023469067202677 0 0.3230261242077439 -0.3426129045732173 0 0.31871317492192791 -0.33999191223236508 0 0.33080291213000951 -0.34437854531234752 0 0.32576759743036687 -0.34544500479448842 0 0.32753883147517121 -0.34023469067202677 0 0.32576759743036687 -0.34544500479448842 0 0.32753883147517121 -0.34023469067202677 0 0.3230261242077439 -0.3426129045732173 0 0.32008489300350967 -0.34478001059398899 0 0.3230261242077439 -0.3426129045732173 0 0.31871317492192791 -0.33999191223236508 0 0.31871317492192791 -0.33999191223236508 0 0.31278358272303802 -0.34129775444127147 0 0.30992165968220392 -0.33200201743577268 0 0.32008489300350967 -0.34478001059398899 0 0.31871317492192791 -0.33999191223236508 0 0.31278358272303802 -0.34129775444127147 0 0.32602109842812482 -0.32927153728442071 0 0.31516553794356478 -0.32688419612254632 0 0.32081511337912821 -0.31891284763754968 0 0.31516553794356478 -0.32688419612254632 0 0.32081511337912821 -0.31891284763754968 0 0.29956219729229971 -0.30996262866796498 0 0.31516553794356478 -0.32688419612254632 0 0.30992165968220392 -0.33200201743577268 0 0.29956219729229971 -0.30996262866796498 0 0.30992165968220392 -0.33200201743577268 0 0.28319486675338662 -0.32334720602367162 0 0.29956219729229971 -0.30996262866796498 0 0.32081511337912821 -0.31891284763754968 0 0.29956219729229971 -0.30996262866796498 0 0.31516553794356478 -0.32688419612254632 0 0.29956219729229971 -0.30996262866796498 0 0.31278358272303802 -0.34129775444127147 0 0.30544777269898171 -0.33968681455295602 0 0.30372917606317851 -0.34879110689567611 0 0.31278358272303802 -0.34129775444127147 0 0.30992165968220392 -0.33200201743577268 0 0.30544777269898171 -0.33968681455295602 0 0.30992165968220392 -0.33200201743577268 0 0.30544777269898171 -0.33968681455295602 0 0.29535667232750618 -0.33665637943910393 0 0.30544777269898171 -0.33968681455295602 0 0.29535667232750618 -0.33665637943910393 0 0.30372917606317851 -0.34879110689567611 0 0.30992165968220392 -0.33200201743577268 0 0.29535667232750618 -0.33665637943910393 0 0.28319486675338662 -0.32334720602367162 0 0.29535667232750618 -0.33665637943910393 0 0.28811986741475609 -0.34954264064797458 0 0.28056009198101312 -0.33712721632873971 0 0.29535667232750618 -0.33665637943910393 0 0.28319486675338662 -0.32334720602367162 0 0.28056009198101312 -0.33712721632873971 0 0.30992165968220392 -0.33200201743577268 0 0.28319486675338662 -0.32334720602367162 0 0.30852465471842783 -0.38296478278532459 0 0.31266700858965563 -0.36105898834543543 0 0.29576167506738288 -0.36584798696867898 0 0.31266700858965563 -0.36105898834543543 0 0.30372917606317851 -0.34879110689567611 0 0.29576167506738288 -0.36584798696867898 0 0.31455300750316167 -0.34989325112993808 0 0.31266700858965563 -0.36105898834543543 0 0.30372917606317851 -0.34879110689567611 0 0.31455300750316167 -0.34989325112993808 0 0.31278358272303802 -0.34129775444127147 0 0.30372917606317851 -0.34879110689567611 0 0.30372917606317851 -0.34879110689567611 0 0.28811986741475609 -0.34954264064797458 0 0.29576167506738288 -0.36584798696867898 0 0.29535667232750618 -0.33665637943910393 0 0.30372917606317851 -0.34879110689567611 0 0.28811986741475609 -0.34954264064797458 0 0.28811986741475609 -0.34954264064797458 0 0.29576167506738288 -0.36584798696867898 0 0.27628411724202862 -0.36524783617958329 0 0.28524522637625171 -0.38748256695808048 0 0.29576167506738288 -0.36584798696867898 0 0.27628411724202862 -0.36524783617958329 0 0.27628411724202862 -0.36524783617958329 0 0.26970242523906313 -0.3463930650348116 0 0.25620327224306561 -0.36049072758523892 0 0.28811986741475609 -0.34954264064797458 0 0.27628411724202862 -0.36524783617958329 0 0.26970242523906313 -0.3463930650348116 0 0.28811986741475609 -0.34954264064797458 0 0.26970242523906313 -0.3463930650348116 0 0.28056009198101312 -0.33712721632873971 0 0.26970242523906313 -0.3463930650348116 0 0.25620327224306561 -0.36049072758523892 0 0.25110761996098008 -0.33756133299550262 0 0.26194523537769671 -0.38343407302417171 0 0.27628411724202862 -0.36524783617958329 0 0.25620327224306561 -0.36049072758523892 0 0.26194523537769671 -0.38343407302417171 0 0.25620327224306561 -0.36049072758523892 0 0.2380746425401753 -0.37739124482652259 0 0.28319486675338662 -0.32334720602367162 0 0.25646807382456938 -0.31469239461157061 0 0.28319486675338662 -0.32334720602367162 0 0.25646807382456938 -0.31469239461157061 0 0.26668910057358802 -0.30550764638795852 0 0.28319486675338662 -0.32334720602367162 0 0.26642662817035351 -0.32969679049813649 0 0.25646807382456938 -0.31469239461157061 0 0.26970242523906313 -0.3463930650348116 0 0.26642662817035351 -0.32969679049813649 0 0.28056009198101312 -0.33712721632873971 0 0.28319486675338662 -0.32334720602367162 0 0.26642662817035351 -0.32969679049813649 0 0.28056009198101312 -0.33712721632873971 0 0.26970242523906313 -0.3463930650348116 0 0.26642662817035351 -0.32969679049813649 0 0.25110761996098008 -0.33756133299550262 0 0.26642662817035351 -0.32969679049813649 0 0.25110761996098008 -0.33756133299550262 0 0.25646807382456938 -0.31469239461157061 0 0.26020915296869068 -0.2933899210744732 0 0.26668910057358802 -0.30550764638795852 0 0.24613976577650579 -0.30323365481969039 0 0.25646807382456938 -0.31469239461157061 0 0.26668910057358802 -0.30550764638795852 0 0.24613976577650579 -0.30323365481969039 0 0.26020915296869068 -0.2933899210744732 0 0.25058364390229548 -0.28023087545190861 0 0.26295470628353768 -0.27026240406269297 0 0.26020915296869068 -0.2933899210744732 0 0.25058364390229548 -0.28023087545190861 0 0.24053263080688631 -0.28510356727772701 0 0.26020915296869068 -0.2933899210744732 0 0.24053263080688631 -0.28510356727772701 0 0.26020915296869068 -0.2933899210744732 0 0.28125845178791892 -0.29011251636532881 0 0.26295470628353768 -0.27026240406269297 0 0.26020915296869068 -0.2933899210744732 0 0.27988567513049512 -0.30167627487121951 0 0.28125845178791892 -0.29011251636532881 0 0.26020915296869068 -0.2933899210744732 0 0.26668910057358802 -0.30550764638795852 0 0.27988567513049512 -0.30167627487121951 0 0.26020915296869068 -0.2933899210744732 0 0.27988567513049512 -0.30167627487121951 0 0.28319486675338662 -0.32334720602367162 0 0.26668910057358802 -0.30550764638795852 0 0.27988567513049512 -0.30167627487121951 0 0.27988567513049512 -0.30167627487121951 0 0.29956219729229971 -0.30996262866796498 0 0.28125845178791892 -0.29011251636532881 0 0.29956219729229971 -0.30996262866796498 0 0.27988567513049512 -0.30167627487121951 0 0.28125845178791892 -0.29011251636532881 0 0.29956219729229971 -0.30996262866796498 0 0.28319486675338662 -0.32334720602367162 0 0.27988567513049512 -0.30167627487121951 0 0.29956219729229971 -0.30996262866796498 0 0.28125845178791892 -0.29011251636532881 0 0.30351741442094582 -0.28364787667668517 0 0.29956219729229971 -0.30996262866796498 0 0.30351741442094582 -0.28364787667668517 0 0.30893165249025939 -0.29458973757352408 0 0.29956219729229971 -0.30996262866796498 0 0.315203972569992 -0.28599406388836862 0 0.30351741442094582 -0.28364787667668517 0 0.30893165249025939 -0.29458973757352408 0 0.31744302567780058 -0.29875438106107682 0 0.30893165249025939 -0.29458973757352408 0 0.29956219729229971 -0.30996262866796498 0 0.31140457280844042 -0.24710474912070499 0 0.31565659849655159 -0.26881006701694032 0 0.29718577407036301 -0.25519814195989071 0 0.31565659849655159 -0.26881006701694032 0 0.29718577407036301 -0.25519814195989071 0 0.28930565239004458 -0.26953623553981648 0 0.31565659849655159 -0.26881006701694032 0 0.28930565239004458 -0.26953623553981648 0 0.31565659849655159 -0.26881006701694032 0 0.30351741442094582 -0.28364787667668517 0 0.28930565239004458 -0.26953623553981648 0 0.315203972569992 -0.28599406388836862 0 0.31616400359283131 -0.27140021809428472 0 0.30351741442094582 -0.28364787667668517 0 0.31616400359283131 -0.27140021809428472 0 0.31565659849655159 -0.26881006701694032 0 0.30351741442094582 -0.28364787667668517 0 0.28125845178791892 -0.29011251636532881 0 0.30351741442094582 -0.28364787667668517 0 0.28930565239004458 -0.26953623553981648 0 0.29234931722919649 -0.23956849287787771 0 0.29718577407036301 -0.25519814195989071 0 0.28009493911397709 -0.25531812806766069 0 0.29718577407036301 -0.25519814195989071 0 0.28930565239004458 -0.26953623553981648 0 0.28009493911397709 -0.25531812806766069 0 0.28009493911397709 -0.25531812806766069 0 0.26295470628353768 -0.27026240406269297 0 0.26515279713901752 -0.25474276698909742 0 0.28930565239004458 -0.26953623553981648 0 0.28009493911397709 -0.25531812806766069 0 0.26295470628353768 -0.27026240406269297 0 0.27362138757170362 -0.2426007269765893 0 0.28009493911397709 -0.25531812806766069 0 0.26515279713901752 -0.25474276698909742 0 0.28930565239004458 -0.26953623553981648 0 0.26295470628353768 -0.27026240406269297 0 0.28125845178791892 -0.29011251636532881 0 0.28930565239004458 -0.26953623553981648 0 0.26295470628353768 -0.27026240406269297 0 0.28125845178791892 -0.29011251636532881 0 0.26295470628353768 -0.27026240406269297 0 0.26295470628353768 -0.27026240406269297 0 0.25920525151110962 -0.26619618175379239 0 0.2333624491378041 -0.27107789530058801 0 0.26295470628353768 -0.27026240406269297 0 0.25920525151110962 -0.26619618175379239 0 0.26515279713901752 -0.25474276698909742 0 0.25909559454287789 -0.26033526294480458 0 0.25575058308532189 -0.25269357128633052 0 0.26295470628353768 -0.27026240406269297 0 0.25920525151110962 -0.26619618175379239 0 0.25909559454287789 -0.26033526294480458 0 0.26295470628353768 -0.27026240406269297 0 0.26515279713901752 -0.25474276698909742 0 0.25909559454287789 -0.26033526294480458 0 0.25920525151110962 -0.26619618175379239 0 0.25909559454287789 -0.26033526294480458 0 0.2525593813984649 -0.26013433662011259 0 0.2525593813984649 -0.26013433662011259 0 0.25575058308532189 -0.25269357128633052 0 0.2462907050713771 -0.25204034373521428 0 0.25909559454287789 -0.26033526294480458 0 0.2525593813984649 -0.26013433662011259 0 0.25575058308532189 -0.25269357128633052 0 0.2525593813984649 -0.26013433662011259 0 0.2372713891187809 -0.25677075628574592 0 0.2333624491378041 -0.27107789530058801 0 0.2525593813984649 -0.26013433662011259 0 0.2462907050713771 -0.25204034373521428 0 0.2372713891187809 -0.25677075628574592 0 0.2525593813984649 -0.26013433662011259 0 0.2372713891187809 -0.25677075628574592 0 0.2462907050713771 -0.25204034373521428 0 0.2372713891187809 -0.25677075628574592 0 0.2374752251495614 -0.24157268794541539 0 0.26295470628353768 -0.27026240406269297 0 0.2333624491378041 -0.27107789530058801 0 0.25058364390229548 -0.28023087545190861 0 0.2333624491378041 -0.27107789530058801 0 0.24053263080688631 -0.28510356727772701 0 0.25920525151110962 -0.26619618175379239 0 0.2525593813984649 -0.26013433662011259 0 0.2333624491378041 -0.27107789530058801 0 0.25058364390229548 -0.28023087545190861 0 0.26295470628353768 -0.27026240406269297 0 0.2333624491378041 -0.27107789530058801 0 0.2333624491378041 -0.27107789530058801 0 0.22391874229476511 -0.2824004848955064 0 0.24053263080688631 -0.28510356727772701 0 0.2333624491378041 -0.27107789530058801 0 0.22198339683909701 -0.25340717595137879 0 0.22391874229476511 -0.2824004848955064 0 0.22198339683909701 -0.25340717595137879 0 0.21277476220729311 -0.27908963951381288 0 0.22391874229476511 -0.2824004848955064 0 0.22198339683909701 -0.25340717595137879 0 0.22391874229476511 -0.2824004848955064 0 0.2372713891187809 -0.25677075628574592 0 0.2333624491378041 -0.27107789530058801 0 0.22198339683909701 -0.25340717595137879 0 0.2372713891187809 -0.25677075628574592 0 0.22198339683909701 -0.25340717595137879 0 0.2374752251495614 -0.24157268794541539 0 0.2372713891187809 -0.25677075628574592 0 0.22198339683909701 -0.25340717595137879 0 0.22198339683909701 -0.25340717595137879 0 0.19767743283581299 -0.26201501502554969 0 0.19815896102696709 -0.24816545406213189 0 0.22198339683909701 -0.25340717595137879 0 0.19815896102696709 -0.24816545406213189 0 0.22198339683909701 -0.25340717595137879 0 0.2070014623020448 -0.26844420161526761 0 0.19767743283581299 -0.26201501502554969 0 0.22198339683909701 -0.25340717595137879 0 0.21277476220729311 -0.27908963951381288 0 0.2070014623020448 -0.26844420161526761 0 0.21277476220729311 -0.27908963951381288 0 0.19627752834655959 -0.27465633278028612 0 0.20552852767052071 -0.28818040814850709 0 0.21277476220729311 -0.27908963951381288 0 0.2070014623020448 -0.26844420161526761 0 0.19627752834655959 -0.27465633278028612 0 0.2070014623020448 -0.26844420161526761 0 0.19627752834655959 -0.27465633278028612 0 0.19767743283581299 -0.26201501502554969 0 0.19627752834655959 -0.27465633278028612 0 0.19767743283581299 -0.26201501502554969 0 0.1861358052291735 -0.26379397041404468 0 0.19767743283581299 -0.26201501502554969 0 0.1861358052291735 -0.26379397041404468 0 0.19815896102696709 -0.24816545406213189 0 0.1861358052291735 -0.26379397041404468 0 0.18066177981631051 -0.25348299893649828 0 0.19815896102696709 -0.24816545406213189 0 0.20129939135720101 -0.31175464383988888 0 0.20552852767052071 -0.28818040814850709 0 0.1861316223780578 -0.30340045511113362 0 0.20552852767052071 -0.28818040814850709 0 0.18615950714984131 -0.28714944863913389 0 0.1861316223780578 -0.30340045511113362 0 0.19627752834655959 -0.27465633278028612 0 0.20552852767052071 -0.28818040814850709 0 0.18615950714984131 -0.28714944863913389 0 0.21277476220729311 -0.27908963951381288 0 0.20552852767052071 -0.28818040814850709 0 0.22391874229476511 -0.2824004848955064 0 0.20552852767052071 -0.28818040814850709 0 0.21283890344555609 -0.30228465628523993 0 0.22391874229476511 -0.2824004848955064 0 0.20129939135720101 -0.31175464383988888 0 0.20552852767052071 -0.28818040814850709 0 0.21283890344555609 -0.30228465628523993 0 0.225854087750432 -0.31139379383963389 0 0.22391874229476511 -0.2824004848955064 0 0.21283890344555609 -0.30228465628523993 0 0.225854087750432 -0.31139379383963389 0 0.22391874229476511 -0.2824004848955064 0 0.225854087750432 -0.31139379383963389 0 0.22391874229476511 -0.2824004848955064 0 0.24053263080688631 -0.28510356727772701 0 0.26020915296869068 -0.2933899210744732 0 0.24053263080688631 -0.28510356727772701 0 0.24613976577650579 -0.30323365481969039 0 0.225854087750432 -0.31139379383963389 0 0.24053263080688631 -0.28510356727772701 0 0.24613976577650579 -0.30323365481969039 0 0.225854087750432 -0.31139379383963389 0 0.24613976577650579 -0.30323365481969039 0 0.24147179610371719 -0.32145365581003182 0 0.25110761996098008 -0.33756133299550262 0 0.25646807382456938 -0.31469239461157061 0 0.24147179610371719 -0.32145365581003182 0 0.25646807382456938 -0.31469239461157061 0 0.24613976577650579 -0.30323365481969039 0 0.24147179610371719 -0.32145365581003182 0 0.25110761996098008 -0.33756133299550262 0 0.24147179610371719 -0.32145365581003182 0 0.2277894332060989 -0.3403871027837615 0 0.225854087750432 -0.31139379383963389 0 0.24147179610371719 -0.32145365581003182 0 0.2277894332060989 -0.3403871027837615 0 0.225854087750432 -0.31139379383963389 0 0.2277894332060989 -0.3403871027837615 0 0.2131017443993804 -0.32550716011161479 0 0.225854087750432 -0.31139379383963389 0 0.2277894332060989 -0.3403871027837615 0 0.25620327224306561 -0.36049072758523892 0 0.23939100935974761 -0.35412122659527612 0 0.2380746425401753 -0.37739124482652259 0 0.25110761996098008 -0.33756133299550262 0 0.2277894332060989 -0.3403871027837615 0 0.23939100935974761 -0.35412122659527612 0 0.25620327224306561 -0.36049072758523892 0 0.25110761996098008 -0.33756133299550262 0 0.23939100935974761 -0.35412122659527612 0 0.2277894332060989 -0.3403871027837615 0 0.23939100935974761 -0.35412122659527612 0 0.22160146260088931 -0.35672021721344238 0 0.2277894332060989 -0.3403871027837615 0 0.22160146260088931 -0.35672021721344238 0 0.21393580002607371 -0.34141846605291087 0 0.23939100935974761 -0.35412122659527612 0 0.22160146260088931 -0.35672021721344238 0 0.2380746425401753 -0.37739124482652259 0 0.22160146260088931 -0.35672021721344238 0 0.21646245367279571 -0.38358476595235552 0 0.22160146260088931 -0.35672021721344238 0 0.2380746425401753 -0.37739124482652259 0 0.21646245367279571 -0.38358476595235552 0 0.22160146260088931 -0.35672021721344238 0 0.19836301469614079 -0.36402790855933592 0 0.2025217842010896 -0.37807387373583923 0 0.22160146260088931 -0.35672021721344238 0 0.21646245367279571 -0.38358476595235552 0 0.2025217842010896 -0.37807387373583923 0 0.22160146260088931 -0.35672021721344238 0 0.20535211274276649 -0.35018034328080122 0 0.21393580002607371 -0.34141846605291087 0 0.22160146260088931 -0.35672021721344238 0 0.20535211274276649 -0.35018034328080122 0 0.19836301469614079 -0.36402790855933592 0 0.20535211274276649 -0.35018034328080122 0 0.19180082998577391 -0.35029167033112268 0 0.20100079568597551 -0.33875735092892167 0 0.19180082998577391 -0.35029167033112268 0 0.19836301469614079 -0.36402790855933592 0 0.18636698824462991 -0.36225910140511608 0 0.19180082998577391 -0.35029167033112268 0 0.18636698824462991 -0.36225910140511608 0 0.18448777755487131 -0.35210036546502188 0 0.20535211274276649 -0.35018034328080122 0 0.19180082998577391 -0.35029167033112268 0 0.19836301469614079 -0.36402790855933592 0 0.19836301469614079 -0.36402790855933592 0 0.19083927531350181 -0.37426462870353422 0 0.18636698824462991 -0.36225910140511608 0 0.19836301469614079 -0.36402790855933592 0 0.19083927531350181 -0.37426462870353422 0 0.2025217842010896 -0.37807387373583923 0 0.20129939135720101 -0.31175464383988888 0 0.21283890344555609 -0.30228465628523993 0 0.2131017443993804 -0.32550716011161479 0 0.21283890344555609 -0.30228465628523993 0 0.225854087750432 -0.31139379383963389 0 0.2131017443993804 -0.32550716011161479 0 0.2277894332060989 -0.3403871027837615 0 0.2131017443993804 -0.32550716011161479 0 0.21393580002607371 -0.34141846605291087 0 0.2131017443993804 -0.32550716011161479 0 0.21393580002607371 -0.34141846605291087 0 0.20100079568597551 -0.33875735092892167 0 0.20535211274276649 -0.35018034328080122 0 0.21393580002607371 -0.34141846605291087 0 0.20100079568597551 -0.33875735092892167 0 0.19180082998577391 -0.35029167033112268 0 0.20100079568597551 -0.33875735092892167 0 0.1840044286915227 -0.33601373309634508 0 0.20100079568597551 -0.33875735092892167 0 0.19352690233448341 -0.32516644492614982 0 0.1840044286915227 -0.33601373309634508 0 0.2131017443993804 -0.32550716011161479 0 0.20100079568597551 -0.33875735092892167 0 0.19352690233448341 -0.32516644492614982 0 0.20129939135720101 -0.31175464383988888 0 0.2131017443993804 -0.32550716011161479 0 0.19352690233448341 -0.32516644492614982 0 0.20129939135720101 -0.31175464383988888 0 0.19352690233448341 -0.32516644492614982 0 0.1861316223780578 -0.30340045511113362 0 0.19352690233448341 -0.32516644492614982 0 0.17526094699071121 -0.32121364916979261 0 0.1840044286915227 -0.33601373309634508 0 0.19352690233448341 -0.32516644492614982 0 0.17526094699071121 -0.32121364916979261 0 0.1861316223780578 -0.30340045511113362 0 0.17526094699071121 -0.32121364916979261 0 0.1840044286915227 -0.33601373309634508 0 0.17670370261134591 -0.35101137430815987 0 0.17526094699071121 -0.32121364916979261 0 0.16632300769682529 -0.33914532989683449 0 0.17670370261134591 -0.35101137430815987 0 0.17526094699071121 -0.32121364916979261 0 0.17670370261134591 -0.35101137430815987 0 0.16632300769682529 -0.33914532989683449 0 0.15635532043033851 -0.32762317205032648 0 0.15384528835215919 -0.34888323103730828 0 0.17526094699071121 -0.32121364916979261 0 0.16632300769682529 -0.33914532989683449 0 0.15635532043033851 -0.32762317205032648 0 0.17526094699071121 -0.32121364916979261 0 0.15635532043033851 -0.32762317205032648 0 0.16613015085753399 -0.29794196337136208 0 0.19083927531350181 -0.37426462870353422 0 0.18636698824462991 -0.36225910140511608 0 0.17814645823198061 -0.38080909944652741 0 0.17670370261134591 -0.35101137430815987 0 0.1695008882053643 -0.3539014675276998 0 0.17814645823198061 -0.38080909944652741 0 0.17670370261134591 -0.35101137430815987 0 0.17814645823198061 -0.38080909944652741 0 0.18636698824462991 -0.36225910140511608 0 0.17670370261134591 -0.35101137430815987 0 0.17814645823198061 -0.38080909944652741 0 0.18636698824462991 -0.36225910140511608 0 0.18448777755487131 -0.35210036546502188 0 0.17670370261134591 -0.35101137430815987 0 0.18448777755487131 -0.35210036546502188 0 0.18424918471087839 -0.34735428580016242 0 0.17670370261134591 -0.35101137430815987 0 0.19180082998577391 -0.35029167033112268 0 0.1840044286915227 -0.33601373309634508 0 0.18424918471087839 -0.34735428580016242 0 0.1840044286915227 -0.33601373309634508 0 0.18424918471087839 -0.34735428580016242 0 0.17670370261134591 -0.35101137430815987 0 0.19180082998577391 -0.35029167033112268 0 0.18448777755487131 -0.35210036546502188 0 0.18424918471087839 -0.34735428580016242 0 0.16632300769682529 -0.33914532989683449 0 0.1695008882053643 -0.3539014675276998 0 0.15384528835215919 -0.34888323103730828 0 0.1695008882053643 -0.3539014675276998 0 0.15622266046030589 -0.36560529067035252 0 0.15384528835215919 -0.34888323103730828 0 0.16632300769682529 -0.33914532989683449 0 0.17670370261134591 -0.35101137430815987 0 0.1695008882053643 -0.3539014675276998 0 0.1695008882053643 -0.3539014675276998 0 0.15622266046030589 -0.36560529067035252 0 0.1662516937484437 -0.37945746017663878 0 0.1695008882053643 -0.3539014675276998 0 0.17814645823198061 -0.38080909944652741 0 0.1662516937484437 -0.37945746017663878 0 0.1695008882053643 -0.3539014675276998 0 0.1662516937484437 -0.37945746017663878 0 0.15622266046030589 -0.36560529067035252 0 0.15384528835215919 -0.34888323103730828 0 0.13913284643621729 -0.36987147755796063 0 0.15622266046030589 -0.36560529067035252 0 0.13913284643621729 -0.36987147755796063 0 0.15122325216971341 -0.38057118911269922 0 0.15384528835215919 -0.34888323103730828 0 0.13913284643621729 -0.36987147755796063 0 0.1385684583736729 -0.34280877879487409 0 0.1385684583736729 -0.34280877879487409 0 0.1245186505824013 -0.36113750934922573 0 0.1203073559828662 -0.34481831064573482 0 0.13913284643621729 -0.36987147755796063 0 0.1385684583736729 -0.34280877879487409 0 0.13913284643621729 -0.36987147755796063 0 0.1385684583736729 -0.34280877879487409 0 0.1245186505824013 -0.36113750934922573 0 0.13913284643621729 -0.36987147755796063 0 0.12672469353237761 -0.38193719477194499 0 0.1245186505824013 -0.36113750934922573 0 0.15635532043033851 -0.32762317205032648 0 0.13800407031112841 -0.31574608003178772 0 0.16613015085753399 -0.29794196337136208 0 0.15635532043033851 -0.32762317205032648 0 0.15384528835215919 -0.34888323103730828 0 0.1385684583736729 -0.34280877879487409 0 0.15635532043033851 -0.32762317205032648 0 0.1385684583736729 -0.34280877879487409 0 0.13800407031112841 -0.31574608003178772 0 0.1385684583736729 -0.34280877879487409 0 0.13800407031112841 -0.31574608003178772 0 0.1385684583736729 -0.34280877879487409 0 0.1252730154641265 -0.33501756179834041 0 0.127277047630593 -0.32368123984794023 0 0.1385684583736729 -0.34280877879487409 0 0.1252730154641265 -0.33501756179834041 0 0.1203073559828662 -0.34481831064573482 0 0.13800407031112841 -0.31574608003178772 0 0.127277047630593 -0.32368123984794023 0 0.1207194796176513 -0.31206082339016011 0 0.1385684583736729 -0.34280877879487409 0 0.13800407031112841 -0.31574608003178772 0 0.127277047630593 -0.32368123984794023 0 0.13800407031112841 -0.31574608003178772 0 0.13743968224858391 -0.28868338126870119 0 0.1207194796176513 -0.31206082339016011 0 0.13800407031112841 -0.31574608003178772 0 0.13743968224858391 -0.28868338126870119 0 0.13800407031112841 -0.31574608003178772 0 0.13743968224858391 -0.28868338126870119 0 0.16613015085753399 -0.29794196337136208 0 0.13743968224858391 -0.28868338126870119 0 0.16013622185265231 -0.27370264407204231 0 0.16613015085753399 -0.29794196337136208 0 0.13743968224858391 -0.28868338126870119 0 0.13687529418603939 -0.26162068250561471 0 0.13743968224858391 -0.28868338126870119 0 0.13687529418603939 -0.26162068250561471 0 0.12122917553908071 -0.27280048239714111 0 0.13687529418603939 -0.26162068250561471 0 0.15867772839633809 -0.25707915377424612 0 0.15532271566916761 -0.23874085795770611 0 0.13687529418603939 -0.26162068250561471 0 0.16013622185265231 -0.27370264407204231 0 0.15867772839633809 -0.25707915377424612 0 0.13743968224858391 -0.28868338126870119 0 0.13687529418603939 -0.26162068250561471 0 0.16013622185265231 -0.27370264407204231 0 0.16013622185265231 -0.27370264407204231 0 0.17163424862532001 -0.26348395238230132 0 0.17866520103123101 -0.27392164610568698 0 0.16013622185265231 -0.27370264407204231 0 0.15867772839633809 -0.25707915377424612 0 0.17163424862532001 -0.26348395238230132 0 0.15867772839633809 -0.25707915377424612 0 0.17163424862532001 -0.26348395238230132 0 0.17304535898525439 -0.24904788565112909 0 0.17163424862532001 -0.26348395238230132 0 0.18066177981631051 -0.25348299893649828 0 0.17304535898525439 -0.24904788565112909 0 0.17163424862532001 -0.26348395238230132 0 0.1861358052291735 -0.26379397041404468 0 0.18066177981631051 -0.25348299893649828 0 0.19627752834655959 -0.27465633278028612 0 0.17866520103123101 -0.27392164610568698 0 0.18615950714984131 -0.28714944863913389 0 0.19627752834655959 -0.27465633278028612 0 0.1861358052291735 -0.26379397041404468 0 0.17866520103123101 -0.27392164610568698 0 0.17163424862532001 -0.26348395238230132 0 0.1861358052291735 -0.26379397041404468 0 0.17866520103123101 -0.27392164610568698 0 0.17866520103123101 -0.27392164610568698 0 0.18615950714984131 -0.28714944863913389 0 0.16613015085753399 -0.29794196337136208 0 0.18615950714984131 -0.28714944863913389 0 0.1861316223780578 -0.30340045511113362 0 0.16613015085753399 -0.29794196337136208 0 0.17526094699071121 -0.32121364916979261 0 0.1861316223780578 -0.30340045511113362 0 0.16613015085753399 -0.29794196337136208 0 0.16013622185265231 -0.27370264407204231 0 0.17866520103123101 -0.27392164610568698 0 0.16613015085753399 -0.29794196337136208 0 0.19650118937966099 -0.48458767462136337 0 0.18247472509388471 -0.47020227486163019 0 0.1839174807145193 -0.49999999999999789 0 0.19650118937966099 -0.48458767462136337 0 0.2054847406710314 -0.5 0 0.1839174807145193 -0.49999999999999789 0 0.19650118937966099 -0.48458767462136337 0 0.1995265252191368 -0.47051219141525807 0 0.18247472509388471 -0.47020227486163019 0 0.19650118937966099 -0.48458767462136337 0 0.1995265252191368 -0.47051219141525807 0 0.21142085222808771 -0.48158275099342862 0 0.1995265252191368 -0.47051219141525807 0 0.21142085222808771 -0.48158275099342862 0 0.21140626781342409 -0.46122374827882839 0 0.21142085222808771 -0.48158275099342862 0 0.23068219321441441 -0.47630316546961982 0 0.21140626781342409 -0.46122374827882839 0 0.19650118937966099 -0.48458767462136337 0 0.21142085222808771 -0.48158275099342862 0 0.2054847406710314 -0.5 0 0.21142085222808771 -0.48158275099342862 0 0.2054847406710314 -0.5 0 0.22705200062754341 -0.49999999999999972 0 0.21142085222808771 -0.48158275099342862 0 0.22705200062754341 -0.49999999999999972 0 0.23068219321441441 -0.47630316546961982 0 0.22705200062754341 -0.49999999999999972 0 0.24310759435645521 -0.48732129405658853 0 0.23068219321441441 -0.47630316546961982 0 0.22705200062754341 -0.49999999999999972 0 0.23068219321441441 -0.47630316546961982 0 0.25573491640979129 -0.5 0 0.22705200062754341 -0.49999999999999972 0 0.24310759435645521 -0.48732129405658853 0 0.24310759435645521 -0.48732129405658853 0 0.24452211955108941 -0.47321082899062988 0 0.23068219321441441 -0.47630316546961982 0 0.23068219321441441 -0.47630316546961982 0 0.23431238580128549 -0.45260633093924002 0 0.23068219321441441 -0.47630316546961982 0 0.23431238580128549 -0.45260633093924002 0 0.21140626781342409 -0.46122374827882839 0 0.24452211955108941 -0.47321082899062988 0 0.23068219321441441 -0.47630316546961982 0 0.23431238580128549 -0.45260633093924002 0 0.25055382002994903 -0.45112655962101422 0 0.24452211955108941 -0.47321082899062988 0 0.23431238580128549 -0.45260633093924002 0 0.25055382002994903 -0.45112655962101422 0 0.23431238580128549 -0.45260633093924002 0 0.24845486683426421 -0.43056678600332871 0 0.23431238580128549 -0.45260633093924002 0 0.2061844358166085 -0.43731386343018219 0 0.22816721351006641 -0.42382217308135922 0 0.23431238580128549 -0.45260633093924002 0 0.21140626781342409 -0.46122374827882839 0 0.2061844358166085 -0.43731386343018219 0 0.21140626781342409 -0.46122374827882839 0 0.1958295915806266 -0.45496450832104018 0 0.2061844358166085 -0.43731386343018219 0 0.1995265252191368 -0.47051219141525807 0 0.1958295915806266 -0.45496450832104018 0 0.18247472509388471 -0.47020227486163019 0 0.1995265252191368 -0.47051219141525807 0 0.21140626781342409 -0.46122374827882839 0 0.1958295915806266 -0.45496450832104018 0 0.1958295915806266 -0.45496450832104018 0 0.2061844358166085 -0.43731386343018219 0 0.18103196947325001 -0.44040454972326271 0 0.19189840580791451 -0.42494462472696731 0 0.2061844358166085 -0.43731386343018219 0 0.18103196947325001 -0.44040454972326271 0 0.19189840580791451 -0.42494462472696731 0 0.1954291475964339 -0.41062193775622902 0 0.2113234447447021 -0.41044931469126889 0 0.19189840580791451 -0.42494462472696731 0 0.1954291475964339 -0.41062193775622902 0 0.17958921385261531 -0.41060682458489489 0 0.19189840580791451 -0.42494462472696731 0 0.2113234447447021 -0.41044931469126889 0 0.2061844358166085 -0.43731386343018219 0 0.2113234447447021 -0.41044931469126889 0 0.2061844358166085 -0.43731386343018219 0 0.22816721351006641 -0.42382217308135922 0 0.2113234447447021 -0.41044931469126889 0 0.2061844358166085 -0.43731386343018219 0 0.23431238580128549 -0.45260633093924002 0 0.22816721351006641 -0.42382217308135922 0 0.24845486683426421 -0.43056678600332871 0 0.22816721351006641 -0.42382217308135922 0 0.24845486683426421 -0.43056678600332871 0 0.24730388124056729 -0.40448370284608931 0 0.22816721351006641 -0.42382217308135922 0 0.22802948983690591 -0.39972126622214238 0 0.24730388124056729 -0.40448370284608931 0 0.2113234447447021 -0.41044931469126889 0 0.22816721351006641 -0.42382217308135922 0 0.22802948983690591 -0.39972126622214238 0 0.22802948983690591 -0.39972126622214238 0 0.24730388124056729 -0.40448370284608931 0 0.2380746425401753 -0.37739124482652259 0 0.26194523537769671 -0.38343407302417171 0 0.24730388124056729 -0.40448370284608931 0 0.2380746425401753 -0.37739124482652259 0 0.22802948983690591 -0.39972126622214238 0 0.2380746425401753 -0.37739124482652259 0 0.21646245367279571 -0.38358476595235552 0 0.21646245367279571 -0.38358476595235552 0 0.19890552598050351 -0.3964869870217847 0 0.2025217842010896 -0.37807387373583923 0 0.2113234447447021 -0.41044931469126889 0 0.22802948983690591 -0.39972126622214238 0 0.21646245367279571 -0.38358476595235552 0 0.2113234447447021 -0.41044931469126889 0 0.21646245367279571 -0.38358476595235552 0 0.2113234447447021 -0.41044931469126889 0 0.21646245367279571 -0.38358476595235552 0 0.19890552598050351 -0.3964869870217847 0 0.1954291475964339 -0.41062193775622902 0 0.2113234447447021 -0.41044931469126889 0 0.19890552598050351 -0.3964869870217847 0 0.1954291475964339 -0.41062193775622902 0 0.19890552598050351 -0.3964869870217847 0 0.17958921385261531 -0.41060682458489489 0 0.19890552598050351 -0.3964869870217847 0 0.19000045151593811 -0.3880482826985161 0 0.17958921385261531 -0.41060682458489489 0 0.19890552598050351 -0.3964869870217847 0 0.19000045151593811 -0.3880482826985161 0 0.2025217842010896 -0.37807387373583923 0 0.19083927531350181 -0.37426462870353422 0 0.19000045151593811 -0.3880482826985161 0 0.2025217842010896 -0.37807387373583923 0 0.19083927531350181 -0.37426462870353422 0 0.19000045151593811 -0.3880482826985161 0 0.17814645823198061 -0.38080909944652741 0 0.17814645823198061 -0.38080909944652741 0 0.17958921385261531 -0.41060682458489489 0 0.19000045151593811 -0.3880482826985161 0 0.17814645823198061 -0.38080909944652741 0 0.17958921385261531 -0.41060682458489489 0 0.17814645823198061 -0.38080909944652741 0 0.17073561596382039 -0.39301209499015272 0 0.17958921385261531 -0.41060682458489489 0 0.16300249929152311 -0.40501345282557782 0 0.1662516937484437 -0.37945746017663878 0 0.1548118257048379 -0.39098754083749682 0 0.17073561596382039 -0.39301209499015272 0 0.16300249929152311 -0.40501345282557782 0 0.1662516937484437 -0.37945746017663878 0 0.17073561596382039 -0.39301209499015272 0 0.16300249929152311 -0.40501345282557782 0 0.17958921385261531 -0.41060682458489489 0 0.16300249929152311 -0.40501345282557782 0 0.1662516937484437 -0.37945746017663878 0 0.1662516937484437 -0.37945746017663878 0 0.15122325216971341 -0.38057118911269922 0 0.1548118257048379 -0.39098754083749682 0 0.17814645823198061 -0.38080909944652741 0 0.17073561596382039 -0.39301209499015272 0 0.1662516937484437 -0.37945746017663878 0 0.15622266046030589 -0.36560529067035252 0 0.1662516937484437 -0.37945746017663878 0 0.15122325216971341 -0.38057118911269922 0 0.15122325216971341 -0.38057118911269922 0 0.13969723449876181 -0.39693417632104711 0 0.1548118257048379 -0.39098754083749682 0 0.13913284643621729 -0.36987147755796063 0 0.15122325216971341 -0.38057118911269922 0 0.13969723449876181 -0.39693417632104711 0 0.13913284643621729 -0.36987147755796063 0 0.12672469353237761 -0.38193719477194499 0 0.13969723449876181 -0.39693417632104711 0 0.13913284643621729 -0.36987147755796063 0 0.13969723449876181 -0.39693417632104711 0 0.12672469353237761 -0.38193719477194499 0 0.13969723449876181 -0.39693417632104711 0 0.1219351525082772 -0.40864131998943182 0 0.16300249929152311 -0.40501345282557782 0 0.13969723449876181 -0.39693417632104711 0 0.1524997256598466 -0.41582351463554701 0 0.16300249929152311 -0.40501345282557782 0 0.13969723449876181 -0.39693417632104711 0 0.1548118257048379 -0.39098754083749682 0 0.13969723449876181 -0.39693417632104711 0 0.1524997256598466 -0.41582351463554701 0 0.14026162256130631 -0.42399687508413381 0 0.13969723449876181 -0.39693417632104711 0 0.14026162256130631 -0.42399687508413381 0 0.13969723449876181 -0.39693417632104711 0 0.14026162256130631 -0.42399687508413381 0 0.1219351525082772 -0.40864131998943182 0 0.1272554141007321 -0.42571201066291808 0 0.14026162256130631 -0.42399687508413381 0 0.1219351525082772 -0.40864131998943182 0 0.13018508541287829 -0.43658956786597553 0 0.14026162256130631 -0.42399687508413381 0 0.14082601062385081 -0.45105957384722029 0 0.13018508541287829 -0.43658956786597553 0 0.1272554141007321 -0.42571201066291808 0 0.14026162256130631 -0.42399687508413381 0 0.1524997256598466 -0.41582351463554701 0 0.14026162256130631 -0.42399687508413381 0 0.15975330483460251 -0.43056944547451692 0 0.14026162256130631 -0.42399687508413381 0 0.15975330483460251 -0.43056944547451692 0 0.14082601062385081 -0.45105957384722029 0 0.16300249929152311 -0.40501345282557782 0 0.15975330483460251 -0.43056944547451692 0 0.17958921385261531 -0.41060682458489489 0 0.16300249929152311 -0.40501345282557782 0 0.15975330483460251 -0.43056944547451692 0 0.16300249929152311 -0.40501345282557782 0 0.1524997256598466 -0.41582351463554701 0 0.15975330483460251 -0.43056944547451692 0 0.15975330483460251 -0.43056944547451692 0 0.17958921385261531 -0.41060682458489489 0 0.18103196947325001 -0.44040454972326271 0 0.17958921385261531 -0.41060682458489489 0 0.18103196947325001 -0.44040454972326271 0 0.19189840580791451 -0.42494462472696731 0 0.17958921385261531 -0.41060682458489489 0 0.18103196947325001 -0.44040454972326271 0 0.18103196947325001 -0.44040454972326271 0 0.16491961284223791 -0.45249038001545161 0 0.18247472509388471 -0.47020227486163019 0 0.18103196947325001 -0.44040454972326271 0 0.18247472509388471 -0.47020227486163019 0 0.1958295915806266 -0.45496450832104018 0 0.18103196947325001 -0.44040454972326271 0 0.18247472509388471 -0.47020227486163019 0 0.16491961284223791 -0.45249038001545161 0 0.1605120541856016 -0.47021605617062739 0 0.18247472509388471 -0.47020227486163019 0 0.15975330483460251 -0.43056944547451692 0 0.18103196947325001 -0.44040454972326271 0 0.16491961284223791 -0.45249038001545161 0 0.15975330483460251 -0.43056944547451692 0 0.16491961284223791 -0.45249038001545161 0 0.14082601062385081 -0.45105957384722029 0 0.14026162256130631 -0.42399687508413381 0 0.14082601062385081 -0.45105957384722029 0 0.14082601062385081 -0.45105957384722029 0 0.12543676829432579 -0.44683393452868708 0 0.12531186358948529 -0.45757018679138572 0 0.13018508541287829 -0.43658956786597553 0 0.14082601062385081 -0.45105957384722029 0 0.12543676829432579 -0.44683393452868708 0 0.14082601062385081 -0.45105957384722029 0 0.12842365125323091 -0.46593607888014599 0 0.13328939848609819 -0.47119455711627289 0 0.14082601062385081 -0.45105957384722029 0 0.14139039868639619 -0.47812227261030682 0 0.13328939848609819 -0.47119455711627289 0 0.12842365125323091 -0.46593607888014599 0 0.12531186358948529 -0.45757018679138572 0 0.1232316263288145 -0.46410889533344052 0 0.12842365125323091 -0.46593607888014599 0 0.1245497287119053 -0.47085317529077592 0 0.12311265484265969 -0.46777846846391841 0 0.14082601062385081 -0.45105957384722029 0 0.12842365125323091 -0.46593607888014599 0 0.12531186358948529 -0.45757018679138572 0 0.16491961284223791 -0.45249038001545161 0 0.14082601062385081 -0.45105957384722029 0 0.1605120541856016 -0.47021605617062739 0 0.14082601062385081 -0.45105957384722029 0 0.14139039868639619 -0.47812227261030682 0 0.14082601062385081 -0.45105957384722029 0 0.14139039868639619 -0.47812227261030682 0 0.1605120541856016 -0.47021605617062739 0 0.14139039868639619 -0.47812227261030682 0 0.15939735020609169 -0.48906113630515408 0 0.1605120541856016 -0.47021605617062739 0 0.14139039868639619 -0.47812227261030682 0 0.15939735020609169 -0.48906113630515408 0 0.14139039868639619 -0.47812227261030682 0 0.13328939848609819 -0.47119455711627289 0 0.13520794413867351 -0.47916570768291911 0 0.14139039868639619 -0.47812227261030682 0 0.13520794413867351 -0.47916570768291911 0 0.13309005864575499 -0.48654881223837643 0 0.13328939848609819 -0.47119455711627289 0 0.13520794413867351 -0.47916570768291911 0 0.1282166063692238 -0.47963436787526348 0 0.13520794413867351 -0.47916570768291911 0 0.1282166063692238 -0.47963436787526348 0 0.13309005864575499 -0.48654881223837643 0 0.12842365125323091 -0.46593607888014599 0 0.1275076222339897 -0.47406719287555171 0 0.1245497287119053 -0.47085317529077592 0 0.12842365125323091 -0.46593607888014599 0 0.13328939848609819 -0.47119455711627289 0 0.1275076222339897 -0.47406719287555171 0 0.13328939848609819 -0.47119455711627289 0 0.1282166063692238 -0.47963436787526348 0 0.1275076222339897 -0.47406719287555171 0 0.1282166063692238 -0.47963436787526348 0 0.1275076222339897 -0.47406719287555171 0 0.12271037357175291 -0.47562361121234281 0 0.14139039868639619 -0.47812227261030682 0 0.13309005864575499 -0.48654881223837643 0 0.1417493920694651 -0.49533619053082339 0 0.1325088383252874 -0.49999999999999689 0 0.11946717228548211 -0.4870343347309507 0 0.1325088383252874 -0.49999999999999689 0 0.13309005864575499 -0.48654881223837643 0 0.11946717228548211 -0.4870343347309507 0 0.1282166063692238 -0.47963436787526348 0 0.13309005864575499 -0.48654881223837643 0 0.11946717228548211 -0.4870343347309507 0 0.1325088383252874 -0.49999999999999689 0 0.13309005864575499 -0.48654881223837643 0 0.1417493920694651 -0.49533619053082339 0 0.1325088383252874 -0.49999999999999689 0 0.1417493920694651 -0.49533619053082339 0 0.15495657002553739 -0.5 0 0.14139039868639619 -0.47812227261030682 0 0.14937342774687271 -0.49062989986157102 0 0.15939735020609169 -0.48906113630515408 0 0.14139039868639619 -0.47812227261030682 0 0.1417493920694651 -0.49533619053082339 0 0.14139039868639619 -0.47812227261030682 0 0.1417493920694651 -0.49533619053082339 0 0.14937342774687271 -0.49062989986157102 0 0.1417493920694651 -0.49533619053082339 0 0.14937342774687271 -0.49062989986157102 0 0.15495657002553739 -0.5 0 0.14937342774687271 -0.49062989986157102 0 0.15495657002553739 -0.5 0 0.15939735020609169 -0.48906113630515408 0 0.15939735020609169 -0.48906113630515408 0 0.17467337585270831 -0.48420504396041608 0 0.1774043017257875 -0.50000000000000111 0 0.15939735020609169 -0.48906113630515408 0 0.1774043017257875 -0.50000000000000111 0 0.15495657002553739 -0.5 0 0.15939735020609169 -0.48906113630515408 0 0.1774043017257875 -0.50000000000000111 0 0.15939735020609169 -0.48906113630515408 0 0.1605120541856016 -0.47021605617062739 0 0.17467337585270831 -0.48420504396041608 0 0.1605120541856016 -0.47021605617062739 0 0.17467337585270831 -0.48420504396041608 0 0.18247472509388471 -0.47020227486163019 0 0.18247472509388471 -0.47020227486163019 0 0.1839174807145193 -0.49999999999999789 0 0.17467337585270831 -0.48420504396041608 0 0.18247472509388471 -0.47020227486163019 0 0.1839174807145193 -0.49999999999999789 0 0.17467337585270831 -0.48420504396041608 0 0.1839174807145193 -0.49999999999999789 0 0.1774043017257875 -0.50000000000000111 0 0.065949985054517032 -0.48884997455687013 0 0.080677891680827868 -0.48404188118506331 0 0.084758324792090334 -0.49999999999999989 0 0.065949985054517032 -0.48884997455687013 0 0.084758324792090334 -0.49999999999999989 0 0.055728539092515517 -0.5 0 0.065949985054517032 -0.48884997455687013 0 0.069113753880103546 -0.47032146630200872 0 0.080677891680827868 -0.48404188118506331 0 0.065949985054517032 -0.48884997455687013 0 0.069113753880103546 -0.47032146630200872 0 0.057596711449277201 -0.48334309492942701 0 0.069113753880103546 -0.47032146630200872 0 0.080677891680827868 -0.48404188118506331 0 0.088790870678748121 -0.47481427013272492 0 0.069113753880103546 -0.47032146630200872 0 0.088790870678748121 -0.47481427013272492 0 0.09506323621333454 -0.46277261346061632 0 0.080677891680827868 -0.48404188118506331 0 0.088790870678748121 -0.47481427013272492 0 0.094776523998680279 -0.48622369493371298 0 0.080677891680827868 -0.48404188118506331 0 0.084758324792090334 -0.49999999999999989 0 0.094776523998680279 -0.48622369493371298 0 0.084758324792090334 -0.49999999999999989 0 0.10099043700106421 -0.499999999999999 0 0.094776523998680279 -0.48622369493371298 0 0.084758324792090334 -0.49999999999999989 0 0.094776523998680279 -0.48622369493371298 0 0.10099043700106421 -0.499999999999999 0 0.1064255062456735 -0.47406866946190801 0 0.10099043700106421 -0.499999999999999 0 0.094776523998680279 -0.48622369493371298 0 0.1064255062456735 -0.47406866946190801 0 0.10099043700106421 -0.499999999999999 0 0.11946717228548211 -0.4870343347309507 0 0.1064255062456735 -0.47406866946190801 0 0.1325088383252874 -0.49999999999999689 0 0.1167496376631757 -0.5 0 0.11946717228548211 -0.4870343347309507 0 0.10099043700106421 -0.499999999999999 0 0.1167496376631757 -0.5 0 0.11946717228548211 -0.4870343347309507 0 0.12074084002908721 -0.47045370359981148 0 0.12271037357175291 -0.47562361121234281 0 0.11625567037499381 -0.47238364776222469 0 0.12074084002908721 -0.47045370359981148 0 0.11625567037499381 -0.47238364776222469 0 0.1192823524431306 -0.4663394170250621 0 0.12074084002908721 -0.47045370359981148 0 0.1245497287119053 -0.47085317529077592 0 0.12271037357175291 -0.47562361121234281 0 0.12074084002908721 -0.47045370359981148 0 0.1245497287119053 -0.47085317529077592 0 0.12311265484265969 -0.46777846846391841 0 0.1275076222339897 -0.47406719287555171 0 0.1245497287119053 -0.47085317529077592 0 0.12271037357175291 -0.47562361121234281 0 0.1282166063692238 -0.47963436787526348 0 0.11946717228548211 -0.4870343347309507 0 0.12271037357175291 -0.47562361121234281 0 0.11946717228548211 -0.4870343347309507 0 0.12271037357175291 -0.47562361121234281 0 0.11625567037499381 -0.47238364776222469 0 0.11946717228548211 -0.4870343347309507 0 0.1064255062456735 -0.47406866946190801 0 0.11946717228548211 -0.4870343347309507 0 0.11625567037499381 -0.47238364776222469 0 0.1064255062456735 -0.47406866946190801 0 0.11625567037499381 -0.47238364776222469 0 0.1064255062456735 -0.47406866946190801 0 0.11129693947086181 -0.46795476393154728 0 0.1064255062456735 -0.47406866946190801 0 0.10479472320527 -0.47244738986742602 0 0.1075632658294263 -0.46864028970971422 0 0.1064255062456735 -0.47406866946190801 0 0.1075632658294263 -0.46864028970971422 0 0.11129693947086181 -0.46795476393154728 0 0.088790870678748121 -0.47481427013272492 0 0.094776523998680279 -0.48622369493371298 0 0.10479472320527 -0.47244738986742602 0 0.1064255062456735 -0.47406866946190801 0 0.1075632658294263 -0.46864028970971422 0 0.088790870678748121 -0.47481427013272492 0 0.10479472320527 -0.47244738986742602 0 0.09506323621333454 -0.46277261346061632 0 0.10479472320527 -0.47244738986742602 0 0.1075632658294263 -0.46864028970971422 0 0.1064255062456735 -0.47406866946190801 0 0.10479472320527 -0.47244738986742602 0 0.094776523998680279 -0.48622369493371298 0 0.1064255062456735 -0.47406866946190801 0 0.10479472320527 -0.47244738986742602 0 0.094776523998680279 -0.48622369493371298 0 0.10479472320527 -0.47244738986742602 0 0.10479472320527 -0.47244738986742602 0 0.09506323621333454 -0.46277261346061632 0 0.1060131744550812 -0.45411466011360518 0 0.1075632658294263 -0.46864028970971422 0 0.11260152047704799 -0.44460220652757759 0 0.09506323621333454 -0.46277261346061632 0 0.10011436795704159 -0.45274002486564408 0 0.091519926973447546 -0.44626784630584138 0 0.09506323621333454 -0.46277261346061632 0 0.10386028492466159 -0.46021350167150438 0 0.09506323621333454 -0.46277261346061632 0 0.10386028492466159 -0.46021350167150438 0 0.10011436795704159 -0.45274002486564408 0 0.10386028492466159 -0.46021350167150438 0 0.1060131744550812 -0.45411466011360518 0 0.10011436795704159 -0.45274002486564408 0 0.10386028492466159 -0.46021350167150438 0 0.1060131744550812 -0.45411466011360518 0 0.1075632658294263 -0.46864028970971422 0 0.10479472320527 -0.47244738986742602 0 0.09506323621333454 -0.46277261346061632 0 0.1075632658294263 -0.46864028970971422 0 0.09506323621333454 -0.46277261346061632 0 0.10386028492466159 -0.46021350167150438 0 0.1075632658294263 -0.46864028970971422 0 0.1075632658294263 -0.46864028970971422 0 0.1123560704600764 -0.46204957042440498 0 0.11260152047704799 -0.44460220652757759 0 0.1075632658294263 -0.46864028970971422 0 0.1123560704600764 -0.46204957042440498 0 0.1075632658294263 -0.46864028970971422 0 0.11129693947086181 -0.46795476393154728 0 0.1123560704600764 -0.46204957042440498 0 0.1075632658294263 -0.46864028970971422 0 0.11260152047704799 -0.44460220652757759 0 0.11129693947086181 -0.46795476393154728 0 0.1123560704600764 -0.46204957042440498 0 0.11129693947086181 -0.46795476393154728 0 0.1149697984784732 -0.46556593525158491 0 0.1123560704600764 -0.46204957042440498 0 0.11625567037499381 -0.47238364776222469 0 0.1149697984784732 -0.46556593525158491 0 0.1192823524431306 -0.4663394170250621 0 0.11625567037499381 -0.47238364776222469 0 0.11129693947086181 -0.46795476393154728 0 0.1149697984784732 -0.46556593525158491 0 0.1149697984784732 -0.46556593525158491 0 0.1123560704600764 -0.46204957042440498 0 0.118705430672609 -0.46205297743075813 0 0.1123560704600764 -0.46204957042440498 0 0.11635977570981471 -0.45654396370023359 0 0.118705430672609 -0.46205297743075813 0 0.1123560704600764 -0.46204957042440498 0 0.11635977570981471 -0.45654396370023359 0 0.12531186358948529 -0.45757018679138572 0 0.11635977570981471 -0.45654396370023359 0 0.118705430672609 -0.46205297743075813 0 0.12543676829432579 -0.44683393452868708 0 0.12531186358948529 -0.45757018679138572 0 0.11635977570981471 -0.45654396370023359 0 0.12531186358948529 -0.45757018679138572 0 0.1232316263288145 -0.46410889533344052 0 0.118705430672609 -0.46205297743075813 0 0.1232316263288145 -0.46410889533344052 0 0.12311265484265969 -0.46777846846391841 0 0.1192823524431306 -0.4663394170250621 0 0.12842365125323091 -0.46593607888014599 0 0.1232316263288145 -0.46410889533344052 0 0.12311265484265969 -0.46777846846391841 0 0.12074084002908721 -0.47045370359981148 0 0.12311265484265969 -0.46777846846391841 0 0.1192823524431306 -0.4663394170250621 0 0.1149697984784732 -0.46556593525158491 0 0.1192823524431306 -0.4663394170250621 0 0.118705430672609 -0.46205297743075813 0 0.1232316263288145 -0.46410889533344052 0 0.1192823524431306 -0.4663394170250621 0 0.118705430672609 -0.46205297743075813 0 0.1123560704600764 -0.46204957042440498 0 0.11714561148417681 -0.43534544520691831 0 0.1123560704600764 -0.46204957042440498 0 0.11260152047704799 -0.44460220652757759 0 0.11714561148417681 -0.43534544520691831 0 0.1123560704600764 -0.46204957042440498 0 0.11635977570981471 -0.45654396370023359 0 0.11714561148417681 -0.43534544520691831 0 0.12543676829432579 -0.44683393452868708 0 0.11635977570981471 -0.45654396370023359 0 0.11714561148417681 -0.43534544520691831 0 0.13018508541287829 -0.43658956786597553 0 0.12543676829432579 -0.44683393452868708 0 0.11714561148417681 -0.43534544520691831 0 0.10592643308722841 -0.44437727779358549 0 0.083881602994700072 -0.43088647549478237 0 0.10592643308722841 -0.44437727779358549 0 0.091519926973447546 -0.44626784630584138 0 0.083881602994700072 -0.43088647549478237 0 0.11260152047704799 -0.44460220652757759 0 0.10592643308722841 -0.44437727779358549 0 0.1086116799951807 -0.43095684568344572 0 0.1060131744550812 -0.45411466011360518 0 0.10592643308722841 -0.44437727779358549 0 0.10011436795704159 -0.45274002486564408 0 0.1060131744550812 -0.45411466011360518 0 0.11260152047704799 -0.44460220652757759 0 0.10592643308722841 -0.44437727779358549 0 0.10592643308722841 -0.44437727779358549 0 0.10011436795704159 -0.45274002486564408 0 0.091519926973447546 -0.44626784630584138 0 0.09506323621333454 -0.46277261346061632 0 0.073976492589610171 -0.44180875358221461 0 0.09506323621333454 -0.46277261346061632 0 0.091519926973447546 -0.44626784630584138 0 0.073976492589610171 -0.44180875358221461 0 0.091519926973447546 -0.44626784630584138 0 0.073976492589610171 -0.44180875358221461 0 0.083881602994700072 -0.43088647549478237 0 0.069113753880103546 -0.47032146630200872 0 0.09506323621333454 -0.46277261346061632 0 0.09506323621333454 -0.46277261346061632 0 0.075948319170580939 -0.45709497223106438 0 0.073976492589610171 -0.44180875358221461 0 0.069113753880103546 -0.47032146630200872 0 0.09506323621333454 -0.46277261346061632 0 0.075948319170580939 -0.45709497223106438 0 0.069113753880103546 -0.47032146630200872 0 0.075948319170580939 -0.45709497223106438 0 0.064267892493667544 -0.45245405090636609 0 0.064267892493667544 -0.45245405090636609 0 0.073976492589610171 -0.44180875358221461 0 0.061221704008603092 -0.43412854505433712 0 0.075948319170580939 -0.45709497223106438 0 0.064267892493667544 -0.45245405090636609 0 0.073976492589610171 -0.44180875358221461 0 0.083881602994700072 -0.43088647549478237 0 0.061836772902171017 -0.41739567319598042 0 0.061221704008603092 -0.43412854505433712 0 0.073976492589610171 -0.44180875358221461 0 0.083881602994700072 -0.43088647549478237 0 0.061221704008603092 -0.43412854505433712 0 0.083881602994700072 -0.43088647549478237 0 0.061836772902171017 -0.41739567319598042 0 0.087852613914545186 -0.40334306140395609 0 0.070156507476487037 -0.39917662383738439 0 0.061836772902171017 -0.41739567319598042 0 0.087852613914545186 -0.40334306140395609 0 0.061836772902171017 -0.41739567319598042 0 0.090204007114443943 -0.4177400312392191 0 0.087852613914545186 -0.40334306140395609 0 0.061836772902171017 -0.41739567319598042 0 0.090204007114443943 -0.4177400312392191 0 0.083881602994700072 -0.43088647549478237 0 0.061836772902171017 -0.41739567319598042 0 0.090204007114443943 -0.4177400312392191 0 0.083881602994700072 -0.43088647549478237 0 0.10022705322515101 -0.42809075962971732 0 0.10592643308722841 -0.44437727779358549 0 0.083881602994700072 -0.43088647549478237 0 0.10022705322515101 -0.42809075962971732 0 0.10592643308722841 -0.44437727779358549 0 0.10022705322515101 -0.42809075962971732 0 0.1086116799951807 -0.43095684568344572 0 0.10022705322515101 -0.42809075962971732 0 0.1086116799951807 -0.43095684568344572 0 0.10561771621597441 -0.41891116251106192 0 0.11260152047704799 -0.44460220652757759 0 0.11714561148417681 -0.43534544520691831 0 0.11763977512467 -0.42056412334544119 0 0.11714561148417681 -0.43534544520691831 0 0.1219351525082772 -0.40864131998943182 0 0.11260152047704799 -0.44460220652757759 0 0.11763977512467 -0.42056412334544119 0 0.11260152047704799 -0.44460220652757759 0 0.1086116799951807 -0.43095684568344572 0 0.11763977512467 -0.42056412334544119 0 0.1272554141007321 -0.42571201066291808 0 0.11714561148417681 -0.43534544520691831 0 0.1219351525082772 -0.40864131998943182 0 0.1086116799951807 -0.43095684568344572 0 0.11763977512467 -0.42056412334544119 0 0.10561771621597441 -0.41891116251106192 0 0.13018508541287829 -0.43658956786597553 0 0.1272554141007321 -0.42571201066291808 0 0.11714561148417681 -0.43534544520691831 0 0.1219351525082772 -0.40864131998943182 0 0.11763977512467 -0.42056412334544119 0 0.1226780297722921 -0.39652604016330478 0 0.11763977512467 -0.42056412334544119 0 0.1063857367604352 -0.40565829933023112 0 0.1226780297722921 -0.39652604016330478 0 0.11714561148417681 -0.43534544520691831 0 0.1219351525082772 -0.40864131998943182 0 0.11763977512467 -0.42056412334544119 0 0.11763977512467 -0.42056412334544119 0 0.1226780297722921 -0.39652604016330478 0 0.11763977512467 -0.42056412334544119 0 0.10561771621597441 -0.41891116251106192 0 0.1063857367604352 -0.40565829933023112 0 0.090204007114443943 -0.4177400312392191 0 0.1063857367604352 -0.40565829933023112 0 0.087852613914545186 -0.40334306140395609 0 0.090204007114443943 -0.4177400312392191 0 0.10561771621597441 -0.41891116251106192 0 0.1063857367604352 -0.40565829933023112 0 0.090204007114443943 -0.4177400312392191 0 0.10022705322515101 -0.42809075962971732 0 0.10561771621597441 -0.41891116251106192 0 0.1063857367604352 -0.40565829933023112 0 0.11269819459067421 -0.38831450138448881 0 0.097085641119374302 -0.38571424072610178 0 0.1063857367604352 -0.40565829933023112 0 0.097085641119374302 -0.38571424072610178 0 0.087852613914545186 -0.40334306140395609 0 0.12672469353237761 -0.38193719477194499 0 0.1219351525082772 -0.40864131998943182 0 0.1063857367604352 -0.40565829933023112 0 0.1226780297722921 -0.39652604016330478 0 0.11269819459067421 -0.38831450138448881 0 0.12672469353237761 -0.38193719477194499 0 0.1219351525082772 -0.40864131998943182 0 0.1226780297722921 -0.39652604016330478 0 0.12672469353237761 -0.38193719477194499 0 0.11269819459067421 -0.38831450138448881 0 0.1080928822255358 -0.3703790814713866 0 0.12672469353237761 -0.38193719477194499 0 0.1226780297722921 -0.39652604016330478 0 0.11269819459067421 -0.38831450138448881 0 0.11269819459067421 -0.38831450138448881 0 0.097085641119374302 -0.38571424072610178 0 0.1080928822255358 -0.3703790814713866 0 0.097085641119374302 -0.38571424072610178 0 0.078524092076429908 -0.38558307009035819 0 0.085574671404253372 -0.36606529366265911 0 0.097085641119374302 -0.38571424072610178 0 0.078524092076429908 -0.38558307009035819 0 0.087852613914545186 -0.40334306140395609 0 0.078524092076429908 -0.38558307009035819 0 0.087852613914545186 -0.40334306140395609 0 0.070156507476487037 -0.39917662383738439 0 0.078524092076429908 -0.38558307009035819 0 0.070156507476487037 -0.39917662383738439 0 0.064141871653705745 -0.38905297891460661 0 0.070156507476487037 -0.39917662383738439 0 0.058427186835583247 -0.40050833558202109 0 0.061836772902171017 -0.41739567319598042 0 0.070156507476487037 -0.39917662383738439 0 0.064141871653705745 -0.38905297891460661 0 0.058427186835583247 -0.40050833558202109 0 0.078524092076429908 -0.38558307009035819 0 0.064141871653705745 -0.38905297891460661 0 0.064781398010314309 -0.37536455347105108 0 0.078524092076429908 -0.38558307009035819 0 0.064781398010314309 -0.37536455347105108 0 0.085574671404253372 -0.36606529366265911 0 0.064781398010314309 -0.37536455347105108 0 0.05115882120843647 -0.38571757356542352 0 0.043890455581289831 -0.3709268115488259 0 0.05115882120843647 -0.38571757356542352 0 0.043890455581289831 -0.3709268115488259 0 0.064141871653705745 -0.38905297891460661 0 0.064781398010314309 -0.37536455347105108 0 0.05115882120843647 -0.38571757356542352 0 0.064141871653705745 -0.38905297891460661 0 0.05115882120843647 -0.38571757356542352 0 0.058427186835583247 -0.40050833558202109 0 0.05115882120843647 -0.38571757356542352 0 0.058427186835583247 -0.40050833558202109 0 0.05115882120843647 -0.38571757356542352 0 0.058427186835583247 -0.40050833558202109 0 0.039291666751458072 -0.38953557003537942 0 0.058427186835583247 -0.40050833558202109 0 0.03861507037192409 -0.403184658796582 0 0.039291666751458072 -0.38953557003537942 0 0.039291666751458072 -0.38953557003537942 0 0.030780854092194759 -0.38031894893150719 0 0.043890455581289831 -0.3709268115488259 0 0.05115882120843647 -0.38571757356542352 0 0.039291666751458072 -0.38953557003537942 0 0.043890455581289831 -0.3709268115488259 0 0.030780854092194759 -0.38031894893150719 0 0.043890455581289831 -0.3709268115488259 0 0.030780854092194759 -0.38031894893150719 0 0.0132535835722172 -0.37610527220974688 0 0.01539336784167648 -0.38897364439718468 0 0.039291666751458072 -0.38953557003537942 0 0.030780854092194759 -0.38031894893150719 0 0.01539336784167648 -0.38897364439718468 0 0.030780854092194759 -0.38031894893150719 0 0.0132535835722172 -0.37610527220974688 0 0.022072978528308879 -0.36937310690127451 0 -0.0078283346885702904 -0.37476262999778609 0 -0.0023576536845698339 -0.39611583857600319 0 0.01539336784167648 -0.38897364439718468 0 -0.0078283346885702904 -0.37476262999778609 0 0.01539336784167648 -0.38897364439718468 0 -0.0078283346885702904 -0.37476262999778609 0 0.0132535835722172 -0.37610527220974688 0 0.01539336784167648 -0.38897364439718468 0 -0.0023576536845698339 -0.39611583857600319 0 -0.0081630895937607941 -0.41129335178386173 0 0.01158543002224671 -0.40754374071996963 0 -0.0023576536845698339 -0.39611583857600319 0 0.01539336784167648 -0.38897364439718468 0 0.01158543002224671 -0.40754374071996963 0 0.03861507037192409 -0.403184658796582 0 0.039291666751458072 -0.38953557003537942 0 0.01539336784167648 -0.38897364439718468 0 0.03861507037192409 -0.403184658796582 0 0.01539336784167648 -0.38897364439718468 0 0.026736383496206509 -0.41290648431754168 0 0.01539336784167648 -0.38897364439718468 0 0.026736383496206509 -0.41290648431754168 0 0.01158543002224671 -0.40754374071996963 0 0.03861507037192409 -0.403184658796582 0 0.01539336784167648 -0.38897364439718468 0 0.026736383496206509 -0.41290648431754168 0 0.01158543002224671 -0.40754374071996963 0 0.01747615232015888 -0.42514842909431222 0 0.026736383496206509 -0.41290648431754168 0 0.01747615232015888 -0.42514842909431222 0 0.02768083642208749 -0.42593076319487821 0 0.01158543002224671 -0.40754374071996963 0 0.0026957591361241309 -0.41958824334712869 0 0.01747615232015888 -0.42514842909431222 0 -0.0081630895937607941 -0.41129335178386173 0 0.01158543002224671 -0.40754374071996963 0 0.0026957591361241309 -0.41958824334712869 0 0.0026957591361241309 -0.41958824334712869 0 0.003851027954898749 -0.43172418954792041 0 0.01747615232015888 -0.42514842909431222 0 0.003851027954898749 -0.43172418954792041 0 0.01410030331848921 -0.43483725365991388 0 0.01747615232015888 -0.42514842909431222 0 0.003851027954898749 -0.43172418954792041 0 0.01410030331848921 -0.43483725365991388 0 0.011432193992105429 -0.44462200732167467 0 0.01747615232015888 -0.42514842909431222 0 0.023728282280598981 -0.43798020184644493 0 0.01410030331848921 -0.43483725365991388 0 0.01747615232015888 -0.42514842909431222 0 0.023728282280598981 -0.43798020184644493 0 0.01747615232015888 -0.42514842909431222 0 0.02768083642208749 -0.42593076319487821 0 0.023728282280598981 -0.43798020184644493 0 0.026736383496206509 -0.41290648431754168 0 0.02768083642208749 -0.42593076319487821 0 0.042782527591385587 -0.42768793752121392 0 0.042782527591385587 -0.42768793752121392 0 0.023728282280598981 -0.43798020184644493 0 0.02768083642208749 -0.42593076319487821 0 0.042782527591385587 -0.42768793752121392 0 0.023728282280598981 -0.43798020184644493 0 0.042782527591385587 -0.42768793752121392 0 0.038339333849137569 -0.44224603439757942 0 0.023728282280598981 -0.43798020184644493 0 0.03861507037192409 -0.403184658796582 0 0.026736383496206509 -0.41290648431754168 0 0.042782527591385587 -0.42768793752121392 0 0.03861507037192409 -0.403184658796582 0 0.042782527591385587 -0.42768793752121392 0 0.061836772902171017 -0.41739567319598042 0 0.03861507037192409 -0.403184658796582 0 0.061836772902171017 -0.41739567319598042 0 0.058427186835583247 -0.40050833558202109 0 0.03861507037192409 -0.403184658796582 0 0.061836772902171017 -0.41739567319598042 0 0.042782527591385587 -0.42768793752121392 0 0.061836772902171017 -0.41739567319598042 0 0.061221704008603092 -0.43412854505433712 0 0.042782527591385587 -0.42768793752121392 0 0.061836772902171017 -0.41739567319598042 0 0.042782527591385587 -0.42768793752121392 0 0.061221704008603092 -0.43412854505433712 0 0.052693917870023622 -0.44730825455084611 0 0.064267892493667544 -0.45245405090636609 0 0.061221704008603092 -0.43412854505433712 0 0.052693917870023622 -0.44730825455084611 0 0.069113753880103546 -0.47032146630200872 0 0.064267892493667544 -0.45245405090636609 0 0.052594011880735161 -0.46258963849414558 0 0.064267892493667544 -0.45245405090636609 0 0.052693917870023622 -0.44730825455084611 0 0.052594011880735161 -0.46258963849414558 0 0.033446276913734967 -0.45792526049492271 0 0.024747075647264399 -0.46972246297684461 0 0.043164271546872197 -0.4778703191434 0 0.052693917870023622 -0.44730825455084611 0 0.052594011880735161 -0.46258963849414558 0 0.033446276913734967 -0.45792526049492271 0 0.052594011880735161 -0.46258963849414558 0 0.033446276913734967 -0.45792526049492271 0 0.043164271546872197 -0.4778703191434 0 0.033446276913734967 -0.45792526049492271 0 0.043164271546872197 -0.4778703191434 0 0.042782527591385587 -0.42768793752121392 0 0.052693917870023622 -0.44730825455084611 0 0.038339333849137569 -0.44224603439757942 0 0.033446276913734967 -0.45792526049492271 0 0.038339333849137569 -0.44224603439757942 0 0.023728282280598981 -0.43798020184644493 0 0.052693917870023622 -0.44730825455084611 0 0.033446276913734967 -0.45792526049492271 0 0.038339333849137569 -0.44224603439757942 0 0.023728282280598981 -0.43798020184644493 0 0.011432193992105429 -0.44462200732167467 0 0.01779212199045099 -0.45571080357091009 0 0.033446276913734967 -0.45792526049492271 0 0.023728282280598981 -0.43798020184644493 0 0.033446276913734967 -0.45792526049492271 0 0.023728282280598981 -0.43798020184644493 0 0.01779212199045099 -0.45571080357091009 0 0.023728282280598981 -0.43798020184644493 0 0.011432193992105429 -0.44462200732167467 0 0.01410030331848921 -0.43483725365991388 0 0.023728282280598981 -0.43798020184644493 0 0.011432193992105429 -0.44462200732167467 0 -0.01027783979290609 -0.4450418277695869 0 0.011432193992105429 -0.44462200732167467 0 0.0031349746952128348 -0.45732154608844711 0 -0.01027783979290609 -0.4450418277695869 0 0.003851027954898749 -0.43172418954792041 0 0.011432193992105429 -0.44462200732167467 0 0.011432193992105429 -0.44462200732167467 0 0.0031349746952128348 -0.45732154608844711 0 0.01779212199045099 -0.45571080357091009 0 -0.00094907817261298132 -0.47112804672216879 0 0.0031349746952128348 -0.45732154608844711 0 0.01026392841378935 -0.46669334269712659 0 0.0031349746952128348 -0.45732154608844711 0 0.01026392841378935 -0.46669334269712659 0 0.01779212199045099 -0.45571080357091009 0 0.01026392841378935 -0.46669334269712659 0 0.01779212199045099 -0.45571080357091009 0 0.024747075647264399 -0.46972246297684461 0 0.033446276913734967 -0.45792526049492271 0 0.01779212199045099 -0.45571080357091009 0 0.024747075647264399 -0.46972246297684461 0 0.024747075647264399 -0.46972246297684461 0 0.019392481307258409 -0.48478566889839131 0 0.043164271546872197 -0.4778703191434 0 0.01026392841378935 -0.46669334269712659 0 0.024747075647264399 -0.46972246297684461 0 0.019392481307258409 -0.48478566889839131 0 0.01026392841378935 -0.46669334269712659 0 0.0053352152350804568 -0.4807791696356124 0 0.019392481307258409 -0.48478566889839131 0 -0.0043176495648967151 -0.48070428616945038 0 -0.00094907817261298132 -0.47112804672216879 0 0.0053352152350804568 -0.4807791696356124 0 -0.00094907817261298132 -0.47112804672216879 0 0.01026392841378935 -0.46669334269712659 0 0.0053352152350804568 -0.4807791696356124 0 -0.0023310323066341181 -0.5 0 -0.0043793089323552817 -0.49170101865338262 0 0.019392481307258409 -0.48478566889839131 0 -0.0043793089323552817 -0.49170101865338262 0 0.019392481307258409 -0.48478566889839131 0 -0.0043793089323552817 -0.49170101865338262 0 0.0053352152350804568 -0.4807791696356124 0 0.019392481307258409 -0.48478566889839131 0 -0.0023310323066341181 -0.5 0 0.019392481307258409 -0.48478566889839131 0 0.026698753392940699 -0.5 0 0.019392481307258409 -0.48478566889839131 0 0.026698753392940699 -0.5 0 0.035353585390671842 -0.48974665193930511 0 0.035353585390671842 -0.48974665193930511 0 0.043164271546872197 -0.4778703191434 0 0.052158835315616027 -0.49633061971542908 0 0.026698753392940699 -0.5 0 0.055728539092515517 -0.5 0 0.052158835315616027 -0.49633061971542908 0 0.026698753392940699 -0.5 0 0.035353585390671842 -0.48974665193930511 0 0.052158835315616027 -0.49633061971542908 0 0.019392481307258409 -0.48478566889839131 0 0.035353585390671842 -0.48974665193930511 0 0.043164271546872197 -0.4778703191434 0 0.019392481307258409 -0.48478566889839131 0 0.043164271546872197 -0.4778703191434 0 0.069113753880103546 -0.47032146630200872 0 0.052594011880735161 -0.46258963849414558 0 0.043164271546872197 -0.4778703191434 0 0.069113753880103546 -0.47032146630200872 0 0.043164271546872197 -0.4778703191434 0 0.057596711449277201 -0.48334309492942701 0 0.069113753880103546 -0.47032146630200872 0 0.043164271546872197 -0.4778703191434 0 0.043164271546872197 -0.4778703191434 0 0.057596711449277201 -0.48334309492942701 0 0.052158835315616027 -0.49633061971542908 0 0.065949985054517032 -0.48884997455687013 0 0.057596711449277201 -0.48334309492942701 0 0.052158835315616027 -0.49633061971542908 0 0.043164271546872197 -0.4778703191434 0 0.052158835315616027 -0.49633061971542908 0 0.065949985054517032 -0.48884997455687013 0 0.055728539092515517 -0.5 0 0.052158835315616027 -0.49633061971542908 0 0.091646396761647708 -0.28947790237370968 0 0.07071546022358817 -0.28620470259943642 0 0.079999995207784586 -0.26983589460815821 0 0.091646396761647708 -0.28947790237370968 0 0.072783535289555654 -0.30157633939854622 0 0.07071546022358817 -0.28620470259943642 0 0.091646396761647708 -0.28947790237370968 0 0.087363613427391865 -0.30807629250996549 0 0.072783535289555654 -0.30157633939854622 0 0.072783535289555654 -0.30157633939854622 0 0.073259594084162577 -0.32259772896999273 0 0.056038135353808333 -0.31320409925325249 0 0.087363613427391865 -0.30807629250996549 0 0.072783535289555654 -0.30157633939854622 0 0.073259594084162577 -0.32259772896999273 0 0.072783535289555654 -0.30157633939854622 0 0.07071546022358817 -0.28620470259943642 0 0.04944647540011983 -0.29680206833493911 0 0.07071546022358817 -0.28620470259943642 0 0.079999995207784586 -0.26983589460815821 0 0.059700898458833078 -0.27333130828182889 0 0.06835359365392131 -0.25019388684260668 0 0.079999995207784586 -0.26983589460815821 0 0.08421140423371333 -0.243891226620808 0 0.06835359365392131 -0.25019388684260668 0 0.079999995207784586 -0.26983589460815821 0 0.06835359365392131 -0.25019388684260668 0 0.079999995207784586 -0.26983589460815821 0 0.059700898458833078 -0.27333130828182889 0 0.079999995207784586 -0.26983589460815821 0 0.097662046653794854 -0.25561444261418242 0 0.08421140423371333 -0.243891226620808 0 0.079999995207784586 -0.26983589460815821 0 0.1034904733698796 -0.27103876000237981 0 0.097662046653794854 -0.25561444261418242 0 0.091646396761647708 -0.28947790237370968 0 0.079999995207784586 -0.26983589460815821 0 0.091646396761647708 -0.28947790237370968 0 0.079999995207784586 -0.26983589460815821 0 0.1034904733698796 -0.27103876000237981 0 0.1034904733698796 -0.27103876000237981 0 0.097662046653794854 -0.25561444261418242 0 0.1147239364606354 -0.25215539330366038 0 0.13687529418603939 -0.26162068250561471 0 0.1147239364606354 -0.25215539330366038 0 0.1223190960555403 -0.2394332616338683 0 0.1034904733698796 -0.27103876000237981 0 0.1147239364606354 -0.25215539330366038 0 0.12122917553908071 -0.27280048239714111 0 0.13687529418603939 -0.26162068250561471 0 0.1147239364606354 -0.25215539330366038 0 0.12122917553908071 -0.27280048239714111 0 0.1034904733698796 -0.27103876000237981 0 0.12122917553908071 -0.27280048239714111 0 0.11361649143026541 -0.29050419490534962 0 0.13743968224858391 -0.28868338126870119 0 0.12122917553908071 -0.27280048239714111 0 0.11361649143026541 -0.29050419490534962 0 0.091646396761647708 -0.28947790237370968 0 0.11361649143026541 -0.29050419490534962 0 0.10329279831551071 -0.3091199101392611 0 0.091646396761647708 -0.28947790237370968 0 0.1034904733698796 -0.27103876000237981 0 0.11361649143026541 -0.29050419490534962 0 0.091646396761647708 -0.28947790237370968 0 0.10329279831551071 -0.3091199101392611 0 0.091646396761647708 -0.28947790237370968 0 0.087363613427391865 -0.30807629250996549 0 0.10329279831551071 -0.3091199101392611 0 0.11361649143026541 -0.29050419490534962 0 0.10329279831551071 -0.3091199101392611 0 0.1207194796176513 -0.31206082339016011 0 0.13743968224858391 -0.28868338126870119 0 0.11361649143026541 -0.29050419490534962 0 0.1207194796176513 -0.31206082339016011 0 0.10329279831551071 -0.3091199101392611 0 0.11030782598785099 -0.32334328523235578 0 0.1149391998693738 -0.32876191790481257 0 0.10329279831551071 -0.3091199101392611 0 0.1207194796176513 -0.31206082339016011 0 0.1149391998693738 -0.32876191790481257 0 0.127277047630593 -0.32368123984794023 0 0.1207194796176513 -0.31206082339016011 0 0.1149391998693738 -0.32876191790481257 0 0.1252730154641265 -0.33501756179834041 0 0.127277047630593 -0.32368123984794023 0 0.1149391998693738 -0.32876191790481257 0 0.11030782598785099 -0.32334328523235578 0 0.1149391998693738 -0.32876191790481257 0 0.1071562875265276 -0.34088406714172798 0 0.1252730154641265 -0.33501756179834041 0 0.1149391998693738 -0.32876191790481257 0 0.1203073559828662 -0.34481831064573482 0 0.1149391998693738 -0.32876191790481257 0 0.1071562875265276 -0.34088406714172798 0 0.1203073559828662 -0.34481831064573482 0 0.11030782598785099 -0.32334328523235578 0 0.1071562875265276 -0.34088406714172798 0 0.088168702518997374 -0.33920446067117932 0 0.11030782598785099 -0.32334328523235578 0 0.088168702518997374 -0.33920446067117932 0 0.11030782598785099 -0.32334328523235578 0 0.092685396428672781 -0.32103820683708328 0 0.088168702518997374 -0.33920446067117932 0 0.10329279831551071 -0.3091199101392611 0 0.11030782598785099 -0.32334328523235578 0 0.092685396428672781 -0.32103820683708328 0 0.087363613427391865 -0.30807629250996549 0 0.10329279831551071 -0.3091199101392611 0 0.092685396428672781 -0.32103820683708328 0 0.10329279831551071 -0.3091199101392611 0 0.1149391998693738 -0.32876191790481257 0 0.1245186505824013 -0.36113750934922573 0 0.111761677400382 -0.35565256239397869 0 0.1080928822255358 -0.3703790814713866 0 0.12672469353237761 -0.38193719477194499 0 0.1245186505824013 -0.36113750934922573 0 0.1080928822255358 -0.3703790814713866 0 0.1245186505824013 -0.36113750934922573 0 0.111761677400382 -0.35565256239397869 0 0.1203073559828662 -0.34481831064573482 0 0.1071562875265276 -0.34088406714172798 0 0.111761677400382 -0.35565256239397869 0 0.1203073559828662 -0.34481831064573482 0 0.1071562875265276 -0.34088406714172798 0 0.09828664694928807 -0.35383226801130691 0 0.088168702518997374 -0.33920446067117932 0 0.1071562875265276 -0.34088406714172798 0 0.111761677400382 -0.35565256239397869 0 0.09828664694928807 -0.35383226801130691 0 0.097085641119374302 -0.38571424072610178 0 0.1080928822255358 -0.3703790814713866 0 0.085574671404253372 -0.36606529366265911 0 0.111761677400382 -0.35565256239397869 0 0.09828664694928807 -0.35383226801130691 0 0.1080928822255358 -0.3703790814713866 0 0.09828664694928807 -0.35383226801130691 0 0.1080928822255358 -0.3703790814713866 0 0.085574671404253372 -0.36606529366265911 0 0.085574671404253372 -0.36606529366265911 0 0.066029579050143783 -0.35506563611000291 0 0.088168702518997374 -0.33920446067117932 0 0.09828664694928807 -0.35383226801130691 0 0.085574671404253372 -0.36606529366265911 0 0.088168702518997374 -0.33920446067117932 0 0.066029579050143783 -0.35506563611000291 0 0.088168702518997374 -0.33920446067117932 0 0.064781398010314309 -0.37536455347105108 0 0.085574671404253372 -0.36606529366265911 0 0.066029579050143783 -0.35506563611000291 0 0.066029579050143783 -0.35506563611000291 0 0.088168702518997374 -0.33920446067117932 0 0.073259594084162577 -0.32259772896999273 0 0.066029579050143783 -0.35506563611000291 0 0.073259594084162577 -0.32259772896999273 0 0.048222299164917798 -0.333319266554439 0 0.092685396428672781 -0.32103820683708328 0 0.088168702518997374 -0.33920446067117932 0 0.073259594084162577 -0.32259772896999273 0 0.087363613427391865 -0.30807629250996549 0 0.092685396428672781 -0.32103820683708328 0 0.073259594084162577 -0.32259772896999273 0 0.073259594084162577 -0.32259772896999273 0 0.056038135353808333 -0.31320409925325249 0 0.048222299164917798 -0.333319266554439 0 0.056038135353808333 -0.31320409925325249 0 0.048222299164917798 -0.333319266554439 0 0.036478772830285791 -0.31172509300834528 0 0.048222299164917798 -0.333319266554439 0 0.033610930591278822 -0.35000849021355163 0 0.023331405601267931 -0.32909016887827719 0 0.048222299164917798 -0.333319266554439 0 0.023331405601267931 -0.32909016887827719 0 0.036478772830285791 -0.31172509300834528 0 0.066029579050143783 -0.35506563611000291 0 0.048355778033110031 -0.35315995845717169 0 0.043890455581289831 -0.3709268115488259 0 0.066029579050143783 -0.35506563611000291 0 0.043890455581289831 -0.3709268115488259 0 0.064781398010314309 -0.37536455347105108 0 0.066029579050143783 -0.35506563611000291 0 0.043890455581289831 -0.3709268115488259 0 0.066029579050143783 -0.35506563611000291 0 0.048222299164917798 -0.333319266554439 0 0.048355778033110031 -0.35315995845717169 0 0.048222299164917798 -0.333319266554439 0 0.048355778033110031 -0.35315995845717169 0 0.033610930591278822 -0.35000849021355163 0 0.048355778033110031 -0.35315995845717169 0 0.033610930591278822 -0.35000849021355163 0 0.043890455581289831 -0.3709268115488259 0 0.033610930591278822 -0.35000849021355163 0 0.03286340713970079 -0.36889202113574671 0 0.043890455581289831 -0.3709268115488259 0 0.033610930591278822 -0.35000849021355163 0 0.043890455581289831 -0.3709268115488259 0 0.030780854092194759 -0.38031894893150719 0 0.03286340713970079 -0.36889202113574671 0 0.043890455581289831 -0.3709268115488259 0 0.033610930591278822 -0.35000849021355163 0 0.03286340713970079 -0.36889202113574671 0 0.022072978528308879 -0.36937310690127451 0 0.030780854092194759 -0.38031894893150719 0 0.03286340713970079 -0.36889202113574671 0 0.022072978528308879 -0.36937310690127451 0 0.033610930591278822 -0.35000849021355163 0 0.022072978528308879 -0.36937310690127451 0 0.014393680356963701 -0.35536411395587292 0 0.033610930591278822 -0.35000849021355163 0 0.014393680356963701 -0.35536411395587292 0 0.0105762414372169 -0.3395135522035268 0 -0.00014080085946228561 -0.35082738964002957 0 0.014393680356963701 -0.35536411395587292 0 0.0105762414372169 -0.3395135522035268 0 -0.00014080085946228561 -0.35082738964002957 0 0.014393680356963701 -0.35536411395587292 0 0.0058490520874761691 -0.36709803082098191 0 0.022072978528308879 -0.36937310690127451 0 0.014393680356963701 -0.35536411395587292 0 0.0058490520874761691 -0.36709803082098191 0 0.022072978528308879 -0.36937310690127451 0 0.0058490520874761691 -0.36709803082098191 0 0.0132535835722172 -0.37610527220974688 0 0.022072978528308879 -0.36937310690127451 0 0.0058490520874761691 -0.36709803082098191 0 -0.0078283346885702904 -0.37476262999778609 0 0.0132535835722172 -0.37610527220974688 0 0.0058490520874761691 -0.36709803082098191 0 0.023331405601267931 -0.32909016887827719 0 0.013051880611257029 -0.30817184754300292 0 0.023331405601267931 -0.32909016887827719 0 0.013051880611257029 -0.30817184754300292 0 0.036478772830285791 -0.31172509300834528 0 0.033610930591278822 -0.35000849021355163 0 0.023331405601267931 -0.32909016887827719 0 0.0105762414372169 -0.3395135522035268 0 0.033610930591278822 -0.35000849021355163 0 0.023331405601267931 -0.32909016887827719 0 0.023331405601267931 -0.32909016887827719 0 0.0105762414372169 -0.3395135522035268 0 3.5896068887442723e-05 -0.32803491845883598 0 -0.00014080085946228561 -0.35082738964002957 0 0.0105762414372169 -0.3395135522035268 0 3.5896068887442723e-05 -0.32803491845883598 0 -0.0063780240591087903 -0.31078717533589839 0 3.5896068887442723e-05 -0.32803491845883598 0 0.013051880611257029 -0.30817184754300292 0 0.023331405601267931 -0.32909016887827719 0 3.5896068887442723e-05 -0.32803491845883598 0 0.013051880611257029 -0.30817184754300292 0 0.013051880611257029 -0.30817184754300292 0 0.0027723556212477219 -0.28725352620772771 0 0.0027723556212477219 -0.28725352620772771 0 0.026109415510684009 -0.29202779727133188 0 -0.0017476628817073611 -0.27805551369469472 0 0.0027723556212477219 -0.28725352620772771 0 0.01602201902671789 -0.28191194131808539 0 0.013051880611257029 -0.30817184754300292 0 0.0027723556212477219 -0.28725352620772771 0 0.026109415510684009 -0.29202779727133188 0 0.0027723556212477219 -0.28725352620772771 0 0.026109415510684009 -0.29202779727133188 0 0.01602201902671789 -0.28191194131808539 0 -0.0074917523477661804 -0.29461577546968681 0 0.013051880611257029 -0.30817184754300292 0 0.0027723556212477219 -0.28725352620772771 0 -0.0017476628817073611 -0.27805551369469472 0 0.0027723556212477219 -0.28725352620772771 0 0.026109415510684009 -0.29202779727133188 0 0.01602201902671789 -0.28191194131808539 0 0.036314123194761641 -0.27872041929058161 0 0.013051880611257029 -0.30817184754300292 0 0.026109415510684009 -0.29202779727133188 0 0.036478772830285791 -0.31172509300834528 0 0.026109415510684009 -0.29202779727133188 0 0.036478772830285791 -0.31172509300834528 0 0.04944647540011983 -0.29680206833493911 0 0.026109415510684009 -0.29202779727133188 0 0.04944647540011983 -0.29680206833493911 0 0.036314123194761641 -0.27872041929058161 0 0.026109415510684009 -0.29202779727133188 0 0.04944647540011983 -0.29680206833493911 0 0.04944647540011983 -0.29680206833493911 0 0.059700898458833078 -0.27333130828182889 0 0.036314123194761641 -0.27872041929058161 0 0.07071546022358817 -0.28620470259943642 0 0.04944647540011983 -0.29680206833493911 0 0.059700898458833078 -0.27333130828182889 0 0.072783535289555654 -0.30157633939854622 0 0.04944647540011983 -0.29680206833493911 0 0.056038135353808333 -0.31320409925325249 0 0.036478772830285791 -0.31172509300834528 0 0.04944647540011983 -0.29680206833493911 0 0.072783535289555654 -0.30157633939854622 0 0.056038135353808333 -0.31320409925325249 0 0.04944647540011983 -0.29680206833493911 0 0.06835359365392131 -0.25019388684260668 0 0.044986508142045613 -0.25948109579330381 0 0.047362788675733028 -0.24199119006041811 0 0.06835359365392131 -0.25019388684260668 0 0.059700898458833078 -0.27333130828182889 0 0.044986508142045613 -0.25948109579330381 0 0.06835359365392131 -0.25019388684260668 0 0.044986508142045613 -0.25948109579330381 0 0.059700898458833078 -0.27333130828182889 0 0.036314123194761641 -0.27872041929058161 0 0.044986508142045613 -0.25948109579330381 0 0.036314123194761641 -0.27872041929058161 0 0.044986508142045613 -0.25948109579330381 0 0.02161942263016943 -0.26876830474400021 0 0.044986508142045613 -0.25948109579330381 0 0.02161942263016943 -0.26876830474400021 0 0.044986508142045613 -0.25948109579330381 0 0.029973277209287209 -0.25054958921230208 0 0.02161942263016943 -0.26876830474400021 0 0.044986508142045613 -0.25948109579330381 0 0.029973277209287209 -0.25054958921230208 0 0.047362788675733028 -0.24199119006041811 0 0.029973277209287209 -0.25054958921230208 0 0.015960739131678031 -0.25406337006458851 0 0.02161942263016943 -0.26876830474400021 0 0.01602201902671789 -0.28191194131808539 0 0.036314123194761641 -0.27872041929058161 0 0.02161942263016943 -0.26876830474400021 0 -0.0017476628817073611 -0.27805551369469472 0 0.01602201902671789 -0.28191194131808539 0 0.02161942263016943 -0.26876830474400021 0 -0.0017476628817073611 -0.27805551369469472 0 0.02161942263016943 -0.26876830474400021 0 -0.0017476628817073611 -0.27805551369469472 0 0.02161942263016943 -0.26876830474400021 0 0.0057386521092319797 -0.26220041049146298 0 0.015960739131678031 -0.25406337006458851 0 0.02161942263016943 -0.26876830474400021 0 0.0057386521092319797 -0.26220041049146298 0 0.015960739131678031 -0.25406337006458851 0 0.0057386521092319797 -0.26220041049146298 0 0.0025328853753160741 -0.24958102673793139 0 0.0010854142569982001 -0.23807309260292489 0 0.010575476039053681 -0.22730954243123891 0 0.017210747296828609 -0.24036453645492739 0 0.0010854142569982001 -0.23807309260292489 0 0.0025328853753160741 -0.24958102673793139 0 0.017210747296828609 -0.24036453645492739 0 0.015960739131678031 -0.25406337006458851 0 0.0025328853753160741 -0.24958102673793139 0 0.017210747296828609 -0.24036453645492739 0 -0.0061584899570064598 -0.22962027277065361 0 0.0010854142569982001 -0.23807309260292489 0 0.010575476039053681 -0.22730954243123891 0 -0.0061584899570064598 -0.22962027277065361 0 0.010575476039053681 -0.22730954243123891 0 0.0064165675551885711 -0.21575046092143421 0 -0.0061584899570064598 -0.22962027277065361 0 0.0064165675551885711 -0.21575046092143421 0 0.010575476039053681 -0.22730954243123891 0 0.0064165675551885711 -0.21575046092143421 0 0.021509429760601551 -0.21557394742371069 0 0.010575476039053681 -0.22730954243123891 0 0.0064165675551885711 -0.21575046092143421 0 0.010575476039053681 -0.22730954243123891 0 0.02225812238200572 -0.22838936745028471 0 0.017210747296828609 -0.24036453645492739 0 0.010575476039053681 -0.22730954243123891 0 0.02225812238200572 -0.22838936745028471 0 0.021509429760601551 -0.21557394742371069 0 0.02225812238200572 -0.22838936745028471 0 0.029479073121619459 -0.22118232130399371 0 0.021509429760601551 -0.21557394742371069 0 0.02225812238200572 -0.22838936745028471 0 0.029479073121619459 -0.22118232130399371 0 0.031866256870133697 -0.23515517363185631 0 0.029973277209287209 -0.25054958921230208 0 0.017210747296828609 -0.24036453645492739 0 0.031866256870133697 -0.23515517363185631 0 0.02225812238200572 -0.22838936745028471 0 0.017210747296828609 -0.24036453645492739 0 0.031866256870133697 -0.23515517363185631 0 0.029973277209287209 -0.25054958921230208 0 0.015960739131678031 -0.25406337006458851 0 0.017210747296828609 -0.24036453645492739 0 -0.0015622250741301779 -0.1935745667631632 0 0.01896638504685547 -0.20190848785827681 0 0.0091962193441852118 -0.18107109871456811 0 -0.0015622250741301779 -0.1935745667631632 0 0.0064165675551885711 -0.21575046092143421 0 0.01896638504685547 -0.20190848785827681 0 -0.0015622250741301779 -0.1935745667631632 0 0.0064165675551885711 -0.21575046092143421 0 0.0064165675551885711 -0.21575046092143421 0 0.01896638504685547 -0.20190848785827681 0 0.0064165675551885711 -0.21575046092143421 0 0.021509429760601551 -0.21557394742371069 0 0.01896638504685547 -0.20190848785827681 0 0.029479073121619459 -0.22118232130399371 0 0.021509429760601551 -0.21557394742371069 0 0.033558692489570878 -0.21195100443687931 0 0.021509429760601551 -0.21557394742371069 0 0.029251690937081031 -0.20258635003767089 0 0.033558692489570878 -0.21195100443687931 0 0.021509429760601551 -0.21557394742371069 0 0.01896638504685547 -0.20190848785827681 0 0.029251690937081031 -0.20258635003767089 0 0.01896638504685547 -0.20190848785827681 0 0.031516202538524517 -0.1880665147951214 0 0.0091962193441852118 -0.18107109871456811 0 0.01896638504685547 -0.20190848785827681 0 0.029251690937081031 -0.20258635003767089 0 0.031516202538524517 -0.1880665147951214 0 0.01896638504685547 -0.20190848785827681 0 0.031516202538524517 -0.1880665147951214 0 0.043838458457815248 -0.18986676967386279 0 0.039506267971797952 -0.20154200132731501 0 0.055741541871671067 -0.19352675789948551 0 0.043838458457815248 -0.18986676967386279 0 0.031516202538524517 -0.1880665147951214 0 0.039506267971797952 -0.20154200132731501 0 0.031516202538524517 -0.1880665147951214 0 0.039506267971797952 -0.20154200132731501 0 0.029251690937081031 -0.20258635003767089 0 0.031516202538524517 -0.1880665147951214 0 0.039506267971797952 -0.20154200132731501 0 0.039506267971797952 -0.20154200132731501 0 0.033558692489570878 -0.21195100443687931 0 0.047496333405074677 -0.2150174878595065 0 0.039506267971797952 -0.20154200132731501 0 0.047496333405074677 -0.2150174878595065 0 0.029251690937081031 -0.20258635003767089 0 0.039506267971797952 -0.20154200132731501 0 0.033558692489570878 -0.21195100443687931 0 0.033558692489570878 -0.21195100443687931 0 0.047496333405074677 -0.2150174878595065 0 0.033558692489570878 -0.21195100443687931 0 0.047496333405074677 -0.2150174878595065 0 0.039554961726260877 -0.22474601638733641 0 0.039506267971797952 -0.20154200132731501 0 0.047496333405074677 -0.2150174878595065 0 0.05523956109653505 -0.20714630445374671 0 0.047496333405074677 -0.2150174878595065 0 0.05523956109653505 -0.20714630445374671 0 0.064206587222380762 -0.21869398638814641 0 0.047496333405074677 -0.2150174878595065 0 0.064206587222380762 -0.21869398638814641 0 0.039506267971797952 -0.20154200132731501 0 0.05523956109653505 -0.20714630445374671 0 0.055741541871671067 -0.19352675789948551 0 0.05523956109653505 -0.20714630445374671 0 0.055741541871671067 -0.19352675789948551 0 0.069247075011750078 -0.20695128879428309 0 0.055741541871671067 -0.19352675789948551 0 0.069247075011750078 -0.20695128879428309 0 0.029973277209287209 -0.25054958921230208 0 0.031866256870133697 -0.23515517363185631 0 0.047362788675733028 -0.24199119006041811 0 0.031866256870133697 -0.23515517363185631 0 0.039554961726260877 -0.22474601638733641 0 0.047362788675733028 -0.24199119006041811 0 0.029479073121619459 -0.22118232130399371 0 0.031866256870133697 -0.23515517363185631 0 0.039554961726260877 -0.22474601638733641 0 0.029479073121619459 -0.22118232130399371 0 0.033558692489570878 -0.21195100443687931 0 0.039554961726260877 -0.22474601638733641 0 0.047496333405074677 -0.2150174878595065 0 0.05536207860111314 -0.2282833045590259 0 0.064206587222380762 -0.21869398638814641 0 0.05536207860111314 -0.2282833045590259 0 0.063311866646695691 -0.24149928944984211 0 0.064206587222380762 -0.21869398638814641 0 0.039554961726260877 -0.22474601638733641 0 0.05536207860111314 -0.2282833045590259 0 0.047362788675733028 -0.24199119006041811 0 0.047496333405074677 -0.2150174878595065 0 0.039554961726260877 -0.22474601638733641 0 0.05536207860111314 -0.2282833045590259 0 0.047496333405074677 -0.2150174878595065 0 0.05536207860111314 -0.2282833045590259 0 0.05536207860111314 -0.2282833045590259 0 0.063311866646695691 -0.24149928944984211 0 0.06835359365392131 -0.25019388684260668 0 0.047362788675733028 -0.24199119006041811 0 0.063311866646695691 -0.24149928944984211 0 0.05536207860111314 -0.2282833045590259 0 0.047362788675733028 -0.24199119006041811 0 0.063311866646695691 -0.24149928944984211 0 0.06835359365392131 -0.25019388684260668 0 0.08421140423371333 -0.243891226620808 0 0.06835359365392131 -0.25019388684260668 0 0.063311866646695691 -0.24149928944984211 0 0.063311866646695691 -0.24149928944984211 0 0.074219814037010917 -0.24224782663387789 0 0.081086434463253185 -0.23335707181355411 0 0.06835359365392131 -0.25019388684260668 0 0.063311866646695691 -0.24149928944984211 0 0.074219814037010917 -0.24224782663387789 0 0.06835359365392131 -0.25019388684260668 0 0.074219814037010917 -0.24224782663387789 0 0.08421140423371333 -0.243891226620808 0 0.08421140423371333 -0.243891226620808 0 0.081086434463253185 -0.23335707181355411 0 0.10006921481350529 -0.2375885663990091 0 0.08421140423371333 -0.243891226620808 0 0.10006921481350529 -0.2375885663990091 0 0.074219814037010917 -0.24224782663387789 0 0.08421140423371333 -0.243891226620808 0 0.081086434463253185 -0.23335707181355411 0 0.081086434463253185 -0.23335707181355411 0 0.085851572697872774 -0.2234561975504171 0 0.10006921481350529 -0.2375885663990091 0 0.085851572697872774 -0.2234561975504171 0 0.08275260815182911 -0.2203758196890806 0 0.098293187803831117 -0.21887499219370271 0 0.085851572697872774 -0.2234561975504171 0 0.10006921481350529 -0.2375885663990091 0 0.081086434463253185 -0.23335707181355411 0 0.085851572697872774 -0.2234561975504171 0 0.080916841039686133 -0.2223704849167896 0 0.085851572697872774 -0.2234561975504171 0 0.080916841039686133 -0.2223704849167896 0 0.085851572697872774 -0.2234561975504171 0 0.08275260815182911 -0.2203758196890806 0 0.080916841039686133 -0.2223704849167896 0 0.085851572697872774 -0.2234561975504171 0 0.08275260815182911 -0.2203758196890806 0 0.08275260815182911 -0.2203758196890806 0 0.080916841039686133 -0.2223704849167896 0 0.063311866646695691 -0.24149928944984211 0 0.080916841039686133 -0.2223704849167896 0 0.063311866646695691 -0.24149928944984211 0 0.080916841039686133 -0.2223704849167896 0 0.064206587222380762 -0.21869398638814641 0 0.080916841039686133 -0.2223704849167896 0 0.064206587222380762 -0.21869398638814641 0 0.063311866646695691 -0.24149928944984211 0 0.081086434463253185 -0.23335707181355411 0 0.080916841039686133 -0.2223704849167896 0 0.080916841039686133 -0.2223704849167896 0 0.064206587222380762 -0.21869398638814641 0 0.069247075011750078 -0.20695128879428309 0 0.05523956109653505 -0.20714630445374671 0 0.064206587222380762 -0.21869398638814641 0 0.069247075011750078 -0.20695128879428309 0 0.08275260815182911 -0.2203758196890806 0 0.069247075011750078 -0.20695128879428309 0 0.08275260815182911 -0.2203758196890806 0 0.080916841039686133 -0.2223704849167896 0 0.069247075011750078 -0.20695128879428309 0 0.055741541871671067 -0.19352675789948551 0 0.069247075011750078 -0.20695128879428309 0 0.070887819862862286 -0.1914088031202833 0 0.069247075011750078 -0.20695128879428309 0 0.070887819862862286 -0.1914088031202833 0 0.082832551139222166 -0.19914513048671481 0 0.070887819862862286 -0.1914088031202833 0 0.082832551139222166 -0.19914513048671481 0 0.081821336385090343 -0.18186245165470949 0 0.082832551139222166 -0.19914513048671481 0 0.097084301305641635 -0.20480362112478781 0 0.095405874932467813 -0.18887779734800569 0 0.082832551139222166 -0.19914513048671481 0 0.095405874932467813 -0.18887779734800569 0 0.081821336385090343 -0.18186245165470949 0 0.08275260815182911 -0.2203758196890806 0 0.082832551139222166 -0.19914513048671481 0 0.097084301305641635 -0.20480362112478781 0 0.08275260815182911 -0.2203758196890806 0 0.069247075011750078 -0.20695128879428309 0 0.082832551139222166 -0.19914513048671481 0 0.08275260815182911 -0.2203758196890806 0 0.097084301305641635 -0.20480362112478781 0 0.098293187803831117 -0.21887499219370271 0 0.08275260815182911 -0.2203758196890806 0 0.097084301305641635 -0.20480362112478781 0 0.097084301305641635 -0.20480362112478781 0 0.1146962174531268 -0.21673223195775559 0 0.098293187803831117 -0.21887499219370271 0 0.097084301305641635 -0.20480362112478781 0 0.095405874932467813 -0.18887779734800569 0 0.11141599445945349 -0.1892314225604943 0 0.097084301305641635 -0.20480362112478781 0 0.11141599445945349 -0.1892314225604943 0 0.097084301305641635 -0.20480362112478781 0 0.1210323504124224 -0.2015702574875764 0 0.11141599445945349 -0.1892314225604943 0 0.1210323504124224 -0.2015702574875764 0 0.11141599445945349 -0.1892314225604943 0 0.13523084618428721 -0.18276855246186111 0 0.1210323504124224 -0.2015702574875764 0 0.1146962174531268 -0.21673223195775559 0 0.13583218450739579 -0.2116030352811932 0 0.097084301305641635 -0.20480362112478781 0 0.1210323504124224 -0.2015702574875764 0 0.1146962174531268 -0.21673223195775559 0 0.1110812394106853 -0.22900709064647229 0 0.12594488917549271 -0.2231145762792166 0 0.1363109061234978 -0.23455798374252809 0 0.1110812394106853 -0.22900709064647229 0 0.1223190960555403 -0.2394332616338683 0 0.1363109061234978 -0.23455798374252809 0 0.1110812394106853 -0.22900709064647229 0 0.1363109061234978 -0.23455798374252809 0 0.1146962174531268 -0.21673223195775559 0 0.1110812394106853 -0.22900709064647229 0 0.12594488917549271 -0.2231145762792166 0 0.1110812394106853 -0.22900709064647229 0 0.1223190960555403 -0.2394332616338683 0 0.1084330749156753 -0.23426436422737831 0 0.1147239364606354 -0.25215539330366038 0 0.1223190960555403 -0.2394332616338683 0 0.1084330749156753 -0.23426436422737831 0 0.097662046653794854 -0.25561444261418242 0 0.1147239364606354 -0.25215539330366038 0 0.10006921481350529 -0.2375885663990091 0 0.1147239364606354 -0.25215539330366038 0 0.10006921481350529 -0.2375885663990091 0 0.1084330749156753 -0.23426436422737831 0 0.097662046653794854 -0.25561444261418242 0 0.08421140423371333 -0.243891226620808 0 0.10006921481350529 -0.2375885663990091 0 0.10006921481350529 -0.2375885663990091 0 0.1084330749156753 -0.23426436422737831 0 0.1147239364606354 -0.25215539330366038 0 0.10006921481350529 -0.2375885663990091 0 0.085851572697872774 -0.2234561975504171 0 0.1110812394106853 -0.22900709064647229 0 0.1146962174531268 -0.21673223195775559 0 0.1110812394106853 -0.22900709064647229 0 0.098293187803831117 -0.21887499219370271 0 0.085851572697872774 -0.2234561975504171 0 0.1110812394106853 -0.22900709064647229 0 0.098293187803831117 -0.21887499219370271 0 0.085851572697872774 -0.2234561975504171 0 0.1110812394106853 -0.22900709064647229 0 0.10006921481350529 -0.2375885663990091 0 0.1110812394106853 -0.22900709064647229 0 0.10006921481350529 -0.2375885663990091 0 0.1084330749156753 -0.23426436422737831 0 0.1040552578412003 -0.15282191894301261 0 0.1005807427949069 -0.13366374688330029 0 0.11727103389215909 -0.1361484369810822 0 0.1005807427949069 -0.13366374688330029 0 0.11727103389215909 -0.1361484369810822 0 0.1051359327507693 -0.1227177542784853 0 0.1040552578412003 -0.15282191894301261 0 0.1005807427949069 -0.13366374688330029 0 0.082362828069140165 -0.1319846138898183 0 0.11727103389215909 -0.1361484369810822 0 0.1154331983948798 -0.1174886032934183 0 0.13404900744611239 -0.12609877526333699 0 0.11727103389215909 -0.1361484369810822 0 0.1051359327507693 -0.1227177542784853 0 0.1154331983948798 -0.1174886032934183 0 0.1040552578412003 -0.15282191894301261 0 0.11727103389215909 -0.1361484369810822 0 0.1232701832726428 -0.15427141090171109 0 0.11727103389215909 -0.1361484369810822 0 0.1232701832726428 -0.15427141090171109 0 0.13444198148756639 -0.1449420832838656 0 0.1040552578412003 -0.15282191894301261 0 0.12574768761326591 -0.17365922399620121 0 0.1040552578412003 -0.15282191894301261 0 0.1002282447692335 -0.17458527697826651 0 0.12574768761326591 -0.17365922399620121 0 0.1040552578412003 -0.15282191894301261 0 0.1232701832726428 -0.15427141090171109 0 0.12574768761326591 -0.17365922399620121 0 0.11141599445945349 -0.1892314225604943 0 0.1002282447692335 -0.17458527697826651 0 0.12574768761326591 -0.17365922399620121 0 0.11141599445945349 -0.1892314225604943 0 0.12574768761326591 -0.17365922399620121 0 0.13523084618428721 -0.18276855246186111 0 0.11141599445945349 -0.1892314225604943 0 0.12574768761326591 -0.17365922399620121 0 0.095405874932467813 -0.18887779734800569 0 0.11141599445945349 -0.1892314225604943 0 0.1002282447692335 -0.17458527697826651 0 0.1040552578412003 -0.15282191894301261 0 0.1002282447692335 -0.17458527697826651 0 0.08311303581058499 -0.16124853818171381 0 0.095405874932467813 -0.18887779734800569 0 0.1002282447692335 -0.17458527697826651 0 0.081821336385090343 -0.18186245165470949 0 0.1002282447692335 -0.17458527697826651 0 0.08311303581058499 -0.16124853818171381 0 0.081821336385090343 -0.18186245165470949 0 0.08311303581058499 -0.16124853818171381 0 0.081821336385090343 -0.18186245165470949 0 0.066780308608768796 -0.17493307235476979 0 0.070887819862862286 -0.1914088031202833 0 0.081821336385090343 -0.18186245165470949 0 0.066780308608768796 -0.17493307235476979 0 0.055741541871671067 -0.19352675789948551 0 0.070887819862862286 -0.1914088031202833 0 0.066780308608768796 -0.17493307235476979 0 0.08311303581058499 -0.16124853818171381 0 0.066780308608768796 -0.17493307235476979 0 0.065413952892267702 -0.150678580858252 0 0.065413952892267702 -0.150678580858252 0 0.082362828069140165 -0.1319846138898183 0 0.08311303581058499 -0.16124853818171381 0 0.065413952892267702 -0.150678580858252 0 0.082362828069140165 -0.1319846138898183 0 0.1040552578412003 -0.15282191894301261 0 0.08311303581058499 -0.16124853818171381 0 0.082362828069140165 -0.1319846138898183 0 0.1040552578412003 -0.15282191894301261 0 0.082362828069140165 -0.1319846138898183 0 0.1005807427949069 -0.13366374688330029 0 0.082362828069140165 -0.1319846138898183 0 0.095577299328253623 -0.1174095529111252 0 0.082362828069140165 -0.1319846138898183 0 0.070308403876621794 -0.13238109852993221 0 0.069837722907261313 -0.1199532536492431 0 0.065413952892267702 -0.150678580858252 0 0.082362828069140165 -0.1319846138898183 0 0.070308403876621794 -0.13238109852993221 0 0.082362828069140165 -0.1319846138898183 0 0.069837722907261313 -0.1199532536492431 0 0.065413952892267702 -0.150678580858252 0 0.070308403876621794 -0.13238109852993221 0 0.06118566078759103 -0.13005342953014129 0 0.070308403876621794 -0.13238109852993221 0 0.06118566078759103 -0.13005342953014129 0 0.069837722907261313 -0.1199532536492431 0 0.065413952892267702 -0.150678580858252 0 0.06118566078759103 -0.13005342953014129 0 0.053245925046226952 -0.14076102386291889 0 0.06118566078759103 -0.13005342953014129 0 0.049352038069647858 -0.1295439288512826 0 0.048525659269531229 -0.11802361343548989 0 0.049352038069647858 -0.1295439288512826 0 0.053245925046226952 -0.14076102386291889 0 0.041700188437408421 -0.13409859591225329 0 0.06118566078759103 -0.13005342953014129 0 0.049352038069647858 -0.1295439288512826 0 0.053245925046226952 -0.14076102386291889 0 0.065413952892267702 -0.150678580858252 0 0.053245925046226952 -0.14076102386291889 0 0.048465077715394989 -0.16937254782668559 0 0.053245925046226952 -0.14076102386291889 0 0.040505841312838547 -0.14468304457988079 0 0.048465077715394989 -0.16937254782668559 0 0.040505841312838547 -0.14468304457988079 0 0.03393783807298914 -0.14093707321474161 0 0.030230252537669321 -0.1566253376229266 0 0.040505841312838547 -0.14468304457988079 0 0.030230252537669321 -0.1566253376229266 0 0.040505841312838547 -0.14468304457988079 0 0.03393783807298914 -0.14093707321474161 0 0.041700188437408421 -0.13409859591225329 0 0.03393783807298914 -0.14093707321474161 0 0.041700188437408421 -0.13409859591225329 0 0.024480650806643651 -0.1375151559245551 0 0.041700188437408421 -0.13409859591225329 0 0.042102756807481732 -0.1247829815156095 0 0.031290738437872938 -0.1201921761368282 0 0.049352038069647858 -0.1295439288512826 0 0.041700188437408421 -0.13409859591225329 0 0.042102756807481732 -0.1247829815156095 0 0.053245925046226952 -0.14076102386291889 0 0.040505841312838547 -0.14468304457988079 0 0.041700188437408421 -0.13409859591225329 0 0.055741541871671067 -0.19352675789948551 0 0.066780308608768796 -0.17493307235476979 0 0.048465077715394989 -0.16937254782668559 0 0.043838458457815248 -0.18986676967386279 0 0.055741541871671067 -0.19352675789948551 0 0.048465077715394989 -0.16937254782668559 0 0.066780308608768796 -0.17493307235476979 0 0.065413952892267702 -0.150678580858252 0 0.048465077715394989 -0.16937254782668559 0 0.065413952892267702 -0.150678580858252 0 0.048465077715394989 -0.16937254782668559 0 0.040505841312838547 -0.14468304457988079 0 0.048465077715394989 -0.16937254782668559 0 0.030230252537669321 -0.1566253376229266 0 0.048465077715394989 -0.16937254782668559 0 0.033338822752702377 -0.1705348433046637 0 0.030230252537669321 -0.1566253376229266 0 0.043838458457815248 -0.18986676967386279 0 0.031516202538524517 -0.1880665147951214 0 0.048465077715394989 -0.16937254782668559 0 0.031516202538524517 -0.1880665147951214 0 0.048465077715394989 -0.16937254782668559 0 0.031516202538524517 -0.1880665147951214 0 0.048465077715394989 -0.16937254782668559 0 0.033338822752702377 -0.1705348433046637 0 0.031516202538524517 -0.1880665147951214 0 0.033338822752702377 -0.1705348433046637 0 0.01995466376250531 -0.16856763066597699 0 0.031516202538524517 -0.1880665147951214 0 0.01995466376250531 -0.16856763066597699 0 0.031516202538524517 -0.1880665147951214 0 0.01995466376250531 -0.16856763066597699 0 0.0091962193441852118 -0.18107109871456811 0 0.01995466376250531 -0.16856763066597699 0 0.030230252537669321 -0.1566253376229266 0 0.008868239412810253 -0.14987004135808221 0 0.033338822752702377 -0.1705348433046637 0 0.01995466376250531 -0.16856763066597699 0 0.030230252537669321 -0.1566253376229266 0 0.01995466376250531 -0.16856763066597699 0 0.030230252537669321 -0.1566253376229266 0 -0.0025999653858941639 -0.16131422913783491 0 0.0067086063528142403 -0.16809244781376179 0 0.008868239412810253 -0.14987004135808221 0 0.01995466376250531 -0.16856763066597699 0 0.008868239412810253 -0.14987004135808221 0 0.01995466376250531 -0.16856763066597699 0 0.0067086063528142403 -0.16809244781376179 0 0.008868239412810253 -0.14987004135808221 0 -0.0084927016390539001 -0.17431231470194719 0 0.0067086063528142403 -0.16809244781376179 0 0.0091962193441852118 -0.18107109871456811 0 0.01995466376250531 -0.16856763066597699 0 0.0091962193441852118 -0.18107109871456811 0 0.01995466376250531 -0.16856763066597699 0 0.0067086063528142403 -0.16809244781376179 0 0.0091962193441852118 -0.18107109871456811 0 -0.0015622250741301779 -0.1935745667631632 0 0.0091962193441852118 -0.18107109871456811 0 0.041700188437408421 -0.13409859591225329 0 0.014197789575412951 -0.12328672932727321 0 0.031290738437872938 -0.1201921761368282 0 0.041700188437408421 -0.13409859591225329 0 0.024480650806643651 -0.1375151559245551 0 0.014197789575412951 -0.12328672932727321 0 0.041700188437408421 -0.13409859591225329 0 0.014197789575412951 -0.12328672932727321 0 0.024480650806643651 -0.1375151559245551 0 0.011332123714495041 -0.13546109466502479 0 0.014197789575412951 -0.12328672932727321 0 0.03393783807298914 -0.14093707321474161 0 0.030230252537669321 -0.1566253376229266 0 0.024480650806643651 -0.1375151559245551 0 0.030230252537669321 -0.1566253376229266 0 0.024480650806643651 -0.1375151559245551 0 0.008868239412810253 -0.14987004135808221 0 0.024480650806643651 -0.1375151559245551 0 0.008868239412810253 -0.14987004135808221 0 0.011332123714495041 -0.13546109466502479 0 -0.00221818493688669 -0.13117245205018849 0 -0.0031786103040098569 -0.14705450477373769 0 0.008868239412810253 -0.14987004135808221 0 -0.0031786103040098569 -0.14705450477373769 0 -0.0025999653858941639 -0.16131422913783491 0 0.008868239412810253 -0.14987004135808221 0 -0.00221818493688669 -0.13117245205018849 0 0.008868239412810253 -0.14987004135808221 0 -0.00221818493688669 -0.13117245205018849 0 0.011332123714495041 -0.13546109466502479 0 0.014197789575412951 -0.12328672932727321 0 -0.00221818493688669 -0.13117245205018849 0 0.008868239412810253 -0.14987004135808221 0 0.011332123714495041 -0.13546109466502479 0 -0.013304609286582791 -0.1124748627422944 0 0.014197789575412951 -0.12328672932727321 0 0.014197789575412951 -0.12328672932727321 0 0.020945276257035669 -0.1055296092587116 0 0.0046245275045138064 -0.1076828264142336 0 -0.013304609286582791 -0.1124748627422944 0 0.014197789575412951 -0.12328672932727321 0 0.0046245275045138064 -0.1076828264142336 0 0.014197789575412951 -0.12328672932727321 0 0.020945276257035669 -0.1055296092587116 0 0.031290738437872938 -0.1201921761368282 0 0.020945276257035669 -0.1055296092587116 0 0.031290738437872938 -0.1201921761368282 0 0.040241467446851142 -0.1026788937802551 0 0.020945276257035669 -0.1055296092587116 0 0.028115865357471449 -0.087896533900266943 0 0.040241467446851142 -0.1026788937802551 0 0.020945276257035669 -0.1055296092587116 0 0.0072012692200917657 -0.09144049599341271 0 0.028115865357471449 -0.087896533900266943 0 -0.0070294542012635762 -0.10327829347153671 0 0.0046245275045138064 -0.1076828264142336 0 0.0072012692200917657 -0.09144049599341271 0 0.020945276257035669 -0.1055296092587116 0 0.0046245275045138064 -0.1076828264142336 0 0.0072012692200917657 -0.09144049599341271 0 0.0072012692200917657 -0.09144049599341271 0 0.0054575408194632406 -0.073720759659108445 0 0.018511759797904249 -0.077210571545524964 0 -0.0056293594721457006 -0.082036805430144924 0 0.0072012692200917657 -0.09144049599341271 0 0.0054575408194632406 -0.073720759659108445 0 0.0054575408194632406 -0.073720759659108445 0 0.018354718881549058 -0.065167425818499949 0 0.003426744450576454 -0.054815297075420773 0 -0.0072319765520409062 -0.068818796064575097 0 0.0054575408194632406 -0.073720759659108445 0 0.003426744450576454 -0.054815297075420773 0 0.0054575408194632406 -0.073720759659108445 0 0.018354718881549058 -0.065167425818499949 0 0.018511759797904249 -0.077210571545524964 0 0.018511759797904249 -0.077210571545524964 0 0.028115865357471449 -0.087896533900266943 0 0.033429404710945708 -0.067827642356336801 0 0.018354718881549058 -0.065167425818499949 0 0.018511759797904249 -0.077210571545524964 0 0.033429404710945708 -0.067827642356336801 0 0.0072012692200917657 -0.09144049599341271 0 0.018511759797904249 -0.077210571545524964 0 0.028115865357471449 -0.087896533900266943 0 0.028115865357471449 -0.087896533900266943 0 0.044094628308957058 -0.087651847290754856 0 0.040241467446851142 -0.1026788937802551 0 0.028115865357471449 -0.087896533900266943 0 0.044094628308957058 -0.087651847290754856 0 0.033429404710945708 -0.067827642356336801 0 0.044094628308957058 -0.087651847290754856 0 0.033429404710945708 -0.067827642356336801 0 0.052580487019044733 -0.06457445167855122 0 0.052580487019044733 -0.06457445167855122 0 0.057640786708643768 -0.07951032993234286 0 0.068682665651441266 -0.069637891440837665 0 0.044094628308957058 -0.087651847290754856 0 0.052580487019044733 -0.06457445167855122 0 0.057640786708643768 -0.07951032993234286 0 0.044094628308957058 -0.087651847290754856 0 0.057640786708643768 -0.07951032993234286 0 0.064045145718632748 -0.088800152685812248 0 0.056223070490067702 -0.1049071233711502 0 0.048525659269531229 -0.11802361343548989 0 0.040241467446851142 -0.1026788937802551 0 0.044094628308957058 -0.087651847290754856 0 0.056223070490067702 -0.1049071233711502 0 0.064045145718632748 -0.088800152685812248 0 0.06118566078759103 -0.13005342953014129 0 0.056223070490067702 -0.1049071233711502 0 0.048525659269531229 -0.11802361343548989 0 0.048525659269531229 -0.11802361343548989 0 0.042102756807481732 -0.1247829815156095 0 0.031290738437872938 -0.1201921761368282 0 0.048525659269531229 -0.11802361343548989 0 0.031290738437872938 -0.1201921761368282 0 0.040241467446851142 -0.1026788937802551 0 0.049352038069647858 -0.1295439288512826 0 0.048525659269531229 -0.11802361343548989 0 0.042102756807481732 -0.1247829815156095 0 0.044094628308957058 -0.087651847290754856 0 0.056223070490067702 -0.1049071233711502 0 0.040241467446851142 -0.1026788937802551 0 0.020415517075116841 0.0076517724901667356 0 0.020207185183206099 -0.010785841930981459 0 0.039787151186370009 -0.0039594854922263374 0 0.020207185183206099 -0.010785841930981459 0 0.0047038114401232534 -0.001040937293712483 0 0.0026421611525163911 -0.019923693291100199 0 0.020415517075116841 0.0076517724901667356 0 0.020207185183206099 -0.010785841930981459 0 0.0047038114401232534 -0.001040937293712483 0 0.020207185183206099 -0.010785841930981459 0 0.0026421611525163911 -0.019923693291100199 0 0.018057611388834851 -0.030223969914345401 0 0.0026421611525163911 -0.019923693291100199 0 0.018057611388834851 -0.030223969914345401 0 0.001114662024295677 -0.034644724797188199 0 0.018057611388834851 -0.030223969914345401 0 0.03214982838215158 -0.036550164909951742 0 0.03396684481877061 -0.021771474300517551 0 0.020207185183206099 -0.010785841930981459 0 0.018057611388834851 -0.030223969914345401 0 0.03396684481877061 -0.021771474300517551 0 0.018057611388834851 -0.030223969914345401 0 0.010882918392325341 -0.043546784918672053 0 0.022583515379492949 -0.04946345385366932 0 0.018057611388834851 -0.030223969914345401 0 0.022583515379492949 -0.04946345385366932 0 0.03214982838215158 -0.036550164909951742 0 0.010882918392325341 -0.043546784918672053 0 0.001114662024295677 -0.034644724797188199 0 0.003426744450576454 -0.054815297075420773 0 0.018057611388834851 -0.030223969914345401 0 0.010882918392325341 -0.043546784918672053 0 0.001114662024295677 -0.034644724797188199 0 0.018354718881549058 -0.065167425818499949 0 0.003426744450576454 -0.054815297075420773 0 0.022583515379492949 -0.04946345385366932 0 0.010882918392325341 -0.043546784918672053 0 0.003426744450576454 -0.054815297075420773 0 0.022583515379492949 -0.04946345385366932 0 0.018354718881549058 -0.065167425818499949 0 0.033429404710945708 -0.067827642356336801 0 0.022583515379492949 -0.04946345385366932 0 0.033429404710945708 -0.067827642356336801 0 0.022583515379492949 -0.04946345385366932 0 0.040434423972952403 -0.049093231793294147 0 0.033429404710945708 -0.067827642356336801 0 0.052580487019044733 -0.06457445167855122 0 0.040434423972952403 -0.049093231793294147 0 0.052580487019044733 -0.06457445167855122 0 0.040434423972952403 -0.049093231793294147 0 0.05544232884238081 -0.044875881875575382 0 0.052580487019044733 -0.06457445167855122 0 0.05544232884238081 -0.044875881875575382 0 0.068339170937992105 -0.053424337060716878 0 0.040434423972952403 -0.049093231793294147 0 0.05544232884238081 -0.044875881875575382 0 0.045706746350707102 -0.032198694687932281 0 0.05544232884238081 -0.044875881875575382 0 0.045706746350707102 -0.032198694687932281 0 0.061157621829282929 -0.025231604425866621 0 0.040434423972952403 -0.049093231793294147 0 0.045706746350707102 -0.032198694687932281 0 0.03214982838215158 -0.036550164909951742 0 0.022583515379492949 -0.04946345385366932 0 0.040434423972952403 -0.049093231793294147 0 0.03214982838215158 -0.036550164909951742 0 0.045706746350707102 -0.032198694687932281 0 0.03214982838215158 -0.036550164909951742 0 0.03396684481877061 -0.021771474300517551 0 0.045706746350707102 -0.032198694687932281 0 0.03396684481877061 -0.021771474300517551 0 0.047710046720236987 -0.018368172826886429 0 0.061157621829282929 -0.025231604425866621 0 0.047710046720236987 -0.018368172826886429 0 0.057931869416054299 -0.0086796052278893948 0 0.045706746350707102 -0.032198694687932281 0 0.061157621829282929 -0.025231604425866621 0 0.047710046720236987 -0.018368172826886429 0 0.053306813386582982 0.0056008818424343951 0 0.057931869416054299 -0.0086796052278893948 0 0.039787151186370009 -0.0039594854922263374 0 0.047710046720236987 -0.018368172826886429 0 0.057931869416054299 -0.0086796052278893948 0 0.039787151186370009 -0.0039594854922263374 0 0.053306813386582982 0.0056008818424343951 0 0.065940651683257009 0.0024831850618150888 0 0.057931869416054299 -0.0086796052278893948 0 0.020207185183206099 -0.010785841930981459 0 0.03396684481877061 -0.021771474300517551 0 0.039787151186370009 -0.0039594854922263374 0 0.03396684481877061 -0.021771474300517551 0 0.047710046720236987 -0.018368172826886429 0 0.039787151186370009 -0.0039594854922263374 0 0.07992851590561921 0.0082161523869754144 0 0.085319843464057188 -0.007629982329875426 0 0.074177093133044117 -0.010507922444979889 0 0.07992851590561921 0.0082161523869754144 0 0.085319843464057188 -0.007629982329875426 0 0.09649789417263642 -0.0037639840011086311 0 0.093491186985964037 -0.01472799792969565 0 0.085319843464057188 -0.007629982329875426 0 0.09649789417263642 -0.0037639840011086311 0 0.093491186985964037 -0.01472799792969565 0 0.085319843464057188 -0.007629982329875426 0 0.083581835824733053 -0.016535058395947159 0 0.085319843464057188 -0.007629982329875426 0 0.074177093133044117 -0.010507922444979889 0 0.083581835824733053 -0.016535058395947159 0 0.061157621829282929 -0.025231604425866621 0 0.057931869416054299 -0.0086796052278893948 0 0.074177093133044117 -0.010507922444979889 0 0.065940651683257009 0.0024831850618150888 0 0.057931869416054299 -0.0086796052278893948 0 0.074177093133044117 -0.010507922444979889 0 0.061157621829282929 -0.025231604425866621 0 0.077044537184394621 -0.024954964190685061 0 0.071280738265345076 -0.03811759874850193 0 0.061157621829282929 -0.025231604425866621 0 0.074177093133044117 -0.010507922444979889 0 0.077044537184394621 -0.024954964190685061 0 0.077044537184394621 -0.024954964190685061 0 0.087876518356205288 -0.024854425084499782 0 0.083696735197635597 -0.035074751153617953 0 0.077044537184394621 -0.024954964190685061 0 0.083581835824733053 -0.016535058395947159 0 0.087876518356205288 -0.024854425084499782 0 0.074177093133044117 -0.010507922444979889 0 0.077044537184394621 -0.024954964190685061 0 0.083581835824733053 -0.016535058395947159 0 0.093491186985964037 -0.01472799792969565 0 0.083581835824733053 -0.016535058395947159 0 0.087876518356205288 -0.024854425084499782 0 0.093491186985964037 -0.01472799792969565 0 0.087876518356205288 -0.024854425084499782 0 0.096892307268332672 -0.02266252034611416 0 0.087876518356205288 -0.024854425084499782 0 0.093921030959280866 -0.033511072873054298 0 0.096892307268332672 -0.02266252034611416 0 0.087876518356205288 -0.024854425084499782 0 0.083696735197635597 -0.035074751153617953 0 0.093921030959280866 -0.033511072873054298 0 0.088828324516270887 -0.041348533459236683 0 0.095977453204919599 -0.050472192210401508 0 0.093921030959280866 -0.033511072873054298 0 0.088828324516270887 -0.041348533459236683 0 0.083696735197635597 -0.035074751153617953 0 0.093921030959280866 -0.033511072873054298 0 0.088828324516270887 -0.041348533459236683 0 0.081718078703247488 -0.046336117599872988 0 0.095977453204919599 -0.050472192210401508 0 0.088828324516270887 -0.041348533459236683 0 0.081718078703247488 -0.046336117599872988 0 0.083696735197635597 -0.035074751153617953 0 0.081718078703247488 -0.046336117599872988 0 0.083696735197635597 -0.035074751153617953 0 0.071280738265345076 -0.03811759874850193 0 0.05544232884238081 -0.044875881875575382 0 0.061157621829282929 -0.025231604425866621 0 0.071280738265345076 -0.03811759874850193 0 0.05544232884238081 -0.044875881875575382 0 0.071280738265345076 -0.03811759874850193 0 0.068339170937992105 -0.053424337060716878 0 0.077044537184394621 -0.024954964190685061 0 0.083696735197635597 -0.035074751153617953 0 0.071280738265345076 -0.03811759874850193 0 0.081718078703247488 -0.046336117599872988 0 0.071280738265345076 -0.03811759874850193 0 0.068339170937992105 -0.053424337060716878 0 0.081718078703247488 -0.046336117599872988 0 0.068339170937992105 -0.053424337060716878 0 0.079819511512682115 -0.059373961925762081 0 0.068339170937992105 -0.053424337060716878 0 0.079819511512682115 -0.059373961925762081 0 0.068682665651441266 -0.069637891440837665 0 0.079819511512682115 -0.059373961925762081 0 0.095977453204919599 -0.050472192210401508 0 0.084380189065810102 -0.076999271316981366 0 0.081718078703247488 -0.046336117599872988 0 0.079819511512682115 -0.059373961925762081 0 0.095977453204919599 -0.050472192210401508 0 0.095977453204919599 -0.050472192210401508 0 0.1084893608633546 -0.054995312108922077 0 0.1003826539890946 -0.069656067773248523 0 0.095977453204919599 -0.050472192210401508 0 0.1084893608633546 -0.054995312108922077 0 0.10497618281608501 -0.042163163930312997 0 0.1084893608633546 -0.054995312108922077 0 0.12021542192502691 -0.05736310542253667 0 0.11225492598618329 -0.067700646346746801 0 0.12021542192502691 -0.05736310542253667 0 0.1181844865236701 -0.045884275653046647 0 0.1350650896680477 -0.050994701792827862 0 0.1084893608633546 -0.054995312108922077 0 0.12021542192502691 -0.05736310542253667 0 0.1181844865236701 -0.045884275653046647 0 0.1084893608633546 -0.054995312108922077 0 0.1181844865236701 -0.045884275653046647 0 0.10497618281608501 -0.042163163930312997 0 0.1181844865236701 -0.045884275653046647 0 0.1169603374125384 -0.034526050343312617 0 0.10497618281608501 -0.042163163930312997 0 0.10497618281608501 -0.042163163930312997 0 0.1139069069496291 -0.021464697665753471 0 0.1169603374125384 -0.034526050343312617 0 0.10497618281608501 -0.042163163930312997 0 0.1139069069496291 -0.021464697665753471 0 0.1181844865236701 -0.045884275653046647 0 0.1169603374125384 -0.034526050343312617 0 0.1283586559847627 -0.040725310836502493 0 0.095977453204919599 -0.050472192210401508 0 0.10497618281608501 -0.042163163930312997 0 0.1075747173440291 -0.023945113103821601 0 0.095977453204919599 -0.050472192210401508 0 0.093921030959280866 -0.033511072873054298 0 0.1075747173440291 -0.023945113103821601 0 0.095977453204919599 -0.050472192210401508 0 0.1075747173440291 -0.023945113103821601 0 0.10497618281608501 -0.042163163930312997 0 0.1075747173440291 -0.023945113103821601 0 0.1139069069496291 -0.021464697665753471 0 0.093921030959280866 -0.033511072873054298 0 0.096892307268332672 -0.02266252034611416 0 0.1075747173440291 -0.023945113103821601 0 0.093491186985964037 -0.01472799792969565 0 0.096892307268332672 -0.02266252034611416 0 0.10169828607787421 -0.015923098960230999 0 0.096892307268332672 -0.02266252034611416 0 0.10169828607787421 -0.015923098960230999 0 0.1075747173440291 -0.023945113103821601 0 0.10169828607787421 -0.015923098960230999 0 0.1075747173440291 -0.023945113103821601 0 0.1082483433893755 -0.0084409933366877514 0 0.1169603374125384 -0.034526050343312617 0 0.1213672368215104 -0.025634276355807499 0 0.12969235634276979 -0.031284000123743903 0 0.1169603374125384 -0.034526050343312617 0 0.1213672368215104 -0.025634276355807499 0 0.1139069069496291 -0.021464697665753471 0 0.1213672368215104 -0.025634276355807499 0 0.1139069069496291 -0.021464697665753471 0 0.12490934658110441 -0.01526235729042 0 0.11917198148314 0.002581966002757949 0 0.1075747173440291 -0.023945113103821601 0 0.1139069069496291 -0.021464697665753471 0 0.11917198148314 0.002581966002757949 0 0.1139069069496291 -0.021464697665753471 0 0.1228376310831711 -0.00076623140119310329 0 0.11917198148314 0.002581966002757949 0 0.1075747173440291 -0.023945113103821601 0 0.1082483433893755 -0.0084409933366877514 0 0.1139069069496291 -0.021464697665753471 0 0.12490934658110441 -0.01526235729042 0 0.1228376310831711 -0.00076623140119310329 0 0.1139069069496291 -0.021464697665753471 0 0.1228376310831711 -0.00076623140119310329 0 0.11917198148314 0.002581966002757949 0 0.1075747173440291 -0.023945113103821601 0 0.11917198148314 0.002581966002757949 0 0.1105415625726717 -0.0014271332550589229 0 0.1082483433893755 -0.0084409933366877514 0 0.1078625722471533 0.0022823866337398822 0 0.1105415625726717 -0.0014271332550589229 0 0.1039166904039584 -0.0028966343462391718 0 0.1039166904039584 -0.0028966343462391718 0 0.1082483433893755 -0.0084409933366877514 0 0.10154047648190589 -0.00941290969201335 0 0.1105415625726717 -0.0014271332550589229 0 0.1039166904039584 -0.0028966343462391718 0 0.1082483433893755 -0.0084409933366877514 0 0.10169828607787421 -0.015923098960230999 0 0.1082483433893755 -0.0084409933366877514 0 0.10154047648190589 -0.00941290969201335 0 0.093491186985964037 -0.01472799792969565 0 0.10154047648190589 -0.00941290969201335 0 0.09649789417263642 -0.0037639840011086311 0 0.093491186985964037 -0.01472799792969565 0 0.10169828607787421 -0.015923098960230999 0 0.10154047648190589 -0.00941290969201335 0 0.1039166904039584 -0.0028966343462391718 0 0.10154047648190589 -0.00941290969201335 0 0.09649789417263642 -0.0037639840011086311 0 0.088046088292129038 -0.10430519341125349 0 0.072782924926700548 -0.1035263504235614 0 0.088717560391344957 -0.092993146067331611 0 0.088046088292129038 -0.10430519341125349 0 0.080670658246847674 -0.112136361820053 0 0.072782924926700548 -0.1035263504235614 0 0.088046088292129038 -0.10430519341125349 0 0.088717560391344957 -0.092993146067331611 0 0.100171096126226 -0.096028489315426471 0 0.088046088292129038 -0.10430519341125349 0 0.089116900718008318 -0.11226838151764811 0 0.096817389343646892 -0.1088784313235004 0 0.088046088292129038 -0.10430519341125349 0 0.089116900718008318 -0.11226838151764811 0 0.080670658246847674 -0.112136361820053 0 0.089116900718008318 -0.11226838151764811 0 0.082844213492092533 -0.1195429602861619 0 0.095577299328253623 -0.1174095529111252 0 0.082362828069140165 -0.1319846138898183 0 0.082844213492092533 -0.1195429602861619 0 0.095577299328253623 -0.1174095529111252 0 0.082362828069140165 -0.1319846138898183 0 0.095577299328253623 -0.1174095529111252 0 0.082362828069140165 -0.1319846138898183 0 0.082844213492092533 -0.1195429602861619 0 0.069837722907261313 -0.1199532536492431 0 0.089116900718008318 -0.11226838151764811 0 0.082844213492092533 -0.1195429602861619 0 0.080670658246847674 -0.112136361820053 0 0.080670658246847674 -0.112136361820053 0 0.069837722907261313 -0.1199532536492431 0 0.072782924926700548 -0.1035263504235614 0 0.06118566078759103 -0.13005342953014129 0 0.072782924926700548 -0.1035263504235614 0 0.06118566078759103 -0.13005342953014129 0 0.069837722907261313 -0.1199532536492431 0 0.072782924926700548 -0.1035263504235614 0 0.06118566078759103 -0.13005342953014129 0 0.056223070490067702 -0.1049071233711502 0 0.072782924926700548 -0.1035263504235614 0 0.082844213492092533 -0.1195429602861619 0 0.080670658246847674 -0.112136361820053 0 0.069837722907261313 -0.1199532536492431 0 0.056223070490067702 -0.1049071233711502 0 0.072782924926700548 -0.1035263504235614 0 0.064045145718632748 -0.088800152685812248 0 0.057640786708643768 -0.07951032993234286 0 0.064045145718632748 -0.088800152685812248 0 0.068682665651441266 -0.069637891440837665 0 0.064045145718632748 -0.088800152685812248 0 0.068682665651441266 -0.069637891440837665 0 0.084380189065810102 -0.076999271316981366 0 0.072782924926700548 -0.1035263504235614 0 0.064045145718632748 -0.088800152685812248 0 0.084380189065810102 -0.076999271316981366 0 0.052580487019044733 -0.06457445167855122 0 0.068339170937992105 -0.053424337060716878 0 0.068682665651441266 -0.069637891440837665 0 0.079819511512682115 -0.059373961925762081 0 0.068682665651441266 -0.069637891440837665 0 0.084380189065810102 -0.076999271316981366 0 0.095977453204919599 -0.050472192210401508 0 0.084380189065810102 -0.076999271316981366 0 0.1003826539890946 -0.069656067773248523 0 0.095977453204919599 -0.050472192210401508 0 0.084380189065810102 -0.076999271316981366 0 0.084380189065810102 -0.076999271316981366 0 0.095693843046354268 -0.0841642264331387 0 0.1003826539890946 -0.069656067773248523 0 0.072782924926700548 -0.1035263504235614 0 0.084380189065810102 -0.076999271316981366 0 0.072782924926700548 -0.1035263504235614 0 0.084380189065810102 -0.076999271316981366 0 0.088717560391344957 -0.092993146067331611 0 0.084380189065810102 -0.076999271316981366 0 0.088717560391344957 -0.092993146067331611 0 0.095693843046354268 -0.0841642264331387 0 0.088717560391344957 -0.092993146067331611 0 0.095693843046354268 -0.0841642264331387 0 0.100171096126226 -0.096028489315426471 0 0.095693843046354268 -0.0841642264331387 0 0.1061825878765964 -0.082065358753895937 0 0.100171096126226 -0.096028489315426471 0 0.095693843046354268 -0.0841642264331387 0 0.1061825878765964 -0.082065358753895937 0 0.1003826539890946 -0.069656067773248523 0 0.1061825878765964 -0.082065358753895937 0 0.1152940355071756 -0.093458773729521216 0 0.100171096126226 -0.096028489315426471 0 0.1061825878765964 -0.082065358753895937 0 0.1003826539890946 -0.069656067773248523 0 0.11225492598618329 -0.067700646346746801 0 0.1084893608633546 -0.054995312108922077 0 0.1003826539890946 -0.069656067773248523 0 0.11225492598618329 -0.067700646346746801 0 0.1061825878765964 -0.082065358753895937 0 0.11225492598618329 -0.067700646346746801 0 0.1171317857577618 -0.078667044940758796 0 0.1171317857577618 -0.078667044940758796 0 0.12857779857738699 -0.078718698725873171 0 0.12708324658387871 -0.067240591211139955 0 0.11225492598618329 -0.067700646346746801 0 0.1171317857577618 -0.078667044940758796 0 0.12708324658387871 -0.067240591211139955 0 0.12021542192502691 -0.05736310542253667 0 0.11225492598618329 -0.067700646346746801 0 0.12708324658387871 -0.067240591211139955 0 0.1061825878765964 -0.082065358753895937 0 0.1152940355071756 -0.093458773729521216 0 0.1171317857577618 -0.078667044940758796 0 0.1171317857577618 -0.078667044940758796 0 0.1286838548293292 -0.09135300801218077 0 0.12857779857738699 -0.078718698725873171 0 0.1152940355071756 -0.093458773729521216 0 0.1171317857577618 -0.078667044940758796 0 0.1286838548293292 -0.09135300801218077 0 0.1152940355071756 -0.093458773729521216 0 0.1230450488982011 -0.098166020395255585 0 0.1286838548293292 -0.09135300801218077 0 0.1152940355071756 -0.093458773729521216 0 0.1230450488982011 -0.098166020395255585 0 0.1196469902177196 -0.1061558951397697 0 0.1230450488982011 -0.098166020395255585 0 0.1196469902177196 -0.1061558951397697 0 0.12917406780106669 -0.1036793655145172 0 0.1196469902177196 -0.1061558951397697 0 0.1094725419179296 -0.1044020385603272 0 0.1154331983948798 -0.1174886032934183 0 0.1152940355071756 -0.093458773729521216 0 0.1196469902177196 -0.1061558951397697 0 0.1094725419179296 -0.1044020385603272 0 0.1152940355071756 -0.093458773729521216 0 0.1094725419179296 -0.1044020385603272 0 0.100171096126226 -0.096028489315426471 0 0.1094725419179296 -0.1044020385603272 0 0.096817389343646892 -0.1088784313235004 0 0.100171096126226 -0.096028489315426471 0 0.088046088292129038 -0.10430519341125349 0 0.096817389343646892 -0.1088784313235004 0 0.100171096126226 -0.096028489315426471 0 0.096817389343646892 -0.1088784313235004 0 0.1051359327507693 -0.1227177542784853 0 0.1154331983948798 -0.1174886032934183 0 0.096817389343646892 -0.1088784313235004 0 0.1154331983948798 -0.1174886032934183 0 0.1005807427949069 -0.13366374688330029 0 0.095577299328253623 -0.1174095529111252 0 0.1051359327507693 -0.1227177542784853 0 0.1094725419179296 -0.1044020385603272 0 0.096817389343646892 -0.1088784313235004 0 0.1154331983948798 -0.1174886032934183 0 0.089116900718008318 -0.11226838151764811 0 0.096817389343646892 -0.1088784313235004 0 0.095577299328253623 -0.1174095529111252 0 0.096817389343646892 -0.1088784313235004 0 0.095577299328253623 -0.1174095529111252 0 0.1051359327507693 -0.1227177542784853 0 0.1154331983948798 -0.1174886032934183 0 0.13404900744611239 -0.12609877526333699 0 0.1196469902177196 -0.1061558951397697 0 0.1154331983948798 -0.1174886032934183 0 0.12686113813069899 -0.1114359576666621 0 0.1154331983948798 -0.1174886032934183 0 0.12686113813069899 -0.1114359576666621 0 0.13390982127973511 -0.11942472678041111 0 0.1154331983948798 -0.1174886032934183 0 0.13390982127973511 -0.11942472678041111 0 0.13404900744611239 -0.12609877526333699 0 0.12686113813069899 -0.1114359576666621 0 0.13614161296009411 -0.11043119760519431 0 0.13390982127973511 -0.11942472678041111 0 0.13614161296009411 -0.11043119760519431 0 0.14023431030656019 -0.11642081500581559 0 0.13390982127973511 -0.11942472678041111 0 0.13614161296009411 -0.11043119760519431 0 0.14023431030656019 -0.11642081500581559 0 0.14347338005148061 -0.1082488085161593 0 0.13773130733042549 -0.12113088311922759 0 0.1427320902892944 -0.12257921542734659 0 0.13404900744611239 -0.12609877526333699 0 0.13390982127973511 -0.11942472678041111 0 0.13773130733042549 -0.12113088311922759 0 0.13404900744611239 -0.12609877526333699 0 0.13390982127973511 -0.11942472678041111 0 0.13404900744611239 -0.12609877526333699 0 0.14023431030656019 -0.11642081500581559 0 0.13773130733042549 -0.12113088311922759 0 0.1427320902892944 -0.12257921542734659 0 0.14023431030656019 -0.11642081500581559 0 0.13390982127973511 -0.11942472678041111 0 0.13773130733042549 -0.12113088311922759 0 0.1427320902892944 -0.12257921542734659 0 0.15192118682329561 -0.12273271218809589 0 0.1490682445489844 -0.1279194233146575 0 0.1427320902892944 -0.12257921542734659 0 0.1474293378639818 -0.11515719203513899 0 0.15192118682329561 -0.12273271218809589 0 0.14023431030656019 -0.11642081500581559 0 0.1427320902892944 -0.12257921542734659 0 0.1474293378639818 -0.11515719203513899 0 0.1474293378639818 -0.11515719203513899 0 0.15201290161170181 -0.107226104105896 0 0.14347338005148061 -0.1082488085161593 0 0.14023431030656019 -0.11642081500581559 0 0.1474293378639818 -0.11515719203513899 0 0.14347338005148061 -0.1082488085161593 0 0.1474293378639818 -0.11515719203513899 0 0.15419764536576119 -0.1149677746217292 0 0.15201290161170181 -0.107226104105896 0 0.15419764536576119 -0.1149677746217292 0 0.15201290161170181 -0.107226104105896 0 0.1590985184781393 -0.1107939778183322 0 0.15419764536576119 -0.1149677746217292 0 0.15192118682329561 -0.12273271218809589 0 0.1605262820516872 -0.11892888696118289 0 0.1474293378639818 -0.11515719203513899 0 0.15419764536576119 -0.1149677746217292 0 0.15192118682329561 -0.12273271218809589 0 0.153855148049276 -0.097460838801678593 0 0.15201290161170181 -0.107226104105896 0 0.1462355681673109 -0.099255024001954253 0 0.153855148049276 -0.097460838801678593 0 0.1462355681673109 -0.099255024001954253 0 0.1490737095502995 -0.088653392770718792 0 0.153855148049276 -0.097460838801678593 0 0.15201290161170181 -0.107226104105896 0 0.16008969536972259 -0.10263897543636979 0 0.14347338005148061 -0.1082488085161593 0 0.1462355681673109 -0.099255024001954253 0 0.13800617896953651 -0.1013117005447786 0 0.15201290161170181 -0.107226104105896 0 0.14347338005148061 -0.1082488085161593 0 0.1462355681673109 -0.099255024001954253 0 0.1462355681673109 -0.099255024001954253 0 0.13800617896953651 -0.1013117005447786 0 0.14099209077157121 -0.092629299272494275 0 0.13800617896953651 -0.1013117005447786 0 0.1286838548293292 -0.09135300801218077 0 0.14099209077157121 -0.092629299272494275 0 0.13614161296009411 -0.11043119760519431 0 0.13800617896953651 -0.1013117005447786 0 0.12917406780106669 -0.1036793655145172 0 0.13614161296009411 -0.11043119760519431 0 0.14347338005148061 -0.1082488085161593 0 0.13800617896953651 -0.1013117005447786 0 0.1196469902177196 -0.1061558951397697 0 0.12686113813069899 -0.1114359576666621 0 0.12917406780106669 -0.1036793655145172 0 0.12686113813069899 -0.1114359576666621 0 0.13614161296009411 -0.11043119760519431 0 0.12917406780106669 -0.1036793655145172 0 0.1230450488982011 -0.098166020395255585 0 0.12917406780106669 -0.1036793655145172 0 0.1286838548293292 -0.09135300801218077 0 0.13800617896953651 -0.1013117005447786 0 0.12917406780106669 -0.1036793655145172 0 0.1286838548293292 -0.09135300801218077 0 0.1286838548293292 -0.09135300801218077 0 0.12857779857738699 -0.078718698725873171 0 0.13748132505412469 -0.08396770010957226 0 0.13748132505412469 -0.08396770010957226 0 0.1367334774756912 -0.073531819827653083 0 0.14538989296775451 -0.078880163337803719 0 0.12857779857738699 -0.078718698725873171 0 0.13748132505412469 -0.08396770010957226 0 0.1367334774756912 -0.073531819827653083 0 0.1286838548293292 -0.09135300801218077 0 0.13748132505412469 -0.08396770010957226 0 0.14099209077157121 -0.092629299272494275 0 0.12857779857738699 -0.078718698725873171 0 0.12708324658387871 -0.067240591211139955 0 0.1367334774756912 -0.073531819827653083 0 0.12708324658387871 -0.067240591211139955 0 0.1367334774756912 -0.073531819827653083 0 0.14110971147140131 -0.064913967020147179 0 0.1367334774756912 -0.073531819827653083 0 0.14110971147140131 -0.064913967020147179 0 0.14964674351361701 -0.070099729323911744 0 0.14110971147140131 -0.064913967020147179 0 0.14964674351361701 -0.070099729323911744 0 0.15194569281242609 -0.056105127932606663 0 0.1367334774756912 -0.073531819827653083 0 0.14964674351361701 -0.070099729323911744 0 0.14538989296775451 -0.078880163337803719 0 0.14964674351361701 -0.070099729323911744 0 0.14538989296775451 -0.078880163337803719 0 0.15822082836811369 -0.079982126599630443 0 0.14964674351361701 -0.070099729323911744 0 0.15822082836811369 -0.079982126599630443 0 0.1603896916223197 -0.069044426588861466 0 0.14964674351361701 -0.070099729323911744 0 0.1603896916223197 -0.069044426588861466 0 0.15194569281242609 -0.056105127932606663 0 0.13748132505412469 -0.08396770010957226 0 0.14099209077157121 -0.092629299272494275 0 0.1490737095502995 -0.088653392770718792 0 0.1462355681673109 -0.099255024001954253 0 0.14099209077157121 -0.092629299272494275 0 0.1490737095502995 -0.088653392770718792 0 0.13748132505412469 -0.08396770010957226 0 0.14538989296775451 -0.078880163337803719 0 0.1490737095502995 -0.088653392770718792 0 0.14538989296775451 -0.078880163337803719 0 0.1490737095502995 -0.088653392770718792 0 0.15822082836811369 -0.079982126599630443 0 0.153855148049276 -0.097460838801678593 0 0.1490737095502995 -0.088653392770718792 0 0.1594354292934542 -0.091737259282716963 0 0.1490737095502995 -0.088653392770718792 0 0.1594354292934542 -0.091737259282716963 0 0.15822082836811369 -0.079982126599630443 0 0.1594354292934542 -0.091737259282716963 0 0.15822082836811369 -0.079982126599630443 0 0.1684140015429216 -0.087293140772549349 0 0.15822082836811369 -0.079982126599630443 0 0.1684140015429216 -0.087293140772549349 0 0.1694423915093585 -0.075846288749261012 0 0.1684140015429216 -0.087293140772549349 0 0.1776016981043757 -0.094466756631608209 0 0.16825903644140999 -0.098606158866582916 0 0.1594354292934542 -0.091737259282716963 0 0.1684140015429216 -0.087293140772549349 0 0.16825903644140999 -0.098606158866582916 0 0.15822082836811369 -0.079982126599630443 0 0.1603896916223197 -0.069044426588861466 0 0.1694423915093585 -0.075846288749261012 0 0.1603896916223197 -0.069044426588861466 0 0.1694423915093585 -0.075846288749261012 0 0.17187576892014289 -0.062138750134232333 0 0.17971720707086189 -0.073145871694163048 0 0.17187576892014289 -0.062138750134232333 0 0.19180584502786041 -0.068172372335855602 0 0.17187576892014289 -0.062138750134232333 0 0.19180584502786041 -0.068172372335855602 0 0.1694423915093585 -0.075846288749261012 0 0.17971720707086189 -0.073145871694163048 0 0.17187576892014289 -0.062138750134232333 0 0.1694423915093585 -0.075846288749261012 0 0.17971720707086189 -0.073145871694163048 0 0.17803685153179119 -0.083473416706129469 0 0.17971720707086189 -0.073145871694163048 0 0.18645595400882431 -0.078186102724248294 0 0.19180584502786041 -0.068172372335855602 0 0.1684140015429216 -0.087293140772549349 0 0.17803685153179119 -0.083473416706129469 0 0.1776016981043757 -0.094466756631608209 0 0.1684140015429216 -0.087293140772549349 0 0.1694423915093585 -0.075846288749261012 0 0.17803685153179119 -0.083473416706129469 0 0.17803685153179119 -0.083473416706129469 0 0.18645595400882431 -0.078186102724248294 0 0.18748362772352481 -0.090285751384613616 0 0.17971720707086189 -0.073145871694163048 0 0.17803685153179119 -0.083473416706129469 0 0.18645595400882431 -0.078186102724248294 0 0.17803685153179119 -0.083473416706129469 0 0.18748362772352481 -0.090285751384613616 0 0.1776016981043757 -0.094466756631608209 0 0.1776016981043757 -0.094466756631608209 0 0.1757785255420414 -0.1036637588673371 0 0.18737718651252391 -0.1018645954104864 0 0.18748362772352481 -0.090285751384613616 0 0.1776016981043757 -0.094466756631608209 0 0.18737718651252391 -0.1018645954104864 0 0.1776016981043757 -0.094466756631608209 0 0.1757785255420414 -0.1036637588673371 0 0.16825903644140999 -0.098606158866582916 0 0.1757785255420414 -0.1036637588673371 0 0.17797479248166551 -0.1125427820454727 0 0.16787713834435419 -0.11000951374301229 0 0.1757785255420414 -0.1036637588673371 0 0.18737718651252391 -0.1018645954104864 0 0.17797479248166551 -0.1125427820454727 0 0.18737718651252391 -0.1018645954104864 0 0.18701697985041221 -0.11880972375357141 0 0.17797479248166551 -0.1125427820454727 0 0.18701697985041221 -0.11880972375357141 0 0.173543926957343 -0.1211375462363173 0 0.17990838590865871 -0.12844737664361131 0 0.18701697985041221 -0.11880972375357141 0 0.173543926957343 -0.1211375462363173 0 0.17797479248166551 -0.1125427820454727 0 0.173543926957343 -0.1211375462363173 0 0.17797479248166551 -0.1125427820454727 0 0.16787713834435419 -0.11000951374301229 0 0.173543926957343 -0.1211375462363173 0 0.16787713834435419 -0.11000951374301229 0 0.1605262820516872 -0.11892888696118289 0 0.173543926957343 -0.1211375462363173 0 0.1605262820516872 -0.11892888696118289 0 0.1641162962428066 -0.126449221113482 0 0.15192118682329561 -0.12273271218809589 0 0.1605262820516872 -0.11892888696118289 0 0.1587247560068413 -0.12564209046719049 0 0.1605262820516872 -0.11892888696118289 0 0.1587247560068413 -0.12564209046719049 0 0.1641162962428066 -0.126449221113482 0 0.15419764536576119 -0.1149677746217292 0 0.1605262820516872 -0.11892888696118289 0 0.1590985184781393 -0.1107939778183322 0 0.16787713834435419 -0.11000951374301229 0 0.1605262820516872 -0.11892888696118289 0 0.1590985184781393 -0.1107939778183322 0 0.15201290161170181 -0.107226104105896 0 0.1590985184781393 -0.1107939778183322 0 0.16008969536972259 -0.10263897543636979 0 0.16787713834435419 -0.11000951374301229 0 0.1590985184781393 -0.1107939778183322 0 0.16008969536972259 -0.10263897543636979 0 0.1594354292934542 -0.091737259282716963 0 0.16008969536972259 -0.10263897543636979 0 0.16825903644140999 -0.098606158866582916 0 0.153855148049276 -0.097460838801678593 0 0.1594354292934542 -0.091737259282716963 0 0.16008969536972259 -0.10263897543636979 0 0.1757785255420414 -0.1036637588673371 0 0.16787713834435419 -0.11000951374301229 0 0.16825903644140999 -0.098606158866582916 0 0.16787713834435419 -0.11000951374301229 0 0.16008969536972259 -0.10263897543636979 0 0.16825903644140999 -0.098606158866582916 0 0.1552076984021574 -0.0047487866015848753 0 0.1380919344669613 -0.01469948322874493 0 0.1606476670511833 -0.017066892083396779 0 0.14127976741107601 0.00215554095495248 0 0.1552076984021574 -0.0047487866015848753 0 0.1380919344669613 -0.01469948322874493 0 0.14127976741107601 0.00215554095495248 0 0.1228376310831711 -0.00076623140119310329 0 0.1380919344669613 -0.01469948322874493 0 0.1228376310831711 -0.00076623140119310329 0 0.1380919344669613 -0.01469948322874493 0 0.12490934658110441 -0.01526235729042 0 0.1228376310831711 -0.00076623140119310329 0 0.1380919344669613 -0.01469948322874493 0 0.1380919344669613 -0.01469948322874493 0 0.1415761600091012 -0.038003691908970592 0 0.12969235634276979 -0.031284000123743903 0 0.1213672368215104 -0.025634276355807499 0 0.12490934658110441 -0.01526235729042 0 0.12969235634276979 -0.031284000123743903 0 0.12490934658110441 -0.01526235729042 0 0.1380919344669613 -0.01469948322874493 0 0.12969235634276979 -0.031284000123743903 0 0.1380919344669613 -0.01469948322874493 0 0.15334623785075199 -0.02863273505629621 0 0.1415761600091012 -0.038003691908970592 0 0.1380919344669613 -0.01469948322874493 0 0.15334623785075199 -0.02863273505629621 0 0.1606476670511833 -0.017066892083396779 0 0.1380919344669613 -0.01469948322874493 0 0.15334623785075199 -0.02863273505629621 0 0.15437572795414581 -0.042117567211766717 0 0.1415761600091012 -0.038003691908970592 0 0.15194569281242609 -0.056105127932606663 0 0.15334623785075199 -0.02863273505629621 0 0.15437572795414581 -0.042117567211766717 0 0.1415761600091012 -0.038003691908970592 0 0.1181844865236701 -0.045884275653046647 0 0.1283586559847627 -0.040725310836502493 0 0.1350650896680477 -0.050994701792827862 0 0.1415761600091012 -0.038003691908970592 0 0.12969235634276979 -0.031284000123743903 0 0.1283586559847627 -0.040725310836502493 0 0.1169603374125384 -0.034526050343312617 0 0.12969235634276979 -0.031284000123743903 0 0.1283586559847627 -0.040725310836502493 0 0.1415761600091012 -0.038003691908970592 0 0.1283586559847627 -0.040725310836502493 0 0.1350650896680477 -0.050994701792827862 0 0.1181844865236701 -0.045884275653046647 0 0.1350650896680477 -0.050994701792827862 0 0.12021542192502691 -0.05736310542253667 0 0.12708324658387871 -0.067240591211139955 0 0.1350650896680477 -0.050994701792827862 0 0.12708324658387871 -0.067240591211139955 0 0.14110971147140131 -0.064913967020147179 0 0.1350650896680477 -0.050994701792827862 0 0.14110971147140131 -0.064913967020147179 0 0.15194569281242609 -0.056105127932606663 0 0.1415761600091012 -0.038003691908970592 0 0.1350650896680477 -0.050994701792827862 0 0.15194569281242609 -0.056105127932606663 0 0.1350650896680477 -0.050994701792827862 0 0.15194569281242609 -0.056105127932606663 0 0.14110971147140131 -0.064913967020147179 0 0.1350650896680477 -0.050994701792827862 0 0.15194569281242609 -0.056105127932606663 0 0.15194569281242609 -0.056105127932606663 0 0.16860054123454279 -0.042565986883847551 0 0.15437572795414581 -0.042117567211766717 0 0.15194569281242609 -0.056105127932606663 0 0.16860054123454279 -0.042565986883847551 0 0.1603896916223197 -0.069044426588861466 0 0.15194569281242609 -0.056105127932606663 0 0.17187576892014289 -0.062138750134232333 0 0.15194569281242609 -0.056105127932606663 0 0.165016394264413 -0.053661354003145263 0 0.17187576892014289 -0.062138750134232333 0 0.15194569281242609 -0.056105127932606663 0 0.165016394264413 -0.053661354003145263 0 0.16860054123454279 -0.042565986883847551 0 0.15194569281242609 -0.056105127932606663 0 0.17187576892014289 -0.062138750134232333 0 0.165016394264413 -0.053661354003145263 0 0.17187576892014289 -0.062138750134232333 0 0.18345715790010181 -0.056135992415964377 0 0.165016394264413 -0.053661354003145263 0 0.18345715790010181 -0.056135992415964377 0 0.16860054123454279 -0.042565986883847551 0 0.17187576892014289 -0.062138750134232333 0 0.18345715790010181 -0.056135992415964377 0 0.19180584502786041 -0.068172372335855602 0 0.18345715790010181 -0.056135992415964377 0 0.17385144243116649 -0.043269821226828903 0 0.18595588634396351 -0.043176695624854357 0 0.18345715790010181 -0.056135992415964377 0 0.17385144243116649 -0.043269821226828903 0 0.16860054123454279 -0.042565986883847551 0 0.18345715790010181 -0.056135992415964377 0 0.16860054123454279 -0.042565986883847551 0 0.18595588634396351 -0.043176695624854357 0 0.1782733089797521 -0.034702753096601993 0 0.1941468740000297 -0.021798736782002521 0 0.17385144243116649 -0.043269821226828903 0 0.18595588634396351 -0.043176695624854357 0 0.1782733089797521 -0.034702753096601993 0 0.17385144243116649 -0.043269821226828903 0 0.1782733089797521 -0.034702753096601993 0 0.16860054123454279 -0.042565986883847551 0 0.1782733089797521 -0.034702753096601993 0 0.16860054123454279 -0.042565986883847551 0 0.17385144243116649 -0.043269821226828903 0 0.1782733089797521 -0.034702753096601993 0 0.1782733089797521 -0.034702753096601993 0 0.16860054123454279 -0.042565986883847551 0 0.1670526359884773 -0.02836254214418232 0 0.15334623785075199 -0.02863273505629621 0 0.16860054123454279 -0.042565986883847551 0 0.1670526359884773 -0.02836254214418232 0 0.15334623785075199 -0.02863273505629621 0 0.15437572795414581 -0.042117567211766717 0 0.16860054123454279 -0.042565986883847551 0 0.15334623785075199 -0.02863273505629621 0 0.16860054123454279 -0.042565986883847551 0 0.15334623785075199 -0.02863273505629621 0 0.1606476670511833 -0.017066892083396779 0 0.1670526359884773 -0.02836254214418232 0 0.1606476670511833 -0.017066892083396779 0 0.1670526359884773 -0.02836254214418232 0 0.1743954248261565 -0.018844343600769399 0 0.1782733089797521 -0.034702753096601993 0 0.1743954248261565 -0.018844343600769399 0 0.1918659379284415 -0.0083679514935210662 0 0.1782733089797521 -0.034702753096601993 0 0.1670526359884773 -0.02836254214418232 0 0.1743954248261565 -0.018844343600769399 0 0.1782733089797521 -0.034702753096601993 0 0.1918659379284415 -0.0083679514935210662 0 0.1782733089797521 -0.034702753096601993 0 0.1941468740000297 -0.021798736782002521 0 0.1743954248261565 -0.018844343600769399 0 0.17983697574181159 -0.0080573062328258595 0 0.1918659379284415 -0.0083679514935210662 0 0.1743954248261565 -0.018844343600769399 0 0.17983697574181159 -0.0080573062328258595 0 0.17056947168728639 -0.0076341498549102596 0 0.17983697574181159 -0.0080573062328258595 0 0.18580903226614379 -0.0011502469314075439 0 0.17786282304025339 -0.001583287003114023 0 0.17983697574181159 -0.0080573062328258595 0 0.18580903226614379 -0.0011502469314075439 0 0.1918659379284415 -0.0083679514935210662 0 0.17983697574181159 -0.0080573062328258595 0 0.17786282304025339 -0.001583287003114023 0 0.17056947168728639 -0.0076341498549102596 0 0.17227434920368959 0.00081991249798677823 0 0.17786282304025339 -0.001583287003114023 0 0.17056947168728639 -0.0076341498549102596 0 0.17227434920368959 0.00081991249798677823 0 0.16550177429739321 0.001625335581948511 0 0.17056947168728639 -0.0076341498549102596 0 0.1606476670511833 -0.017066892083396779 0 0.1743954248261565 -0.018844343600769399 0 0.17056947168728639 -0.0076341498549102596 0 0.1552076984021574 -0.0047487866015848753 0 0.1606476670511833 -0.017066892083396779 0 0.17056947168728639 -0.0076341498549102596 0 0.15830422717032419 0.0026668804518291322 0 0.16550177429739321 0.001625335581948511 0 0.1552076984021574 -0.0047487866015848753 0 0.16550177429739321 0.001625335581948511 0 0.1552076984021574 -0.0047487866015848753 0 0.17056947168728639 -0.0076341498549102596 0 0.21653748859829491 -0.0035968485671754561 0 0.20239897911060981 -0.0049616950454924097 0 0.1941468740000297 -0.021798736782002521 0 0.21653748859829491 -0.0035968485671754561 0 0.1941468740000297 -0.021798736782002521 0 0.20955206102217341 -0.019021580532265901 0 0.21653748859829491 -0.0035968485671754561 0 0.20955206102217341 -0.019021580532265901 0 0.22864161374710179 -0.024239001361894639 0 0.21653748859829491 -0.0035968485671754561 0 0.1941468740000297 -0.021798736782002521 0 0.20938161325362409 0.0025060029461209908 0 0.21653748859829491 -0.0035968485671754561 0 0.20239897911060981 -0.0049616950454924097 0 0.19981118715584381 0.0070254328827108366 0 0.20239897911060981 -0.0049616950454924097 0 0.1918659379284415 -0.0083679514935210662 0 0.19981118715584381 0.0070254328827108366 0 0.1918659379284415 -0.0083679514935210662 0 0.20239897911060981 -0.0049616950454924097 0 0.1918659379284415 -0.0083679514935210662 0 0.1941468740000297 -0.021798736782002521 0 0.1894192936343001 0.0060385698470956234 0 0.18580903226614379 -0.0011502469314075439 0 0.1918659379284415 -0.0083679514935210662 0 0.1894192936343001 0.0060385698470956234 0 0.1918659379284415 -0.0083679514935210662 0 0.1918659379284415 -0.0083679514935210662 0 0.1941468740000297 -0.021798736782002521 0 0.1782733089797521 -0.034702753096601993 0 0.1918659379284415 -0.0083679514935210662 0 0.1941468740000297 -0.021798736782002521 0 0.1941468740000297 -0.021798736782002521 0 0.2031559883210855 -0.029985938475911671 0 0.20955206102217341 -0.019021580532265901 0 0.20955206102217341 -0.019021580532265901 0 0.21066165658577479 -0.033085676709690801 0 0.22864161374710179 -0.024239001361894639 0 0.2031559883210855 -0.029985938475911671 0 0.20955206102217341 -0.019021580532265901 0 0.21066165658577479 -0.033085676709690801 0 0.21864271396698939 -0.038649087319523719 0 0.21066165658577479 -0.033085676709690801 0 0.21034122995680221 -0.050048420551560682 0 0.21066165658577479 -0.033085676709690801 0 0.1982633616763636 -0.046037759879686967 0 0.21034122995680221 -0.050048420551560682 0 0.2031559883210855 -0.029985938475911671 0 0.21066165658577479 -0.033085676709690801 0 0.1982633616763636 -0.046037759879686967 0 0.21864271396698939 -0.038649087319523719 0 0.21034122995680221 -0.050048420551560682 0 0.21819242210762169 -0.050823402618315167 0 0.1941468740000297 -0.021798736782002521 0 0.2031559883210855 -0.029985938475911671 0 0.1982633616763636 -0.046037759879686967 0 0.18595588634396351 -0.043176695624854357 0 0.1941468740000297 -0.021798736782002521 0 0.1982633616763636 -0.046037759879686967 0 0.1941468740000297 -0.021798736782002521 0 0.1982633616763636 -0.046037759879686967 0 0.1982633616763636 -0.046037759879686967 0 0.19180584502786041 -0.068172372335855602 0 0.20237984935269879 -0.070276782977371152 0 0.1982633616763636 -0.046037759879686967 0 0.20237984935269879 -0.070276782977371152 0 0.18345715790010181 -0.056135992415964377 0 0.1982633616763636 -0.046037759879686967 0 0.19180584502786041 -0.068172372335855602 0 0.18345715790010181 -0.056135992415964377 0 0.18595588634396351 -0.043176695624854357 0 0.1982633616763636 -0.046037759879686967 0 0.21034122995680221 -0.050048420551560682 0 0.21390737605136481 -0.061417813804776289 0 0.20237984935269879 -0.070276782977371152 0 0.1982633616763636 -0.046037759879686967 0 0.21034122995680221 -0.050048420551560682 0 0.20237984935269879 -0.070276782977371152 0 0.21034122995680221 -0.050048420551560682 0 0.21819242210762169 -0.050823402618315167 0 0.21390737605136481 -0.061417813804776289 0 0.2255736282180465 -0.056882305063223393 0 0.23627526009844421 -0.049694667024589079 0 0.23165324526163639 -0.065502610206523884 0 0.21390737605136481 -0.061417813804776289 0 0.2255736282180465 -0.056882305063223393 0 0.2221192681341374 -0.068345353637844553 0 0.21819242210762169 -0.050823402618315167 0 0.21390737605136481 -0.061417813804776289 0 0.2255736282180465 -0.056882305063223393 0 0.21819242210762169 -0.050823402618315167 0 0.2255736282180465 -0.056882305063223393 0 0.22546512762764079 -0.044057692677509197 0 0.2255736282180465 -0.056882305063223393 0 0.23627526009844421 -0.049694667024589079 0 0.22546512762764079 -0.044057692677509197 0 0.24617004458672351 -0.058202332164817121 0 0.23627526009844421 -0.049694667024589079 0 0.24390890644978661 -0.075150332687283522 0 0.23627526009844421 -0.049694667024589079 0 0.24390890644978661 -0.075150332687283522 0 0.25164978009717781 -0.053061021673298493 0 0.24617004458672351 -0.058202332164817121 0 0.24422464309495209 -0.046986837608536558 0 0.24617004458672351 -0.058202332164817121 0 0.24422464309495209 -0.046986837608536558 0 0.23627526009844421 -0.049694667024589079 0 0.25164978009717781 -0.053061021673298493 0 0.2539732262079259 -0.044675773385505282 0 0.24422464309495209 -0.046986837608536558 0 0.24422464309495209 -0.046986837608536558 0 0.23627526009844421 -0.049694667024589079 0 0.24524507923365879 -0.0330622213940093 0 0.25845033672230949 -0.02738613623275089 0 0.24422464309495209 -0.046986837608536558 0 0.24524507923365879 -0.0330622213940093 0 0.23627526009844421 -0.049694667024589079 0 0.24524507923365879 -0.0330622213940093 0 0.22864161374710179 -0.024239001361894639 0 0.21864271396698939 -0.038649087319523719 0 0.21066165658577479 -0.033085676709690801 0 0.22864161374710179 -0.024239001361894639 0 0.23627526009844421 -0.049694667024589079 0 0.22864161374710179 -0.024239001361894639 0 0.21864271396698939 -0.038649087319523719 0 0.22546512762764079 -0.044057692677509197 0 0.22864161374710179 -0.024239001361894639 0 0.23627526009844421 -0.049694667024589079 0 0.22546512762764079 -0.044057692677509197 0 0.22864161374710179 -0.024239001361894639 0 0.21864271396698939 -0.038649087319523719 0 0.21819242210762169 -0.050823402618315167 0 0.22546512762764079 -0.044057692677509197 0 0.22864161374710179 -0.024239001361894639 0 0.24437070500465241 -0.019757014484825589 0 0.23246643938152739 -0.0092251246746631842 0 0.24524507923365879 -0.0330622213940093 0 0.22864161374710179 -0.024239001361894639 0 0.24437070500465241 -0.019757014484825589 0 0.25013504981522988 -0.025019616072594848 0 0.24524507923365879 -0.0330622213940093 0 0.24437070500465241 -0.019757014484825589 0 0.25247407830029878 -0.019873092178793648 0 0.25006914023697918 -0.01208141302270524 0 0.24437070500465241 -0.019757014484825589 0 0.25013504981522988 -0.025019616072594848 0 0.25247407830029878 -0.019873092178793648 0 0.24437070500465241 -0.019757014484825589 0 0.24437070500465241 -0.019757014484825589 0 0.242989310538931 -0.0092135161021761666 0 0.23246643938152739 -0.0092251246746631842 0 0.25006914023697918 -0.01208141302270524 0 0.242989310538931 -0.0092135161021761666 0 0.2479891295484222 -0.0022684572774312019 0 0.25006914023697918 -0.01208141302270524 0 0.24437070500465241 -0.019757014484825589 0 0.242989310538931 -0.0092135161021761666 0 0.2429424487767215 0.0026164120279975069 0 0.2479891295484222 -0.0022684572774312019 0 0.24005113852307369 -0.0027355710512556022 0 0.242989310538931 -0.0092135161021761666 0 0.2479891295484222 -0.0022684572774312019 0 0.24005113852307369 -0.0027355710512556022 0 0.23517440673197429 0.0051848507458196356 0 0.24005113852307369 -0.0027355710512556022 0 0.23246643938152739 -0.0092251246746631842 0 0.242989310538931 -0.0092135161021761666 0 0.24005113852307369 -0.0027355710512556022 0 0.23246643938152739 -0.0092251246746631842 0 0.22100796739575951 0.001216664300799794 0 0.22864161374710179 -0.024239001361894639 0 0.23246643938152739 -0.0092251246746631842 0 0.23517440673197429 0.0051848507458196356 0 0.22100796739575951 0.001216664300799794 0 0.23246643938152739 -0.0092251246746631842 0 0.22100796739575951 0.001216664300799794 0 0.21653748859829491 -0.0035968485671754561 0 0.22864161374710179 -0.024239001361894639 0 0.22100796739575951 0.001216664300799794 0 0.22864161374710179 -0.024239001361894639 0 0.206496337029034 -0.094515806075055359 0 0.21061282470536921 -0.1187548291727395 0 0.206496337029034 -0.094515806075055359 0 0.22623965631488491 -0.089683688039789988 0 0.22333782165884589 -0.10574313483481231 0 0.206496337029034 -0.094515806075055359 0 0.21061282470536921 -0.1187548291727395 0 0.22333782165884589 -0.10574313483481231 0 0.18737718651252391 -0.1018645954104864 0 0.18701697985041221 -0.11880972375357141 0 0.21061282470536921 -0.1187548291727395 0 0.18701697985041221 -0.11880972375357141 0 0.21061282470536921 -0.1187548291727395 0 0.19260125287660149 -0.13207131947283501 0 0.18748362772352481 -0.090285751384613616 0 0.18737718651252391 -0.1018645954104864 0 0.206496337029034 -0.094515806075055359 0 0.18737718651252391 -0.1018645954104864 0 0.206496337029034 -0.094515806075055359 0 0.21061282470536921 -0.1187548291727395 0 0.18748362772352481 -0.090285751384613616 0 0.206496337029034 -0.094515806075055359 0 0.19448955746265811 -0.082220240722777116 0 0.206496337029034 -0.094515806075055359 0 0.19448955746265811 -0.082220240722777116 0 0.20237984935269879 -0.070276782977371152 0 0.18645595400882431 -0.078186102724248294 0 0.18748362772352481 -0.090285751384613616 0 0.19448955746265811 -0.082220240722777116 0 0.18645595400882431 -0.078186102724248294 0 0.19448955746265811 -0.082220240722777116 0 0.19180584502786041 -0.068172372335855602 0 0.19448955746265811 -0.082220240722777116 0 0.19180584502786041 -0.068172372335855602 0 0.20237984935269879 -0.070276782977371152 0 0.21390737605136481 -0.061417813804776289 0 0.20237984935269879 -0.070276782977371152 0 0.21248527081093549 -0.070330245212121473 0 0.20237984935269879 -0.070276782977371152 0 0.21248527081093549 -0.070330245212121473 0 0.2145783618208984 -0.079628257083024359 0 0.21248527081093549 -0.070330245212121473 0 0.2145783618208984 -0.079628257083024359 0 0.2221192681341374 -0.068345353637844553 0 0.21390737605136481 -0.061417813804776289 0 0.21248527081093549 -0.070330245212121473 0 0.2221192681341374 -0.068345353637844553 0 0.206496337029034 -0.094515806075055359 0 0.20237984935269879 -0.070276782977371152 0 0.2145783618208984 -0.079628257083024359 0 0.206496337029034 -0.094515806075055359 0 0.2145783618208984 -0.079628257083024359 0 0.22623965631488491 -0.089683688039789988 0 0.206496337029034 -0.094515806075055359 0 0.20237984935269879 -0.070276782977371152 0 0.2145783618208984 -0.079628257083024359 0 0.22623965631488491 -0.089683688039789988 0 0.23038916340776741 -0.077440392619678861 0 0.22623965631488491 -0.089683688039789988 0 0.23038916340776741 -0.077440392619678861 0 0.23781669784438761 -0.088769324738514177 0 0.22623965631488491 -0.089683688039789988 0 0.23781669784438761 -0.088769324738514177 0 0.23714180950183539 -0.10160942858925499 0 0.2145783618208984 -0.079628257083024359 0 0.2221192681341374 -0.068345353637844553 0 0.23038916340776741 -0.077440392619678861 0 0.2255736282180465 -0.056882305063223393 0 0.2221192681341374 -0.068345353637844553 0 0.23165324526163639 -0.065502610206523884 0 0.2221192681341374 -0.068345353637844553 0 0.23038916340776741 -0.077440392619678861 0 0.23165324526163639 -0.065502610206523884 0 0.25256726729664603 -0.064532785491330763 0 0.24617004458672351 -0.058202332164817121 0 0.24390890644978661 -0.075150332687283522 0 0.23627526009844421 -0.049694667024589079 0 0.23165324526163639 -0.065502610206523884 0 0.24390890644978661 -0.075150332687283522 0 0.23038916340776741 -0.077440392619678861 0 0.23165324526163639 -0.065502610206523884 0 0.24390890644978661 -0.075150332687283522 0 0.25154255280112903 -0.1006059983499779 0 0.24390890644978661 -0.075150332687283522 0 0.25154255280112903 -0.1006059983499779 0 0.24390890644978661 -0.075150332687283522 0 0.23781669784438761 -0.088769324738514177 0 0.23038916340776741 -0.077440392619678861 0 0.24390890644978661 -0.075150332687283522 0 0.23781669784438761 -0.088769324738514177 0 0.25154255280112903 -0.1006059983499779 0 0.23714180950183539 -0.10160942858925499 0 0.24954668948061209 -0.11284283178631641 0 0.25154255280112903 -0.1006059983499779 0 0.23781669784438761 -0.088769324738514177 0 0.23714180950183539 -0.10160942858925499 0 0.23714180950183539 -0.10160942858925499 0 0.22333782165884589 -0.10574313483481231 0 0.23542538064511609 -0.1194854446592761 0 0.22623965631488491 -0.089683688039789988 0 0.23714180950183539 -0.10160942858925499 0 0.22333782165884589 -0.10574313483481231 0 0.21061282470536921 -0.1187548291727395 0 0.22333782165884589 -0.10574313483481231 0 0.23542538064511609 -0.1194854446592761 0 0.25741251913389712 -0.1305951081492244 0 0.23542538064511609 -0.1194854446592761 0 0.24954668948061209 -0.11284283178631641 0 0.23714180950183539 -0.10160942858925499 0 0.23542538064511609 -0.1194854446592761 0 0.24954668948061209 -0.11284283178631641 0 0.25741251913389712 -0.1305951081492244 0 0.25452239946831973 -0.14829655140993131 0 0.23191914561449989 -0.13726295483178369 0 0.25741251913389712 -0.1305951081492244 0 0.23542538064511609 -0.1194854446592761 0 0.23191914561449989 -0.13726295483178369 0 0.25452239946831973 -0.14829655140993131 0 0.23782434991563151 -0.15439369078169049 0 0.23191914561449989 -0.13726295483178369 0 0.23782434991563151 -0.15439369078169049 0 0.2147293123817042 -0.1429938522704238 0 0.23782434991563151 -0.15439369078169049 0 0.2147293123817042 -0.1429938522704238 0 0.21952864142792899 -0.1712536350637954 0 0.23782434991563151 -0.15439369078169049 0 0.23191914561449989 -0.13726295483178369 0 0.2147293123817042 -0.1429938522704238 0 0.21061282470536921 -0.1187548291727395 0 0.23542538064511609 -0.1194854446592761 0 0.23191914561449989 -0.13726295483178369 0 0.21061282470536921 -0.1187548291727395 0 0.23191914561449989 -0.13726295483178369 0 0.2147293123817042 -0.1429938522704238 0 0.2147293123817042 -0.1429938522704238 0 0.19260125287660149 -0.13207131947283501 0 0.21061282470536921 -0.1187548291727395 0 0.2147293123817042 -0.1429938522704238 0 0.19260125287660149 -0.13207131947283501 0 0.21061282470536921 -0.1187548291727395 0 0.2147293123817042 -0.1429938522704238 0 0.2147293123817042 -0.1429938522704238 0 0.20548350855114439 -0.15623176612928341 0 0.19677556980284089 -0.14597147697610061 0 0.20548350855114439 -0.15623176612928341 0 0.19677556980284089 -0.14597147697610061 0 0.19325106823209409 -0.153061144976989 0 0.19677556980284089 -0.14597147697610061 0 0.19325106823209409 -0.153061144976989 0 0.18786488322971459 -0.15098965934649999 0 0.19325106823209409 -0.153061144976989 0 0.18786488322971459 -0.15098965934649999 0 0.1842505296355367 -0.15589311325690541 0 0.19677556980284089 -0.14597147697610061 0 0.18786488322971459 -0.15098965934649999 0 0.188659048266132 -0.1418371739210742 0 0.2147293123817042 -0.1429938522704238 0 0.19677556980284089 -0.14597147697610061 0 0.19260125287660149 -0.13207131947283501 0 0.19677556980284089 -0.14597147697610061 0 0.188659048266132 -0.1418371739210742 0 0.19260125287660149 -0.13207131947283501 0 0.18830323417204939 -0.1765657128700695 0 0.20313295091115369 -0.1678787213591082 0 0.20600005448239761 -0.18645800734220749 0 0.18830323417204939 -0.1765657128700695 0 0.20600005448239761 -0.18645800734220749 0 0.1956377870383576 -0.1970896374814364 0 0.19325106823209409 -0.153061144976989 0 0.18830323417204939 -0.1765657128700695 0 0.19325106823209409 -0.153061144976989 0 0.18830323417204939 -0.1765657128700695 0 0.20313295091115369 -0.1678787213591082 0 0.19325106823209409 -0.153061144976989 0 0.18830323417204939 -0.1765657128700695 0 0.18144082188941271 -0.16389154531309821 0 0.20548350855114439 -0.15623176612928341 0 0.19325106823209409 -0.153061144976989 0 0.20313295091115369 -0.1678787213591082 0 0.20548350855114439 -0.15623176612928341 0 0.20313295091115369 -0.1678787213591082 0 0.21952864142792899 -0.1712536350637954 0 0.2147293123817042 -0.1429938522704238 0 0.21952864142792899 -0.1712536350637954 0 0.2147293123817042 -0.1429938522704238 0 0.20548350855114439 -0.15623176612928341 0 0.21952864142792899 -0.1712536350637954 0 0.20600005448239761 -0.18645800734220749 0 0.21952864142792899 -0.1712536350637954 0 0.22432797047415351 -0.19951341785716731 0 0.20313295091115369 -0.1678787213591082 0 0.20600005448239761 -0.18645800734220749 0 0.21952864142792899 -0.1712536350637954 0 0.21952864142792899 -0.1712536350637954 0 0.2437278363918948 -0.18195096812212239 0 0.22432797047415351 -0.19951341785716731 0 0.21952864142792899 -0.1712536350637954 0 0.22432797047415351 -0.19951341785716731 0 0.23782434991563151 -0.15439369078169049 0 0.21952864142792899 -0.1712536350637954 0 0.2437278363918948 -0.18195096812212239 0 0.260919387449559 -0.16579352929295721 0 0.23782434991563151 -0.15439369078169049 0 0.260919387449559 -0.16579352929295721 0 0.23782434991563151 -0.15439369078169049 0 0.2437278363918948 -0.18195096812212239 0 0.2437278363918948 -0.18195096812212239 0 0.24314545538918961 -0.20571013864437751 0 0.22432797047415351 -0.19951341785716731 0 0.2593871514889205 -0.19799184377322379 0 0.2437278363918948 -0.18195096812212239 0 0.24314545538918961 -0.20571013864437751 0 0.22432797047415351 -0.19951341785716731 0 0.2342802842193491 -0.2219117808856606 0 0.21564630723174069 -0.21833189921059021 0 0.24314545538918961 -0.20571013864437751 0 0.22432797047415351 -0.19951341785716731 0 0.2342802842193491 -0.2219117808856606 0 0.2462907050713771 -0.25204034373521428 0 0.2499607574480687 -0.24385609709525671 0 0.2374752251495614 -0.24157268794541539 0 0.25134951441318748 -0.22920843539767929 0 0.2499607574480687 -0.24385609709525671 0 0.2374752251495614 -0.24157268794541539 0 0.25134951441318748 -0.22920843539767929 0 0.24314545538918961 -0.20571013864437751 0 0.2342802842193491 -0.2219117808856606 0 0.25134951441318748 -0.22920843539767929 0 0.2374752251495614 -0.24157268794541539 0 0.2342802842193491 -0.2219117808856606 0 0.2374752251495614 -0.24157268794541539 0 0.22060620183210919 -0.232775489656291 0 0.2342802842193491 -0.2219117808856606 0 0.22060620183210919 -0.232775489656291 0 0.2342802842193491 -0.2219117808856606 0 0.21564630723174069 -0.21833189921059021 0 0.22198339683909701 -0.25340717595137879 0 0.2374752251495614 -0.24157268794541539 0 0.22060620183210919 -0.232775489656291 0 0.22198339683909701 -0.25340717595137879 0 0.22060620183210919 -0.232775489656291 0 0.22198339683909701 -0.25340717595137879 0 0.22060620183210919 -0.232775489656291 0 0.20573671357227499 -0.23448295905173899 0 0.22198339683909701 -0.25340717595137879 0 0.20573671357227499 -0.23448295905173899 0 0.19815896102696709 -0.24816545406213189 0 0.22060620183210919 -0.232775489656291 0 0.20573671357227499 -0.23448295905173899 0 0.21564630723174069 -0.21833189921059021 0 0.20573671357227499 -0.23448295905173899 0 0.19801089506944891 -0.22061097325298201 0 0.21564630723174069 -0.21833189921059021 0 0.20573671357227499 -0.23448295905173899 0 0.19801089506944891 -0.22061097325298201 0 0.18862314846194941 -0.23474346369713109 0 0.19801089506944891 -0.22061097325298201 0 0.18862314846194941 -0.23474346369713109 0 0.17884496266341901 -0.22149700646801701 0 0.20573671357227499 -0.23448295905173899 0 0.18862314846194941 -0.23474346369713109 0 0.19815896102696709 -0.24816545406213189 0 0.20600005448239761 -0.18645800734220749 0 0.22432797047415351 -0.19951341785716731 0 0.20571207111442141 -0.20503903284801611 0 0.22432797047415351 -0.19951341785716731 0 0.21564630723174069 -0.21833189921059021 0 0.20571207111442141 -0.20503903284801611 0 0.19801089506944891 -0.22061097325298201 0 0.21564630723174069 -0.21833189921059021 0 0.20571207111442141 -0.20503903284801611 0 0.19801089506944891 -0.22061097325298201 0 0.19227081910603411 -0.2100117569492751 0 0.17884496266341901 -0.22149700646801701 0 0.20571207111442141 -0.20503903284801611 0 0.19227081910603411 -0.2100117569492751 0 0.1956377870383576 -0.1970896374814364 0 0.19801089506944891 -0.22061097325298201 0 0.20571207111442141 -0.20503903284801611 0 0.19227081910603411 -0.2100117569492751 0 0.18830323417204939 -0.1765657128700695 0 0.1956377870383576 -0.1970896374814364 0 0.18335540011200491 -0.20007028076315 0 0.19227081910603411 -0.2100117569492751 0 0.1956377870383576 -0.1970896374814364 0 0.18335540011200491 -0.20007028076315 0 0.1956377870383576 -0.1970896374814364 0 0.18335540011200491 -0.20007028076315 0 0.20600005448239761 -0.18645800734220749 0 0.20571207111442141 -0.20503903284801611 0 0.1956377870383576 -0.1970896374814364 0 0.18830323417204939 -0.1765657128700695 0 0.18335540011200491 -0.20007028076315 0 0.18335540011200491 -0.20007028076315 0 0.16873688803845349 -0.19227854821165941 0 0.17543185729929969 -0.18273889272689711 0 0.19227081910603411 -0.2100117569492751 0 0.18335540011200491 -0.20007028076315 0 0.17884496266341901 -0.22149700646801701 0 0.18335540011200491 -0.20007028076315 0 0.17884496266341901 -0.22149700646801701 0 0.18335540011200491 -0.20007028076315 0 0.16621660047528611 -0.21253283526692829 0 0.17884496266341901 -0.22149700646801701 0 0.16621660047528611 -0.21253283526692829 0 0.1593158439583067 -0.2059041094785751 0 0.15302060169630469 -0.2217977003443504 0 0.18335540011200491 -0.20007028076315 0 0.16621660047528611 -0.21253283526692829 0 0.1593158439583067 -0.2059041094785751 0 0.16621660047528611 -0.21253283526692829 0 0.1593158439583067 -0.2059041094785751 0 0.1593158439583067 -0.2059041094785751 0 0.15759932706250929 -0.18907488386135229 0 0.16873688803845349 -0.19227854821165941 0 0.18335540011200491 -0.20007028076315 0 0.1593158439583067 -0.2059041094785751 0 0.18335540011200491 -0.20007028076315 0 0.1593158439583067 -0.2059041094785751 0 0.16873688803845349 -0.19227854821165941 0 0.18066177981631051 -0.25348299893649828 0 0.19815896102696709 -0.24816545406213189 0 0.17433452521483719 -0.24292373217288479 0 0.19815896102696709 -0.24816545406213189 0 0.17433452521483719 -0.24292373217288479 0 0.18862314846194941 -0.23474346369713109 0 0.19815896102696709 -0.24816545406213189 0 0.17433452521483719 -0.24292373217288479 0 0.18066177981631051 -0.25348299893649828 0 0.17304535898525439 -0.24904788565112909 0 0.17433452521483719 -0.24292373217288479 0 0.17304535898525439 -0.24904788565112909 0 0.17433452521483719 -0.24292373217288479 0 0.18862314846194941 -0.23474346369713109 0 0.17433452521483719 -0.24292373217288479 0 0.17884496266341901 -0.22149700646801701 0 0.17433452521483719 -0.24292373217288479 0 0.17884496266341901 -0.22149700646801701 0 0.17433452521483719 -0.24292373217288479 0 0.17884496266341901 -0.22149700646801701 0 0.16512535944417561 -0.22744738033917331 0 0.16512535944417561 -0.22744738033917331 0 0.15532271566916761 -0.23874085795770611 0 0.15302060169630469 -0.2217977003443504 0 0.16621660047528611 -0.21253283526692829 0 0.17884496266341901 -0.22149700646801701 0 0.16512535944417561 -0.22744738033917331 0 0.16621660047528611 -0.21253283526692829 0 0.16512535944417561 -0.22744738033917331 0 0.15302060169630469 -0.2217977003443504 0 0.17304535898525439 -0.24904788565112909 0 0.17433452521483719 -0.24292373217288479 0 0.15532271566916761 -0.23874085795770611 0 0.15867772839633809 -0.25707915377424612 0 0.17304535898525439 -0.24904788565112909 0 0.15532271566916761 -0.23874085795770611 0 0.17433452521483719 -0.24292373217288479 0 0.16512535944417561 -0.22744738033917331 0 0.15532271566916761 -0.23874085795770611 0 0.17433452521483719 -0.24292373217288479 0 0.15532271566916761 -0.23874085795770611 0 0.15532271566916761 -0.23874085795770611 0 0.1363109061234978 -0.23455798374252809 0 0.13687529418603939 -0.26162068250561471 0 0.15532271566916761 -0.23874085795770611 0 0.1363109061234978 -0.23455798374252809 0 0.15532271566916761 -0.23874085795770611 0 0.15302060169630469 -0.2217977003443504 0 0.1363109061234978 -0.23455798374252809 0 0.15302060169630469 -0.2217977003443504 0 0.1363109061234978 -0.23455798374252809 0 0.13583218450739579 -0.2116030352811932 0 0.12594488917549271 -0.2231145762792166 0 0.1363109061234978 -0.23455798374252809 0 0.13583218450739579 -0.2116030352811932 0 0.1363109061234978 -0.23455798374252809 0 0.13583218450739579 -0.2116030352811932 0 0.13687529418603939 -0.26162068250561471 0 0.1363109061234978 -0.23455798374252809 0 0.13687529418603939 -0.26162068250561471 0 0.1223190960555403 -0.2394332616338683 0 0.1363109061234978 -0.23455798374252809 0 0.1593158439583067 -0.2059041094785751 0 0.15759932706250929 -0.18907488386135229 0 0.14727334507129489 -0.19433633097022029 0 0.14727334507129489 -0.19433633097022029 0 0.13523084618428721 -0.18276855246186111 0 0.1593158439583067 -0.2059041094785751 0 0.14727334507129489 -0.19433633097022029 0 0.1593158439583067 -0.2059041094785751 0 0.14727334507129489 -0.19433633097022029 0 0.13583218450739579 -0.2116030352811932 0 0.1593158439583067 -0.2059041094785751 0 0.13583218450739579 -0.2116030352811932 0 0.1593158439583067 -0.2059041094785751 0 0.15302060169630469 -0.2217977003443504 0 0.13583218450739579 -0.2116030352811932 0 0.1146962174531268 -0.21673223195775559 0 0.12594488917549271 -0.2231145762792166 0 0.13583218450739579 -0.2116030352811932 0 0.1146962174531268 -0.21673223195775559 0 0.13583218450739579 -0.2116030352811932 0 0.13583218450739579 -0.2116030352811932 0 0.13523084618428721 -0.18276855246186111 0 0.1210323504124224 -0.2015702574875764 0 0.13583218450739579 -0.2116030352811932 0 0.13523084618428721 -0.18276855246186111 0 0.14727334507129489 -0.19433633097022029 0 0.13583218450739579 -0.2116030352811932 0 0.13523084618428721 -0.18276855246186111 0 0.13523084618428721 -0.18276855246186111 0 0.13483495552902119 -0.16378539130439421 0 0.13523084618428721 -0.18276855246186111 0 0.14953284821028701 -0.17659781711855899 0 0.13483495552902119 -0.16378539130439421 0 0.12574768761326591 -0.17365922399620121 0 0.13523084618428721 -0.18276855246186111 0 0.13483495552902119 -0.16378539130439421 0 0.12574768761326591 -0.17365922399620121 0 0.13523084618428721 -0.18276855246186111 0 0.15759932706250929 -0.18907488386135229 0 0.14727334507129489 -0.19433633097022029 0 0.14953284821028701 -0.17659781711855899 0 0.14727334507129489 -0.19433633097022029 0 0.13523084618428721 -0.18276855246186111 0 0.14953284821028701 -0.17659781711855899 0 0.15759932706250929 -0.18907488386135229 0 0.14953284821028701 -0.17659781711855899 0 0.16056198994912749 -0.17787080610445691 0 0.14953284821028701 -0.17659781711855899 0 0.15118562361057611 -0.16212531631630639 0 0.13483495552902119 -0.16378539130439421 0 0.15118562361057611 -0.16212531631630639 0 0.13483495552902119 -0.16378539130439421 0 0.15272907190244081 -0.1550331303974728 0 0.15118562361057611 -0.16212531631630639 0 0.15272907190244081 -0.1550331303974728 0 0.15987479688754311 -0.1572750313981319 0 0.14953284821028701 -0.17659781711855899 0 0.15118562361057611 -0.16212531631630639 0 0.1601367247146048 -0.167216461388007 0 0.1232701832726428 -0.15427141090171109 0 0.12574768761326591 -0.17365922399620121 0 0.13483495552902119 -0.16378539130439421 0 0.12574768761326591 -0.17365922399620121 0 0.13483495552902119 -0.16378539130439421 0 0.13483495552902119 -0.16378539130439421 0 0.13444198148756639 -0.1449420832838656 0 0.14315652521050079 -0.14523933820255211 0 0.1232701832726428 -0.15427141090171109 0 0.13483495552902119 -0.16378539130439421 0 0.13444198148756639 -0.1449420832838656 0 0.13483495552902119 -0.16378539130439421 0 0.13444198148756639 -0.1449420832838656 0 0.13444198148756639 -0.1449420832838656 0 0.1434537453928684 -0.13532839273855221 0 0.14315652521050079 -0.14523933820255211 0 0.13444198148756639 -0.1449420832838656 0 0.13404900744611239 -0.12609877526333699 0 0.13444198148756639 -0.1449420832838656 0 0.13404900744611239 -0.12609877526333699 0 0.1434537453928684 -0.13532839273855221 0 0.11727103389215909 -0.1361484369810822 0 0.13444198148756639 -0.1449420832838656 0 0.13404900744611239 -0.12609877526333699 0 0.13404900744611239 -0.12609877526333699 0 0.1490682445489844 -0.1279194233146575 0 0.1609569453379138 -0.13854421730491809 0 0.13404900744611239 -0.12609877526333699 0 0.1609569453379138 -0.13854421730491809 0 0.13404900744611239 -0.12609877526333699 0 0.1434537453928684 -0.13532839273855221 0 0.1609569453379138 -0.13854421730491809 0 0.1434537453928684 -0.13532839273855221 0 0.14993504674019009 -0.14021612160814689 0 0.1609569453379138 -0.13854421730491809 0 0.1427320902892944 -0.12257921542734659 0 0.13404900744611239 -0.12609877526333699 0 0.1490682445489844 -0.1279194233146575 0 0.1434537453928684 -0.13532839273855221 0 0.14993504674019009 -0.14021612160814689 0 0.14315652521050079 -0.14523933820255211 0 0.14993504674019009 -0.14021612160814689 0 0.15469010670848909 -0.14221164189652771 0 0.1609569453379138 -0.13854421730491809 0 0.15568199284830581 -0.1296421963895899 0 0.1490682445489844 -0.1279194233146575 0 0.1609569453379138 -0.13854421730491809 0 0.15192118682329561 -0.12273271218809589 0 0.15568199284830581 -0.1296421963895899 0 0.1587247560068413 -0.12564209046719049 0 0.15192118682329561 -0.12273271218809589 0 0.15568199284830581 -0.1296421963895899 0 0.1490682445489844 -0.1279194233146575 0 0.13483495552902119 -0.16378539130439421 0 0.15469010670848909 -0.14221164189652771 0 0.13483495552902119 -0.16378539130439421 0 0.14315652521050079 -0.14523933820255211 0 0.15469010670848909 -0.14221164189652771 0 0.13483495552902119 -0.16378539130439421 0 0.15469010670848909 -0.14221164189652771 0 0.15272907190244081 -0.1550331303974728 0 0.14993504674019009 -0.14021612160814689 0 0.14315652521050079 -0.14523933820255211 0 0.15469010670848909 -0.14221164189652771 0 0.15272907190244081 -0.1550331303974728 0 0.16278769519534109 -0.1503194818261428 0 0.15987479688754311 -0.1572750313981319 0 0.16278769519534109 -0.1503194818261428 0 0.15987479688754311 -0.1572750313981319 0 0.16866771310860729 -0.15951236945753941 0 0.15469010670848909 -0.14221164189652771 0 0.15272907190244081 -0.1550331303974728 0 0.16278769519534109 -0.1503194818261428 0 0.15469010670848909 -0.14221164189652771 0 0.16278769519534109 -0.1503194818261428 0 0.1609569453379138 -0.13854421730491809 0 0.16278769519534109 -0.1503194818261428 0 0.1609569453379138 -0.13854421730491809 0 0.17433915911560069 -0.15342176620747169 0 0.16278769519534109 -0.1503194818261428 0 0.17433915911560069 -0.15342176620747169 0 0.16866771310860729 -0.15951236945753941 0 0.1609569453379138 -0.13854421730491809 0 0.16898528270356589 -0.1319020538664718 0 0.17739448715537109 -0.13831623988886119 0 0.1587247560068413 -0.12564209046719049 0 0.1613780220681113 -0.13045743568360191 0 0.1641162962428066 -0.126449221113482 0 0.15568199284830581 -0.1296421963895899 0 0.1587247560068413 -0.12564209046719049 0 0.1613780220681113 -0.13045743568360191 0 0.15568199284830581 -0.1296421963895899 0 0.1613780220681113 -0.13045743568360191 0 0.1609569453379138 -0.13854421730491809 0 0.1613780220681113 -0.13045743568360191 0 0.1609569453379138 -0.13854421730491809 0 0.16898528270356589 -0.1319020538664718 0 0.173543926957343 -0.1211375462363173 0 0.16898528270356589 -0.1319020538664718 0 0.1641162962428066 -0.126449221113482 0 0.1613780220681113 -0.13045743568360191 0 0.16898528270356589 -0.1319020538664718 0 0.1641162962428066 -0.126449221113482 0 0.173543926957343 -0.1211375462363173 0 0.16898528270356589 -0.1319020538664718 0 0.17990838590865871 -0.12844737664361131 0 0.16898528270356589 -0.1319020538664718 0 0.17739448715537109 -0.13831623988886119 0 0.17990838590865871 -0.12844737664361131 0 0.188659048266132 -0.1418371739210742 0 0.19260125287660149 -0.13207131947283501 0 0.17739448715537109 -0.13831623988886119 0 0.19260125287660149 -0.13207131947283501 0 0.17739448715537109 -0.13831623988886119 0 0.17990838590865871 -0.12844737664361131 0 0.18701697985041221 -0.11880972375357141 0 0.19260125287660149 -0.13207131947283501 0 0.17990838590865871 -0.12844737664361131 0 0.18786488322971459 -0.15098965934649999 0 0.1609569453379138 -0.13854421730491809 0 0.17433915911560069 -0.15342176620747169 0 0.18786488322971459 -0.15098965934649999 0 0.1609569453379138 -0.13854421730491809 0 0.18786488322971459 -0.15098965934649999 0 0.1609569453379138 -0.13854421730491809 0 0.17739448715537109 -0.13831623988886119 0 0.18786488322971459 -0.15098965934649999 0 0.188659048266132 -0.1418371739210742 0 0.17739448715537109 -0.13831623988886119 0 0.18786488322971459 -0.15098965934649999 0 0.17433915911560069 -0.15342176620747169 0 0.1842505296355367 -0.15589311325690541 0 0.17433915911560069 -0.15342176620747169 0 0.1842505296355367 -0.15589311325690541 0 0.18144082188941271 -0.16389154531309821 0 0.19325106823209409 -0.153061144976989 0 0.1842505296355367 -0.15589311325690541 0 0.18144082188941271 -0.16389154531309821 0 0.18830323417204939 -0.1765657128700695 0 0.18144082188941271 -0.16389154531309821 0 0.17072519494025609 -0.1704686386871877 0 0.17433915911560069 -0.15342176620747169 0 0.18144082188941271 -0.16389154531309821 0 0.16866771310860729 -0.15951236945753941 0 0.18144082188941271 -0.16389154531309821 0 0.16866771310860729 -0.15951236945753941 0 0.17072519494025609 -0.1704686386871877 0 0.18830323417204939 -0.1765657128700695 0 0.18335540011200491 -0.20007028076315 0 0.17543185729929969 -0.18273889272689711 0 0.18830323417204939 -0.1765657128700695 0 0.17543185729929969 -0.18273889272689711 0 0.17072519494025609 -0.1704686386871877 0 0.17543185729929969 -0.18273889272689711 0 0.16056198994912749 -0.17787080610445691 0 0.17072519494025609 -0.1704686386871877 0 0.16873688803845349 -0.19227854821165941 0 0.17543185729929969 -0.18273889272689711 0 0.16056198994912749 -0.17787080610445691 0 0.15759932706250929 -0.18907488386135229 0 0.16873688803845349 -0.19227854821165941 0 0.16056198994912749 -0.17787080610445691 0 0.14953284821028701 -0.17659781711855899 0 0.16056198994912749 -0.17787080610445691 0 0.1601367247146048 -0.167216461388007 0 0.16056198994912749 -0.17787080610445691 0 0.1601367247146048 -0.167216461388007 0 0.17072519494025609 -0.1704686386871877 0 0.1601367247146048 -0.167216461388007 0 0.15987479688754311 -0.1572750313981319 0 0.16866771310860729 -0.15951236945753941 0 0.15118562361057611 -0.16212531631630639 0 0.1601367247146048 -0.167216461388007 0 0.15987479688754311 -0.1572750313981319 0 0.1601367247146048 -0.167216461388007 0 0.16866771310860729 -0.15951236945753941 0 0.17072519494025609 -0.1704686386871877 0 
</DataArray>
</Points>
<Cells>
<DataArray type="UInt32" Name="connectivity" format="ascii">
0 1 2 3 4 5 6 7 8 9 10 11 12 13 14 15 16 17 18 19 20 21 22 23 24 25 26 27 28 29 30 31 32 33 34 35 36 37 38 39 40 41 42 43 44 45 46 47 48 49 50 51 52 53 54 55 56 57 58 59 60 61 62 63 64 65 66 67 68 69 70 71 72 73 74 75 76 77 78 79 80 81 82 83 84 85 86 87 88 89 90 91 92 93 94 95 96 97 98 99 100 101 102 103 104 105 106 107 108 109 110 111 112 113 114 115 116 117 118 119 120 121 122 123 124 125 126 127 128 129 130 131 132 133 134 135 136 137 138 139 140 141 142 143 144 145 146 147 148 149 150 151 152 153 154 155 156 157 158 159 160 161 162 163 164 165 166 167 168 169 170 171 172 173 174 175 176 177 178 179 180 181 182 183 184 185 186 187 188 189 190 191 192 193 194 195 196 197 198 199 200 201 202 203 204 205 206 207 208 209 210 211 212 213 214 215 216 217 218 219 220 221 222 223 224 225 226 227 228 229 230 231 232 233 234 235 236 237 238 239 240 241 242 243 244 245 246 247 248 249 250 251 252 253 254 255 256 257 258 259 260 261 262 263 264 265 266 267 268 269 270 271 272 273 274 275 276 277 278 279 280 281 282 283 284 285 286 287 288 289 290 291 292 293 294 295 296 297 298 299 300 301 302 303 304 305 306 307 308 309 310 311 312 313 314 315 316 317 318 319 320 321 322 323 324 325 326 327 328 329 330 331 332 333 334 335 336 337 338 339 340 341 342 343 344 345 346 347 348 349 350 351 352 353 354 355 356 357 358 359 360 361 362 363 364 365 366 367 368 369 370 371 372 373 374 375 376 377 378 379 380 381 382 383 384 385 386 387 388 389 390 391 392 393 394 395 396 397 398 399 400 401 402 403 404 405 406 407 408 409 410 411 412 413 414 415 416 417 418 419 420 421 422 423 424 425 426 427 428 429 430 431 432 433 434 435 436 437 438 439 440 441 442 443 444 445 446 447 448 449 450 451 452 453 454 455 456 457 458 459 460 461 462 463 464 465 466 467 468 469 470 471 472 473 474 475 476 477 478 479 480 481 482 483 484 485 486 487 488 489 490 491 492 493 494 495 496 497 498 499 500 501 502 503 504 505 506 507 508 509 510 511 512 513 514 515 516 517 518 519 520 521 522 523 524 525 526 527 528 529 530 531 532 533 534 535 536 537 538 539 540 541 542 543 544 545 546 547 548 549 550 551 552 553 554 555 556 557 558 559 560 561 562 563 564 565 566 567 568 569 570 571 572 573 574 575 576 577 578 579 580 581 582 583 584 585 586 587 588 589 590 591 592 593 594 595 596 597 598 599 600 601 602 603 604 605 606 607 608 609 610 611 612 613 614 615 616 617 618 619 620 621 622 623 624 625 626 627 628 629 630 631 632 633 634 635 636 637 638 639 640 641 642 643 644 645 646 647 648 649 650 651 652 653 654 655 656 657 658 659 660 661 662 663 664 665 666 667 668 669 670 671 672 673 674 675 676 677 678 679 680 681 682 683 684 685 686 687 688 689 690 691 692 693 694 695 696 697 698 699 700 701 702 703 704 705 706 707 708 709 710 711 712 713 714 715 716 717 718 719 720 721 722 723 724 725 726 727 728 729 730 731 732 733 734 735 736 737 738 739 740 741 742 743 744 745 746 747 748 749 750 751 752 753 754 755 756 757 758 759 760 761 762 763 764 765 766 767 768 769 770 771 772 773 774 775 776 777 778 779 780 781 782 783 784 785 786 787 788 789 790 791 792 793 794 795 796 797 798 799 800 801 802 803 804 805 806 807 808 809 810 811 812 813 814 815 816 817 818 819 820 821 822 823 824 825 826 827 828 829 830 831 832 833 834 835 836 837 838 839 840 841 842 843 844 845 846 847 848 849 850 851 852 853 854 855 856 857 858 859 860 861 862 863 864 865 866 867 868 869 870 871 872 873 874 875 876 877 878 879 880 881 882 883 884 885 886 887 888 889 890 891 892 893 894 895 896 897 898 899 900 901 902 903 904 905 906 907 908 909 910 911 912 913 914 915 916 917 918 919 920 921 922 923 924 925 926 927 928 929 930 931 932 933 934 935 936 937 938 939 940 941 942 943 944 945 946 947 948 949 950 951 952 953 954 955 956 957 958 959 960 961 962 963 964 965 966 967 968 969 970 971 972 973 974 975 976 977 978 979 980 981 982 983 984 985 986 987 988 989 990 991 992 993 994 995 996 997 998 999 1000 1001 1002 1003 1004 1005 1006 1007 1008 1009 1010 1011 1012 1013 1014 1015 1016 1017 1018 1019 1020 1021 1022 1023 1024 1025 1026 1027 1028 1029 1030 1031 1032 1033 1034 1035 1036 1037 1038 1039 1040 1041 1042 1043 1044 1045 1046 1047 1048 1049 1050 1051 1052 1053 1054 1055 1056 1057 1058 1059 1060 1061 1062 1063 1064 1065 1066 1067 1068 1069 1070 1071 1072 1073 1074 1075 1076 1077 1078 1079 1080 1081 1082 1083 1084 1085 1086 1087 1088 1089 1090 1091 1092 1093 1094 1095 1096 1097 1098 1099 1100 1101 1102 1103 1104 1105 1106 1107 1108 1109 1110 1111 1112 1113 1114 1115 1116 1117 1118 1119 1120 1121 1122 1123 1124 1125 1126 1127 1128 1129 1130 1131 1132 1133 1134 1135 1136 1137 1138 1139 1140 1141 1142 1143 1144 1145 1146 1147 1148 1149 1150 1151 1152 1153 1154 1155 1156 1157 1158 1159 1160 1161 1162 1163 1164 1165 1166 1167 1168 1169 1170 1171 1172 1173 1174 1175 1176 1177 1178 1179 1180 1181 1182 1183 1184 1185 1186 1187 1188 1189 1190 1191 1192 1193 1194 1195 1196 1197 1198 1199 1200 1201 1202 1203 1204 1205 1206 1207 1208 1209 1210 1211 1212 1213 1214 1215 1216 1217 1218 1219 1220 1221 1222 1223 1224 1225 1226 1227 1228 1229 1230 1231 1232 1233 1234 1235 1236 1237 1238 1239 1240 1241 1242 1243 1244 1245 1246 1247 1248 1249 1250 1251 1252 1253 1254 1255 1256 1257 1258 1259 1260 1261 1262 1263 1264 1265 1266 1267 1268 1269 1270 1271 1272 1273 1274 1275 1276 1277 1278 1279 1280 1281 1282 1283 1284 1285 1286 1287 1288 1289 1290 1291 1292 1293 1294 1295 1296 1297 1298 1299 1300 1301 1302 1303 1304 1305 1306 1307 1308 1309 1310 1311 1312 1313 1314 1315 1316 1317 1318 1319 1320 1321 1322 1323 1324 1325 1326 1327 1328 1329 1330 1331 1332 1333 1334 1335 1336 1337 1338 1339 1340 1341 1342 1343 1344 1345 1346 1347 1348 1349 1350 1351 1352 1353 1354 1355 1356 1357 1358 1359 1360 1361 1362 1363 1364 1365 1366 1367 1368 1369 1370 1371 1372 1373 1374 1375 1376 1377 1378 1379 1380 1381 1382 1383 1384 1385 1386 1387 1388 1389 1390 1391 1392 1393 1394 1395 1396 1397 1398 1399 1400 1401 1402 1403 1404 1405 1406 1407 1408 1409 1410 1411 1412 1413 1414 1415 1416 1417 1418 1419 1420 1421 1422 1423 1424 1425 1426 1427 1428 1429 1430 1431 1432 1433 1434 1435 1436 1437 1438 1439 1440 1441 1442 1443 1444 1445 1446 1447 1448 1449 1450 1451 1452 1453 1454 1455 1456 1457 1458 1459 1460 1461 1462 1463 1464 1465 1466 1467 1468 1469 1470 1471 1472 1473 1474 1475 1476 1477 1478 1479 1480 1481 1482 1483 1484 1485 1486 1487 1488 1489 1490 1491 1492 1493 1494 1495 1496 1497 1498 1499 1500 1501 1502 1503 1504 1505 1506 1507 1508 1509 1510 1511 1512 1513 1514 1515 1516 1517 1518 1519 1520 1521 1522 1523 1524 1525 1526 1527 1528 1529 1530 1531 1532 1533 1534 1535 1536 1537 1538 1539 1540 1541 1542 1543 1544 1545 1546 1547 1548 1549 1550 1551 1552 1553 1554 1555 1556 1557 1558 1559 1560 1561 1562 1563 1564 1565 1566 1567 1568 1569 1570 1571 1572 1573 1574 1575 1576 1577 1578 1579 1580 1581 1582 1583 1584 1585 1586 1587 1588 1589 1590 1591 1592 1593 1594 1595 1596 1597 1598 1599 1600 1601 1602 1603 1604 1605 1606 1607 1608 1609 1610 1611 1612 1613 1614 1615 1616 1617 1618 1619 1620 1621 1622 1623 1624 1625 1626 1627 1628 1629 1630 1631 1632 1633 1634 1635 1636 1637 1638 1639 1640 1641 1642 1643 1644 1645 1646 1647 1648 1649 1650 1651 1652 1653 1654 1655 1656 1657 1658 1659 1660 1661 1662 1663 1664 1665 1666 1667 1668 1669 1670 1671 1672 1673 1674 1675 1676 1677 1678 1679 1680 1681 1682 1683 1684 1685 1686 1687 1688 1689 1690 1691 1692 1693 1694 1695 1696 1697 1698 1699 1700 1701 1702 1703 1704 1705 1706 1707 1708 1709 1710 1711 1712 1713 1714 1715 1716 1717 1718 1719 1720 1721 1722 1723 1724 1725 1726 1727 1728 1729 1730 1731 1732 1733 1734 1735 1736 1737 1738 1739 1740 1741 1742 1743 1744 1745 1746 1747 1748 1749 1750 1751 1752 1753 1754 1755 1756 1757 1758 1759 1760 1761 1762 1763 1764 1765 1766 1767 1768 1769 1770 1771 1772 1773 1774 1775 1776 1777 1778 1779 1780 1781 1782 1783 1784 1785 1786 1787 1788 1789 1790 1791 1792 1793 1794 1795 1796 1797 1798 1799 1800 1801 1802 1803 1804 1805 1806 1807 1808 1809 1810 1811 1812 1813 1814 1815 1816 1817 1818 1819 1820 1821 1822 1823 1824 1825 1826 1827 1828 1829 1830 1831 1832 1833 1834 1835 1836 1837 1838 1839 1840 1841 1842 1843 1844 1845 1846 1847 1848 1849 1850 1851 1852 1853 1854 1855 1856 1857 1858 1859 1860 1861 1862 1863 1864 1865 1866 1867 1868 1869 1870 1871 1872 1873 1874 1875 1876 1877 1878 1879 1880 1881 1882 1883 1884 1885 1886 1887 1888 1889 1890 1891 1892 1893 1894 1895 1896 1897 1898 1899 1900 1901 1902 1903 1904 1905 1906 1907 1908 1909 1910 1911 1912 1913 1914 1915 1916 1917 1918 1919 1920 1921 1922 1923 1924 1925 1926 1927 1928 1929 1930 1931 1932 1933 1934 1935 1936 1937 1938 1939 1940 1941 1942 1943 1944 1945 1946 1947 1948 1949 1950 1951 1952 1953 1954 1955 1956 1957 1958 1959 1960 1961 1962 1963 1964 1965 1966 1967 1968 1969 1970 1971 1972 1973 1974 1975 1976 1977 1978 1979 1980 1981 1982 1983 1984 1985 1986 1987 1988 1989 1990 1991 1992 1993 1994 1995 1996 1997 1998 1999 2000 2001 2002 2003 2004 2005 2006 2007 2008 2009 2010 2011 2012 2013 2014 2015 2016 2017 2018 2019 2020 2021 2022 2023 2024 2025 2026 2027 2028 2029 2030 2031 2032 2033 2034 2035 2036 2037 2038 2039 2040 2041 2042 2043 2044 2045 2046 2047 2048 2049 2050 2051 2052 2053 2054 2055 2056 2057 2058 2059 2060 2061 2062 2063 2064 2065 2066 2067 2068 2069 2070 2071 2072 2073 2074 2075 2076 2077 2078 2079 2080 2081 2082 2083 2084 2085 2086 2087 2088 2089 2090 2091 2092 2093 2094 2095 2096 2097 2098 2099 2100 2101 2102 2103 2104 2105 2106 2107 2108 2109 2110 2111 2112 2113 2114 2115 2116 2117 2118 2119 2120 2121 2122 2123 2124 2125 2126 2127 2128 2129 2130 2131 2132 2133 2134 2135 2136 2137 2138 2139 2140 2141 2142 2143 2144 2145 2146 2147 2148 2149 2150 2151 2152 2153 2154 2155 2156 2157 2158 2159 2160 2161 2162 2163 2164 2165 2166 2167 2168 2169 2170 2171 2172 2173 2174 2175 2176 2177 2178 2179 2180 2181 2182 2183 2184 2185 2186 2187 2188 2189 2190 2191 2192 2193 2194 2195 2196 2197 2198 2199 2200 2201 2202 2203 2204 2205 2206 2207 2208 2209 2210 2211 2212 2213 2214 2215 2216 2217 2218 2219 2220 2221 2222 2223 2224 2225 2226 2227 2228 2229 2230 2231 2232 2233 2234 2235 2236 2237 2238 2239 2240 2241 2242 2243 2244 2245 2246 2247 2248 2249 2250 2251 2252 2253 2254 2255 2256 2257 2258 2259 2260 2261 2262 2263 2264 2265 2266 2267 2268 2269 2270 2271 2272 2273 2274 2275 2276 2277 2278 2279 2280 2281 2282 2283 2284 2285 2286 2287 2288 2289 2290 2291 2292 2293 2294 2295 2296 2297 2298 2299 2300 2301 2302 2303 2304 2305 2306 2307 2308 2309 2310 2311 2312 2313 2314 2315 2316 2317 2318 2319 2320 2321 2322 2323 2324 2325 2326 2327 2328 2329 2330 2331 2332 2333 2334 2335 2336 2337 2338 2339 2340 2341 2342 2343 2344 2345 2346 2347 2348 2349 2350 2351 2352 2353 2354 2355 2356 2357 2358 2359 2360 2361 2362 2363 2364 2365 2366 2367 2368 2369 2370 2371 2372 2373 2374 2375 2376 2377 2378 2379 2380 2381 2382 2383 2384 2385 2386 2387 2388 2389 2390 2391 2392 2393 2394 2395 2396 2397 2398 2399 2400 2401 2402 2403 2404 2405 2406 2407 2408 2409 2410 2411 2412 2413 2414 2415 2416 2417 2418 2419 2420 2421 2422 2423 2424 2425 2426 2427 2428 2429 2430 2431 2432 2433 2434 2435 2436 2437 2438 2439 2440 2441 2442 2443 2444 2445 2446 2447 2448 2449 2450 2451 2452 2453 2454 2455 2456 2457 2458 2459 2460 2461 2462 2463 2464 2465 2466 2467 2468 2469 2470 2471 2472 2473 2474 2475 2476 2477 2478 2479 2480 2481 2482 2483 2484 2485 2486 2487 2488 2489 2490 2491 2492 2493 2494 2495 2496 2497 2498 2499 2500 2501 2502 2503 2504 2505 2506 2507 2508 2509 2510 2511 2512 2513 2514 2515 2516 2517 2518 2519 2520 2521 2522 2523 2524 2525 2526 2527 2528 2529 2530 2531 2532 2533 2534 2535 2536 2537 2538 2539 2540 2541 2542 2543 2544 2545 2546 2547 2548 2549 2550 2551 2552 2553 2554 2555 2556 2557 2558 2559 2560 2561 2562 2563 2564 2565 2566 2567 2568 2569 2570 2571 2572 2573 2574 2575 2576 2577 2578 2579 2580 2581 2582 2583 2584 2585 2586 2587 2588 2589 2590 2591 2592 2593 2594 2595 2596 2597 2598 2599 2600 2601 2602 2603 2604 2605 2606 2607 2608 2609 2610 2611 2612 2613 2614 2615 2616 2617 2618 2619 2620 2621 2622 2623 2624 2625 2626 2627 2628 2629 2630 2631 2632 2633 2634 2635 2636 2637 2638 2639 2640 2641 2642 2643 2644 2645 2646 2647 2648 2649 2650 2651 2652 2653 2654 2655 2656 2657 2658 2659 2660 2661 2662 2663 2664 2665 2666 2667 2668 2669 2670 2671 2672 2673 2674 2675 2676 2677 2678 2679 2680 2681 2682 2683 2684 2685 2686 2687 2688 2689 2690 2691 2692 2693 2694 2695 2696 2697 2698 2699 2700 2701 2702 2703 2704 2705 2706 2707 2708 2709 2710 2711 2712 2713 2714 2715 2716 2717 2718 2719 2720 2721 2722 2723 2724 2725 2726 2727 2728 2729 2730 2731 2732 2733 2734 2735 2736 2737 2738 2739 2740 2741 2742 2743 2744 2745 2746 2747 2748 2749 2750 2751 2752 2753 2754 2755 2756 2757 2758 2759 2760 2761 2762 2763 2764 2765 2766 2767 2768 2769 2770 2771 2772 2773 2774 2775 2776 2777 2778 2779 2780 2781 2782 2783 2784 2785 2786 2787 2788 2789 2790 2791 2792 2793 2794 2795 2796 2797 2798 2799 2800 2801 2802 2803 2804 2805 2806 2807 2808 2809 2810 2811 2812 2813 2814 2815 2816 2817 2818 2819 2820 2821 2822 2823 2824 2825 2826 2827 2828 2829 2830 2831 2832 2833 2834 2835 2836 2837 2838 2839 2840 2841 2842 2843 2844 2845 2846 2847 2848 2849 2850 2851 2852 2853 2854 2855 2856 2857 2858 2859 2860 2861 2862 2863 2864 2865 2866 2867 2868 2869 2870 2871 2872 2873 2874 2875 2876 2877 2878 2879 2880 2881 2882 2883 2884 2885 2886 2887 2888 2889 2890 2891 2892 2893 2894 2895 2896 2897 2898 2899 2900 2901 2902 2903 2904 2905 2906 2907 2908 2909 2910 2911 2912 2913 2914 2915 2916 2917 2918 2919 2920 2921 2922 2923 2924 2925 2926 2927 2928 2929 2930 2931 2932 2933 2934 2935 2936 2937 2938 2939 2940 2941 2942 2943 2944 2945 2946 2947 2948 2949 2950 2951 2952 2953 2954 2955 2956 2957 2958 2959 2960 2961 2962 2963 2964 2965 2966 2967 2968 2969 2970 2971 2972 2973 2974 2975 2976 2977 2978 2979 2980 2981 2982 2983 2984 2985 2986 2987 2988 2989 2990 2991 2992 2993 2994 2995 2996 2997 2998 2999 3000 3001 3002 3003 3004 3005 3006 3007 3008 3009 3010 3011 3012 3013 3014 3015 3016 3017 3018 3019 3020 3021 3022 3023 3024 3025 3026 3027 3028 3029 3030 3031 3032 3033 3034 3035 3036 3037 3038 3039 3040 3041 3042 3043 3044 3045 3046 3047 3048 3049 3050 3051 3052 3053 3054 3055 3056 3057 3058 3059 3060 3061 3062 3063 3064 3065 3066 3067 3068 3069 3070 3071 3072 3073 3074 3075 3076 3077 3078 3079 3080 3081 3082 3083 3084 3085 3086 3087 3088 3089 3090 3091 3092 3093 3094 3095 3096 3097 3098 3099 3100 3101 3102 3103 3104 3105 3106 3107 3108 3109 3110 3111 3112 3113 3114 3115 3116 3117 3118 3119 3120 3121 3122 3123 3124 3125 3126 3127 3128 3129 3130 3131 3132 3133 3134 3135 3136 3137 3138 3139 3140 3141 3142 3143 3144 3145 3146 3147 3148 3149 3150 3151 3152 3153 3154 3155 3156 3157 3158 3159 3160 3161 3162 3163 3164 3165 3166 3167 3168 3169 3170 3171 3172 3173 3174 3175 3176 3177 3178 3179 3180 3181 3182 3183 3184 3185 3186 3187 3188 3189 3190 3191 3192 3193 3194 3195 3196 3197 3198 3199 3200 3201 3202 3203 3204 3205 3206 3207 3208 3209 3210 3211 3212 3213 3214 3215 3216 3217 3218 3219 3220 3221 3222 3223 3224 3225 3226 3227 3228 3229 3230 3231 3232 3233 3234 3235 3236 3237 3238 3239 3240 3241 3242 3243 3244 3245 3246 3247 3248 3249 3250 3251 3252 3253 3254 3255 3256 3257 3258 3259 3260 3261 3262 3263 3264 3265 3266 3267 3268 3269 3270 3271 3272 3273 3274 3275 3276 3277 3278 3279 3280 3281 3282 3283 3284 3285 3286 3287 3288 3289 3290 3291 3292 3293 3294 3295 3296 3297 3298 3299 3300 3301 3302 3303 3304 3305 3306 3307 3308 3309 3310 3311 3312 3313 3314 3315 3316 3317 3318 3319 3320 3321 3322 3323 3324 3325 3326 3327 3328 3329 3330 3331 3332 3333 3334 3335 3336 3337 3338 3339 3340 3341 3342 3343 3344 3345 3346 3347 3348 3349 3350 3351 3352 3353 3354 3355 3356 3357 3358 3359 3360 3361 3362 3363 3364 3365 3366 3367 3368 3369 3370 3371 3372 3373 3374 3375 3376 3377 3378 3379 3380 3381 3382 3383 3384 3385 3386 3387 3388 3389 3390 3391 3392 3393 3394 3395 3396 3397 3398 3399 3400 3401 3402 3403 3404 3405 3406 3407 3408 3409 3410 3411 3412 3413 3414 3415 3416 3417 3418 3419 3420 3421 3422 3423 3424 3425 3426 3427 3428 3429 3430 3431 3432 3433 3434 3435 3436 3437 3438 3439 3440 3441 3442 3443 3444 3445 3446 3447 3448 3449 3450 3451 3452 3453 3454 3455 3456 3457 3458 3459 3460 3461 3462 3463 3464 3465 3466 3467 3468 3469 3470 3471 3472 3473 3474 3475 3476 3477 3478 3479 3480 3481 3482 3483 3484 3485 3486 3487 3488 3489 3490 3491 3492 3493 3494 3495 3496 3497 3498 3499 3500 3501 3502 3503 3504 3505 3506 3507 3508 3509 3510 3511 3512 3513 3514 3515 3516 3517 3518 3519 3520 3521 3522 3523 3524 3525 3526 3527 3528 3529 3530 3531 3532 3533 3534 3535 3536 3537 3538 3539 3540 3541 3542 3543 3544 3545 3546 3547 3548 3549 3550 3551 3552 3553 3554 3555 3556 3557 3558 3559 3560 3561 3562 3563 3564 3565 3566 3567 3568 3569 3570 3571 3572 3573 3574 3575 3576 3577 3578 3579 3580 3581 3582 3583 3584 3585 3586 3587 3588 3589 3590 3591 3592 3593 3594 3595 3596 3597 3598 3599 3600 3601 3602 3603 3604 3605 3606 3607 3608 3609 3610 3611 3612 3613 3614 3615 3616 3617 3618 3619 3620 3621 3622 3623 3624 3625 3626 3627 3628 3629 3630 3631 3632 3633 3634 3635 3636 3637 3638 3639 3640 3641 3642 3643 3644 3645 3646 3647 3648 3649 3650 3651 3652 3653 3654 3655 3656 3657 3658 3659 3660 3661 3662 3663 3664 3665 3666 3667 3668 3669 3670 3671 3672 3673 3674 3675 3676 3677 3678 3679 3680 3681 3682 3683 3684 3685 3686 3687 3688 3689 3690 3691 3692 3693 3694 3695 3696 3697 3698 3699 3700 3701 3702 3703 3704 3705 3706 3707 3708 3709 3710 3711 3712 3713 3714 3715 3716 3717 3718 3719 3720 3721 3722 3723 3724 3725 3726 3727 3728 3729 3730 3731 3732 3733 3734 3735 3736 3737 3738 3739 3740 3741 3742 3743 3744 3745 3746 3747 3748 3749 3750 3751 3752 3753 3754 3755 3756 3757 3758 3759 3760 3761 3762 3763 3764 3765 3766 3767 3768 3769 3770 3771 3772 3773 3774 3775 3776 3777 3778 3779 3780 3781 3782 3783 3784 3785 3786 3787 3788 3789 3790 3791 3792 3793 3794 3795 3796 3797 3798 3799 3800 3801 3802 3803 3804 3805 3806 3807 3808 3809 3810 3811 3812 3813 3814 3815 3816 3817 3818 3819 3820 3821 3822 3823 3824 3825 3826 3827 3828 3829 3830 3831 3832 3833 3834 3835 3836 3837 3838 3839 3840 3841 3842 3843 3844 3845 3846 3847 3848 3849 3850 3851 3852 3853 3854 3855 3856 3857 3858 3859 3860 3861 3862 3863 3864 3865 3866 3867 3868 3869 3870 3871 3872 3873 3874 3875 3876 3877 3878 3879 3880 3881 3882 3883 3884 3885 3886 3887 3888 3889 3890 3891 3892 3893 3894 3895 3896 3897 3898 3899 3900 3901 3902 3903 3904 3905 3906 3907 3908 3909 3910 3911 3912 3913 3914 3915 3916 3917 3918 3919 3920 3921 3922 3923 3924 3925 3926 3927 3928 3929 3930 3931 3932 3933 3934 3935 3936 3937 3938 3939 3940 3941 3942 3943 3944 3945 3946 3947 3948 3949 3950 3951 3952 3953 3954 3955 3956 3957 3958 3959 3960 3961 3962 3963 3964 3965 3966 3967 3968 3969 3970 3971 3972 3973 3974 3975 3976 3977 3978 3979 3980 3981 3982 3983 3984 3985 3986 3987 3988 3989 3990 3991 3992 3993 3994 3995 3996 3997 3998 3999 4000 4001 4002 4003 4004 4005 4006 4007 4008 4009 4010 4011 4012 4013 4014 4015 4016 4017 4018 4019 4020 4021 4022 4023 4024 4025 4026 4027 4028 4029 4030 4031 4032 4033 4034 4035 4036 4037 4038 4039 4040 4041 4042 4043 4044 4045 4046 4047 4048 4049 4050 4051 4052 4053 4054 4055 4056 4057 4058 4059 4060 4061 4062 4063 4064 4065 4066 4067 4068 4069 4070 4071 4072 4073 4074 4075 4076 4077 4078 4079 4080 4081 4082 4083 4084 4085 4086 4087 4088 4089 4090 4091 4092 4093 4094 4095 4096 4097 4098 4099 4100 4101 4102 4103 4104 4105 4106 4107 4108 4109 4110 4111 4112 4113 4114 4115 4116 4117 4118 4119 4120 4121 4122 4123 4124 4125 4126 4127 4128 4129 4130 4131 4132 4133 4134 4135 4136 4137 4138 4139 4140 4141 4142 4143 4144 4145 4146 4147 4148 4149 4150 4151 4152 4153 4154 4155 4156 4157 4158 4159 4160 4161 4162 4163 4164 4165 4166 4167 4168 4169 4170 4171 4172 4173 4174 4175 4176 4177 4178 4179 4180 4181 4182 4183 4184 4185 4186 4187 4188 4189 4190 4191 4192 4193 4194 4195 4196 4197 4198 4199 4200 4201 4202 4203 4204 4205 4206 4207 4208 4209 4210 4211 4212 4213 4214 4215 4216 4217 4218 4219 4220 4221 4222 4223 4224 4225 4226 4227 4228 4229 4230 4231 4232 4233 4234 4235 4236 4237 4238 4239 4240 4241 4242 4243 4244 4245 4246 4247 4248 4249 4250 4251 4252 4253 4254 4255 4256 4257 4258 4259 4260 4261 4262 4263 4264 4265 4266 4267 4268 4269 4270 4271 4272 4273 4274 4275 4276 4277 4278 4279 4280 4281 4282 4283 4284 4285 4286 4287 4288 4289 4290 4291 4292 4293 4294 4295 4296 4297 4298 4299 4300 4301 4302 4303 4304 4305 4306 4307 4308 4309 4310 4311 4312 4313 4314 4315 4316 4317 4318 4319 4320 4321 4322 4323 4324 4325 4326 4327 4328 4329 4330 4331 4332 4333 4334 4335 4336 4337 4338 4339 4340 4341 4342 4343 4344 4345 4346 4347 4348 4349 4350 4351 4352 4353 4354 4355 4356 4357 4358 4359 4360 4361 4362 4363 4364 4365 4366 4367 4368 4369 4370 4371 4372 4373 4374 4375 4376 4377 4378 4379 4380 4381 4382 4383 4384 4385 4386 4387 4388 4389 4390 4391 4392 4393 4394 4395 4396 4397 4398 4399 4400 4401 4402 4403 4404 4405 4406 4407 4408 4409 4410 4411 4412 4413 4414 4415 4416 4417 4418 4419 4420 4421 4422 4423 4424 4425 4426 4427 4428 4429 4430 4431 4432 4433 4434 4435 4436 4437 4438 4439 4440 4441 4442 4443 4444 4445 4446 4447 4448 4449 4450 4451 4452 4453 4454 4455 4456 4457 4458 4459 4460 4461 4462 4463 4464 4465 4466 4467 4468 4469 4470 4471 4472 4473 4474 4475 4476 4477 4478 4479 4480 4481 4482 4483 4484 4485 4486 4487 4488 4489 4490 4491 4492 4493 4494 4495 4496 4497 4498 4499 4500 4501 4502 4503 4504 4505 4506 4507 4508 4509 4510 4511 4512 4513 4514 4515 4516 4517 4518 4519 4520 4521 4522 4523 4524 4525 4526 4527 4528 4529 4530 4531 4532 4533 4534 4535 4536 4537 4538 4539 4540 4541 4542 4543 4544 4545 4546 4547 4548 4549 4550 4551 4552 4553 4554 4555 4556 4557 4558 4559 4560 4561 4562 4563 4564 4565 4566 4567 4568 4569 4570 4571 4572 4573 4574 4575 4576 4577 4578 4579 4580 4581 4582 4583 4584 4585 4586 4587 4588 4589 4590 4591 4592 4593 4594 4595 4596 4597 4598 4599 4600 4601 4602 4603 4604 4605 4606 4607 4608 4609 4610 4611 4612 4613 4614 4615 4616 4617 4618 4619 4620 4621 4622 4623 4624 4625 4626 4627 4628 4629 4630 4631 4632 4633 4634 4635 4636 4637 4638 4639 4640 4641 4642 4643 4644 4645 4646 4647 4648 4649 4650 4651 4652 4653 4654 4655 4656 4657 4658 4659 4660 4661 4662 4663 4664 4665 4666 4667 4668 4669 4670 4671 4672 4673 4674 4675 4676 4677 4678 4679 4680 4681 4682 4683 4684 4685 4686 4687 4688 4689 4690 4691 4692 4693 4694 4695 4696 4697 4698 4699 4700 4701 4702 4703 4704 4705 4706 4707 4708 4709 4710 4711 4712 4713 4714 4715 4716 4717 4718 4719 4720 4721 4722 4723 4724 4725 4726 4727 4728 4729 4730 4731 4732 4733 4734 4735 4736 4737 4738 4739 4740 4741 4742 4743 4744 4745 4746 4747 4748 4749 4750 4751 4752 4753 4754 4755 4756 4757 4758 4759 4760 4761 4762 4763 4764 4765 4766 4767 4768 4769 4770 4771 4772 4773 4774 4775 4776 4777 4778 4779 4780 4781 4782 4783 4784 4785 4786 4787 4788 4789 4790 4791 4792 4793 4794 4795 4796 4797 4798 4799 4800 4801 4802 4803 4804 4805 4806 4807 4808 4809 4810 4811 4812 4813 4814 4815 4816 4817 4818 4819 4820 4821 4822 4823 4824 4825 4826 4827 4828 4829 4830 4831 4832 4833 4834 4835 4836 4837 4838 4839 4840 4841 4842 4843 4844 4845 4846 4847 4848 4849 4850 4851 4852 4853 4854 4855 4856 4857 4858 4859 4860 4861 4862 4863 4864 4865 4866 4867 4868 4869 4870 4871 4872 4873 4874 4875 4876 4877 4878 4879 4880 4881 4882 4883 4884 4885 4886 4887 4888 4889 4890 4891 4892 4893 4894 4895 4896 4897 4898 4899 4900 4901 4902 4903 4904 4905 4906 4907 4908 4909 4910 4911 4912 4913 4914 4915 4916 4917 4918 4919 4920 4921 4922 4923 4924 4925 4926 4927 4928 4929 4930 4931 4932 4933 4934 4935 4936 4937 4938 4939 4940 4941 4942 4943 4944 4945 4946 4947 4948 4949 4950 4951 4952 4953 4954 4955 4956 4957 4958 4959 4960 4961 4962 4963 4964 4965 4966 4967 4968 4969 4970 4971 4972 4973 4974 4975 4976 4977 4978 4979 4980 4981 4982 4983 4984 4985 4986 4987 4988 4989 4990 4991 4992 4993 4994 4995 4996 4997 4998 4999 5000 5001 5002 5003 5004 5005 5006 5007 5008 5009 5010 5011 5012 5013 5014 5015 5016 5017 5018 5019 5020 5021 5022 5023 5024 5025 5026 5027 5028 5029 5030 5031 5032 5033 5034 5035 5036 5037 5038 5039 5040 5041 5042 5043 5044 5045 5046 5047 5048 5049 5050 5051 5052 5053 5054 5055 5056 5057 5058 5059 5060 5061 5062 5063 5064 5065 5066 5067 5068 5069 5070 5071 5072 5073 5074 5075 5076 5077 5078 5079 5080 5081 5082 5083 5084 5085 5086 5087 5088 5089 5090 5091 5092 5093 5094 5095 5096 5097 5098 5099 5100 5101 5102 5103 5104 5105 5106 5107 5108 5109 5110 5111 5112 5113 5114 5115 5116 5117 5118 5119 5120 5121 5122 5123 5124 5125 5126 5127 5128 5129 5130 5131 5132 5133 5134 5135 5136 5137 5138 5139 5140 5141 5142 5143 5144 5145 5146 5147 5148 5149 5150 5151 5152 5153 5154 5155 5156 5157 5158 5159 5160 5161 5162 5163 5164 5165 5166 5167 5168 5169 5170 5171 5172 5173 5174 5175 5176 5177 5178 5179 5180 5181 5182 5183 5184 5185 5186 5187 5188 5189 5190 5191 5192 5193 5194 5195 5196 5197 5198 5199 5200 5201 5202 5203 5204 5205 5206 5207 5208 5209 5210 5211 5212 5213 5214 5215 5216 5217 5218 5219 5220 5221 5222 5223 5224 5225 5226 5227 5228 5229 5230 5231 5232 5233 5234 5235 5236 5237 5238 5239 5240 5241 5242 5243 5244 5245 5246 5247 5248 5249 5250 5251 5252 5253 5254 5255 5256 5257 5258 5259 5260 5261 5262 5263 5264 5265 5266 5267 5268 5269 5270 5271 5272 5273 5274 5275 5276 5277 5278 5279 5280 5281 5282 5283 5284 5285 5286 5287 5288 5289 5290 5291 5292 5293 5294 5295 5296 5297 5298 5299 5300 5301 5302 5303 5304 5305 5306 5307 5308 5309 5310 5311 5312 5313 5314 5315 5316 5317 5318 5319 5320 5321 5322 5323 5324 5325 5326 5327 5328 5329 5330 5331 5332 5333 5334 5335 5336 5337 5338 5339 5340 5341 5342 5343 5344 5345 5346 5347 5348 5349 5350 5351 5352 5353 5354 5355 5356 5357 5358 5359 5360 5361 5362 5363 5364 5365 5366 5367 5368 5369 5370 5371 5372 5373 5374 5375 5376 5377 5378 5379 5380 5381 5382 5383 5384 5385 5386 5387 5388 5389 5390 5391 5392 5393 5394 5395 5396 5397 5398 5399 5400 5401 5402 5403 5404 5405 5406 5407 5408 5409 5410 5411 5412 5413 5414 5415 5416 5417 5418 5419 5420 5421 5422 5423 5424 5425 5426 5427 5428 5429 5430 5431 5432 5433 5434 5435 5436 5437 5438 5439 5440 5441 5442 5443 5444 5445 5446 5447 5448 5449 5450 5451 5452 5453 5454 5455 5456 5457 5458 5459 5460 5461 5462 5463 5464 5465 5466 5467 5468 5469 5470 5471 5472 5473 5474 5475 5476 5477 5478 5479 5480 5481 5482 5483 5484 5485 5486 5487 5488 5489 5490 5491 5492 5493 5494 5495 5496 5497 5498 5499 5500 5501 5502 5503 5504 5505 5506 5507 5508 5509 5510 5511 5512 5513 5514 5515 5516 5517 5518 5519 5520 5521 5522 5523 5524 5525 5526 5527 5528 5529 5530 5531 5532 5533 5534 5535 5536 5537 5538 5539 5540 5541 5542 5543 5544 5545 5546 5547 5548 5549 5550 5551 5552 5553 5554 5555 5556 5557 5558 5559 5560 5561 5562 5563 5564 5565 5566 5567 5568 5569 5570 5571 5572 5573 5574 5575 5576 5577 5578 5579 5580 5581 5582 5583 5584 5585 5586 5587 5588 5589 5590 5591 5592 5593 5594 5595 5596 5597 5598 5599 5600 5601 5602 5603 5604 5605 5606 5607 5608 5609 5610 5611 5612 5613 5614 5615 5616 5617 5618 5619 5620 5621 5622 5623 5624 5625 5626 5627 5628 5629 5630 5631 5632 5633 5634 5635 5636 5637 5638 5639 5640 5641 5642 5643 5644 5645 5646 5647 5648 5649 5650 5651 5652 5653 5654 5655 5656 5657 5658 5659 5660 5661 5662 5663 5664 5665 5666 5667 5668 5669 5670 5671 5672 5673 5674 5675 5676 5677 5678 5679 5680 5681 5682 5683 5684 5685 5686 5687 5688 5689 5690 5691 5692 5693 5694 5695 5696 5697 5698 5699 5700 5701 5702 5703 5704 5705 5706 5707 5708 5709 5710 5711 5712 5713 5714 5715 5716 5717 5718 5719 5720 5721 5722 5723 5724 5725 5726 5727 5728 5729 5730 5731 5732 5733 5734 5735 5736 5737 5738 5739 5740 5741 5742 5743 5744 5745 5746 5747 5748 5749 5750 5751 5752 5753 5754 5755 5756 5757 5758 5759 5760 5761 5762 5763 5764 5765 5766 5767 5768 5769 5770 5771 5772 5773 5774 5775 5776 5777 5778 5779 5780 5781 5782 5783 5784 5785 5786 5787 5788 5789 5790 5791 5792 5793 5794 5795 5796 5797 5798 5799 5800 5801 5802 5803 5804 5805 5806 5807 5808 5809 5810 5811 5812 5813 5814 5815 5816 5817 5818 5819 5820 5821 5822 5823 5824 5825 5826 5827 5828 5829 5830 5831 5832 5833 5834 5835 5836 5837 5838 5839 5840 5841 5842 5843 5844 5845 5846 5847 5848 5849 5850 5851 5852 5853 5854 5855 5856 5857 5858 5859 5860 5861 5862 5863 5864 5865 5866 5867 5868 5869 5870 5871 5872 5873 5874 5875 5876 5877 5878 5879 5880 5881 5882 5883 5884 5885 5886 5887 5888 5889 5890 5891 5892 5893 5894 5895 5896 5897 5898 5899 5900 5901 5902 5903 5904 5905 5906 5907 5908 5909 5910 5911 5912 5913 5914 5915 5916 5917 5918 5919 5920 5921 5922 5923 5924 5925 5926 5927 5928 5929 5930 5931 5932 5933 5934 5935 5936 5937 5938 5939 5940 5941 5942 5943 5944 5945 5946 5947 5948 5949 5950 5951 5952 5953 5954 5955 5956 5957 5958 5959 5960 5961 5962 5963 5964 5965 5966 5967 5968 5969 5970 5971 5972 5973 5974 5975 5976 5977 5978 5979 5980 5981 5982 5983 5984 5985 5986 5987 5988 5989 5990 5991 5992 5993 5994 5995 5996 5997 5998 5999 6000 6001 6002 6003 6004 6005 6006 6007 6008 6009 6010 6011 6012 6013 6014 6015 6016 6017 6018 6019 6020 6021 6022 6023 6024 6025 6026 6027 6028 6029 6030 6031 6032 6033 6034 6035 6036 6037 6038 6039 6040 6041 6042 6043 6044 6045 6046 6047 6048 6049 6050 6051 6052 6053 6054 6055 6056 6057 6058 6059 6060 6061 6062 6063 6064 6065 6066 6067 6068 6069 6070 6071 6072 6073 6074 6075 6076 6077 6078 6079 6080 6081 6082 6083 6084 6085 6086 6087 6088 6089 6090 6091 6092 6093 6094 6095 6096 6097 6098 6099 6100 6101 6102 6103 6104 6105 6106 6107 6108 6109 6110 6111 6112 6113 6114 6115 6116 6117 6118 6119 6120 6121 6122 6123 6124 6125 6126 6127 6128 6129 6130 6131 6132 6133 6134 6135 6136 6137 6138 6139 6140 6141 6142 6143 6144 6145 6146 6147 6148 6149 6150 6151 6152 6153 6154 6155 6156 6157 6158 6159 6160 6161 6162 6163 6164 6165 6166 6167 6168 6169 6170 6171 6172 6173 6174 6175 6176 6177 6178 6179 6180 6181 6182 6183 6184 6185 6186 6187 6188 6189 6190 6191 6192 6193 6194 6195 6196 6197 6198 6199 6200 6201 6202 6203 6204 6205 6206 6207 6208 6209 6210 6211 6212 6213 6214 6215 6216 6217 6218 6219 6220 6221 6222 6223 6224 6225 6226 6227 6228 6229 6230 6231 6232 6233 6234 6235 6236 6237 6238 6239 6240 6241 6242 6243 6244 6245 6246 6247 6248 6249 6250 6251 6252 6253 6254 6255 6256 6257 6258 6259 6260 6261 6262 6263 6264 6265 6266 6267 6268 6269 6270 6271 6272 6273 6274 6275 6276 6277 6278 6279 6280 6281 6282 6283 6284 6285 6286 6287 6288 6289 6290 6291 6292 6293 6294 6295 6296 6297 6298 6299 6300 6301 6302 6303 6304 6305 6306 6307 6308 6309 6310 6311 6312 6313 6314 6315 6316 6317 6318 6319 6320 6321 6322 6323 6324 6325 6326 6327 6328 6329 6330 6331 6332 6333 6334 6335 6336 6337 6338 6339 6340 6341 6342 6343 6344 6345 6346 6347 6348 6349 6350 6351 6352 6353 6354 6355 6356 6357 6358 6359 6360 6361 6362 6363 6364 6365 6366 6367 6368 6369 6370 6371 6372 6373 6374 6375 6376 6377 6378 6379 6380 6381 6382 6383 6384 6385 6386 6387 6388 6389 6390 6391 6392 6393 6394 6395 6396 6397 6398 6399 6400 6401 6402 6403 6404 6405 6406 6407 6408 6409 6410 6411 6412 6413 6414 6415 6416 6417 6418 6419 6420 6421 6422 6423 6424 6425 6426 6427 6428 6429 6430 6431 6432 6433 6434 6435 6436 6437 6438 6439 6440 6441 6442 6443 6444 6445 6446 6447 6448 6449 6450 6451 6452 6453 6454 6455 6456 6457 6458 6459 6460 6461 6462 6463 6464 6465 6466 6467 6468 6469 6470 6471 6472 6473 6474 6475 6476 6477 6478 6479 6480 6481 6482 6483 6484 6485 6486 6487 6488 6489 6490 6491 6492 6493 6494 6495 6496 6497 6498 6499 6500 6501 6502 6503 6504 6505 6506 6507 6508 6509 6510 6511 6512 6513 6514 6515 6516 6517 6518 6519 6520 6521 6522 6523 6524 6525 6526 6527 6528 6529 6530 6531 6532 6533 6534 6535 6536 6537 6538 6539 6540 6541 6542 6543 6544 6545 6546 6547 6548 6549 6550 6551 6552 6553 6554 6555 6556 6557 6558 6559 6560 6561 6562 6563 6564 6565 6566 6567 6568 6569 6570 6571 6572 6573 6574 6575 6576 6577 6578 6579 6580 6581 6582 6583 6584 6585 6586 6587 6588 6589 6590 6591 6592 6593 6594 6595 6596 6597 6598 6599 6600 6601 6602 6603 6604 6605 6606 6607 6608 6609 6610 6611 6612 6613 6614 6615 6616 6617 6618 6619 6620 6621 6622 6623 6624 6625 6626 6627 6628 6629 6630 6631 6632 6633 6634 6635 6636 6637 6638 6639 6640 6641 6642 6643 6644 6645 6646 6647 6648 6649 6650 6651 6652 6653 6654 6655 6656 6657 6658 6659 6660 6661 6662 6663 6664 6665 6666 6667 6668 6669 6670 6671 6672 6673 6674 6675 6676 6677 6678 6679 6680 6681 6682 6683 6684 6685 6686 6687 6688 6689 6690 6691 6692 6693 6694 6695 6696 6697 6698 6699 6700 6701 6702 6703 6704 6705 6706 6707 6708 6709 6710 6711 6712 6713 6714 6715 6716 6717 6718 6719 6720 6721 6722 6723 6724 6725 6726 6727 6728 6729 6730 6731 6732 6733 6734 6735 6736 6737 6738 6739 6740 6741 6742 6743 6744 6745 6746 6747 6748 6749 6750 6751 6752 6753 6754 6755 6756 6757 6758 6759 6760 6761 6762 6763 6764 6765 6766 6767 6768 6769 6770 6771 6772 6773 6774 6775 6776 6777 6778 6779 6780 6781 6782 6783 6784 6785 6786 6787 6788 6789 6790 6791 6792 6793 6794 6795 6796 6797 6798 6799 6800 6801 6802 6803 6804 6805 6806 6807 6808 6809 6810 6811 6812 6813 6814 6815 6816 6817 6818 6819 6820 6821 6822 6823 6824 6825 6826 6827 6828 6829 6830 6831 6832 6833 6834 6835 6836 6837 6838 6839 6840 6841 6842 6843 6844 6845 6846 6847 6848 6849 6850 6851 6852 6853 6854 6855 6856 6857 6858 6859 6860 6861 6862 6863 6864 6865 6866 6867 6868 6869 6870 6871 6872 6873 6874 6875 6876 6877 6878 6879 6880 6881 6882 6883 6884 6885 6886 6887 6888 6889 6890 6891 6892 6893 6894 6895 6896 6897 6898 6899 6900 6901 6902 6903 6904 6905 6906 6907 6908 6909 6910 6911 6912 6913 6914 6915 6916 6917 6918 6919 6920 6921 6922 6923 6924 6925 6926 6927 6928 6929 6930 6931 6932 6933 6934 6935 6936 6937 6938 6939 6940 6941 6942 6943 6944 6945 6946 6947 6948 6949 6950 6951 6952 6953 6954 6955 6956 6957 6958 6959 6960 6961 6962 6963 6964 6965 6966 6967 6968 6969 6970 6971 6972 6973 6974 6975 6976 6977 6978 6979 6980 6981 6982 6983 6984 6985 6986 6987 6988 6989 6990 6991 6992 6993 6994 6995 6996 6997 6998 6999 7000 7001 7002 7003 7004 7005 7006 7007 7008 7009 7010 7011 7012 7013 7014 7015 7016 7017 7018 7019 7020 7021 7022 7023 7024 7025 7026 7027 7028 7029 7030 7031 7032 7033 7034 7035 7036 7037 7038 7039 7040 7041 7042 7043 7044 7045 7046 7047 7048 7049 7050 7051 7052 7053 7054 7055 7056 7057 7058 7059 7060 7061 7062 7063 7064 7065 7066 7067 7068 7069 7070 7071 7072 7073 7074 7075 7076 7077 7078 7079 7080 7081 7082 7083 7084 7085 7086 7087 7088 7089 7090 7091 7092 7093 7094 7095 7096 7097 7098 7099 7100 7101 7102 7103 7104 7105 7106 7107 7108 7109 7110 7111 7112 7113 7114 7115 7116 7117 7118 7119 7120 7121 7122 7123 7124 7125 7126 7127 7128 7129 7130 7131 7132 7133 7134 7135 7136 7137 7138 7139 7140 7141 7142 7143 7144 7145 7146 7147 7148 7149 7150 7151 7152 7153 7154 7155 7156 7157 7158 7159 7160 7161 7162 7163 7164 7165 7166 7167 7168 7169 7170 7171 7172 7173 7174 7175 7176 7177 7178 7179 7180 7181 7182 7183 7184 7185 7186 7187 7188 7189 7190 7191 7192 7193 7194 7195 7196 7197 7198 7199 7200 7201 7202 7203 7204 7205 7206 7207 7208 7209 7210 7211 7212 7213 7214 7215 7216 7217 7218 7219 7220 7221 7222 7223 7224 7225 7226 7227 7228 7229 7230 7231 7232 7233 7234 7235 7236 7237 7238 7239 7240 7241 7242 7243 7244 7245 7246 7247 7248 7249 7250 7251 7252 7253 7254 7255 7256 7257 7258 7259 7260 7261 7262 7263 7264 7265 7266 7267 7268 7269 7270 7271 7272 7273 7274 7275 7276 7277 7278 7279 7280 7281 7282 7283 7284 7285 7286 7287 7288 7289 7290 7291 7292 7293 7294 7295 7296 7297 7298 7299 7300 7301 7302 7303 7304 7305 7306 7307 7308 7309 7310 7311 7312 7313 7314 7315 7316 7317 7318 7319 7320 7321 7322 7323 7324 7325 7326 7327 7328 7329 7330 7331 7332 7333 7334 7335 7336 7337 7338 7339 7340 7341 7342 7343 7344 7345 7346 7347 7348 7349 7350 7351 7352 7353 7354 7355 7356 7357 7358 7359 7360 7361 7362 7363 7364 7365 7366 7367 7368 7369 7370 7371 7372 7373 7374 7375 7376 7377 7378 7379 7380 7381 7382 7383 7384 7385 7386 7387 7388 7389 7390 7391 7392 7393 7394 7395 7396 7397 7398 7399 7400 7401 7402 7403 7404 7405 7406 7407 7408 7409 7410 7411 7412 7413 7414 7415 7416 7417 7418 7419 7420 7421 7422 7423 7424 7425 7426 7427 7428 7429 7430 7431 7432 7433 7434 7435 7436 7437 7438 7439 7440 7441 7442 7443 7444 7445 7446 7447 7448 7449 7450 7451 7452 7453 7454 7455 7456 7457 7458 7459 7460 7461 7462 7463 7464 7465 7466 7467 7468 7469 7470 7471 7472 7473 7474 7475 7476 7477 7478 7479 7480 7481 7482 7483 7484 7485 7486 7487 7488 7489 7490 7491 7492 7493 7494 7495 7496 7497 7498 7499 7500 7501 7502 7503 7504 7505 7506 7507 7508 7509 7510 7511 7512 7513 7514 7515 7516 7517 7518 7519 7520 7521 7522 7523 7524 7525 7526 7527 7528 7529 7530 7531 7532 7533 7534 7535 7536 7537 7538 7539 7540 7541 7542 7543 7544 7545 7546 7547 7548 7549 7550 7551 7552 7553 7554 7555 7556 7557 7558 7559 7560 7561 7562 7563 7564 7565 7566 7567 7568 7569 7570 7571 7572 7573 7574 7575 7576 7577 7578 7579 7580 7581 7582 7583 7584 7585 7586 7587 7588 7589 7590 7591 7592 7593 7594 7595 7596 7597 7598 7599 7600 7601 7602 7603 7604 7605 7606 7607 7608 7609 7610 7611 7612 7613 7614 7615 7616 7617 7618 7619 7620 7621 7622 7623 7624 7625 7626 7627 7628 7629 7630 7631 7632 7633 7634 7635 7636 7637 7638 7639 7640 7641 7642 7643 7644 7645 7646 7647 7648 7649 7650 7651 7652 7653 7654 7655 7656 7657 7658 7659 7660 7661 7662 7663 7664 7665 7666 7667 7668 7669 7670 7671 7672 7673 7674 7675 7676 7677 7678 7679 7680 7681 7682 7683 7684 7685 7686 7687 7688 7689 7690 7691 7692 7693 7694 7695 7696 7697 7698 7699 7700 7701 7702 7703 7704 7705 7706 7707 7708 7709 7710 7711 7712 7713 7714 7715 7716 7717 7718 7719 7720 7721 7722 7723 7724 7725 7726 7727 7728 7729 7730 7731 7732 7733 7734 7735 7736 7737 7738 7739 7740 7741 7742 7743 7744 7745 7746 7747 7748 7749 7750 7751 7752 7753 7754 7755 7756 7757 7758 7759 7760 7761 7762 7763 7764 7765 7766 7767 7768 7769 7770 7771 7772 7773 7774 7775 7776 7777 7778 7779 7780 7781 7782 7783 7784 7785 7786 7787 7788 7789 7790 7791 7792 7793 7794 7795 7796 7797 7798 7799 7800 7801 7802 7803 7804 7805 7806 7807 7808 7809 7810 7811 7812 7813 7814 7815 7816 7817 7818 7819 7820 7821 7822 7823 7824 7825 7826 7827 7828 7829 7830 7831 7832 7833 7834 7835 7836 7837 7838 7839 7840 7841 7842 7843 7844 7845 7846 7847 7848 7849 7850 7851 7852 7853 7854 7855 7856 7857 7858 7859 7860 7861 7862 7863 7864 7865 7866 7867 7868 7869 7870 7871 7872 7873 7874 7875 7876 7877 7878 7879 7880 7881 7882 7883 7884 7885 7886 7887 7888 7889 7890 7891 7892 7893 7894 7895 7896 7897 7898 7899 7900 7901 7902 7903 7904 7905 7906 7907 7908 7909 7910 7911 7912 7913 7914 7915 7916 7917 7918 7919 7920 7921 7922 7923 7924 7925 7926 7927 7928 7929 7930 7931 7932 7933 7934 7935 7936 7937 7938 7939 7940 7941 7942 7943 7944 7945 7946 7947 7948 7949 7950 7951 7952 7953 7954 7955 7956 7957 7958 7959 7960 7961 7962 7963 7964 7965 7966 7967 7968 7969 7970 7971 7972 7973 7974 7975 7976 7977 7978 7979 7980 7981 7982 7983 7984 7985 7986 7987 7988 7989 7990 7991 7992 7993 7994 7995 7996 7997 7998 7999 8000 8001 8002 8003 8004 8005 8006 8007 8008 8009 8010 8011 8012 8013 8014 8015 8016 8017 8018 8019 8020 8021 8022 8023 8024 8025 8026 8027 8028 8029 8030 8031 8032 8033 8034 8035 8036 8037 8038 8039 8040 8041 8042 8043 8044 8045 8046 8047 8048 8049 8050 8051 8052 8053 8054 8055 8056 8057 8058 8059 8060 8061 8062 8063 8064 8065 8066 8067 8068 8069 8070 8071 8072 8073 8074 8075 8076 8077 8078 8079 8080 8081 8082 8083 8084 8085 8086 8087 8088 8089 8090 8091 8092 8093 8094 8095 8096 8097 8098 8099 8100 8101 8102 8103 8104 8105 8106 8107 8108 8109 8110 8111 8112 8113 8114 8115 8116 8117 8118 8119 8120 8121 8122 8123 8124 8125 8126 8127 8128 8129 8130 8131 8132 8133 8134 8135 8136 8137 8138 8139 8140 8141 8142 8143 8144 8145 8146 8147 8148 8149 8150 8151 8152 8153 8154 8155 8156 8157 8158 8159 8160 8161 8162 8163 8164 8165 8166 8167 8168 8169 8170 8171 8172 8173 8174 8175 8176 8177 8178 8179 8180 8181 8182 8183 8184 8185 8186 8187 8188 8189 8190 8191 8192 8193 8194 8195 8196 8197 8198 8199 8200 8201 8202 8203 8204 8205 8206 8207 8208 8209 8210 8211 8212 8213 8214 8215 8216 8217 8218 8219 8220 8221 8222 8223 8224 8225 8226 8227 8228 8229 8230 8231 8232 8233 8234 8235 8236 8237 8238 8239 8240 8241 8242 8243 8244 8245 8246 8247 8248 8249 8250 8251 8252 8253 8254 8255 8256 8257 8258 8259 8260 8261 8262 8263 8264 8265 8266 8267 8268 8269 8270 8271 8272 8273 8274 8275 8276 8277 8278 8279 8280 8281 8282 8283 8284 8285 8286 8287 8288 8289 8290 8291 8292 8293 8294 8295 8296 8297 8298 8299 8300 8301 8302 8303 8304 8305 8306 8307 8308 8309 8310 8311 8312 8313 8314 8315 8316 8317 8318 8319 8320 8321 8322 8323 8324 8325 8326 8327 8328 8329 8330 8331 8332 8333 8334 8335 8336 8337 8338 8339 8340 8341 8342 8343 8344 8345 8346 8347 8348 8349 8350 8351 8352 8353 8354 8355 8356 8357 8358 8359 8360 8361 8362 8363 8364 8365 8366 8367 8368 8369 8370 8371 8372 8373 8374 8375 8376 8377 8378 8379 8380 8381 8382 8383 8384 8385 8386 8387 8388 8389 8390 8391 8392 8393 8394 8395 8396 8397 8398 8399 8400 8401 8402 8403 8404 8405 8406 8407 8408 8409 8410 8411 8412 8413 8414 8415 8416 8417 8418 8419 8420 8421 8422 8423 8424 8425 8426 8427 8428 8429 8430 8431 8432 8433 8434 8435 8436 8437 8438 8439 8440 8441 8442 8443 8444 8445 8446 8447 8448 8449 8450 8451 8452 8453 8454 8455 8456 8457 8458 8459 8460 8461 8462 8463 8464 8465 8466 8467 8468 8469 8470 8471 8472 8473 8474 8475 8476 8477 8478 8479 8480 8481 8482 8483 8484 8485 8486 8487 8488 8489 8490 8491 8492 8493 8494 8495 8496 8497 8498 8499 8500 8501 8502 8503 8504 8505 8506 8507 8508 8509 8510 8511 8512 8513 8514 8515 8516 8517 8518 8519 8520 8521 8522 8523 8524 8525 8526 8527 8528 8529 8530 8531 8532 8533 8534 8535 8536 8537 8538 8539 8540 8541 8542 8543 8544 8545 8546 8547 8548 8549 8550 8551 8552 8553 8554 8555 8556 8557 8558 8559 8560 8561 8562 8563 8564 8565 8566 8567 8568 8569 8570 8571 8572 8573 8574 8575 8576 8577 8578 8579 8580 8581 8582 8583 8584 8585 8586 8587 8588 8589 8590 8591 8592 8593 8594 8595 8596 8597 8598 8599 8600 8601 8602 8603 8604 8605 8606 8607 8608 8609 8610 8611 8612 8613 8614 8615 8616 8617 8618 8619 8620 8621 8622 8623 8624 8625 8626 8627 8628 8629 8630 8631 8632 8633 8634 8635 8636 8637 8638 8639 8640 8641 8642 8643 8644 8645 8646 8647 8648 8649 8650 8651 8652 8653 8654 8655 8656 8657 8658 8659 8660 8661 8662 8663 8664 8665 8666 8667 8668 8669 8670 8671 8672 8673 8674 8675 8676 8677 8678 8679 8680 8681 8682 8683 8684 8685 8686 8687 8688 8689 8690 8691 8692 8693 8694 8695 8696 8697 8698 8699 8700 8701 8702 8703 8704 8705 8706 8707 8708 8709 8710 8711 8712 8713 8714 8715 8716 8717 8718 8719 8720 8721 8722 8723 8724 8725 8726 8727 8728 8729 8730 8731 8732 8733 8734 8735 8736 8737 8738 8739 8740 8741 8742 8743 8744 8745 8746 8747 8748 8749 8750 8751 8752 8753 8754 8755 8756 8757 8758 8759 8760 8761 8762 8763 8764 8765 8766 8767 8768 8769 8770 8771 8772 8773 8774 8775 8776 8777 8778 8779 8780 8781 8782 8783 8784 8785 8786 8787 8788 8789 8790 8791 8792 8793 8794 8795 8796 8797 8798 8799 8800 8801 8802 8803 8804 8805 8806 8807 8808 8809 8810 8811 8812 8813 8814 8815 8816 8817 8818 8819 8820 8821 8822 8823 8824 8825 8826 8827 8828 8829 8830 8831 8832 8833 8834 8835 8836 8837 8838 8839 8840 8841 8842 8843 8844 8845 8846 8847 8848 8849 8850 8851 8852 8853 8854 8855 8856 8857 8858 8859 8860 8861 8862 8863 8864 8865 8866 8867 8868 8869 8870 8871 8872 8873 8874 8875 8876 8877 8878 8879 8880 8881 8882 8883 8884 8885 8886 8887 8888 8889 8890 8891 8892 8893 8894 8895 8896 8897 8898 8899 8900 8901 8902 8903 8904 8905 8906 8907 8908 8909 8910 8911 8912 8913 8914 8915 8916 8917 8918 8919 8920 8921 8922 8923 8924 8925 8926 8927 8928 8929 8930 8931 8932 8933 8934 8935 8936 8937 8938 8939 8940 8941 8942 8943 8944 8945 8946 8947 8948 8949 8950 8951 8952 8953 8954 8955 8956 8957 8958 8959 8960 8961 8962 8963 8964 8965 8966 8967 8968 8969 8970 8971 8972 8973 8974 8975 8976 8977 8978 8979 8980 8981 8982 8983 8984 8985 8986 8987 8988 8989 8990 8991 8992 8993 8994 8995 8996 8997 8998 8999 9000 9001 9002 9003 9004 9005 9006 9007 9008 9009 9010 9011 9012 9013 9014 9015 9016 9017 9018 9019 9020 9021 9022 9023 9024 9025 9026 9027 9028 9029 9030 9031 9032 9033 9034 9035 9036 9037 9038 9039 9040 9041 9042 9043 9044 9045 9046 9047 9048 9049 9050 9051 9052 9053 9054 9055 9056 9057 9058 9059 9060 9061 9062 9063 9064 9065 9066 9067 9068 9069 9070 9071 9072 9073 9074 9075 9076 9077 9078 9079 9080 9081 9082 9083 9084 9085 9086 9087 9088 9089 9090 9091 9092 9093 9094 9095 9096 9097 9098 9099 9100 9101 9102 9103 9104 9105 9106 9107 9108 9109 9110 9111 9112 9113 9114 9115 9116 9117 9118 9119 9120 9121 9122 9123 9124 9125 9126 9127 9128 9129 9130 9131 9132 9133 9134 9135 9136 9137 9138 9139 9140 9141 9142 9143 9144 9145 9146 9147 9148 9149 9150 9151 9152 9153 9154 9155 9156 9157 9158 9159 9160 9161 9162 9163 9164 9165 9166 9167 9168 9169 9170 9171 9172 9173 9174 9175 9176 9177 9178 9179 9180 9181 9182 9183 9184 9185 9186 9187 9188 9189 9190 9191 9192 9193 9194 9195 9196 9197 9198 9199 9200 9201 9202 9203 9204 9205 9206 9207 9208 9209 9210 9211 9212 9213 9214 9215 9216 9217 9218 9219 9220 9221 9222 9223 9224 9225 9226 9227 9228 9229 9230 9231 9232 9233 9234 9235 9236 9237 9238 9239 9240 9241 9242 9243 9244 9245 9246 9247 9248 9249 9250 9251 9252 9253 9254 9255 9256 9257 9258 9259 9260 9261 9262 9263 9264 9265 9266 9267 9268 9269 9270 9271 9272 9273 9274 9275 9276 9277 9278 9279 9280 9281 9282 9283 9284 9285 9286 9287 9288 9289 9290 9291 9292 9293 9294 9295 9296 9297 9298 9299 9300 9301 9302 9303 9304 9305 9306 9307 9308 9309 9310 9311 9312 9313 9314 9315 9316 9317 9318 9319 9320 9321 9322 9323 9324 9325 9326 9327 9328 9329 9330 9331 9332 9333 9334 9335 9336 9337 9338 9339 9340 9341 9342 9343 9344 9345 9346 9347 9348 9349 9350 9351 9352 9353 9354 9355 9356 9357 9358 9359 9360 9361 9362 9363 9364 9365 9366 9367 9368 9369 9370 9371 9372 9373 9374 9375 9376 9377 9378 9379 9380 9381 9382 9383 9384 9385 9386 9387 9388 9389 9390 9391 9392 9393 9394 9395 9396 9397 9398 9399 9400 9401 9402 9403 9404 9405 9406 9407 9408 9409 9410 9411 9412 9413 9414 9415 9416 9417 9418 9419 9420 9421 9422 9423 9424 9425 9426 9427 9428 9429 9430 9431 9432 9433 9434 9435 9436 9437 9438 9439 9440 9441 9442 9443 9444 9445 9446 9447 9448 9449 9450 9451 9452 9453 9454 9455 9456 9457 9458 9459 9460 9461 9462 9463 9464 9465 9466 9467 9468 9469 9470 9471 9472 9473 9474 9475 9476 9477 9478 9479 9480 9481 9482 9483 9484 9485 9486 9487 9488 9489 9490 9491 9492 9493 9494 9495 9496 9497 9498 9499 9500 9501 9502 9503 9504 9505 9506 9507 9508 9509 9510 9511 9512 9513 9514 9515 9516 9517 9518 9519 9520 9521 9522 9523 9524 9525 9526 9527 9528 9529 9530 9531 9532 9533 9534 9535 9536 9537 9538 9539 9540 9541 9542 9543 9544 9545 9546 9547 9548 9549 9550 9551 9552 9553 9554 9555 9556 9557 9558 9559 9560 9561 9562 9563 9564 9565 9566 9567 9568 9569 9570 9571 9572 9573 9574 9575 9576 9577 9578 9579 9580 9581 9582 9583 9584 9585 9586 9587 9588 9589 9590 9591 9592 9593 9594 9595 9596 9597 9598 9599 9600 9601 9602 9603 9604 9605 9606 9607 9608 9609 9610 9611 9612 9613 9614 9615 9616 9617 9618 9619 9620 9621 9622 9623 9624 9625 9626 9627 9628 9629 9630 9631 9632 9633 9634 9635 9636 9637 9638 9639 9640 9641 9642 9643 9644 9645 9646 9647 9648 9649 9650 9651 9652 9653 9654 9655 9656 9657 9658 9659 9660 9661 9662 9663 9664 9665 9666 9667 9668 9669 9670 9671 9672 9673 9674 9675 9676 9677 9678 9679 9680 9681 9682 9683 9684 9685 9686 9687 9688 9689 9690 9691 9692 9693 9694 9695 9696 9697 9698 9699 9700 9701 9702 9703 9704 9705 9706 9707 9708 9709 9710 9711 9712 9713 9714 9715 9716 9717 9718 9719 9720 9721 9722 9723 9724 9725 9726 9727 9728 9729 9730 9731 9732 9733 9734 9735 9736 9737 9738 9739 9740 9741 9742 9743 9744 9745 9746 9747 9748 9749 9750 9751 9752 9753 9754 9755 9756 9757 9758 9759 9760 9761 9762 9763 9764 9765 9766 9767 9768 9769 9770 9771 9772 9773 9774 9775 9776 9777 9778 9779 9780 9781 9782 9783 9784 9785 9786 9787 9788 9789 9790 9791 9792 9793 9794 9795 9796 9797 9798 9799 9800 9801 9802 9803 9804 9805 9806 9807 9808 9809 9810 9811 9812 9813 9814 9815 9816 9817 9818 9819 9820 9821 9822 9823 9824 9825 9826 9827 9828 9829 9830 9831 9832 9833 9834 9835 9836 9837 9838 9839 9840 9841 9842 9843 9844 9845 9846 9847 9848 9849 9850 9851 9852 9853 9854 9855 9856 9857 9858 9859 9860 9861 9862 9863 9864 9865 9866 9867 9868 9869 9870 9871 9872 9873 9874 9875 9876 9877 9878 9879 9880 9881 9882 9883 9884 9885 9886 9887 9888 9889 9890 9891 9892 9893 9894 9895 9896 9897 9898 9899 9900 9901 9902 9903 9904 9905 9906 9907 9908 9909 9910 9911 9912 9913 9914 9915 9916 9917 9918 9919 9920 9921 9922 9923 9924 9925 9926 9927 9928 9929 9930 9931 9932 9933 9934 9935 9936 9937 9938 9939 9940 9941 9942 9943 9944 9945 9946 9947 9948 9949 9950 9951 9952 9953 9954 9955 9956 9957 9958 9959 9960 9961 9962 9963 9964 9965 9966 9967 9968 9969 9970 9971 9972 9973 9974 9975 9976 9977 9978 9979 9980 9981 9982 9983 9984 9985 9986 9987 9988 9989 9990 9991 9992 9993 9994 9995 9996 9997 9998 9999 10000 10001 10002 10003 10004 10005 10006 10007 10008 10009 10010 10011 10012 10013 10014 10015 10016 10017 10018 10019 10020 10021 10022 10023 10024 10025 10026 10027 10028 10029 10030 10031 10032 10033 10034 10035 10036 10037 10038 10039 10040 10041 10042 10043 10044 10045 10046 10047 10048 10049 10050 10051 10052 10053 10054 10055 10056 10057 10058 10059 10060 10061 10062 10063 10064 10065 10066 10067 10068 10069 10070 10071 10072 10073 10074 10075 10076 10077 10078 10079 10080 10081 10082 10083 10084 10085 10086 10087 10088 10089 10090 10091 10092 10093 10094 10095 10096 10097 10098 10099 10100 10101 10102 10103 10104 10105 10106 10107 10108 10109 10110 10111 10112 10113 10114 10115 10116 10117 10118 10119 10120 10121 10122 10123 10124 10125 10126 10127 10128 10129 10130 10131 10132 10133 10134 10135 10136 10137 10138 10139 10140 10141 10142 10143 10144 10145 10146 10147 10148 10149 10150 10151 10152 10153 10154 10155 10156 10157 10158 10159 10160 10161 10162 10163 10164 10165 10166 10167 10168 10169 10170 10171 10172 10173 10174 10175 10176 10177 10178 10179 10180 10181 10182 10183 10184 10185 10186 10187 10188 10189 10190 10191 10192 10193 10194 10195 10196 10197 10198 10199 10200 10201 10202 10203 10204 10205 10206 10207 10208 10209 10210 10211 10212 10213 10214 10215 10216 10217 10218 10219 10220 10221 10222 10223 10224 10225 10226 10227 10228 10229 10230 10231 10232 10233 10234 10235 10236 10237 10238 10239 10240 10241 10242 10243 10244 10245 10246 10247 10248 10249 10250 10251 10252 10253 10254 10255 10256 10257 10258 10259 10260 10261 10262 10263 10264 10265 10266 10267 10268 10269 10270 10271 10272 10273 10274 10275 10276 10277 10278 10279 10280 10281 10282 10283 10284 10285 10286 10287 10288 10289 10290 10291 10292 10293 10294 10295 10296 10297 10298 10299 10300 10301 10302 10303 10304 10305 10306 10307 10308 10309 10310 10311 10312 10313 10314 10315 10316 10317 10318 10319 10320 10321 10322 10323 10324 10325 10326 10327 10328 10329 10330 10331 10332 10333 10334 10335 10336 10337 10338 10339 10340 10341 10342 10343 10344 10345 10346 10347 10348 10349 10350 10351 10352 10353 10354 10355 10356 10357 10358 10359 10360 10361 10362 10363 10364 10365 10366 10367 10368 10369 10370 10371 10372 10373 10374 10375 10376 10377 10378 10379 10380 10381 10382 10383 10384 10385 10386 10387 10388 10389 10390 10391 10392 10393 10394 10395 10396 10397 10398 10399 10400 10401 10402 10403 10404 10405 10406 10407 10408 10409 10410 10411 10412 10413 10414 10415 10416 10417 10418 10419 10420 10421 10422 10423 10424 10425 10426 10427 10428 10429 10430 10431 10432 10433 10434 10435 10436 10437 10438 10439 10440 10441 10442 10443 10444 10445 10446 10447 10448 10449 10450 10451 10452 10453 10454 10455 10456 10457 10458 10459 10460 10461 10462 10463 10464 10465 10466 10467 10468 10469 10470 10471 10472 10473 10474 10475 10476 10477 10478 10479 10480 10481 10482 10483 10484 10485 10486 10487 10488 10489 10490 10491 10492 10493 10494 10495 10496 10497 10498 10499 10500 10501 10502 10503 10504 10505 10506 10507 10508 10509 10510 10511 10512 10513 10514 10515 10516 10517 10518 10519 10520 10521 10522 10523 10524 10525 10526 10527 10528 10529 10530 10531 10532 10533 10534 10535 10536 10537 10538 10539 10540 10541 10542 10543 10544 10545 10546 10547 10548 10549 10550 10551 10552 10553 10554 10555 10556 10557 10558 10559 10560 10561 10562 10563 10564 10565 10566 10567 10568 10569 10570 10571 10572 10573 10574 10575 10576 10577 10578 10579 10580 10581 10582 10583 10584 10585 10586 10587 10588 10589 10590 10591 10592 10593 10594 10595 10596 10597 10598 10599 10600 10601 10602 10603 10604 10605 10606 10607 10608 10609 10610 10611 10612 10613 10614 10615 10616 10617 10618 10619 10620 10621 10622 10623 10624 10625 10626 10627 10628 10629 10630 10631 10632 10633 10634 10635 10636 10637 10638 10639 10640 10641 10642 10643 10644 10645 10646 10647 10648 10649 10650 10651 10652 10653 10654 10655 10656 10657 10658 10659 10660 10661 10662 10663 10664 10665 10666 10667 10668 10669 10670 10671 10672 10673 10674 10675 10676 10677 10678 10679 10680 10681 10682 10683 10684 10685 10686 10687 10688 10689 10690 10691 10692 10693 10694 10695 10696 10697 10698 10699 10700 10701 10702 10703 10704 10705 10706 10707 10708 10709 10710 10711 10712 10713 10714 10715 10716 10717 10718 10719 10720 10721 10722 10723 10724 10725 10726 10727 10728 10729 10730 10731 10732 10733 10734 10735 10736 10737 10738 10739 10740 10741 10742 10743 10744 10745 10746 10747 10748 10749 10750 10751 10752 10753 10754 10755 10756 10757 10758 10759 10760 10761 10762 10763 10764 10765 10766 10767 10768 10769 10770 10771 10772 10773 10774 10775 10776 10777 10778 10779 10780 10781 10782 10783 10784 10785 10786 10787 10788 10789 10790 10791 10792 10793 10794 10795 10796 10797 10798 10799 10800 10801 10802 10803 10804 10805 10806 10807 10808 10809 10810 10811 10812 10813 10814 10815 10816 10817 10818 10819 10820 10821 10822 10823 10824 10825 10826 10827 10828 10829 10830 10831 10832 10833 10834 10835 10836 10837 10838 10839 10840 10841 10842 10843 10844 10845 10846 10847 10848 10849 10850 10851 10852 10853 10854 10855 10856 10857 10858 10859 10860 10861 10862 10863 10864 10865 10866 10867 10868 10869 10870 10871 10872 10873 10874 10875 10876 10877 10878 10879 10880 10881 10882 10883 10884 10885 10886 10887 10888 10889 10890 10891 10892 10893 10894 10895 10896 10897 10898 10899 10900 10901 10902 10903 10904 10905 10906 10907 10908 10909 10910 10911 10912 10913 10914 10915 10916 10917 10918 10919 10920 10921 10922 10923 10924 10925 10926 10927 10928 10929 10930 10931 10932 10933 10934 10935 10936 10937 10938 10939 10940 10941 10942 10943 10944 10945 10946 10947 10948 10949 10950 10951 10952 10953 10954 10955 10956 10957 10958 10959 10960 10961 10962 10963 10964 10965 10966 10967 10968 10969 10970 10971 10972 10973 10974 10975 10976 10977 10978 10979 10980 10981 10982 10983 10984 10985 10986 10987 10988 10989 10990 10991 10992 10993 10994 10995 10996 10997 10998 10999 11000 11001 11002 11003 11004 11005 11006 11007 11008 11009 11010 11011 11012 11013 11014 11015 11016 11017 11018 11019 11020 11021 11022 11023 11024 11025 11026 11027 11028 11029 11030 11031 11032 11033 11034 11035 11036 11037 11038 11039 11040 11041 11042 11043 11044 11045 11046 11047 11048 11049 11050 11051 11052 11053 11054 11055 11056 11057 11058 11059 11060 11061 11062 11063 11064 11065 11066 11067 11068 11069 11070 11071 11072 11073 11074 11075 11076 11077 11078 11079 11080 11081 11082 11083 11084 11085 11086 11087 11088 11089 11090 11091 11092 11093 11094 11095 11096 11097 11098 11099 11100 11101 11102 11103 11104 11105 11106 11107 11108 11109 11110 11111 11112 11113 11114 11115 11116 11117 11118 11119 11120 11121 11122 11123 11124 11125 11126 11127 11128 11129 11130 11131 11132 11133 11134 11135 11136 11137 11138 11139 11140 11141 11142 11143 11144 11145 11146 11147 11148 11149 11150 11151 11152 11153 11154 11155 11156 11157 11158 11159 11160 11161 11162 11163 11164 11165 11166 11167 11168 11169 11170 11171 11172 11173 11174 11175 11176 11177 11178 11179 11180 11181 11182 11183 11184 11185 11186 11187 11188 11189 11190 11191 11192 11193 11194 11195 11196 11197 11198 11199 11200 11201 11202 11203 11204 11205 11206 11207 11208 11209 11210 11211 11212 11213 11214 11215 11216 11217 11218 11219 11220 11221 11222 11223 11224 11225 11226 11227 11228 11229 11230 11231 11232 11233 11234 11235 11236 11237 11238 11239 11240 11241 11242 11243 11244 11245 11246 11247 11248 11249 11250 11251 11252 11253 11254 11255 11256 11257 11258 11259 11260 11261 11262 11263 11264 11265 11266 11267 11268 11269 11270 11271 11272 11273 11274 11275 11276 11277 11278 11279 11280 11281 11282 11283 11284 11285 11286 11287 11288 11289 11290 11291 11292 11293 11294 11295 11296 11297 11298 11299 11300 11301 11302 11303 11304 11305 11306 11307 11308 11309 11310 11311 11312 11313 11314 11315 11316 11317 11318 11319 11320 11321 11322 11323 11324 11325 11326 11327 11328 11329 11330 11331 11332 11333 11334 11335 11336 11337 11338 11339 11340 11341 11342 11343 11344 11345 11346 11347 11348 11349 11350 11351 11352 11353 11354 11355 11356 11357 11358 11359 11360 11361 11362 11363 11364 11365 11366 11367 11368 11369 11370 11371 11372 11373 11374 11375 11376 11377 11378 11379 11380 11381 11382 11383 11384 11385 11386 11387 11388 11389 11390 11391 11392 11393 11394 11395 11396 11397 11398 11399 11400 11401 11402 11403 11404 11405 11406 11407 11408 11409 11410 11411 11412 11413 11414 11415 11416 11417 11418 11419 11420 11421 11422 11423 11424 11425 11426 11427 11428 11429 11430 11431 11432 11433 11434 11435 11436 11437 11438 11439 11440 11441 11442 11443 11444 11445 11446 11447 11448 11449 11450 11451 11452 11453 11454 11455 11456 11457 11458 11459 11460 11461 11462 11463 11464 11465 11466 11467 11468 11469 11470 11471 11472 11473 11474 11475 11476 11477 11478 11479 11480 11481 11482 11483 11484 11485 11486 11487 11488 11489 11490 11491 11492 11493 11494 11495 11496 11497 11498 11499 11500 11501 11502 11503 11504 11505 11506 11507 11508 11509 11510 11511 11512 11513 11514 11515 11516 11517 11518 11519 11520 11521 11522 11523 11524 11525 11526 11527 11528 11529 11530 11531 11532 11533 11534 11535 11536 11537 11538 11539 11540 11541 11542 11543 11544 11545 11546 11547 11548 11549 11550 11551 11552 11553 11554 11555 11556 11557 11558 11559 11560 11561 11562 11563 11564 11565 11566 11567 11568 11569 11570 11571 11572 11573 11574 11575 11576 11577 11578 11579 11580 11581 11582 11583 11584 11585 11586 11587 11588 11589 11590 11591 11592 11593 11594 11595 11596 11597 11598 11599 11600 11601 11602 11603 11604 11605 11606 11607 11608 11609 11610 11611 11612 11613 11614 11615 11616 11617 11618 11619 11620 11621 11622 11623 11624 11625 11626 11627 11628 11629 11630 11631 11632 11633 11634 11635 11636 11637 11638 11639 11640 11641 11642 11643 11644 11645 11646 11647 11648 11649 11650 11651 11652 11653 11654 11655 11656 11657 11658 11659 11660 11661 11662 11663 11664 11665 11666 11667 11668 11669 11670 11671 11672 11673 11674 11675 11676 11677 11678 11679 11680 11681 11682 11683 11684 11685 11686 11687 11688 11689 11690 11691 11692 11693 11694 11695 11696 11697 11698 11699 11700 11701 11702 11703 11704 11705 11706 11707 11708 11709 11710 11711 11712 11713 11714 11715 11716 11717 11718 11719 11720 11721 11722 11723 11724 11725 11726 11727 11728 11729 11730 11731 11732 11733 11734 11735 11736 11737 11738 11739 11740 11741 11742 11743 11744 11745 11746 11747 11748 11749 11750 11751 11752 11753 11754 11755 11756 11757 11758 11759 11760 11761 11762 11763 11764 11765 11766 11767 11768 11769 11770 11771 11772 11773 11774 11775 11776 11777 11778 11779 11780 11781 11782 11783 11784 11785 11786 11787 11788 11789 11790 11791 11792 11793 11794 11795 11796 11797 11798 11799 11800 11801 11802 11803 11804 11805 11806 11807 11808 11809 11810 11811 11812 11813 11814 11815 11816 11817 11818 11819 11820 11821 11822 11823 11824 11825 11826 11827 11828 11829 11830 11831 11832 11833 11834 11835 11836 11837 11838 11839 11840 11841 11842 11843 11844 11845 11846 11847 11848 11849 11850 11851 11852 11853 11854 11855 11856 11857 11858 11859 11860 11861 11862 11863 11864 11865 11866 11867 11868 11869 11870 11871 11872 11873 11874 11875 11876 11877 11878 11879 11880 11881 11882 11883 11884 11885 11886 11887 11888 11889 11890 11891 11892 11893 11894 11895 11896 11897 11898 11899 11900 11901 11902 11903 11904 11905 11906 11907 11908 11909 11910 11911 11912 11913 11914 11915 11916 11917 11918 11919 11920 11921 11922 11923 11924 11925 11926 11927 11928 11929 11930 11931 11932 11933 11934 11935 11936 11937 11938 11939 11940 11941 11942 11943 11944 11945 11946 11947 11948 11949 11950 11951 11952 11953 11954 11955 11956 11957 11958 11959 11960 11961 11962 11963 11964 11965 11966 11967 11968 11969 11970 11971 11972 11973 11974 11975 11976 11977 11978 11979 11980 11981 11982 11983 11984 11985 11986 11987 11988 11989 11990 11991 11992 11993 11994 11995 11996 11997 11998 11999 12000 12001 12002 12003 12004 12005 12006 12007 12008 12009 12010 12011 12012 12013 12014 12015 12016 12017 12018 12019 12020 12021 12022 12023 12024 12025 12026 12027 12028 12029 12030 12031 12032 12033 12034 12035 12036 12037 12038 12039 12040 12041 12042 12043 12044 12045 12046 12047 12048 12049 12050 12051 12052 12053 12054 12055 12056 12057 12058 12059 12060 12061 12062 12063 12064 12065 12066 12067 12068 12069 12070 12071 12072 12073 12074 12075 12076 12077 12078 12079 12080 12081 12082 12083 12084 12085 12086 12087 12088 12089 12090 12091 12092 12093 12094 12095 12096 12097 12098 12099 12100 12101 12102 12103 12104 12105 12106 12107 12108 12109 12110 12111 12112 12113 12114 12115 12116 12117 12118 12119 12120 12121 12122 12123 12124 12125 12126 12127 12128 12129 12130 12131 12132 12133 12134 12135 12136 12137 12138 12139 12140 12141 12142 12143 12144 12145 12146 12147 12148 12149 12150 12151 12152 12153 12154 12155 12156 12157 12158 12159 12160 12161 12162 12163 12164 12165 12166 12167 12168 12169 12170 12171 12172 12173 12174 12175 12176 12177 12178 12179 12180 12181 12182 12183 12184 12185 12186 12187 12188 12189 12190 12191 12192 12193 12194 12195 12196 12197 12198 12199 12200 12201 12202 12203 12204 12205 12206 12207 12208 12209 12210 12211 12212 12213 12214 12215 12216 12217 12218 12219 12220 12221 12222 12223 12224 12225 12226 12227 12228 12229 12230 12231 12232 12233 12234 12235 12236 12237 12238 12239 12240 12241 12242 12243 12244 12245 12246 12247 12248 12249 12250 12251 12252 12253 12254 12255 12256 12257 12258 12259 12260 12261 12262 12263 12264 12265 12266 12267 12268 12269 12270 12271 12272 12273 12274 12275 12276 12277 12278 12279 12280 12281 12282 12283 12284 12285 12286 12287 12288 12289 12290 12291 12292 12293 12294 12295 12296 12297 12298 12299 12300 12301 12302 12303 12304 12305 12306 12307 12308 12309 12310 12311 12312 12313 12314 12315 12316 12317 12318 12319 12320 12321 12322 12323 12324 12325 12326 12327 12328 12329 12330 12331 12332 12333 12334 12335 12336 12337 12338 12339 12340 12341 12342 12343 12344 12345 12346 12347 12348 12349 12350 12351 12352 12353 12354 12355 12356 12357 12358 12359 12360 12361 12362 12363 12364 12365 12366 12367 12368 12369 12370 12371 12372 12373 12374 12375 12376 12377 12378 12379 12380 12381 12382 12383 12384 12385 12386 12387 12388 12389 12390 12391 12392 12393 12394 12395 12396 12397 12398 12399 12400 12401 12402 12403 12404 12405 12406 12407 12408 12409 12410 12411 12412 12413 12414 12415 12416 12417 12418 12419 12420 12421 12422 12423 12424 12425 12426 12427 12428 12429 12430 12431 12432 12433 12434 12435 12436 12437 12438 12439 12440 12441 12442 12443 12444 12445 12446 12447 12448 12449 12450 12451 12452 12453 12454 12455 12456 12457 12458 12459 12460 12461 12462 12463 12464 12465 12466 12467 12468 12469 12470 12471 12472 12473 12474 12475 12476 12477 12478 12479 12480 12481 12482 12483 12484 12485 12486 12487 12488 12489 12490 12491 12492 12493 12494 12495 12496 12497 12498 12499 12500 12501 12502 12503 12504 12505 12506 12507 12508 12509 12510 12511 12512 12513 12514 12515 12516 12517 12518 12519 12520 12521 12522 12523 12524 12525 12526 12527 12528 12529 12530 12531 12532 12533 12534 12535 12536 12537 12538 12539 12540 12541 12542 12543 12544 12545 12546 12547 12548 12549 12550 12551 12552 12553 12554 12555 12556 12557 12558 12559 12560 12561 12562 12563 12564 12565 12566 12567 12568 12569 12570 12571 12572 12573 12574 12575 12576 12577 12578 12579 12580 12581 12582 12583 12584 12585 12586 12587 12588 12589 12590 12591 12592 12593 12594 12595 12596 12597 12598 12599 12600 12601 12602 12603 12604 12605 12606 12607 12608 12609 12610 12611 12612 12613 12614 12615 12616 12617 12618 12619 12620 12621 12622 12623 12624 12625 12626 12627 12628 12629 12630 12631 12632 12633 12634 12635 12636 12637 12638 12639 12640 12641 12642 12643 12644 12645 12646 12647 12648 12649 12650 12651 12652 12653 12654 12655 12656 12657 12658 12659 12660 12661 12662 12663 12664 12665 12666 12667 12668 12669 12670 12671 12672 12673 12674 12675 12676 12677 12678 12679 12680 12681 12682 12683 12684 12685 12686 12687 12688 12689 12690 12691 12692 12693 12694 12695 12696 12697 12698 12699 12700 12701 12702 12703 12704 12705 12706 12707 12708 12709 12710 12711 12712 12713 12714 12715 12716 12717 12718 12719 12720 12721 12722 12723 12724 12725 12726 12727 12728 12729 12730 12731 12732 12733 12734 12735 12736 12737 12738 12739 12740 12741 12742 12743 12744 12745 12746 12747 12748 12749 12750 12751 12752 12753 12754 12755 12756 12757 12758 12759 12760 12761 12762 12763 12764 12765 12766 12767 12768 12769 12770 12771 12772 12773 12774 12775 12776 12777 12778 12779 12780 12781 12782 12783 12784 12785 12786 12787 12788 12789 12790 12791 12792 12793 12794 12795 12796 12797 12798 12799 12800 12801 12802 12803 12804 12805 12806 12807 12808 12809 12810 12811 12812 12813 12814 12815 12816 12817 12818 12819 12820 12821 12822 12823 12824 12825 12826 12827 12828 12829 12830 12831 12832 12833 12834 12835 12836 12837 12838 12839 12840 12841 12842 12843 12844 12845 12846 12847 12848 12849 12850 12851 12852 12853 12854 12855 12856 12857 12858 12859 12860 12861 12862 12863 12864 12865 12866 12867 12868 12869 12870 12871 12872 12873 12874 12875 12876 12877 12878 12879 12880 12881 12882 12883 12884 12885 12886 12887 12888 12889 12890 12891 12892 12893 12894 12895 12896 12897 12898 12899 12900 12901 12902 12903 12904 12905 12906 12907 12908 12909 12910 12911 12912 12913 12914 12915 12916 12917 12918 12919 12920 12921 12922 12923 12924 12925 12926 12927 12928 12929 12930 12931 12932 12933 12934 12935 12936 12937 12938 12939 12940 12941 12942 12943 12944 12945 12946 12947 12948 12949 12950 12951 12952 12953 12954 12955 12956 12957 12958 12959 12960 12961 12962 12963 12964 12965 12966 12967 12968 12969 12970 12971 12972 12973 12974 12975 12976 12977 12978 12979 12980 12981 12982 12983 12984 12985 12986 12987 12988 12989 12990 12991 12992 12993 12994 12995 12996 12997 12998 12999 13000 13001 13002 13003 13004 13005 13006 13007 13008 13009 13010 13011 13012 13013 13014 13015 13016 13017 13018 13019 13020 13021 13022 13023 13024 13025 13026 13027 13028 13029 13030 13031 13032 13033 13034 13035 13036 13037 13038 13039 13040 13041 13042 13043 13044 13045 13046 13047 13048 13049 13050 13051 13052 13053 13054 13055 13056 13057 13058 13059 13060 13061 13062 13063 13064 13065 13066 13067 13068 13069 13070 13071 13072 13073 13074 13075 13076 13077 13078 13079 13080 13081 13082 13083 13084 13085 13086 13087 13088 13089 13090 13091 13092 13093 13094 13095 13096 13097 13098 13099 13100 13101 13102 13103 13104 13105 13106 13107 13108 13109 13110 13111 13112 13113 13114 13115 13116 13117 13118 13119 13120 13121 13122 13123 13124 13125 13126 13127 13128 13129 13130 13131 13132 13133 13134 13135 13136 13137 13138 13139 13140 13141 13142 13143 13144 13145 13146 13147 13148 13149 13150 13151 13152 13153 13154 13155 13156 13157 13158 13159 13160 13161 13162 13163 13164 13165 13166 13167 13168 13169 13170 13171 13172 13173 13174 13175 13176 13177 13178 13179 13180 13181 13182 13183 13184 13185 13186 13187 13188 13189 13190 13191 13192 13193 13194 13195 13196 13197 13198 13199 13200 13201 13202 13203 13204 13205 13206 13207 13208 13209 13210 13211 13212 13213 13214 13215 13216 13217 13218 13219 13220 13221 13222 13223 13224 13225 13226 13227 13228 13229 13230 13231 13232 13233 13234 13235 13236 13237 13238 13239 13240 13241 13242 13243 13244 13245 13246 13247 13248 13249 13250 13251 13252 13253 13254 13255 13256 13257 13258 13259 13260 13261 13262 13263 13264 13265 13266 13267 13268 13269 13270 13271 13272 13273 13274 13275 13276 13277 13278 13279 13280 13281 13282 13283 13284 13285 13286 13287 13288 13289 13290 13291 13292 13293 13294 13295 13296 13297 13298 13299 13300 13301 13302 13303 13304 13305 13306 13307 13308 13309 13310 13311 13312 13313 13314 13315 13316 13317 13318 13319 13320 13321 13322 13323 13324 13325 13326 13327 13328 13329 13330 13331 13332 13333 13334 13335 13336 13337 13338 13339 13340 13341 13342 13343 13344 13345 13346 13347 13348 13349 13350 13351 13352 13353 13354 13355 13356 13357 13358 13359 13360 13361 13362 13363 13364 13365 13366 13367 13368 13369 13370 13371 13372 13373 13374 13375 13376 13377 13378 13379 13380 13381 13382 13383 13384 13385 13386 13387 13388 13389 13390 13391 13392 13393 13394 13395 13396 13397 13398 13399 13400 13401 13402 13403 13404 13405 13406 13407 13408 13409 13410 13411 13412 13413 13414 13415 13416 13417 13418 13419 13420 13421 13422 13423 13424 13425 13426 13427 13428 13429 13430 13431 13432 13433 13434 13435 13436 13437 13438 13439 13440 13441 13442 13443 13444 13445 13446 13447 13448 13449 13450 13451 13452 13453 13454 13455 13456 13457 13458 13459 13460 13461 13462 13463 13464 13465 13466 13467 13468 13469 13470 13471 13472 13473 13474 13475 13476 13477 13478 13479 13480 13481 13482 13483 13484 13485 13486 13487 13488 13489 13490 13491 13492 13493 13494 13495 13496 13497 13498 13499 13500 13501 13502 13503 13504 13505 13506 13507 13508 13509 13510 13511 13512 13513 13514 13515 13516 13517 13518 13519 13520 13521 13522 13523 13524 13525 13526 13527 13528 13529 13530 13531 13532 13533 13534 13535 13536 13537 13538 13539 13540 13541 13542 13543 13544 13545 13546 13547 13548 13549 13550 13551 13552 13553 13554 13555 13556 13557 13558 13559 13560 13561 13562 13563 13564 13565 13566 13567 13568 13569 13570 13571 13572 13573 13574 13575 13576 13577 13578 13579 13580 13581 13582 13583 13584 13585 13586 13587 13588 13589 13590 13591 13592 13593 13594 13595 13596 13597 13598 13599 13600 13601 13602 13603 13604 13605 13606 13607 13608 13609 13610 13611 13612 13613 13614 13615 13616 13617 13618 13619 13620 13621 13622 13623 13624 13625 13626 13627 13628 13629 13630 13631 13632 13633 13634 13635 13636 13637 13638 13639 13640 13641 13642 13643 13644 13645 13646 13647 13648 13649 13650 13651 13652 13653 13654 13655 13656 13657 13658 13659 13660 13661 13662 13663 13664 13665 13666 13667 13668 13669 13670 13671 13672 13673 13674 13675 13676 13677 13678 13679 13680 13681 13682 13683 13684 13685 13686 13687 13688 13689 13690 13691 13692 13693 13694 13695 13696 13697 13698 13699 13700 13701 13702 13703 13704 13705 13706 13707 13708 13709 13710 13711 13712 13713 13714 13715 13716 13717 13718 13719 13720 13721 13722 13723 13724 13725 13726 13727 13728 13729 13730 13731 13732 13733 13734 13735 13736 13737 13738 13739 13740 13741 13742 13743 13744 13745 13746 13747 13748 13749 13750 13751 13752 13753 13754 13755 13756 13757 13758 13759 13760 13761 13762 13763 13764 13765 13766 13767 13768 13769 13770 13771 13772 13773 13774 13775 13776 13777 13778 13779 13780 13781 13782 13783 13784 13785 13786 13787 13788 13789 13790 13791 13792 13793 13794 13795 13796 13797 13798 13799 13800 13801 13802 13803 13804 13805 13806 13807 13808 13809 13810 13811 13812 13813 13814 13815 13816 13817 13818 13819 13820 13821 13822 13823 13824 13825 13826 13827 13828 13829 13830 13831 13832 13833 13834 13835 13836 13837 13838 13839 13840 13841 13842 13843 13844 13845 13846 13847 13848 13849 13850 13851 13852 13853 13854 13855 13856 13857 13858 13859 13860 13861 13862 13863 13864 13865 13866 13867 13868 13869 13870 13871 13872 13873 13874 13875 13876 13877 13878 13879 13880 13881 13882 13883 13884 13885 13886 13887 13888 13889 13890 13891 13892 13893 13894 13895 13896 13897 13898 13899 13900 13901 13902 13903 13904 13905 13906 13907 13908 13909 13910 13911 13912 13913 13914 13915 13916 13917 13918 13919 13920 13921 13922 13923 13924 13925 13926 13927 13928 13929 13930 13931 13932 13933 13934 13935 13936 13937 13938 13939 13940 13941 13942 13943 13944 13945 13946 13947 13948 13949 13950 13951 13952 13953 13954 13955 13956 13957 13958 13959 13960 13961 13962 13963 13964 13965 13966 13967 13968 13969 13970 13971 13972 13973 13974 13975 13976 13977 13978 13979 13980 13981 13982 13983 13984 13985 13986 13987 13988 13989 13990 13991 13992 13993 13994 13995 13996 13997 13998 13999 14000 14001 14002 14003 14004 14005 14006 14007 14008 14009 14010 14011 14012 14013 14014 14015 14016 14017 14018 14019 14020 14021 14022 14023 14024 14025 14026 14027 14028 14029 14030 14031 14032 14033 14034 14035 14036 14037 14038 14039 14040 14041 14042 14043 14044 14045 14046 14047 14048 14049 14050 14051 14052 14053 14054 14055 14056 14057 14058 14059 14060 14061 14062 14063 14064 14065 14066 14067 14068 14069 14070 14071 14072 14073 14074 14075 14076 14077 14078 14079 14080 14081 14082 14083 14084 14085 14086 14087 14088 14089 14090 14091 14092 14093 14094 14095 14096 14097 14098 14099 14100 14101 14102 14103 14104 14105 14106 14107 14108 14109 14110 14111 14112 14113 14114 14115 14116 14117 14118 14119 14120 14121 14122 14123 14124 14125 14126 14127 14128 14129 14130 14131 14132 14133 14134 14135 14136 14137 14138 14139 14140 14141 14142 14143 14144 14145 14146 14147 14148 14149 14150 14151 14152 14153 14154 14155 14156 14157 14158 14159 14160 14161 14162 14163 14164 14165 14166 14167 14168 14169 14170 14171 14172 14173 14174 14175 14176 14177 14178 14179 14180 14181 14182 14183 14184 14185 14186 14187 14188 14189 14190 14191 14192 14193 14194 14195 14196 14197 14198 14199 14200 14201 14202 14203 14204 14205 14206 14207 14208 14209 14210 14211 14212 14213 14214 14215 14216 14217 14218 14219 14220 14221 14222 14223 14224 14225 14226 14227 14228 14229 14230 14231 14232 14233 14234 14235 14236 14237 14238 14239 14240 14241 14242 14243 14244 14245 14246 14247 14248 14249 14250 14251 14252 14253 14254 14255 14256 14257 14258 14259 14260 14261 14262 14263 14264 14265 14266 14267 14268 14269 14270 14271 14272 14273 14274 14275 14276 14277 14278 14279 14280 14281 14282 14283 14284 14285 14286 14287 14288 14289 14290 14291 14292 14293 14294 14295 14296 14297 14298 14299 14300 14301 14302 14303 14304 14305 14306 14307 14308 14309 14310 14311 14312 14313 14314 14315 14316 14317 14318 14319 14320 14321 14322 14323 14324 14325 14326 14327 14328 14329 14330 14331 14332 14333 14334 14335 14336 14337 14338 14339 14340 14341 14342 14343 14344 14345 14346 14347 14348 14349 14350 14351 14352 14353 14354 14355 14356 14357 14358 14359 14360 14361 14362 14363 14364 14365 14366 14367 14368 14369 14370 14371 14372 14373 14374 14375 14376 14377 14378 14379 14380 14381 14382 14383 14384 14385 14386 14387 14388 14389 14390 14391 14392 14393 14394 14395 14396 14397 14398 14399 14400 14401 14402 14403 14404 14405 14406 14407 14408 14409 14410 14411 14412 14413 14414 14415 14416 14417 14418 14419 14420 14421 14422 14423 14424 14425 14426 14427 14428 14429 14430 14431 14432 14433 14434 14435 14436 14437 14438 14439 14440 14441 14442 14443 14444 14445 14446 14447 14448 14449 14450 14451 14452 14453 14454 14455 14456 14457 14458 14459 14460 14461 14462 14463 14464 14465 14466 14467 14468 14469 14470 14471 14472 14473 14474 14475 14476 14477 14478 14479 14480 14481 14482 14483 14484 14485 14486 14487 14488 14489 14490 14491 14492 14493 14494 14495 14496 14497 14498 14499 14500 14501 14502 14503 14504 14505 14506 14507 14508 14509 14510 14511 14512 14513 14514 14515 14516 14517 14518 14519 14520 14521 14522 14523 14524 14525 14526 14527 14528 14529 14530 14531 14532 14533 14534 14535 14536 14537 14538 14539 14540 14541 14542 14543 14544 14545 14546 14547 14548 14549 14550 14551 14552 14553 14554 14555 14556 14557 14558 14559 14560 14561 14562 14563 14564 14565 14566 14567 14568 14569 14570 14571 14572 14573 14574 14575 14576 14577 14578 14579 14580 14581 14582 14583 14584 14585 14586 14587 14588 14589 14590 14591 14592 14593 14594 14595 14596 14597 14598 14599 14600 14601 14602 14603 14604 14605 14606 14607 14608 14609 14610 14611 14612 14613 14614 14615 14616 14617 14618 14619 14620 14621 14622 14623 14624 14625 14626 14627 14628 14629 14630 14631 14632 14633 14634 14635 14636 14637 14638 14639 14640 14641 14642 14643 14644 14645 14646 14647 14648 14649 14650 14651 14652 14653 14654 14655 14656 14657 14658 14659 14660 14661 14662 14663 14664 14665 14666 14667 14668 14669 14670 14671 14672 14673 14674 14675 14676 14677 14678 14679 14680 14681 14682 14683 14684 14685 14686 14687 14688 14689 14690 14691 14692 14693 14694 14695 14696 14697 14698 14699 14700 14701 14702 14703 14704 14705 14706 14707 14708 14709 14710 14711 14712 14713 14714 14715 14716 14717 14718 14719 14720 14721 14722 14723 14724 14725 14726 14727 14728 14729 14730 14731 14732 14733 14734 14735 14736 14737 14738 14739 14740 14741 14742 14743 14744 14745 14746 14747 14748 14749 14750 14751 14752 14753 14754 14755 14756 14757 14758 14759 14760 14761 14762 14763 14764 14765 14766 14767 14768 14769 14770 14771 14772 14773 14774 14775 14776 14777 14778 14779 14780 14781 14782 14783 14784 14785 14786 14787 14788 14789 14790 14791 14792 14793 14794 14795 14796 14797 14798 14799 14800 14801 14802 14803 14804 14805 14806 14807 14808 14809 14810 14811 14812 14813 14814 14815 14816 14817 14818 14819 14820 14821 14822 14823 14824 14825 14826 14827 14828 14829 14830 14831 14832 14833 14834 14835 14836 14837 14838 14839 14840 14841 14842 14843 14844 14845 14846 14847 14848 14849 14850 14851 14852 14853 14854 14855 14856 14857 14858 14859 14860 14861 14862 14863 14864 14865 14866 14867 14868 14869 14870 14871 14872 14873 14874 14875 14876 14877 14878 14879 14880 14881 14882 14883 14884 14885 14886 14887 14888 14889 14890 14891 14892 14893 14894 14895 14896 14897 14898 14899 14900 14901 14902 14903 14904 14905 14906 14907 14908 14909 14910 14911 14912 14913 14914 14915 14916 14917 14918 14919 14920 14921 14922 14923 14924 14925 14926 14927 14928 14929 14930 14931 14932 14933 14934 14935 14936 14937 14938 14939 14940 14941 14942 14943 14944 14945 14946 14947 14948 14949 14950 14951 14952 14953 14954 14955 14956 14957 14958 14959 14960 14961 14962 14963 14964 14965 14966 14967 14968 14969 14970 14971 14972 14973 14974 14975 14976 14977 14978 14979 14980 14981 14982 14983 14984 14985 14986 14987 14988 14989 14990 14991 14992 14993 14994 14995 14996 14997 14998 14999 15000 15001 15002 15003 15004 15005 15006 15007 15008 15009 15010 15011 15012 15013 15014 15015 15016 15017 15018 15019 15020 15021 15022 15023 15024 15025 15026 15027 15028 15029 15030 15031 15032 15033 15034 15035 15036 15037 15038 15039 15040 15041 15042 15043 15044 15045 15046 15047 15048 15049 15050 15051 15052 15053 15054 15055 15056 15057 15058 15059 15060 15061 15062 15063 15064 15065 15066 15067 15068 15069 15070 15071 15072 15073 15074 15075 15076 15077 15078 15079 15080 15081 15082 15083 15084 15085 15086 15087 15088 15089 15090 15091 15092 15093 15094 15095 15096 15097 15098 15099 15100 15101 15102 15103 15104 15105 15106 15107 15108 15109 15110 15111 15112 15113 15114 15115 15116 15117 15118 15119 15120 15121 15122 15123 15124 15125 15126 15127 15128 15129 15130 15131 15132 15133 15134 15135 15136 15137 15138 15139 15140 15141 15142 15143 15144 15145 15146 15147 15148 15149 15150 15151 15152 15153 15154 15155 15156 15157 15158 15159 15160 15161 15162 15163 15164 15165 15166 15167 15168 15169 15170 15171 15172 15173 15174 15175 15176 15177 15178 15179 15180 15181 15182 15183 15184 15185 15186 15187 15188 15189 15190 15191 15192 15193 15194 15195 15196 15197 15198 15199 15200 15201 15202 15203 15204 15205 15206 15207 15208 15209 15210 15211 15212 15213 15214 15215 15216 15217 15218 15219 15220 15221 15222 15223 15224 15225 15226 15227 15228 15229 15230 15231 15232 15233 15234 15235 15236 15237 15238 15239 15240 15241 15242 15243 15244 15245 15246 15247 15248 15249 15250 15251 15252 15253 15254 15255 15256 15257 15258 15259 15260 15261 15262 15263 15264 15265 15266 15267 15268 15269 15270 15271 15272 15273 15274 15275 15276 15277 15278 15279 15280 15281 15282 15283 15284 15285 15286 15287 15288 15289 15290 15291 15292 15293 15294 15295 15296 15297 15298 15299 15300 15301 15302 15303 15304 15305 15306 15307 15308 15309 15310 15311 15312 15313 15314 15315 15316 15317 15318 15319 15320 15321 15322 15323 15324 15325 15326 15327 15328 15329 15330 15331 15332 15333 15334 15335 15336 15337 15338 15339 15340 15341 15342 15343 15344 15345 15346 15347 15348 15349 15350 15351 15352 15353 15354 15355 15356 15357 15358 15359 15360 15361 15362 15363 15364 15365 15366 15367 15368 15369 15370 15371 15372 15373 15374 15375 15376 15377 15378 15379 15380 15381 15382 15383 15384 15385 15386 15387 15388 15389 15390 15391 15392 15393 15394 15395 15396 15397 15398 15399 15400 15401 15402 15403 15404 15405 15406 15407 15408 15409 15410 15411 15412 15413 15414 15415 15416 15417 15418 15419 15420 15421 15422 15423 15424 15425 15426 15427 15428 15429 15430 15431 15432 15433 15434 15435 15436 15437 15438 15439 15440 15441 15442 15443 15444 15445 15446 15447 15448 15449 15450 15451 15452 15453 15454 15455 15456 15457 15458 15459 15460 15461 15462 15463 15464 15465 15466 15467 15468 15469 15470 15471 15472 15473 15474 15475 15476 15477 15478 15479 15480 15481 15482 15483 15484 15485 15486 15487 15488 15489 15490 15491 15492 15493 15494 15495 15496 15497 15498 15499 15500 15501 15502 15503 15504 15505 15506 15507 15508 15509 15510 15511 15512 15513 15514 15515 15516 15517 15518 15519 15520 15521 15522 15523 15524 15525 15526 15527 15528 15529 15530 15531 15532 15533 15534 15535 15536 15537 15538 15539 15540 15541 15542 15543 15544 15545 15546 15547 15548 15549 15550 15551 15552 15553 15554 15555 15556 15557 15558 15559 15560 15561 15562 15563 15564 15565 15566 15567 15568 15569 15570 15571 15572 15573 15574 15575 15576 15577 15578 15579 15580 15581 15582 15583 15584 15585 15586 15587 15588 15589 15590 15591 15592 15593 15594 15595 15596 15597 15598 15599 15600 15601 15602 15603 15604 15605 15606 15607 15608 15609 15610 15611 15612 15613 15614 15615 15616 15617 15618 15619 15620 15621 15622 15623 15624 15625 15626 15627 15628 15629 15630 15631 15632 15633 15634 15635 15636 15637 15638 15639 15640 15641 15642 15643 15644 15645 15646 15647 15648 15649 15650 15651 15652 15653 15654 15655 15656 15657 15658 15659 15660 15661 15662 15663 15664 15665 15666 15667 15668 15669 15670 15671 15672 15673 15674 15675 15676 15677 15678 15679 15680 15681 15682 15683 15684 15685 15686 15687 15688 15689 15690 15691 15692 15693 15694 15695 15696 15697 15698 15699 15700 15701 15702 15703 15704 15705 15706 15707 15708 15709 15710 15711 15712 15713 15714 15715 15716 15717 15718 15719 15720 15721 15722 15723 15724 15725 15726 15727 15728 15729 15730 15731 15732 15733 15734 15735 15736 15737 15738 15739 15740 15741 15742 15743 15744 15745 15746 15747 15748 15749 15750 15751 15752 15753 15754 15755 15756 15757 15758 15759 15760 15761 15762 15763 15764 15765 15766 15767 15768 15769 15770 15771 15772 15773 15774 15775 15776 15777 15778 15779 15780 15781 15782 15783 15784 15785 15786 15787 15788 15789 15790 15791 15792 15793 15794 15795 15796 15797 15798 15799 15800 15801 15802 15803 15804 15805 15806 15807 15808 15809 15810 15811 15812 15813 15814 15815 15816 15817 15818 15819 15820 15821 15822 15823 15824 15825 15826 15827 15828 15829 15830 15831 15832 15833 15834 15835 15836 15837 15838 15839 15840 15841 15842 15843 15844 15845 15846 15847 15848 15849 15850 15851 15852 15853 15854 15855 15856 15857 15858 15859 15860 15861 15862 15863 15864 15865 15866 15867 15868 15869 15870 15871 15872 15873 15874 15875 15876 15877 15878 15879 15880 15881 15882 15883 15884 15885 15886 15887 15888 15889 15890 15891 15892 15893 15894 15895 15896 15897 15898 15899 15900 15901 15902 15903 15904 15905 15906 15907 15908 15909 15910 15911 15912 15913 15914 15915 15916 15917 15918 15919 15920 15921 15922 15923 15924 15925 15926 15927 15928 15929 15930 15931 15932 15933 15934 15935 15936 15937 15938 15939 15940 15941 15942 15943 15944 15945 15946 15947 15948 15949 15950 15951 15952 15953 15954 15955 15956 15957 15958 15959 15960 15961 15962 15963 15964 15965 15966 15967 15968 15969 15970 15971 15972 15973 15974 15975 15976 15977 15978 15979 15980 15981 15982 15983 15984 15985 15986 15987 15988 15989 15990 15991 15992 15993 15994 15995 15996 15997 15998 15999 16000 16001 16002 16003 16004 16005 16006 16007 16008 16009 16010 16011 16012 16013 16014 16015 16016 16017 16018 16019 16020 16021 16022 16023 16024 16025 16026 16027 16028 16029 16030 16031 16032 16033 16034 16035 16036 16037 16038 16039 16040 16041 16042 16043 16044 16045 16046 16047 16048 16049 16050 16051 16052 16053 16054 16055 16056 16057 16058 16059 16060 16061 16062 16063 16064 16065 16066 16067 16068 16069 16070 16071 16072 16073 16074 16075 16076 16077 16078 16079 16080 16081 16082 16083 16084 16085 16086 16087 16088 16089 16090 16091 16092 16093 16094 16095 16096 16097 16098 16099 16100 16101 16102 16103 16104 16105 16106 16107 16108 16109 16110 16111 16112 16113 16114 16115 16116 16117 16118 16119 16120 16121 16122 16123 16124 16125 16126 16127 16128 16129 16130 16131 16132 16133 16134 16135 16136 16137 16138 16139 16140 16141 16142 16143 16144 16145 16146 16147 16148 16149 16150 16151 16152 16153 16154 16155 16156 16157 16158 16159 16160 16161 16162 16163 16164 16165 16166 16167 16168 16169 16170 16171 16172 16173 16174 16175 16176 16177 16178 16179 16180 16181 16182 16183 16184 16185 16186 16187 16188 16189 16190 16191 16192 16193 16194 16195 16196 16197 16198 16199 16200 16201 16202 16203 16204 16205 16206 16207 16208 16209 16210 16211 16212 16213 16214 16215 16216 16217 16218 16219 16220 16221 16222 16223 16224 16225 16226 16227 16228 16229 16230 16231 16232 16233 16234 16235 16236 16237 16238 16239 16240 16241 16242 16243 16244 16245 16246 16247 16248 16249 16250 16251 16252 16253 16254 16255 16256 16257 16258 16259 16260 16261 16262 16263 16264 16265 16266 16267 16268 16269 16270 16271 16272 16273 16274 16275 16276 16277 16278 16279 16280 16281 16282 16283 16284 16285 16286 16287 16288 16289 16290 16291 16292 16293 16294 16295 16296 16297 16298 16299 16300 16301 16302 16303 16304 16305 16306 16307 16308 16309 16310 16311 16312 16313 16314 16315 16316 16317 16318 16319 16320 16321 16322 16323 16324 16325 16326 16327 16328 16329 16330 16331 16332 16333 16334 16335 16336 16337 16338 16339 16340 16341 16342 16343 16344 16345 16346 16347 16348 16349 16350 16351 16352 16353 16354 16355 16356 16357 16358 16359 16360 16361 16362 16363 16364 16365 16366 16367 16368 16369 16370 16371 16372 16373 16374 16375 16376 16377 16378 16379 16380 16381 16382 16383 16384 16385 16386 16387 16388 16389 16390 16391 16392 16393 16394 16395 16396 16397 16398 16399 16400 16401 16402 16403 16404 16405 16406 16407 16408 16409 16410 16411 16412 16413 16414 16415 16416 16417 16418 16419 16420 16421 16422 16423 16424 16425 16426 16427 16428 16429 16430 16431 16432 16433 16434 16435 16436 16437 16438 16439 16440 16441 16442 16443 16444 16445 16446 16447 16448 16449 16450 16451 16452 16453 16454 16455 16456 16457 16458 16459 16460 16461 16462 16463 16464 16465 16466 16467 16468 16469 16470 16471 16472 16473 16474 16475 16476 16477 16478 16479 16480 16481 16482 16483 16484 16485 16486 16487 16488 16489 16490 16491 16492 16493 16494 16495 16496 16497 16498 16499 16500 16501 16502 16503 16504 16505 16506 16507 16508 16509 16510 16511 16512 16513 16514 16515 16516 16517 16518 16519 16520 16521 16522 16523 16524 16525 16526 16527 16528 16529 16530 16531 16532 16533 16534 16535 16536 16537 16538 16539 16540 16541 16542 16543 16544 16545 16546 16547 16548 16549 16550 16551 16552 16553 16554 16555 16556 16557 16558 16559 16560 16561 16562 16563 16564 16565 16566 16567 16568 16569 16570 16571 16572 16573 16574 16575 16576 16577 16578 16579 16580 16581 16582 16583 16584 16585 16586 16587 16588 16589 16590 16591 16592 16593 16594 16595 16596 16597 16598 16599 16600 16601 16602 16603 16604 16605 16606 16607 16608 16609 16610 16611 16612 16613 16614 16615 16616 16617 16618 16619 16620 16621 16622 16623 16624 16625 16626 16627 16628 16629 16630 16631 16632 16633 16634 16635 16636 16637 16638 16639 16640 16641 16642 16643 16644 16645 16646 16647 16648 16649 16650 16651 16652 16653 16654 16655 16656 16657 16658 16659 16660 16661 16662 16663 16664 16665 16666 16667 16668 16669 16670 16671 16672 16673 16674 16675 16676 16677 16678 16679 16680 16681 16682 16683 16684 16685 16686 16687 16688 16689 16690 16691 16692 16693 16694 16695 16696 16697 16698 16699 16700 16701 16702 16703 16704 16705 16706 16707 16708 16709 16710 16711 16712 16713 16714 16715 16716 16717 16718 16719 16720 16721 16722 16723 16724 16725 16726 16727 16728 16729 16730 16731 16732 16733 16734 16735 16736 16737 16738 16739 16740 16741 16742 16743 16744 16745 16746 16747 16748 16749 16750 16751 16752 16753 16754 16755 16756 16757 16758 16759 16760 16761 16762 16763 16764 16765 16766 16767 16768 16769 16770 16771 16772 16773 16774 16775 16776 16777 16778 16779 16780 16781 16782 16783 16784 16785 16786 16787 16788 16789 16790 16791 16792 16793 16794 16795 16796 16797 16798 16799 16800 16801 16802 16803 16804 16805 16806 16807 16808 16809 16810 16811 16812 16813 16814 16815 16816 16817 16818 16819 16820 16821 16822 16823 16824 16825 16826 16827 16828 16829 16830 16831 16832 16833 16834 16835 16836 16837 16838 16839 16840 16841 16842 16843 16844 16845 16846 16847 16848 16849 16850 16851 16852 16853 16854 16855 16856 16857 16858 16859 16860 16861 16862 16863 16864 16865 16866 16867 16868 16869 16870 16871 16872 16873 16874 16875 16876 16877 16878 16879 16880 16881 16882 16883 16884 16885 16886 16887 16888 16889 16890 16891 16892 16893 16894 16895 16896 16897 16898 16899 16900 16901 16902 16903 16904 16905 16906 16907 16908 16909 16910 16911 16912 16913 16914 16915 16916 16917 16918 16919 16920 16921 16922 16923 16924 16925 16926 16927 16928 16929 16930 16931 16932 16933 16934 16935 16936 16937 16938 16939 16940 16941 16942 16943 16944 16945 16946 16947 16948 16949 16950 16951 16952 16953 16954 16955 16956 16957 16958 16959 16960 16961 16962 16963 16964 16965 16966 16967 16968 16969 16970 16971 16972 16973 16974 16975 16976 16977 16978 16979 16980 16981 16982 16983 16984 16985 16986 16987 16988 16989 16990 16991 16992 16993 16994 16995 16996 16997 16998 16999 17000 17001 17002 17003 17004 17005 17006 17007 17008 17009 17010 17011 17012 17013 17014 17015 17016 17017 17018 17019 17020 17021 17022 17023 17024 17025 17026 17027 17028 17029 17030 17031 17032 17033 17034 17035 17036 17037 17038 17039 17040 17041 17042 17043 17044 17045 17046 17047 17048 17049 17050 17051 17052 17053 17054 17055 17056 17057 17058 17059 17060 17061 17062 17063 17064 17065 17066 17067 17068 17069 17070 17071 17072 17073 17074 17075 17076 17077 17078 17079 17080 17081 17082 17083 17084 17085 17086 17087 17088 17089 17090 17091 17092 17093 17094 17095 17096 17097 17098 17099 17100 17101 17102 17103 17104 17105 17106 17107 17108 17109 17110 17111 17112 17113 17114 17115 17116 17117 17118 17119 17120 17121 17122 17123 17124 17125 17126 17127 17128 17129 17130 17131 17132 17133 17134 17135 17136 17137 17138 17139 17140 17141 17142 17143 17144 17145 17146 17147 17148 17149 17150 17151 17152 17153 17154 17155 17156 17157 17158 17159 17160 17161 17162 17163 17164 17165 17166 17167 17168 17169 17170 17171 17172 17173 17174 17175 17176 17177 17178 17179 17180 17181 17182 17183 17184 17185 17186 17187 17188 17189 17190 17191 17192 17193 17194 17195 17196 17197 17198 17199 17200 17201 17202 17203 17204 17205 17206 17207 17208 17209 17210 17211 17212 17213 17214 17215 17216 17217 17218 17219 17220 17221 17222 17223 17224 17225 17226 17227 17228 17229 17230 17231 17232 17233 17234 17235 17236 17237 17238 17239 17240 17241 17242 17243 17244 17245 17246 17247 17248 17249 17250 17251 17252 17253 17254 17255 17256 17257 17258 17259 17260 17261 17262 17263 17264 17265 17266 17267 17268 17269 17270 17271 17272 17273 17274 17275 17276 17277 17278 17279 17280 17281 17282 17283 17284 17285 17286 17287 17288 17289 17290 17291 17292 17293 17294 17295 17296 17297 17298 17299 17300 17301 17302 17303 17304 17305 17306 17307 17308 17309 17310 17311 17312 17313 17314 17315 17316 17317 17318 17319 17320 17321 17322 17323 17324 17325 17326 17327 17328 17329 17330 17331 17332 17333 17334 17335 17336 17337 17338 17339 17340 17341 17342 17343 17344 17345 17346 17347 17348 17349 17350 17351 17352 17353 17354 17355 17356 17357 17358 17359 17360 17361 17362 17363 17364 17365 17366 17367 17368 17369 17370 17371 17372 17373 17374 17375 17376 17377 17378 17379 17380 17381 17382 17383 17384 17385 17386 17387 17388 17389 17390 17391 17392 17393 17394 17395 17396 17397 17398 17399 17400 17401 17402 17403 17404 17405 17406 17407 17408 17409 17410 17411 17412 17413 17414 17415 17416 17417 17418 17419 17420 17421 17422 17423 17424 17425 17426 17427 17428 17429 17430 17431 17432 17433 17434 17435 17436 17437 17438 17439 17440 17441 17442 17443 17444 17445 17446 17447 17448 17449 17450 17451 17452 17453 17454 17455 17456 17457 17458 17459 17460 17461 17462 17463 17464 17465 17466 17467 17468 17469 17470 17471 17472 17473 17474 17475 17476 17477 17478 17479 17480 17481 17482 17483 17484 17485 17486 17487 17488 17489 17490 17491 17492 17493 17494 17495 17496 17497 17498 17499 17500 17501 17502 17503 17504 17505 17506 17507 17508 17509 17510 17511 17512 17513 17514 17515 17516 17517 17518 17519 17520 17521 17522 17523 17524 17525 17526 17527 17528 17529 17530 17531 17532 17533 17534 17535 17536 17537 17538 17539 17540 17541 17542 17543 17544 17545 17546 17547 17548 17549 17550 17551 17552 17553 17554 17555 17556 17557 17558 17559 17560 17561 17562 17563 17564 17565 17566 17567 17568 17569 17570 17571 17572 17573 17574 17575 17576 17577 17578 17579 17580 17581 17582 17583 17584 17585 17586 17587 17588 17589 17590 17591 17592 17593 17594 17595 17596 17597 17598 17599 17600 17601 17602 17603 17604 17605 17606 17607 17608 17609 17610 17611 17612 17613 17614 17615 17616 17617 17618 17619 17620 17621 17622 17623 17624 17625 17626 17627 17628 17629 17630 17631 17632 17633 17634 17635 17636 17637 17638 17639 17640 17641 17642 17643 17644 17645 17646 17647 17648 17649 17650 17651 17652 17653 17654 17655 17656 17657 17658 17659 17660 17661 17662 17663 17664 17665 17666 17667 17668 17669 17670 17671 17672 17673 17674 17675 17676 17677 17678 17679 17680 17681 17682 17683 17684 17685 17686 17687 17688 17689 17690 17691 17692 17693 17694 17695 17696 17697 17698 17699 17700 17701 17702 17703 17704 17705 17706 17707 17708 17709 17710 17711 17712 17713 17714 17715 17716 17717 17718 17719 17720 17721 17722 17723 17724 17725 17726 17727 17728 17729 17730 17731 17732 17733 17734 17735 17736 17737 17738 17739 17740 17741 17742 17743 17744 17745 17746 17747 17748 17749 17750 17751 17752 17753 17754 17755 17756 17757 17758 17759 17760 17761 17762 17763 17764 17765 17766 17767 17768 17769 17770 17771 17772 17773 17774 17775 17776 17777 17778 17779 17780 17781 17782 17783 17784 17785 17786 17787 17788 17789 17790 17791 17792 17793 17794 17795 17796 17797 17798 17799 17800 17801 17802 17803 17804 17805 17806 17807 17808 17809 17810 17811 17812 17813 17814 17815 17816 17817 17818 17819 17820 17821 17822 17823 17824 17825 17826 17827 17828 17829 17830 17831 17832 17833 17834 17835 17836 17837 17838 17839 17840 17841 17842 17843 17844 17845 17846 17847 17848 17849 17850 17851 17852 17853 17854 17855 17856 17857 17858 17859 17860 17861 17862 17863 17864 17865 17866 17867 17868 17869 17870 17871 17872 17873 17874 17875 17876 17877 17878 17879 17880 17881 17882 17883 17884 17885 17886 17887 17888 17889 17890 17891 17892 17893 17894 17895 17896 17897 17898 17899 17900 17901 17902 17903 17904 17905 17906 17907 17908 17909 17910 17911 17912 17913 17914 17915 17916 17917 17918 17919 17920 17921 17922 17923 17924 17925 17926 17927 17928 17929 17930 17931 17932 17933 17934 17935 17936 17937 17938 17939 17940 17941 17942 17943 17944 17945 17946 17947 17948 17949 17950 17951 17952 17953 17954 17955 17956 17957 17958 17959 17960 17961 17962 17963 17964 17965 17966 17967 17968 17969 17970 17971 17972 17973 17974 17975 17976 17977 17978 17979 17980 17981 17982 17983 17984 17985 17986 17987 17988 17989 17990 17991 17992 17993 17994 17995 17996 17997 17998 17999 18000 18001 18002 18003 18004 18005 18006 18007 18008 18009 18010 18011 18012 18013 18014 18015 18016 18017 18018 18019 18020 18021 18022 18023 18024 18025 18026 18027 18028 18029 18030 18031 18032 18033 18034 18035 18036 18037 18038 18039 18040 18041 18042 18043 18044 18045 18046 18047 18048 18049 18050 18051 18052 18053 18054 18055 18056 18057 18058 18059 18060 18061 18062 18063 18064 18065 18066 18067 18068 18069 18070 18071 18072 18073 18074 18075 18076 18077 18078 18079 18080 18081 18082 18083 18084 18085 18086 18087 18088 18089 18090 18091 18092 18093 18094 18095 18096 18097 18098 18099 18100 18101 18102 18103 18104 18105 18106 18107 18108 18109 18110 18111 18112 18113 18114 18115 18116 18117 18118 18119 18120 18121 18122 18123 18124 18125 18126 18127 18128 18129 18130 18131 18132 18133 18134 18135 18136 18137 18138 18139 18140 18141 18142 18143 18144 18145 18146 18147 18148 18149 18150 18151 18152 18153 18154 18155 18156 18157 18158 18159 18160 18161 18162 18163 18164 18165 18166 18167 18168 18169 18170 18171 18172 18173 18174 18175 18176 18177 18178 18179 18180 18181 18182 18183 18184 18185 18186 18187 18188 18189 18190 18191 18192 18193 18194 18195 18196 18197 18198 18199 18200 18201 18202 18203 18204 18205 18206 18207 18208 18209 18210 18211 18212 18213 18214 18215 18216 18217 18218 18219 18220 18221 18222 18223 18224 18225 18226 18227 18228 18229 18230 18231 18232 18233 18234 18235 18236 18237 18238 18239 18240 18241 18242 18243 18244 18245 18246 18247 18248 18249 18250 18251 18252 18253 18254 18255 18256 18257 18258 18259 18260 18261 18262 18263 18264 18265 18266 18267 18268 18269 18270 18271 18272 18273 18274 18275 18276 18277 18278 18279 18280 18281 18282 18283 18284 18285 18286 18287 18288 18289 18290 18291 18292 18293 18294 18295 18296 18297 18298 18299 18300 18301 18302 18303 18304 18305 18306 18307 18308 18309 18310 18311 18312 18313 18314 18315 18316 18317 18318 18319 18320 18321 18322 18323 18324 18325 18326 18327 18328 18329 18330 18331 18332 18333 18334 18335 18336 18337 18338 18339 18340 18341 18342 18343 18344 18345 18346 18347 18348 18349 18350 18351 18352 18353 18354 18355 18356 18357 18358 18359 18360 18361 18362 18363 18364 18365 18366 18367 18368 18369 18370 18371 18372 18373 18374 18375 18376 18377 18378 18379 18380 18381 18382 18383 18384 18385 18386 18387 18388 18389 18390 18391 18392 18393 18394 18395 18396 18397 18398 18399 18400 18401 18402 18403 18404 18405 18406 18407 18408 18409 18410 18411 18412 18413 18414 18415 18416 18417 18418 18419 18420 18421 18422 18423 18424 18425 18426 18427 18428 18429 18430 18431 18432 18433 18434 18435 18436 18437 18438 18439 18440 18441 18442 18443 18444 18445 18446 18447 18448 18449 18450 18451 18452 18453 18454 18455 18456 18457 18458 18459 18460 18461 18462 18463 18464 18465 18466 18467 18468 18469 18470 18471 18472 18473 18474 18475 18476 18477 18478 18479 18480 18481 18482 18483 18484 18485 18486 18487 18488 18489 18490 18491 18492 18493 18494 18495 18496 18497 18498 18499 18500 18501 18502 18503 18504 18505 18506 18507 18508 18509 18510 18511 18512 18513 18514 18515 18516 18517 18518 18519 18520 18521 18522 18523 18524 18525 18526 18527 18528 18529 18530 18531 18532 18533 18534 18535 18536 18537 18538 18539 18540 18541 18542 18543 18544 18545 18546 18547 18548 18549 18550 18551 18552 18553 18554 18555 18556 18557 18558 18559 18560 18561 18562 18563 18564 18565 18566 18567 18568 18569 18570 18571 18572 18573 18574 18575 18576 18577 18578 18579 18580 18581 18582 18583 18584 18585 18586 18587 18588 18589 18590 18591 18592 18593 18594 18595 18596 18597 18598 18599 18600 18601 18602 18603 18604 18605 18606 18607 18608 18609 18610 18611 18612 18613 18614 18615 18616 18617 18618 18619 18620 18621 18622 18623 18624 18625 18626 18627 18628 18629 18630 18631 18632 18633 18634 18635 18636 18637 18638 18639 18640 18641 18642 18643 18644 18645 18646 18647 18648 18649 18650 18651 18652 18653 18654 18655 18656 18657 18658 18659 18660 18661 18662 18663 18664 18665 18666 18667 18668 18669 18670 18671 18672 18673 18674 18675 18676 18677 18678 18679 18680 18681 18682 18683 18684 18685 18686 18687 18688 18689 18690 18691 18692 18693 18694 18695 18696 18697 18698 18699 18700 18701 18702 18703 18704 18705 18706 18707 18708 18709 18710 18711 18712 18713 18714 18715 18716 18717 18718 18719 18720 18721 18722 18723 18724 18725 18726 18727 18728 18729 18730 18731 18732 18733 18734 18735 18736 18737 18738 18739 18740 18741 18742 18743 18744 18745 18746 18747 18748 18749 18750 18751 18752 18753 18754 18755 18756 18757 18758 18759 18760 18761 18762 18763 18764 18765 18766 18767 18768 18769 18770 18771 18772 18773 18774 18775 18776 18777 18778 18779 18780 18781 18782 18783 18784 18785 18786 18787 18788 18789 18790 18791 18792 18793 18794 18795 18796 18797 18798 18799 18800 18801 18802 18803 18804 18805 18806 18807 18808 18809 18810 18811 18812 18813 18814 18815 18816 18817 18818 18819 18820 18821 18822 18823 18824 18825 18826 18827 18828 18829 18830 18831 18832 18833 18834 18835 18836 18837 18838 18839 18840 18841 18842 18843 18844 18845 18846 18847 18848 18849 18850 18851 18852 18853 18854 18855 18856 18857 18858 18859 18860 18861 18862 18863 18864 18865 18866 18867 18868 18869 18870 18871 18872 18873 18874 18875 18876 18877 18878 18879 18880 18881 18882 18883 18884 18885 18886 18887 18888 18889 18890 18891 18892 18893 18894 18895 18896 18897 18898 18899 18900 18901 18902 18903 18904 18905 18906 18907 18908 18909 18910 18911 18912 18913 18914 18915 18916 18917 18918 18919 18920 18921 18922 18923 18924 18925 18926 18927 18928 18929 18930 18931 18932 18933 18934 18935 18936 18937 18938 18939 18940 18941 18942 18943 18944 18945 18946 18947 18948 18949 18950 18951 18952 18953 18954 18955 18956 18957 18958 18959 18960 18961 18962 18963 18964 18965 18966 18967 18968 18969 18970 18971 18972 18973 18974 18975 18976 18977 18978 18979 18980 18981 18982 18983 18984 18985 18986 18987 18988 18989 18990 18991 18992 18993 18994 18995 18996 18997 18998 18999 19000 19001 19002 19003 19004 19005 19006 19007 19008 19009 19010 19011 19012 19013 19014 19015 19016 19017 19018 19019 19020 19021 19022 19023 19024 19025 19026 19027 19028 19029 19030 19031 19032 19033 19034 19035 19036 19037 19038 19039 19040 19041 19042 19043 19044 19045 19046 19047 19048 19049 19050 19051 19052 19053 19054 19055 19056 19057 19058 19059 19060 19061 19062 19063 19064 19065 19066 19067 19068 19069 19070 19071 19072 19073 19074 19075 19076 19077 19078 19079 19080 19081 19082 19083 19084 19085 19086 19087 19088 19089 19090 19091 19092 19093 19094 19095 19096 19097 19098 19099 19100 19101 19102 19103 19104 19105 19106 19107 19108 19109 19110 19111 19112 19113 19114 19115 19116 19117 19118 19119 19120 19121 19122 19123 19124 19125 19126 19127 19128 19129 19130 19131 19132 19133 19134 19135 19136 19137 19138 19139 19140 19141 19142 19143 19144 19145 19146 19147 19148 19149 19150 19151 19152 19153 19154 19155 19156 19157 19158 19159 19160 19161 19162 19163 19164 19165 19166 19167 19168 19169 19170 19171 19172 19173 19174 19175 19176 19177 19178 19179 19180 19181 19182 19183 19184 19185 19186 19187 19188 19189 19190 19191 19192 19193 19194 19195 19196 19197 19198 19199 19200 19201 19202 19203 19204 19205 19206 19207 19208 19209 19210 19211 19212 19213 19214 19215 19216 19217 19218 19219 19220 19221 19222 19223 19224 19225 19226 19227 19228 19229 19230 19231 19232 19233 19234 19235 19236 19237 19238 19239 19240 19241 19242 19243 19244 19245 19246 19247 19248 19249 19250 19251 19252 19253 19254 19255 19256 19257 19258 19259 19260 19261 19262 19263 19264 19265 19266 19267 19268 19269 19270 19271 19272 19273 19274 19275 19276 19277 19278 19279 19280 19281 19282 19283 19284 19285 19286 19287 19288 19289 19290 19291 19292 19293 19294 19295 19296 19297 19298 19299 19300 19301 19302 19303 19304 19305 19306 19307 19308 19309 19310 19311 19312 19313 19314 19315 19316 19317 19318 19319 19320 19321 19322 19323 19324 19325 19326 19327 19328 19329 19330 19331 19332 19333 19334 19335 19336 19337 19338 19339 19340 19341 19342 19343 19344 19345 19346 19347 19348 19349 19350 19351 19352 19353 19354 19355 19356 19357 19358 19359 19360 19361 19362 19363 19364 19365 19366 19367 19368 19369 19370 19371 19372 19373 19374 19375 19376 19377 19378 19379 19380 19381 19382 19383 19384 19385 19386 19387 19388 19389 19390 19391 19392 19393 19394 19395 19396 19397 19398 19399 19400 19401 19402 19403 19404 19405 19406 19407 19408 19409 19410 19411 19412 19413 19414 19415 19416 19417 19418 19419 19420 19421 19422 19423 19424 19425 19426 19427 19428 19429 19430 19431 19432 19433 19434 19435 19436 19437 19438 19439 19440 19441 19442 19443 19444 19445 19446 19447 19448 19449 19450 19451 19452 19453 19454 19455 19456 19457 19458 19459 19460 19461 19462 19463 19464 19465 19466 19467 19468 19469 19470 19471 19472 19473 19474 19475 19476 19477 19478 19479 19480 19481 19482 19483 19484 19485 19486 19487 19488 19489 19490 19491 19492 19493 19494 19495 19496 19497 19498 19499 19500 19501 19502 19503 19504 19505 19506 19507 19508 19509 19510 19511 19512 19513 19514 19515 19516 19517 19518 19519 19520 19521 19522 19523 19524 19525 19526 19527 19528 19529 19530 19531 19532 19533 19534 19535 19536 19537 19538 19539 19540 19541 19542 19543 19544 19545 19546 19547 19548 19549 19550 19551 19552 19553 19554 19555 19556 19557 19558 19559 19560 19561 19562 19563 19564 19565 19566 19567 19568 19569 19570 19571 19572 19573 19574 19575 19576 19577 19578 19579 19580 19581 19582 19583 19584 19585 19586 19587 19588 19589 19590 19591 19592 19593 19594 19595 19596 19597 19598 19599 19600 19601 19602 19603 19604 19605 19606 19607 19608 19609 19610 19611 19612 19613 19614 19615 19616 19617 19618 19619 19620 19621 19622 19623 19624 19625 19626 19627 19628 19629 19630 19631 19632 19633 19634 19635 19636 19637 19638 19639 19640 19641 19642 19643 19644 19645 19646 19647 19648 19649 19650 19651 19652 19653 19654 19655 19656 19657 19658 19659 19660 19661 19662 19663 19664 19665 19666 19667 19668 19669 19670 19671 19672 19673 19674 19675 19676 19677 19678 19679 19680 19681 19682 19683 19684 19685 19686 19687 19688 19689 19690 19691 19692 19693 19694 19695 19696 19697 19698 19699 19700 19701 19702 19703 19704 19705 19706 19707 19708 19709 19710 19711 19712 19713 19714 19715 19716 19717 19718 19719 19720 19721 19722 19723 19724 19725 19726 19727 19728 19729 19730 19731 19732 19733 19734 19735 19736 19737 19738 19739 19740 19741 19742 19743 19744 19745 19746 19747 19748 19749 19750 19751 19752 19753 19754 19755 19756 19757 19758 19759 19760 19761 19762 19763 19764 19765 19766 19767 19768 19769 19770 19771 19772 19773 19774 19775 19776 19777 19778 19779 19780 19781 19782 19783 19784 19785 19786 19787 19788 19789 19790 19791 19792 19793 19794 19795 19796 19797 19798 19799 19800 19801 19802 19803 19804 19805 19806 19807 19808 19809 19810 19811 19812 19813 19814 19815 19816 19817 19818 19819 19820 19821 19822 19823 19824 19825 19826 19827 19828 19829 19830 19831 19832 19833 19834 19835 19836 19837 19838 19839 19840 19841 19842 19843 19844 19845 19846 19847 19848 19849 19850 19851 19852 19853 19854 19855 19856 19857 19858 19859 19860 19861 19862 19863 19864 19865 19866 19867 19868 19869 19870 19871 19872 19873 19874 19875 19876 19877 19878 19879 19880 19881 19882 19883 19884 19885 19886 19887 19888 19889 19890 19891 19892 19893 19894 19895 19896 19897 19898 19899 19900 19901 19902 19903 19904 19905 19906 19907 19908 19909 19910 19911 19912 19913 19914 19915 19916 19917 19918 19919 19920 19921 19922 19923 19924 19925 19926 19927 19928 19929 19930 19931 19932 19933 19934 19935 19936 19937 19938 19939 19940 19941 19942 19943 19944 19945 19946 19947 19948 19949 19950 19951 19952 19953 19954 19955 19956 19957 19958 19959 19960 19961 19962 19963 19964 19965 19966 19967 19968 19969 19970 19971 19972 19973 19974 19975 19976 19977 19978 19979 19980 19981 19982 19983 19984 19985 19986 19987 19988 19989 19990 19991 19992 19993 19994 19995 19996 19997 19998 19999 20000 20001 20002 20003 20004 20005 20006 20007 20008 20009 20010 20011 20012 20013 20014 20015 20016 20017 20018 20019 20020 20021 20022 20023 20024 20025 20026 20027 20028 20029 20030 20031 20032 20033 20034 20035 20036 20037 20038 20039 20040 20041 20042 20043 20044 20045 20046 20047 20048 20049 20050 20051 20052 20053 20054 20055 20056 20057 20058 20059 20060 20061 20062 20063 20064 20065 20066 20067 20068 20069 20070 20071 20072 20073 20074 20075 20076 20077 20078 20079 20080 20081 20082 20083 20084 20085 20086 20087 20088 20089 20090 20091 20092 20093 20094 20095 20096 20097 20098 20099 20100 20101 20102 20103 20104 20105 20106 20107 20108 20109 20110 20111 20112 20113 20114 20115 20116 20117 20118 20119 20120 20121 20122 20123 20124 20125 20126 20127 20128 20129 20130 20131 20132 20133 20134 20135 20136 20137 20138 20139 20140 20141 20142 20143 20144 20145 20146 20147 20148 20149 20150 20151 20152 20153 20154 20155 20156 20157 20158 20159 20160 20161 20162 20163 20164 20165 20166 20167 20168 20169 20170 20171 20172 20173 20174 20175 20176 20177 20178 20179 20180 20181 20182 20183 20184 20185 20186 20187 20188 20189 20190 20191 20192 20193 20194 20195 20196 20197 20198 20199 20200 20201 20202 20203 20204 20205 20206 20207 20208 20209 20210 20211 20212 20213 20214 20215 20216 20217 20218 20219 20220 20221 20222 20223 20224 20225 20226 20227 20228 20229 20230 20231 20232 20233 20234 20235 20236 20237 20238 20239 20240 20241 20242 20243 20244 20245 20246 20247 20248 20249 20250 20251 20252 20253 20254 20255 20256 20257 20258 20259 20260 20261 20262 20263 20264 20265 20266 20267 20268 20269 20270 20271 20272 20273 20274 20275 20276 20277 20278 20279 20280 20281 20282 20283 20284 20285 20286 20287 20288 20289 20290 20291 20292 20293 20294 20295 20296 20297 20298 20299 20300 20301 20302 20303 20304 20305 20306 20307 20308 20309 20310 20311 20312 20313 20314 20315 20316 20317 20318 20319 20320 20321 20322 20323 20324 20325 20326 20327 20328 20329 20330 20331 20332 20333 20334 20335 20336 20337 20338 20339 20340 20341 20342 20343 20344 20345 20346 20347 20348 20349 20350 20351 20352 20353 20354 20355 20356 20357 20358 20359 20360 20361 20362 20363 20364 20365 20366 20367 20368 20369 20370 20371 20372 20373 20374 20375 20376 20377 20378 20379 20380 20381 20382 20383 20384 20385 20386 20387 20388 20389 20390 20391 20392 20393 20394 20395 20396 20397 20398 20399 20400 20401 20402 20403 20404 20405 20406 20407 20408 20409 20410 20411 20412 20413 20414 20415 20416 20417 20418 20419 20420 20421 20422 20423 20424 20425 20426 20427 20428 20429 20430 20431 20432 20433 20434 20435 20436 20437 20438 20439 20440 20441 20442 20443 20444 20445 20446 20447 20448 20449 20450 20451 20452 20453 20454 20455 20456 20457 20458 20459 20460 20461 20462 20463 20464 20465 20466 20467 20468 20469 20470 20471 20472 20473 20474 20475 20476 20477 20478 20479 20480 20481 20482 20483 20484 20485 20486 20487 20488 20489 20490 20491 20492 20493 20494 20495 20496 20497 20498 20499 20500 20501 20502 20503 20504 20505 20506 20507 20508 20509 20510 20511 20512 20513 20514 20515 20516 20517 20518 20519 20520 20521 20522 20523 20524 20525 20526 20527 20528 20529 20530 20531 20532 20533 20534 20535 20536 20537 20538 20539 20540 20541 20542 20543 20544 20545 20546 20547 20548 20549 20550 20551 20552 20553 20554 20555 20556 20557 20558 20559 20560 20561 20562 20563 20564 20565 20566 20567 20568 20569 20570 20571 20572 20573 20574 20575 20576 20577 20578 20579 20580 20581 20582 20583 20584 20585 20586 20587 20588 20589 20590 20591 20592 20593 20594 20595 20596 20597 20598 20599 20600 20601 20602 20603 20604 20605 20606 20607 20608 20609 20610 20611 20612 20613 20614 20615 20616 20617 20618 20619 20620 20621 20622 20623 20624 20625 20626 20627 20628 20629 20630 20631 20632 20633 20634 20635 20636 20637 20638 20639 20640 20641 20642 20643 20644 20645 20646 20647 20648 20649 20650 20651 20652 20653 20654 20655 20656 20657 20658 20659 20660 20661 20662 20663 20664 20665 20666 20667 20668 20669 20670 20671 20672 20673 20674 20675 20676 20677 20678 20679 20680 20681 20682 20683 20684 20685 20686 20687 20688 20689 20690 20691 20692 20693 20694 20695 20696 20697 20698 20699 20700 20701 20702 20703 20704 20705 20706 20707 20708 20709 20710 20711 20712 20713 20714 20715 20716 20717 20718 20719 20720 20721 20722 20723 20724 20725 20726 20727 20728 20729 20730 20731 20732 20733 20734 20735 20736 20737 20738 20739 20740 20741 20742 20743 20744 20745 20746 20747 20748 20749 20750 20751 20752 20753 20754 20755 20756 20757 20758 20759 20760 20761 20762 20763 20764 20765 20766 20767 20768 20769 20770 20771 20772 20773 20774 20775 20776 20777 20778 20779 20780 20781 20782 20783 20784 20785 20786 20787 20788 20789 20790 20791 20792 20793 20794 20795 20796 20797 20798 20799 20800 20801 20802 20803 20804 20805 20806 20807 20808 20809 20810 20811 20812 20813 20814 20815 20816 20817 20818 20819 20820 20821 20822 20823 20824 20825 20826 20827 20828 20829 20830 20831 20832 20833 20834 20835 20836 20837 20838 20839 20840 20841 20842 20843 20844 20845 20846 20847 20848 20849 20850 20851 20852 20853 20854 20855 20856 20857 20858 20859 20860 20861 20862 20863 20864 20865 20866 20867 20868 20869 20870 20871 20872 20873 20874 20875 20876 20877 20878 20879 20880 20881 20882 20883 20884 20885 20886 20887 20888 20889 20890 20891 20892 20893 20894 20895 20896 20897 20898 20899 20900 20901 20902 20903 20904 20905 20906 20907 20908 20909 20910 20911 20912 20913 20914 20915 20916 20917 20918 20919 20920 20921 20922 20923 20924 20925 20926 20927 20928 20929 20930 20931 20932 20933 20934 20935 20936 20937 20938 20939 20940 20941 20942 20943 20944 20945 20946 20947 20948 20949 20950 20951 20952 20953 20954 20955 20956 20957 20958 20959 20960 20961 20962 20963 20964 20965 20966 20967 20968 20969 20970 20971 20972 20973 20974 20975 20976 20977 20978 20979 20980 20981 20982 20983 20984 20985 20986 20987 20988 20989 20990 20991 20992 20993 20994 20995 20996 20997 20998 20999 21000 21001 21002 21003 21004 21005 21006 21007 21008 21009 21010 21011 21012 21013 21014 21015 21016 21017 21018 21019 21020 21021 21022 21023 21024 21025 21026 21027 21028 21029 21030 21031 21032 21033 21034 21035 21036 21037 21038 21039 21040 21041 21042 21043 21044 21045 21046 21047 21048 21049 21050 21051 21052 21053 21054 21055 21056 21057 21058 21059 21060 21061 21062 21063 21064 21065 21066 21067 21068 21069 21070 21071 21072 21073 21074 21075 21076 21077 21078 21079 21080 21081 21082 21083 21084 21085 21086 21087 21088 21089 21090 21091 21092 21093 21094 21095 21096 21097 21098 21099 21100 21101 21102 21103 21104 21105 21106 21107 21108 21109 21110 21111 21112 21113 21114 21115 21116 21117 21118 21119 21120 21121 21122 21123 21124 21125 21126 21127 21128 21129 21130 21131 21132 21133 21134 21135 21136 21137 21138 21139 21140 21141 21142 21143 21144 21145 21146 21147 21148 21149 21150 21151 21152 21153 21154 21155 21156 21157 21158 21159 21160 21161 21162 21163 21164 21165 21166 21167 21168 21169 21170 21171 21172 21173 21174 21175 21176 21177 21178 21179 21180 21181 21182 21183 21184 21185 21186 21187 21188 21189 21190 21191 21192 21193 21194 21195 21196 21197 21198 21199 21200 21201 21202 21203 21204 21205 21206 21207 21208 21209 21210 21211 21212 21213 21214 21215 21216 21217 21218 21219 21220 21221 21222 21223 21224 21225 21226 21227 21228 21229 21230 21231 21232 21233 21234 21235 21236 21237 21238 21239 21240 21241 21242 21243 21244 21245 21246 21247 21248 21249 21250 21251 21252 21253 21254 21255 21256 21257 21258 21259 21260 21261 21262 21263 21264 21265 21266 21267 21268 21269 21270 21271 21272 21273 21274 21275 21276 21277 21278 21279 21280 21281 21282 21283 21284 21285 21286 21287 21288 21289 21290 21291 21292 21293 21294 21295 21296 21297 21298 21299 21300 21301 21302 21303 21304 21305 21306 21307 21308 21309 21310 21311 21312 21313 21314 21315 21316 21317 21318 21319 21320 21321 21322 21323 21324 21325 21326 21327 21328 21329 21330 21331 21332 21333 21334 21335 21336 21337 21338 21339 21340 21341 21342 21343 21344 21345 21346 21347 21348 21349 21350 21351 21352 21353 21354 21355 21356 21357 21358 21359 21360 21361 21362 21363 21364 21365 21366 21367 21368 21369 21370 21371 21372 21373 21374 21375 21376 21377 21378 21379 21380 21381 21382 21383 21384 21385 21386 21387 21388 21389 21390 21391 21392 21393 21394 21395 21396 21397 21398 21399 21400 21401 21402 21403 21404 21405 21406 21407 21408 21409 21410 21411 21412 21413 21414 21415 21416 21417 21418 21419 21420 21421 21422 21423 21424 21425 21426 21427 21428 21429 21430 21431 21432 21433 21434 21435 21436 21437 21438 21439 21440 21441 21442 21443 21444 21445 21446 21447 21448 21449 21450 21451 21452 21453 21454 21455 21456 21457 21458 21459 21460 21461 21462 21463 21464 21465 21466 21467 21468 21469 21470 21471 21472 21473 21474 21475 21476 21477 21478 21479 21480 21481 21482 21483 21484 21485 21486 21487 21488 21489 21490 21491 21492 21493 21494 21495 21496 21497 21498 21499 21500 21501 21502 21503 21504 21505 21506 21507 21508 21509 21510 21511 21512 21513 21514 21515 21516 21517 21518 21519 21520 21521 21522 21523 21524 21525 21526 21527 21528 21529 21530 21531 21532 21533 21534 21535 21536 21537 21538 21539 21540 21541 21542 21543 21544 21545 21546 21547 21548 21549 21550 21551 21552 21553 21554 21555 21556 21557 21558 21559 21560 21561 21562 21563 21564 21565 21566 21567 21568 21569 21570 21571 21572 21573 21574 21575 21576 21577 21578 21579 21580 21581 21582 21583 21584 21585 21586 21587 21588 21589 21590 21591 21592 21593 21594 21595 21596 21597 21598 21599 21600 21601 21602 21603 21604 21605 21606 21607 21608 21609 21610 21611 21612 21613 21614 21615 21616 21617 21618 21619 21620 21621 21622 21623 21624 21625 21626 21627 21628 21629 21630 21631 21632 21633 21634 21635 21636 21637 21638 21639 21640 21641 21642 21643 21644 21645 21646 21647 21648 21649 21650 21651 21652 21653 21654 21655 21656 21657 21658 21659 21660 21661 21662 21663 21664 21665 21666 21667 21668 21669 21670 21671 21672 21673 21674 21675 21676 21677 21678 21679 21680 21681 21682 21683 21684 21685 21686 21687 21688 21689 21690 21691 21692 21693 21694 21695 21696 21697 21698 21699 21700 21701 21702 21703 21704 21705 21706 21707 21708 21709 21710 21711 21712 21713 21714 21715 21716 21717 21718 21719 21720 21721 21722 21723 21724 21725 21726 21727 21728 21729 21730 21731 21732 21733 21734 21735 21736 21737 21738 21739 21740 21741 21742 21743 21744 21745 21746 21747 21748 21749 21750 21751 21752 21753 21754 21755 21756 21757 21758 21759 21760 21761 21762 21763 21764 21765 21766 21767 21768 21769 21770 21771 21772 21773 21774 21775 21776 21777 21778 21779 21780 21781 21782 21783 21784 21785 21786 21787 21788 21789 21790 21791 21792 21793 21794 21795 21796 21797 21798 21799 21800 21801 21802 21803 21804 21805 21806 21807 21808 21809 21810 21811 21812 21813 21814 21815 21816 21817 21818 21819 21820 21821 21822 21823 21824 21825 21826 21827 21828 21829 21830 21831 21832 21833 21834 21835 21836 21837 21838 21839 21840 21841 21842 21843 21844 21845 21846 21847 21848 21849 21850 21851 21852 21853 21854 21855 21856 21857 21858 21859 21860 21861 21862 21863 21864 21865 21866 21867 21868 21869 21870 21871 21872 21873 21874 21875 21876 21877 21878 21879 21880 21881 21882 21883 21884 21885 21886 21887 21888 21889 21890 21891 21892 21893 21894 21895 21896 21897 21898 21899 21900 21901 21902 21903 21904 21905 21906 21907 21908 21909 21910 21911 21912 21913 21914 21915 21916 21917 21918 21919 21920 21921 21922 21923 21924 21925 21926 21927 21928 21929 21930 21931 21932 21933 21934 21935 21936 21937 21938 21939 21940 21941 21942 21943 21944 21945 21946 21947 21948 21949 21950 21951 21952 21953 21954 21955 21956 21957 21958 21959 21960 21961 21962 21963 21964 21965 21966 21967 21968 21969 21970 21971 21972 21973 21974 21975 21976 21977 21978 21979 21980 21981 21982 21983 21984 21985 21986 21987 21988 21989 21990 21991 21992 21993 21994 21995 21996 21997 21998 21999 22000 22001 22002 22003 22004 22005 22006 22007 22008 22009 22010 22011 22012 22013 22014 22015 22016 22017 22018 22019 22020 22021 22022 22023 22024 22025 22026 22027 22028 22029 22030 22031 22032 22033 22034 22035 22036 22037 22038 22039 22040 22041 22042 22043 22044 22045 22046 22047 22048 22049 22050 22051 22052 22053 22054 22055 22056 22057 22058 22059 22060 22061 22062 22063 22064 22065 22066 22067 22068 22069 22070 22071 22072 22073 22074 22075 22076 22077 22078 22079 22080 22081 22082 22083 22084 22085 22086 22087 22088 22089 22090 22091 22092 22093 22094 22095 22096 22097 22098 22099 22100 22101 22102 22103 22104 22105 22106 22107 22108 22109 22110 22111 22112 22113 22114 22115 22116 22117 22118 22119 22120 22121 22122 22123 22124 22125 22126 22127 22128 22129 22130 22131 22132 22133 22134 22135 22136 22137 22138 22139 22140 22141 22142 22143 22144 22145 22146 22147 22148 22149 22150 22151 22152 22153 22154 22155 22156 22157 22158 22159 22160 22161 22162 22163 22164 22165 22166 22167 22168 22169 22170 22171 22172 22173 22174 22175 22176 22177 22178 22179 22180 22181 22182 22183 22184 22185 22186 22187 22188 22189 22190 22191 22192 22193 22194 22195 22196 22197 22198 22199 22200 22201 22202 22203 22204 22205 22206 22207 22208 22209 22210 22211 22212 22213 22214 22215 22216 22217 22218 22219 22220 22221 22222 22223 22224 22225 22226 22227 22228 22229 22230 22231 22232 22233 22234 22235 22236 22237 22238 22239 22240 22241 22242 22243 22244 22245 22246 22247 22248 22249 22250 22251 22252 22253 22254 22255 22256 22257 22258 22259 22260 22261 22262 22263 22264 22265 22266 22267 22268 22269 22270 22271 22272 22273 22274 22275 22276 22277 22278 22279 22280 22281 22282 22283 22284 22285 22286 22287 22288 22289 22290 22291 22292 22293 22294 22295 22296 22297 22298 22299 22300 22301 22302 22303 22304 22305 22306 22307 22308 22309 22310 22311 22312 22313 22314 22315 22316 22317 22318 22319 22320 22321 22322 22323 22324 22325 22326 22327 22328 22329 22330 22331 22332 22333 22334 22335 22336 22337 22338 22339 22340 22341 22342 22343 22344 22345 22346 22347 22348 22349 22350 22351 22352 22353 22354 22355 22356 22357 22358 22359 22360 22361 22362 22363 22364 22365 22366 22367 22368 22369 22370 22371 22372 22373 22374 22375 22376 22377 22378 22379 22380 22381 22382 22383 22384 22385 22386 22387 22388 22389 22390 22391 22392 22393 22394 22395 22396 22397 22398 22399 22400 22401 22402 22403 22404 22405 22406 22407 22408 22409 22410 22411 22412 22413 22414 22415 22416 22417 22418 22419 22420 22421 22422 22423 22424 22425 22426 22427 22428 22429 22430 22431 22432 22433 22434 22435 22436 22437 22438 22439 22440 22441 22442 22443 22444 22445 22446 22447 22448 22449 22450 22451 22452 22453 22454 22455 22456 22457 22458 22459 22460 22461 22462 22463 22464 22465 22466 22467 22468 22469 22470 22471 22472 22473 22474 22475 22476 22477 22478 22479 22480 22481 22482 22483 22484 22485 22486 22487 22488 22489 22490 22491 22492 22493 22494 22495 22496 22497 22498 22499 22500 22501 22502 22503 22504 22505 22506 22507 22508 22509 22510 22511 22512 22513 22514 22515 22516 22517 22518 22519 22520 22521 22522 22523 22524 22525 22526 22527 22528 22529 22530 22531 22532 22533 22534 22535 22536 22537 22538 22539 22540 22541 22542 22543 22544 22545 22546 22547 22548 22549 22550 22551 22552 22553 22554 22555 22556 22557 22558 22559 22560 22561 22562 22563 22564 22565 22566 22567 22568 22569 22570 22571 22572 22573 22574 22575 22576 22577 22578 22579 22580 22581 22582 22583 22584 22585 22586 22587 22588 22589 22590 22591 22592 22593 22594 22595 22596 22597 22598 22599 22600 22601 22602 22603 22604 22605 22606 22607 22608 22609 22610 22611 22612 22613 22614 22615 22616 22617 22618 22619 22620 22621 22622 22623 22624 22625 22626 22627 22628 22629 22630 22631 22632 22633 22634 22635 22636 22637 22638 22639 22640 22641 22642 22643 22644 22645 22646 22647 22648 22649 22650 22651 22652 22653 22654 22655 22656 22657 22658 22659 22660 22661 22662 22663 22664 22665 22666 22667 22668 22669 22670 22671 22672 22673 22674 22675 22676 22677 22678 22679 22680 22681 22682 22683 22684 22685 22686 22687 22688 22689 22690 22691 22692 22693 22694 22695 22696 22697 22698 22699 22700 22701 22702 22703 22704 22705 22706 22707 22708 22709 22710 22711 22712 22713 22714 22715 22716 22717 22718 22719 22720 22721 22722 22723 22724 22725 22726 22727 22728 22729 22730 22731 22732 22733 22734 22735 22736 22737 22738 22739 22740 22741 22742 22743 22744 22745 22746 22747 22748 22749 22750 22751 22752 22753 22754 22755 22756 22757 22758 22759 22760 22761 22762 22763 22764 22765 22766 22767 22768 22769 22770 22771 22772 22773 22774 22775 22776 22777 22778 22779 22780 22781 22782 22783 22784 22785 22786 22787 22788 22789 22790 22791 22792 22793 22794 22795 22796 22797 22798 22799 22800 22801 22802 22803 22804 22805 22806 22807 22808 22809 22810 22811 22812 22813 22814 22815 22816 22817 22818 22819 22820 22821 22822 22823 22824 22825 22826 22827 22828 22829 22830 22831 22832 22833 22834 22835 22836 22837 22838 22839 22840 22841 22842 22843 22844 22845 22846 22847 22848 22849 22850 22851 22852 22853 22854 22855 22856 22857 22858 22859 22860 22861 22862 22863 22864 22865 22866 22867 22868 22869 22870 22871 22872 22873 22874 22875 22876 22877 22878 22879 22880 22881 22882 22883 22884 22885 22886 22887 22888 22889 22890 22891 22892 22893 22894 22895 22896 22897 22898 22899 22900 22901 22902 22903 22904 22905 22906 22907 22908 22909 22910 22911 22912 22913 22914 22915 22916 22917 22918 22919 22920 22921 22922 22923 22924 22925 22926 22927 22928 22929 22930 22931 22932 22933 22934 22935 22936 22937 22938 22939 22940 22941 22942 22943 22944 22945 22946 22947 22948 22949 22950 22951 22952 22953 22954 22955 22956 22957 22958 22959 22960 22961 22962 22963 22964 22965 22966 22967 22968 22969 22970 22971 22972 22973 22974 22975 22976 22977 22978 22979 22980 22981 22982 22983 22984 22985 22986 22987 22988 22989 22990 22991 22992 22993 22994 22995 22996 22997 22998 22999 23000 23001 23002 23003 23004 23005 23006 23007 23008 23009 23010 23011 23012 23013 23014 23015 23016 23017 23018 23019 23020 23021 23022 23023 23024 23025 23026 23027 23028 23029 23030 23031 23032 23033 23034 23035 23036 23037 23038 23039 23040 23041 23042 23043 23044 23045 23046 23047 23048 23049 23050 23051 23052 23053 23054 23055 23056 23057 23058 23059 23060 23061 23062 23063 23064 23065 23066 23067 23068 23069 23070 23071 23072 23073 23074 23075 23076 23077 23078 23079 23080 23081 23082 23083 23084 23085 23086 23087 23088 23089 23090 23091 23092 23093 23094 23095 23096 23097 23098 23099 23100 23101 23102 23103 23104 23105 23106 23107 23108 23109 23110 23111 23112 23113 23114 23115 23116 23117 23118 23119 23120 23121 23122 23123 23124 23125 23126 23127 23128 23129 23130 23131 23132 23133 23134 23135 23136 23137 23138 23139 23140 23141 23142 23143 23144 23145 23146 23147 23148 23149 23150 23151 23152 23153 23154 23155 23156 23157 23158 23159 23160 23161 23162 23163 23164 23165 23166 23167 23168 23169 23170 23171 23172 23173 23174 23175 23176 23177 23178 23179 23180 23181 23182 23183 23184 23185 23186 23187 23188 23189 23190 23191 23192 23193 23194 23195 23196 23197 23198 23199 23200 23201 23202 23203 23204 23205 23206 23207 23208 23209 23210 23211 23212 23213 23214 23215 23216 23217 23218 23219 23220 23221 23222 23223 23224 23225 23226 23227 23228 23229 23230 23231 23232 23233 23234 23235 23236 23237 23238 23239 23240 23241 23242 23243 23244 23245 23246 23247 23248 23249 23250 23251 23252 23253 23254 23255 23256 23257 23258 23259 23260 23261 23262 23263 23264 23265 23266 23267 23268 23269 23270 23271 23272 23273 23274 23275 23276 23277 23278 23279 23280 23281 23282 23283 23284 23285 23286 23287 23288 23289 23290 23291 23292 23293 23294 23295 23296 23297 23298 23299 23300 23301 23302 23303 23304 23305 23306 23307 23308 23309 23310 23311 23312 23313 23314 23315 23316 23317 23318 23319 23320 23321 23322 23323 23324 23325 23326 23327 23328 23329 23330 23331 23332 23333 23334 23335 23336 23337 23338 23339 23340 23341 23342 23343 23344 23345 23346 23347 23348 23349 23350 23351 23352 23353 23354 23355 23356 23357 23358 23359 23360 23361 23362 23363 23364 23365 23366 23367 23368 23369 23370 23371 23372 23373 23374 23375 23376 23377 23378 23379 23380 23381 23382 23383 23384 23385 23386 23387 23388 23389 23390 23391 23392 23393 23394 23395 23396 23397 23398 23399 23400 23401 23402 23403 23404 23405 23406 23407 23408 23409 23410 23411 23412 23413 23414 23415 23416 23417 23418 23419 23420 23421 23422 23423 23424 23425 23426 23427 23428 23429 23430 23431 23432 23433 23434 23435 23436 23437 23438 23439 23440 23441 23442 23443 23444 23445 23446 23447 23448 23449 23450 23451 23452 23453 23454 23455 23456 23457 23458 23459 23460 23461 23462 23463 23464 23465 23466 23467 23468 23469 23470 23471 23472 23473 23474 23475 23476 23477 23478 23479 23480 23481 23482 23483 23484 23485 23486 23487 23488 23489 23490 23491 23492 23493 23494 23495 23496 23497 23498 23499 23500 23501 23502 23503 23504 23505 23506 23507 23508 23509 23510 23511 23512 23513 23514 23515 23516 23517 23518 23519 23520 23521 23522 23523 23524 23525 23526 23527 23528 23529 23530 23531 23532 23533 23534 23535 23536 23537 23538 23539 23540 23541 23542 23543 23544 23545 23546 23547 23548 23549 23550 23551 23552 23553 23554 23555 23556 23557 23558 23559 23560 23561 23562 23563 23564 23565 23566 23567 23568 23569 23570 23571 23572 23573 23574 23575 23576 23577 23578 23579 23580 23581 23582 23583 23584 23585 23586 23587 23588 23589 23590 23591 23592 23593 23594 23595 23596 23597 23598 23599 23600 23601 23602 23603 23604 23605 23606 23607 23608 23609 23610 23611 23612 23613 23614 23615 23616 23617 23618 23619 23620 23621 23622 23623 23624 23625 23626 23627 23628 23629 23630 23631 23632 23633 23634 23635 23636 23637 23638 23639 23640 23641 23642 23643 23644 23645 23646 23647 23648 23649 23650 23651 23652 23653 23654 23655 23656 23657 23658 23659 23660 23661 23662 23663 23664 23665 23666 23667 23668 23669 23670 23671 23672 23673 23674 23675 23676 23677 23678 23679 23680 23681 23682 23683 23684 23685 23686 23687 23688 23689 23690 23691 23692 23693 23694 23695 23696 23697 23698 23699 23700 23701 23702 23703 23704 23705 23706 23707 23708 23709 23710 23711 23712 23713 23714 23715 23716 23717 23718 23719 23720 23721 23722 23723 23724 23725 23726 23727 23728 23729 23730 23731 23732 23733 23734 23735 23736 23737 23738 23739 23740 23741 23742 23743 23744 23745 23746 23747 23748 23749 23750 23751 23752 23753 23754 23755 23756 23757 23758 23759 23760 23761 23762 23763 23764 23765 23766 23767 23768 23769 23770 23771 23772 23773 23774 23775 23776 23777 23778 23779 23780 23781 23782 23783 23784 23785 23786 23787 23788 23789 23790 23791 23792 23793 23794 23795 23796 23797 23798 23799 23800 23801 23802 23803 23804 23805 23806 23807 23808 23809 23810 23811 23812 23813 23814 23815 23816 23817 23818 23819 23820 23821 23822 23823 23824 23825 23826 23827 23828 23829 23830 23831 23832 23833 23834 23835 23836 23837 23838 23839 23840 23841 23842 23843 23844 23845 23846 23847 23848 23849 23850 23851 23852 23853 23854 23855 23856 23857 23858 23859 23860 23861 23862 23863 23864 23865 23866 23867 23868 23869 23870 23871 23872 23873 23874 23875 23876 23877 23878 23879 23880 23881 23882 23883 23884 23885 23886 23887 23888 23889 23890 23891 23892 23893 23894 23895 23896 23897 23898 23899 23900 23901 23902 23903 23904 23905 23906 23907 23908 23909 23910 23911 23912 23913 23914 23915 23916 23917 23918 23919 23920 23921 23922 23923 23924 23925 23926 23927 23928 23929 23930 23931 23932 23933 23934 23935 23936 23937 23938 23939 23940 23941 23942 23943 23944 23945 23946 23947 23948 23949 23950 23951 23952 23953 23954 23955 23956 23957 23958 23959 23960 23961 23962 23963 23964 23965 23966 23967 23968 23969 23970 23971 23972 23973 23974 23975 23976 23977 23978 23979 23980 23981 23982 23983 23984 23985 23986 23987 23988 23989 23990 23991 23992 23993 23994 23995 23996 23997 23998 23999 24000 24001 24002 24003 24004 24005 24006 24007 24008 24009 24010 24011 24012 24013 24014 24015 24016 24017 24018 24019 24020 24021 24022 24023 24024 24025 24026 24027 24028 24029 24030 24031 24032 24033 24034 24035 24036 24037 24038 24039 24040 24041 24042 24043 24044 24045 24046 24047 24048 24049 24050 24051 24052 24053 24054 24055 24056 24057 24058 24059 24060 24061 24062 24063 24064 24065 24066 24067 24068 24069 24070 24071 24072 24073 24074 24075 24076 24077 24078 24079 24080 24081 24082 24083 24084 24085 24086 24087 24088 24089 24090 24091 24092 24093 24094 24095 24096 24097 24098 24099 24100 24101 24102 24103 24104 24105 24106 24107 24108 24109 24110 24111 24112 24113 24114 24115 24116 24117 24118 24119 24120 24121 24122 24123 24124 24125 24126 24127 24128 24129 24130 24131 24132 24133 24134 24135 24136 24137 24138 24139 24140 24141 24142 24143 24144 24145 24146 24147 24148 24149 24150 24151 24152 24153 24154 24155 24156 24157 24158 24159 24160 24161 24162 24163 24164 24165 24166 24167 24168 24169 24170 24171 24172 24173 24174 24175 24176 24177 24178 24179 24180 24181 24182 24183 24184 24185 24186 24187 24188 24189 24190 24191 24192 24193 24194 24195 24196 24197 24198 24199 24200 24201 24202 24203 24204 24205 24206 24207 24208 24209 24210 24211 24212 24213 24214 24215 24216 24217 24218 24219 24220 24221 24222 24223 24224 24225 24226 24227 24228 24229 24230 24231 24232 24233 24234 24235 24236 24237 24238 24239 24240 24241 24242 24243 24244 24245 24246 24247 24248 24249 24250 24251 24252 24253 24254 24255 24256 24257 24258 24259 24260 24261 24262 24263 24264 24265 24266 24267 24268 24269 24270 24271 24272 24273 24274 24275 24276 24277 24278 24279 24280 24281 24282 24283 24284 24285 24286 24287 24288 24289 24290 24291 24292 24293 24294 24295 24296 24297 24298 24299 24300 24301 24302 24303 24304 24305 24306 24307 24308 24309 24310 24311 24312 24313 24314 24315 24316 24317 24318 24319 24320 24321 24322 24323 24324 24325 24326 24327 24328 24329 24330 24331 24332 24333 24334 24335 24336 24337 24338 24339 24340 24341 24342 24343 24344 24345 24346 24347 24348 24349 24350 24351 24352 24353 24354 24355 24356 24357 24358 24359 24360 24361 24362 24363 24364 24365 24366 24367 24368 24369 24370 24371 24372 24373 24374 24375 24376 24377 24378 24379 24380 24381 24382 24383 24384 24385 24386 24387 24388 24389 24390 24391 24392 24393 24394 24395 24396 24397 24398 24399 24400 24401 24402 24403 24404 24405 24406 24407 24408 24409 24410 24411 24412 24413 24414 24415 24416 24417 24418 24419 24420 24421 24422 24423 24424 24425 24426 24427 24428 24429 24430 24431 24432 24433 24434 24435 24436 24437 24438 24439 24440 24441 24442 24443 24444 24445 24446 24447 24448 24449 24450 24451 24452 24453 24454 24455 24456 24457 24458 24459 24460 24461 24462 24463 24464 24465 24466 24467 24468 24469 24470 24471 24472 24473 24474 24475 24476 24477 24478 24479 24480 24481 24482 24483 24484 24485 24486 24487 24488 24489 24490 24491 24492 24493 24494 24495 24496 24497 24498 24499 24500 24501 24502 24503 24504 24505 24506 24507 24508 24509 24510 24511 24512 24513 24514 24515 24516 24517 24518 24519 24520 24521 24522 24523 24524 24525 24526 24527 24528 24529 24530 24531 24532 24533 24534 24535 24536 24537 24538 24539 24540 24541 24542 24543 24544 24545 24546 24547 24548 24549 24550 24551 24552 24553 24554 24555 24556 24557 24558 24559 24560 24561 24562 24563 24564 24565 24566 24567 24568 24569 24570 24571 24572 24573 24574 24575 24576 24577 24578 24579 24580 24581 24582 24583 24584 24585 24586 24587 24588 24589 24590 24591 24592 24593 24594 24595 24596 24597 24598 24599 24600 24601 24602 24603 24604 24605 24606 24607 24608 24609 24610 24611 24612 24613 24614 24615 24616 24617 24618 24619 24620 24621 24622 24623 24624 24625 24626 24627 24628 24629 24630 24631 24632 24633 24634 24635 24636 24637 24638 24639 24640 24641 24642 24643 24644 24645 24646 24647 24648 24649 24650 24651 24652 24653 24654 24655 24656 24657 24658 24659 24660 24661 24662 24663 24664 24665 24666 24667 24668 24669 24670 24671 24672 24673 24674 24675 24676 24677 24678 24679 24680 24681 24682 24683 24684 24685 24686 24687 24688 24689 24690 24691 24692 24693 24694 24695 24696 24697 24698 24699 24700 24701 24702 24703 24704 24705 24706 24707 24708 24709 24710 24711 24712 24713 24714 24715 24716 24717 24718 24719 24720 24721 24722 24723 24724 24725 24726 24727 24728 24729 24730 24731 24732 24733 24734 24735 24736 24737 24738 24739 24740 24741 24742 24743 24744 24745 24746 24747 24748 24749 24750 24751 24752 24753 24754 24755 24756 24757 24758 24759 24760 24761 24762 24763 24764 24765 24766 24767 24768 24769 24770 24771 24772 24773 24774 24775 24776 24777 24778 24779 24780 24781 24782 24783 24784 24785 24786 24787 24788 24789 24790 24791 24792 24793 24794 24795 24796 24797 24798 24799 24800 24801 24802 24803 24804 24805 24806 24807 24808 24809 24810 24811 24812 24813 24814 24815 24816 24817 24818 24819 24820 24821 24822 24823 24824 24825 24826 24827 24828 24829 24830 24831 24832 24833 24834 24835 24836 24837 24838 24839 24840 24841 24842 24843 24844 24845 24846 24847 24848 24849 24850 24851 24852 24853 24854 24855 24856 24857 24858 24859 24860 24861 24862 24863 24864 24865 24866 24867 24868 24869 24870 24871 24872 24873 24874 24875 24876 24877 24878 24879 24880 24881 24882 24883 24884 24885 24886 24887 24888 24889 24890 24891 24892 24893 24894 24895 24896 24897 24898 24899 24900 24901 24902 24903 24904 24905 24906 24907 24908 24909 24910 24911 24912 24913 24914 24915 24916 24917 24918 24919 24920 24921 24922 24923 24924 24925 24926 24927 24928 24929 24930 24931 24932 24933 24934 24935 24936 24937 24938 24939 24940 24941 24942 24943 24944 24945 24946 24947 24948 24949 24950 24951 24952 24953 24954 24955 24956 24957 24958 24959 24960 24961 24962 24963 24964 24965 24966 24967 24968 24969 24970 24971 24972 24973 24974 24975 24976 24977 24978 24979 24980 24981 24982 24983 24984 24985 24986 24987 24988 24989 24990 24991 24992 24993 24994 24995 24996 24997 24998 24999 25000 25001 25002 25003 25004 25005 25006 25007 25008 25009 25010 25011 25012 25013 25014 25015 25016 25017 25018 25019 25020 25021 25022 25023 25024 25025 25026 25027 25028 25029 25030 25031 25032 25033 25034 25035 25036 25037 25038 25039 25040 25041 25042 25043 25044 25045 25046 25047 25048 25049 25050 25051 25052 25053 25054 25055 25056 25057 25058 25059 25060 25061 25062 25063 25064 25065 25066 25067 25068 25069 25070 25071 25072 25073 25074 25075 25076 25077 25078 25079 25080 25081 25082 25083 25084 25085 25086 25087 25088 25089 25090 25091 25092 25093 25094 25095 25096 25097 25098 25099 25100 25101 25102 25103 25104 25105 25106 25107 25108 25109 25110 25111 25112 25113 25114 25115 25116 25117 25118 25119 25120 25121 25122 25123 25124 25125 25126 25127 25128 25129 25130 25131 25132 25133 25134 25135 25136 25137 25138 25139 25140 25141 25142 25143 25144 25145 25146 25147 25148 25149 25150 25151 25152 25153 25154 25155 25156 25157 25158 25159 25160 25161 25162 25163 25164 25165 25166 25167 25168 25169 25170 25171 25172 25173 25174 25175 25176 25177 25178 25179 25180 25181 25182 25183 25184 25185 25186 25187 25188 25189 25190 25191 25192 25193 25194 25195 25196 25197 25198 25199 25200 25201 25202 25203 25204 25205 25206 25207 25208 25209 25210 25211 25212 25213 25214 25215 25216 25217 25218 25219 25220 25221 25222 25223 25224 25225 25226 25227 25228 25229 25230 25231 25232 25233 25234 25235 25236 25237 25238 25239 25240 25241 25242 25243 25244 25245 25246 25247 25248 25249 25250 25251 25252 25253 25254 25255 25256 25257 25258 25259 25260 25261 25262 25263 25264 25265 25266 25267 25268 25269 25270 25271 25272 25273 25274 25275 25276 25277 25278 25279 25280 25281 25282 25283 25284 25285 25286 25287 25288 25289 25290 25291 25292 25293 25294 25295 25296 25297 25298 25299 25300 25301 25302 25303 25304 25305 25306 25307 25308 25309 25310 25311 25312 25313 25314 25315 25316 25317 25318 25319 25320 25321 25322 25323 25324 25325 25326 25327 25328 25329 25330 25331 25332 25333 25334 25335 25336 25337 25338 25339 25340 25341 25342 25343 25344 25345 25346 25347 25348 25349 25350 25351 25352 25353 25354 25355 25356 25357 25358 25359 25360 25361 25362 25363 25364 25365 25366 25367 25368 25369 25370 25371 25372 25373 25374 25375 25376 25377 25378 25379 25380 25381 25382 25383 25384 25385 25386 25387 25388 25389 25390 25391 25392 25393 25394 25395 25396 25397 25398 25399 25400 25401 25402 25403 25404 25405 25406 25407 25408 25409 25410 25411 25412 25413 25414 25415 25416 25417 25418 25419 25420 25421 25422 25423 25424 25425 25426 25427 25428 25429 25430 25431 25432 25433 25434 25435 25436 25437 25438 25439 25440 25441 25442 25443 25444 25445 25446 25447 25448 25449 25450 25451 25452 25453 25454 25455 25456 25457 25458 25459 25460 25461 25462 25463 25464 25465 25466 25467 25468 25469 25470 25471 25472 25473 25474 25475 25476 25477 25478 25479 25480 25481 25482 25483 25484 25485 25486 25487 25488 25489 25490 25491 25492 25493 25494 25495 25496 25497 25498 25499 25500 25501 25502 25503 25504 25505 25506 25507 25508 25509 25510 25511 25512 25513 25514 25515 25516 25517 25518 25519 25520 25521 25522 25523 25524 25525 25526 25527 25528 25529 25530 25531 25532 25533 25534 25535 25536 25537 25538 25539 25540 25541 25542 25543 25544 25545 25546 25547 25548 25549 25550 25551 25552 25553 25554 25555 25556 25557 25558 25559 25560 25561 25562 25563 25564 25565 25566 25567 25568 25569 25570 25571 25572 25573 25574 25575 25576 25577 25578 25579 25580 25581 25582 25583 25584 25585 25586 25587 25588 25589 25590 25591 25592 25593 25594 25595 25596 25597 25598 25599 25600 25601 25602 25603 25604 25605 25606 25607 25608 25609 25610 25611 25612 25613 25614 25615 25616 25617 25618 25619 25620 25621 25622 25623 25624 25625 25626 25627 25628 25629 25630 25631 25632 25633 25634 25635 25636 25637 25638 25639 25640 25641 25642 25643 25644 25645 25646 25647 25648 25649 25650 25651 25652 25653 25654 25655 25656 25657 25658 25659 25660 25661 25662 25663 25664 25665 25666 25667 25668 25669 25670 25671 25672 25673 25674 25675 25676 25677 25678 25679 25680 25681 25682 25683 25684 25685 25686 25687 25688 25689 25690 25691 25692 25693 25694 25695 25696 25697 25698 25699 25700 25701 25702 25703 25704 25705 25706 25707 25708 25709 25710 25711 25712 25713 25714 25715 25716 25717 25718 25719 25720 25721 25722 25723 25724 25725 25726 25727 25728 25729 25730 25731 25732 25733 25734 25735 25736 25737 25738 25739 25740 25741 25742 25743 25744 25745 25746 25747 25748 25749 25750 25751 25752 25753 25754 25755 25756 25757 25758 25759 25760 25761 25762 25763 25764 25765 25766 25767 25768 25769 25770 25771 25772 25773 25774 25775 25776 25777 25778 25779 25780 25781 25782 25783 25784 25785 25786 25787 25788 25789 25790 25791 25792 25793 25794 25795 25796 25797 25798 25799 25800 25801 25802 25803 25804 25805 25806 25807 25808 25809 25810 25811 25812 25813 25814 25815 25816 25817 25818 25819 25820 25821 25822 25823 25824 25825 25826 25827 25828 25829 25830 25831 25832 25833 25834 25835 25836 25837 25838 25839 25840 25841 25842 25843 25844 25845 25846 25847 25848 25849 25850 25851 25852 25853 25854 25855 25856 25857 25858 25859 25860 25861 25862 25863 25864 25865 25866 25867 25868 25869 25870 25871 25872 25873 25874 25875 25876 25877 25878 25879 25880 25881 25882 25883 25884 25885 25886 25887 25888 25889 25890 25891 25892 25893 25894 25895 25896 25897 25898 25899 25900 25901 25902 25903 25904 25905 25906 25907 25908 25909 25910 25911 25912 25913 25914 25915 25916 25917 25918 25919 25920 25921 25922 25923 25924 25925 25926 25927 25928 25929 25930 25931 25932 25933 25934 25935 25936 25937 25938 25939 25940 25941 25942 25943 25944 25945 25946 25947 25948 25949 25950 25951 25952 25953 25954 25955 25956 25957 25958 25959 25960 25961 25962 25963 25964 25965 25966 25967 25968 25969 25970 25971 25972 25973 25974 25975 25976 25977 25978 25979 25980 25981 25982 25983 25984 25985 25986 25987 25988 25989 25990 25991 25992 25993 25994 25995 25996 25997 25998 25999 26000 26001 26002 26003 26004 26005 26006 26007 26008 26009 26010 26011 26012 26013 26014 26015 26016 26017 26018 26019 26020 26021 26022 26023 26024 26025 26026 26027 26028 26029 26030 26031 26032 26033 26034 26035 26036 26037 26038 26039 26040 26041 26042 26043 26044 26045 26046 26047 26048 26049 26050 26051 26052 26053 26054 26055 26056 26057 26058 26059 26060 26061 26062 26063 26064 26065 26066 26067 26068 26069 26070 26071 26072 26073 26074 26075 26076 26077 26078 26079 26080 26081 26082 26083 26084 26085 26086 26087 26088 26089 26090 26091 26092 26093 26094 26095 26096 26097 26098 26099 26100 26101 26102 26103 26104 26105 26106 26107 26108 26109 26110 26111 26112 26113 26114 26115 26116 26117 26118 26119 26120 26121 26122 26123 26124 26125 26126 26127 26128 26129 26130 26131 26132 26133 26134 26135 26136 26137 26138 26139 26140 26141 26142 26143 26144 26145 26146 26147 26148 26149 26150 26151 26152 26153 26154 26155 26156 26157 26158 26159 26160 26161 26162 26163 26164 26165 26166 26167 26168 26169 26170 26171 26172 26173 26174 26175 26176 26177 26178 26179 26180 26181 26182 26183 26184 26185 26186 26187 26188 26189 26190 26191 26192 26193 26194 26195 26196 26197 26198 26199 26200 26201 26202 26203 26204 26205 26206 26207 26208 26209 26210 26211 26212 26213 26214 26215 26216 26217 26218 26219 26220 26221 26222 26223 26224 26225 26226 26227 26228 26229 26230 26231 26232 26233 26234 26235 26236 26237 26238 26239 26240 26241 26242 26243 26244 26245 26246 26247 26248 26249 26250 26251 26252 26253 26254 26255 26256 26257 26258 26259 26260 26261 26262 26263 26264 26265 26266 26267 26268 26269 26270 26271 26272 26273 26274 26275 26276 26277 26278 26279 26280 26281 26282 26283 26284 26285 26286 26287 26288 26289 26290 26291 26292 26293 26294 26295 26296 26297 26298 26299 26300 26301 26302 26303 26304 26305 26306 26307 26308 26309 26310 26311 26312 26313 26314 26315 26316 26317 26318 26319 26320 26321 26322 26323 26324 26325 26326 26327 26328 26329 26330 26331 26332 26333 26334 26335 26336 26337 26338 26339 26340 26341 26342 26343 26344 26345 26346 26347 26348 26349 26350 26351 26352 26353 26354 26355 26356 26357 26358 26359 26360 26361 26362 26363 26364 26365 26366 26367 26368 26369 26370 26371 26372 26373 26374 26375 26376 26377 26378 26379 26380 26381 26382 26383 26384 26385 26386 26387 26388 26389 26390 26391 26392 26393 26394 26395 26396 26397 26398 26399 26400 26401 26402 26403 26404 26405 26406 26407 26408 26409 26410 26411 26412 26413 26414 26415 26416 26417 26418 26419 26420 26421 26422 26423 26424 26425 26426 26427 26428 26429 26430 26431 26432 26433 26434 26435 26436 26437 26438 26439 26440 26441 26442 26443 26444 26445 26446 26447 26448 26449 26450 26451 26452 26453 26454 26455 26456 26457 26458 26459 26460 26461 26462 26463 26464 26465 26466 26467 26468 26469 26470 26471 26472 26473 26474 26475 26476 26477 26478 26479 26480 26481 26482 26483 26484 26485 26486 26487 26488 26489 26490 26491 26492 26493 26494 26495 26496 26497 26498 26499 26500 26501 26502 26503 26504 26505 26506 26507 26508 26509 26510 26511 26512 26513 26514 26515 26516 26517 26518 26519 26520 26521 26522 26523 26524 26525 26526 26527 26528 26529 26530 26531 26532 26533 26534 26535 26536 26537 26538 26539 26540 26541 26542 26543 26544 26545 26546 26547 26548 26549 26550 26551 26552 26553 26554 26555 26556 26557 26558 26559 26560 26561 26562 26563 26564 26565 26566 26567 26568 26569 26570 26571 26572 26573 26574 26575 26576 26577 26578 26579 26580 26581 26582 26583 26584 26585 26586 26587 26588 26589 26590 26591 26592 26593 26594 26595 26596 26597 26598 26599 26600 26601 26602 26603 26604 26605 26606 26607 26608 26609 26610 26611 26612 26613 26614 26615 26616 26617 26618 26619 26620 26621 26622 26623 26624 26625 26626 26627 26628 26629 26630 26631 26632 26633 26634 26635 26636 26637 26638 26639 26640 26641 26642 26643 26644 26645 26646 26647 26648 26649 26650 26651 26652 26653 26654 26655 26656 26657 26658 26659 26660 26661 26662 26663 26664 26665 26666 26667 26668 26669 26670 26671 26672 26673 26674 26675 26676 26677 26678 26679 26680 26681 26682 26683 26684 26685 26686 26687 26688 26689 26690 26691 26692 26693 26694 26695 26696 26697 26698 26699 26700 26701 26702 26703 26704 26705 26706 26707 26708 26709 26710 26711 26712 26713 26714 26715 26716 26717 26718 26719 26720 26721 26722 26723 26724 26725 26726 26727 26728 26729 26730 26731 26732 26733 26734 26735 26736 26737 26738 26739 26740 26741 26742 26743 26744 26745 26746 26747 26748 26749 26750 26751 26752 26753 26754 26755 26756 26757 26758 26759 26760 26761 26762 26763 26764 26765 26766 26767 26768 26769 26770 26771 26772 26773 26774 26775 26776 26777 26778 26779 26780 26781 26782 26783 26784 26785 26786 26787 26788 26789 26790 26791 26792 26793 26794 26795 26796 26797 26798 26799 26800 26801 26802 26803 26804 26805 26806 26807 26808 26809 26810 26811 26812 26813 26814 26815 26816 26817 26818 26819 26820 26821 26822 26823 26824 26825 26826 26827 26828 26829 26830 26831 26832 26833 26834 26835 26836 26837 26838 26839 26840 26841 26842 26843 26844 26845 26846 26847 26848 26849 26850 26851 26852 26853 26854 26855 26856 26857 26858 26859 26860 26861 26862 26863 26864 26865 26866 26867 26868 26869 26870 26871 26872 26873 26874 26875 26876 26877 26878 26879 26880 26881 26882 26883 26884 26885 26886 26887 26888 26889 26890 26891 26892 26893 26894 26895 26896 26897 26898 26899 26900 26901 26902 26903 26904 26905 26906 26907 26908 26909 26910 26911 26912 26913 26914 26915 26916 26917 26918 26919 26920 26921 26922 26923 26924 26925 26926 26927 26928 26929 26930 26931 26932 26933 26934 26935 26936 26937 26938 26939 26940 26941 26942 26943 26944 26945 26946 26947 26948 26949 26950 26951 26952 26953 26954 26955 26956 26957 26958 26959 26960 26961 26962 26963 26964 26965 26966 26967 26968 26969 26970 26971 26972 26973 26974 26975 26976 26977 26978 26979 26980 26981 26982 26983 26984 26985 26986 26987 26988 26989 26990 26991 26992 26993 26994 26995 26996 26997 26998 26999 27000 27001 27002 27003 27004 27005 27006 27007 27008 27009 27010 27011 27012 27013 27014 27015 27016 27017 27018 27019 27020 27021 27022 27023 27024 27025 27026 27027 27028 27029 27030 27031 27032 27033 27034 27035 27036 27037 27038 27039 27040 27041 27042 27043 27044 27045 27046 27047 27048 27049 27050 27051 27052 27053 27054 27055 27056 27057 27058 27059 27060 27061 27062 27063 27064 27065 27066 27067 27068 27069 27070 27071 27072 27073 27074 27075 27076 27077 27078 27079 27080 27081 27082 27083 27084 27085 27086 27087 27088 27089 27090 27091 27092 27093 27094 27095 27096 27097 27098 27099 27100 27101 27102 27103 27104 27105 27106 27107 27108 27109 27110 27111 27112 27113 27114 27115 27116 27117 27118 27119 27120 27121 27122 27123 27124 27125 27126 27127 27128 27129 27130 27131 27132 27133 27134 27135 27136 27137 27138 27139 27140 27141 27142 27143 27144 27145 27146 27147 27148 27149 27150 27151 27152 27153 27154 27155 27156 27157 27158 27159 27160 27161 27162 27163 27164 27165 27166 27167 27168 27169 27170 27171 27172 27173 27174 27175 27176 27177 27178 27179 27180 27181 27182 27183 27184 27185 27186 27187 27188 27189 27190 27191 27192 27193 27194 27195 27196 27197 27198 27199 27200 27201 27202 27203 27204 27205 27206 27207 27208 27209 27210 27211 27212 27213 27214 27215 27216 27217 27218 27219 27220 27221 27222 27223 27224 27225 27226 27227 27228 27229 27230 27231 27232 27233 27234 27235 27236 27237 27238 27239 27240 27241 27242 27243 27244 27245 27246 27247 27248 27249 27250 27251 27252 27253 27254 27255 27256 27257 27258 27259 27260 27261 27262 27263 27264 27265 27266 27267 27268 27269 27270 27271 27272 27273 27274 27275 27276 27277 27278 27279 27280 27281 27282 27283 27284 27285 27286 27287 27288 27289 27290 27291 27292 27293 27294 27295 27296 27297 27298 27299 27300 27301 27302 27303 27304 27305 27306 27307 27308 27309 27310 27311 27312 27313 27314 27315 27316 27317 27318 27319 27320 27321 27322 27323 27324 27325 27326 27327 27328 27329 27330 27331 27332 27333 27334 27335 27336 27337 27338 27339 27340 27341 27342 27343 27344 27345 27346 27347 27348 27349 27350 27351 27352 27353 27354 27355 27356 27357 27358 27359 27360 27361 27362 27363 27364 27365 27366 27367 27368 27369 27370 27371 27372 27373 27374 27375 27376 27377 27378 27379 27380 27381 27382 27383 27384 27385 27386 27387 27388 27389 27390 27391 27392 27393 27394 27395 27396 27397 27398 27399 27400 27401 27402 27403 27404 27405 27406 27407 27408 27409 27410 27411 27412 27413 27414 27415 27416 27417 27418 27419 27420 27421 27422 27423 27424 27425 27426 27427 27428 27429 27430 27431 27432 27433 27434 27435 27436 27437 27438 27439 27440 27441 27442 27443 27444 27445 27446 27447 27448 27449 27450 27451 27452 27453 27454 27455 27456 27457 27458 27459 27460 27461 27462 27463 27464 27465 27466 27467 27468 27469 27470 27471 27472 27473 27474 27475 27476 27477 27478 27479 27480 27481 27482 27483 27484 27485 27486 27487 27488 27489 27490 27491 27492 27493 27494 27495 27496 27497 27498 27499 27500 27501 27502 27503 27504 27505 27506 27507 27508 27509 27510 27511 27512 27513 27514 27515 27516 27517 27518 27519 27520 27521 27522 27523 27524 27525 27526 27527 27528 27529 27530 27531 27532 27533 27534 27535 27536 27537 27538 27539 27540 27541 27542 27543 27544 27545 27546 27547 27548 27549 27550 27551 27552 27553 27554 27555 27556 27557 27558 27559 27560 27561 27562 27563 27564 27565 27566 27567 27568 27569 27570 27571 27572 27573 27574 27575 27576 27577 27578 27579 27580 27581 27582 27583 27584 27585 27586 27587 27588 27589 27590 27591 27592 27593 27594 27595 27596 27597 27598 27599 27600 27601 27602 27603 27604 27605 27606 27607 27608 27609 27610 27611 27612 27613 27614 27615 27616 27617 27618 27619 27620 27621 27622 27623 27624 27625 27626 27627 27628 27629 27630 27631 27632 27633 27634 27635 27636 27637 27638 27639 27640 27641 27642 27643 27644 27645 27646 27647 27648 27649 27650 27651 27652 27653 27654 27655 27656 27657 27658 27659 27660 27661 27662 27663 27664 27665 27666 27667 27668 27669 27670 27671 27672 27673 27674 27675 27676 27677 27678 27679 27680 27681 27682 27683 27684 27685 27686 27687 27688 27689 27690 27691 27692 27693 27694 27695 27696 27697 27698 27699 27700 27701 27702 27703 27704 27705 27706 27707 27708 27709 27710 27711 27712 27713 27714 27715 27716 27717 27718 27719 27720 27721 27722 27723 27724 27725 27726 27727 27728 27729 27730 27731 27732 27733 27734 27735 27736 27737 27738 27739 27740 27741 27742 27743 27744 27745 27746 27747 27748 27749 27750 27751 27752 27753 27754 27755 27756 27757 27758 27759 27760 27761 27762 27763 27764 27765 27766 27767 27768 27769 27770 27771 27772 27773 27774 27775 27776 27777 27778 27779 27780 27781 27782 27783 27784 27785 27786 27787 27788 27789 27790 27791 27792 27793 27794 27795 27796 27797 27798 27799 27800 27801 27802 27803 27804 27805 27806 27807 27808 27809 27810 27811 27812 27813 27814 27815 27816 27817 27818 27819 27820 27821 27822 27823 27824 27825 27826 27827 27828 27829 27830 27831 27832 27833 27834 27835 27836 27837 27838 27839 27840 27841 27842 27843 27844 27845 27846 27847 27848 27849 27850 27851 27852 27853 27854 27855 27856 27857 27858 27859 27860 27861 27862 27863 27864 27865 27866 27867 27868 27869 27870 27871 27872 27873 27874 27875 27876 27877 27878 27879 27880 27881 27882 27883 27884 27885 27886 27887 27888 27889 27890 27891 27892 27893 27894 27895 27896 27897 27898 27899 27900 27901 27902 27903 27904 27905 27906 27907 27908 27909 27910 27911 27912 27913 27914 27915 27916 27917 27918 27919 27920 27921 27922 27923 27924 27925 27926 27927 27928 27929 27930 27931 27932 27933 27934 27935 27936 27937 27938 27939 27940 27941 27942 27943 27944 27945 27946 27947 27948 27949 27950 27951 27952 27953 27954 27955 27956 27957 27958 27959 27960 27961 27962 27963 27964 27965 27966 27967 27968 27969 27970 27971 27972 27973 27974 27975 27976 27977 27978 27979 27980 27981 27982 27983 27984 27985 27986 27987 27988 27989 27990 27991 27992 27993 27994 27995 27996 27997 27998 27999 28000 28001 28002 28003 28004 28005 28006 28007 28008 28009 28010 28011 28012 28013 28014 28015 28016 28017 28018 28019 28020 28021 28022 28023 28024 28025 28026 28027 28028 28029 28030 28031 28032 28033 28034 28035 28036 28037 28038 28039 28040 28041 28042 28043 28044 28045 28046 28047 28048 28049 28050 28051 28052 28053 28054 28055 28056 28057 28058 28059 28060 28061 28062 28063 28064 28065 28066 28067 28068 28069 28070 28071 28072 28073 28074 28075 28076 28077 28078 28079 28080 28081 28082 28083 28084 28085 28086 28087 28088 28089 28090 28091 28092 28093 28094 28095 28096 28097 28098 28099 28100 28101 28102 28103 28104 28105 28106 28107 28108 28109 28110 28111 28112 28113 28114 28115 28116 28117 28118 28119 28120 28121 28122 28123 28124 28125 28126 28127 28128 28129 28130 28131 28132 28133 28134 28135 28136 28137 28138 28139 28140 28141 28142 28143 28144 28145 28146 28147 28148 28149 28150 28151 28152 28153 28154 28155 28156 28157 28158 28159 28160 28161 28162 28163 28164 28165 28166 28167 28168 28169 28170 28171 28172 28173 28174 28175 28176 28177 28178 28179 28180 28181 28182 28183 28184 28185 28186 28187 28188 28189 28190 28191 28192 28193 28194 28195 28196 28197 28198 28199 28200 28201 28202 28203 28204 28205 28206 28207 28208 28209 28210 28211 28212 28213 28214 28215 28216 28217 28218 28219 28220 28221 28222 28223 28224 28225 28226 28227 28228 28229 28230 28231 28232 28233 28234 28235 28236 28237 28238 28239 28240 28241 28242 28243 28244 28245 28246 28247 28248 28249 28250 28251 28252 28253 28254 28255 28256 28257 28258 28259 28260 28261 28262 28263 28264 28265 28266 28267 28268 28269 28270 28271 28272 28273 28274 28275 28276 28277 28278 28279 28280 28281 28282 28283 28284 28285 28286 28287 28288 28289 28290 28291 28292 28293 28294 28295 28296 28297 28298 28299 28300 28301 28302 28303 28304 28305 28306 28307 28308 28309 28310 28311 28312 28313 28314 28315 28316 28317 28318 28319 28320 28321 28322 28323 28324 28325 28326 28327 28328 28329 28330 28331 28332 28333 28334 28335 28336 28337 28338 28339 28340 28341 28342 28343 28344 28345 28346 28347 28348 28349 28350 28351 28352 28353 28354 28355 28356 28357 28358 28359 28360 28361 28362 28363 28364 28365 28366 28367 28368 28369 28370 28371 28372 28373 28374 28375 28376 28377 28378 28379 28380 28381 28382 28383 28384 28385 28386 28387 28388 28389 28390 28391 28392 28393 28394 28395 28396 28397 28398 28399 28400 28401 28402 28403 28404 28405 28406 28407 28408 28409 28410 28411 28412 28413 28414 28415 28416 28417 28418 28419 28420 28421 28422 28423 28424 28425 28426 28427 28428 28429 28430 28431 28432 28433 28434 28435 28436 28437 28438 28439 28440 28441 28442 28443 28444 28445 28446 28447 28448 28449 28450 28451 28452 28453 28454 28455 28456 28457 28458 28459 28460 28461 28462 28463 28464 28465 28466 28467 28468 28469 28470 28471 28472 28473 28474 28475 28476 28477 28478 28479 28480 28481 28482 28483 28484 28485 28486 28487 28488 28489 28490 28491 28492 28493 28494 28495 28496 28497 28498 28499 28500 28501 28502 28503 28504 28505 28506 28507 28508 28509 28510 28511 28512 28513 28514 28515 28516 28517 28518 28519 28520 28521 28522 28523 28524 28525 28526 28527 28528 28529 28530 28531 28532 28533 28534 28535 28536 28537 28538 28539 28540 28541 28542 28543 28544 28545 28546 28547 28548 28549 28550 28551 28552 28553 28554 28555 28556 28557 28558 28559 28560 28561 28562 28563 28564 28565 28566 28567 28568 28569 28570 28571 28572 28573 28574 28575 28576 28577 28578 28579 28580 28581 28582 28583 28584 28585 28586 28587 28588 28589 28590 28591 28592 28593 28594 28595 28596 28597 28598 28599 28600 28601 28602 28603 28604 28605 28606 28607 28608 28609 28610 28611 28612 28613 28614 28615 28616 28617 28618 28619 28620 28621 28622 28623 28624 28625 28626 28627 28628 28629 28630 28631 28632 28633 28634 28635 28636 28637 28638 28639 28640 28641 28642 28643 28644 28645 28646 28647 28648 28649 28650 28651 28652 28653 28654 28655 28656 28657 28658 28659 28660 28661 28662 28663 28664 28665 28666 28667 28668 28669 28670 28671 28672 28673 28674 28675 28676 28677 28678 28679 28680 28681 28682 28683 28684 28685 28686 28687 28688 28689 28690 28691 28692 28693 28694 28695 28696 28697 28698 28699 28700 28701 28702 28703 28704 28705 28706 28707 28708 28709 28710 28711 28712 28713 28714 28715 28716 28717 28718 28719 28720 28721 28722 28723 28724 28725 28726 28727 28728 28729 28730 28731 28732 28733 28734 28735 28736 28737 28738 28739 28740 28741 28742 28743 28744 28745 28746 28747 28748 28749 28750 28751 28752 28753 28754 28755 28756 28757 28758 28759 28760 28761 28762 28763 28764 28765 28766 28767 28768 28769 28770 28771 28772 28773 28774 28775 28776 28777 28778 28779 28780 28781 28782 28783 28784 28785 28786 28787 28788 28789 28790 28791 28792 28793 28794 28795 28796 28797 28798 28799 28800 28801 28802 28803 28804 28805 28806 28807 28808 28809 28810 28811 28812 28813 28814 28815 28816 28817 28818 28819 28820 28821 28822 28823 28824 28825 28826 28827 28828 28829 28830 28831 28832 28833 28834 28835 28836 28837 28838 28839 28840 28841 28842 28843 28844 28845 28846 28847 28848 28849 28850 28851 28852 28853 28854 28855 28856 28857 28858 28859 28860 28861 28862 28863 28864 28865 28866 28867 28868 28869 28870 28871 28872 28873 28874 28875 28876 28877 28878 28879 28880 28881 28882 28883 28884 28885 28886 28887 28888 28889 28890 28891 28892 28893 28894 28895 28896 28897 28898 28899 28900 28901 28902 28903 28904 28905 28906 28907 28908 28909 28910 28911 28912 28913 28914 28915 28916 28917 28918 28919 28920 28921 28922 28923 28924 28925 28926 28927 28928 28929 28930 28931 28932 28933 28934 28935 28936 28937 28938 28939 28940 28941 28942 28943 28944 28945 28946 28947 28948 28949 28950 28951 28952 28953 28954 28955 28956 28957 28958 28959 28960 28961 28962 28963 28964 28965 28966 28967 28968 28969 28970 28971 28972 28973 28974 28975 28976 28977 28978 28979 28980 28981 28982 28983 28984 28985 28986 28987 28988 28989 28990 28991 28992 28993 28994 28995 28996 28997 28998 28999 29000 29001 29002 29003 29004 29005 29006 29007 29008 29009 29010 29011 29012 29013 29014 29015 29016 29017 29018 29019 29020 29021 29022 29023 29024 29025 29026 29027 29028 29029 29030 29031 29032 29033 29034 29035 29036 29037 29038 29039 29040 29041 29042 29043 29044 29045 29046 29047 29048 29049 29050 29051 29052 29053 29054 29055 29056 29057 29058 29059 29060 29061 29062 29063 29064 29065 29066 29067 29068 29069 29070 29071 29072 29073 29074 29075 29076 29077 29078 29079 29080 29081 29082 29083 29084 29085 29086 29087 29088 29089 29090 29091 29092 29093 29094 29095 29096 29097 29098 29099 29100 29101 29102 29103 29104 29105 29106 29107 29108 29109 29110 29111 29112 29113 29114 29115 29116 29117 29118 29119 29120 29121 29122 29123 29124 29125 29126 29127 29128 29129 29130 29131 29132 29133 29134 29135 29136 29137 29138 29139 29140 29141 29142 29143 29144 29145 29146 29147 29148 29149 29150 29151 29152 29153 29154 29155 29156 29157 29158 29159 29160 29161 29162 29163 29164 29165 29166 29167 29168 29169 29170 29171 29172 29173 29174 29175 29176 29177 29178 29179 29180 29181 29182 29183 29184 29185 29186 29187 29188 29189 29190 29191 29192 29193 29194 29195 29196 29197 29198 29199 29200 29201 29202 29203 29204 29205 29206 29207 29208 29209 29210 29211 29212 29213 29214 29215 29216 29217 29218 29219 29220 29221 29222 29223 29224 29225 29226 29227 29228 29229 29230 29231 29232 29233 29234 29235 29236 29237 29238 29239 29240 29241 29242 29243 29244 29245 29246 29247 29248 29249 29250 29251 29252 29253 29254 29255 29256 29257 29258 29259 29260 29261 29262 29263 29264 29265 29266 29267 29268 29269 29270 29271 29272 29273 29274 29275 29276 29277 29278 29279 29280 29281 29282 29283 29284 29285 29286 29287 29288 29289 29290 29291 29292 29293 29294 29295 29296 29297 29298 29299 29300 29301 29302 29303 29304 29305 29306 29307 29308 29309 29310 29311 29312 29313 29314 29315 29316 29317 29318 29319 29320 29321 29322 29323 29324 29325 29326 29327 29328 29329 29330 29331 29332 29333 29334 29335 29336 29337 29338 29339 29340 29341 29342 29343 29344 29345 29346 29347 29348 29349 29350 29351 29352 29353 29354 29355 29356 29357 29358 29359 29360 29361 29362 29363 29364 29365 29366 29367 29368 29369 29370 29371 29372 29373 29374 29375 29376 29377 29378 29379 29380 29381 29382 29383 29384 29385 29386 29387 29388 29389 29390 29391 29392 29393 29394 29395 29396 29397 29398 29399 29400 29401 29402 29403 29404 29405 29406 29407 29408 29409 29410 29411 29412 29413 29414 29415 29416 29417 29418 29419 29420 29421 29422 29423 29424 29425 29426 29427 29428 29429 29430 29431 29432 29433 29434 29435 29436 29437 29438 29439 29440 29441 29442 29443 29444 29445 29446 29447 29448 29449 29450 29451 29452 29453 29454 29455 29456 29457 29458 29459 29460 29461 29462 29463 29464 29465 29466 29467 29468 29469 29470 29471 29472 29473 29474 29475 29476 29477 29478 29479 29480 29481 29482 29483 29484 29485 29486 29487 29488 29489 29490 29491 29492 29493 29494 29495 29496 29497 29498 29499 29500 29501 29502 29503 29504 29505 29506 29507 29508 29509 29510 29511 29512 29513 29514 29515 29516 29517 29518 29519 29520 29521 29522 29523 29524 29525 29526 29527 29528 29529 29530 29531 29532 29533 29534 29535 29536 29537 29538 29539 29540 29541 29542 29543 29544 29545 29546 29547 29548 29549 29550 29551 29552 29553 29554 29555 29556 29557 29558 29559 29560 29561 29562 29563 29564 29565 29566 29567 29568 29569 29570 29571 29572 29573 29574 29575 29576 29577 29578 29579 29580 29581 29582 29583 29584 29585 29586 29587 29588 29589 29590 29591 29592 29593 29594 29595 29596 29597 29598 29599 29600 29601 29602 29603 29604 29605 29606 29607 29608 29609 29610 29611 29612 29613 29614 29615 29616 29617 29618 29619 29620 29621 29622 29623 29624 29625 29626 29627 29628 29629 29630 29631 29632 29633 29634 29635 29636 29637 29638 29639 29640 29641 29642 29643 29644 29645 29646 29647 29648 29649 29650 29651 29652 29653 29654 29655 29656 29657 29658 29659 29660 29661 29662 29663 29664 29665 29666 29667 29668 29669 29670 29671 29672 29673 29674 29675 29676 29677 29678 29679 29680 29681 29682 29683 29684 29685 29686 29687 29688 29689 29690 29691 29692 29693 29694 29695 29696 29697 29698 29699 29700 29701 29702 29703 29704 29705 29706 29707 29708 29709 29710 29711 29712 29713 29714 29715 29716 29717 29718 29719 29720 29721 29722 29723 29724 29725 29726 29727 29728 29729 29730 29731 29732 29733 29734 29735 29736 29737 29738 29739 29740 29741 29742 29743 29744 29745 29746 29747 29748 29749 29750 29751 29752 29753 29754 29755 29756 29757 29758 29759 29760 29761 29762 29763 29764 29765 29766 29767 29768 29769 29770 29771 29772 29773 29774 29775 29776 29777 29778 29779 29780 29781 29782 29783 29784 29785 29786 29787 29788 29789 29790 29791 29792 29793 29794 29795 29796 29797 29798 29799 29800 29801 29802 29803 29804 29805 29806 29807 29808 29809 29810 29811 29812 29813 29814 29815 29816 29817 29818 29819 29820 29821 29822 29823 29824 29825 29826 29827 29828 29829 29830 29831 29832 29833 29834 29835 29836 29837 29838 29839 29840 29841 29842 29843 29844 29845 29846 29847 29848 29849 29850 29851 29852 29853 29854 29855 29856 29857 29858 29859 29860 29861 29862 29863 29864 29865 29866 29867 29868 29869 29870 29871 29872 29873 29874 29875 29876 29877 29878 29879 29880 29881 29882 29883 29884 29885 29886 29887 29888 29889 29890 29891 29892 29893 29894 29895 29896 29897 29898 29899 29900 29901 29902 29903 29904 29905 29906 29907 29908 29909 29910 29911 29912 29913 29914 29915 29916 29917 29918 29919 29920 29921 29922 29923 29924 29925 29926 29927 29928 29929 29930 29931 29932 29933 29934 29935 29936 29937 29938 29939 29940 29941 29942 29943 29944 29945 29946 29947 29948 29949 29950 29951 29952 29953 29954 29955 29956 29957 29958 29959 29960 29961 29962 29963 29964 29965 29966 29967 29968 29969 29970 29971 29972 29973 29974 29975 29976 29977 29978 29979 29980 29981 29982 29983 29984 29985 29986 29987 29988 29989 29990 29991 29992 29993 29994 29995 29996 29997 29998 29999 30000 30001 30002 30003 30004 30005 30006 30007 30008 30009 30010 30011 30012 30013 30014 30015 30016 30017 30018 30019 30020 30021 30022 30023 30024 30025 30026 30027 30028 30029 30030 30031 30032 30033 30034 30035 30036 30037 30038 30039 30040 30041 30042 30043 30044 30045 30046 30047 30048 30049 30050 30051 30052 30053 30054 30055 30056 30057 30058 30059 30060 30061 30062 30063 30064 30065 30066 30067 30068 30069 30070 30071 30072 30073 30074 30075 30076 30077 30078 30079 30080 30081 30082 30083 30084 30085 30086 30087 30088 30089 30090 30091 30092 30093 30094 30095 30096 30097 30098 30099 30100 30101 30102 30103 30104 30105 30106 30107 30108 30109 30110 30111 30112 30113 30114 30115 30116 30117 30118 30119 30120 30121 30122 30123 30124 30125 30126 30127 30128 30129 30130 30131 30132 30133 30134 30135 30136 30137 30138 30139 30140 30141 30142 30143 30144 30145 30146 30147 30148 30149 30150 30151 30152 30153 30154 30155 30156 30157 30158 30159 30160 30161 30162 30163 30164 30165 30166 30167 30168 30169 30170 30171 30172 30173 30174 30175 30176 30177 30178 30179 30180 30181 30182 30183 30184 30185 30186 30187 30188 30189 30190 30191 30192 30193 30194 30195 30196 30197 30198 30199 30200 30201 30202 30203 30204 30205 30206 30207 30208 30209 30210 30211 30212 30213 30214 30215 30216 30217 30218 30219 30220 30221 30222 30223 30224 30225 30226 30227 30228 30229 30230 30231 30232 30233 30234 30235 30236 30237 30238 30239 30240 30241 30242 30243 30244 30245 30246 30247 30248 30249 30250 30251 30252 30253 30254 30255 30256 30257 30258 30259 30260 30261 30262 30263 30264 30265 30266 30267 30268 30269 30270 30271 30272 30273 30274 30275 30276 30277 30278 30279 30280 30281 30282 30283 30284 30285 30286 30287 30288 30289 30290 30291 30292 30293 30294 30295 30296 30297 30298 30299 30300 30301 30302 30303 30304 30305 30306 30307 30308 30309 30310 30311 30312 30313 30314 30315 30316 30317 30318 30319 30320 30321 30322 30323 30324 30325 30326 30327 30328 30329 30330 30331 30332 30333 30334 30335 30336 30337 30338 30339 30340 30341 30342 30343 30344 30345 30346 30347 30348 30349 30350 30351 30352 30353 30354 30355 30356 30357 30358 30359 30360 30361 30362 30363 30364 30365 30366 30367 30368 30369 30370 30371 30372 30373 30374 30375 30376 30377 30378 30379 30380 30381 30382 30383 30384 30385 30386 30387 30388 30389 30390 30391 30392 30393 30394 30395 30396 30397 30398 30399 30400 30401 30402 30403 30404 30405 30406 30407 30408 30409 30410 30411 30412 30413 30414 30415 30416 30417 30418 30419 30420 30421 30422 30423 30424 30425 30426 30427 30428 30429 30430 30431 30432 30433 30434 30435 30436 30437 30438 30439 30440 30441 30442 30443 30444 30445 30446 30447 30448 30449 30450 30451 30452 30453 30454 30455 30456 30457 30458 30459 30460 30461 30462 30463 30464 30465 30466 30467 30468 30469 30470 30471 30472 30473 30474 30475 30476 30477 30478 30479 30480 30481 30482 30483 30484 30485 30486 30487 30488 30489 30490 30491 30492 30493 30494 30495 30496 30497 30498 30499 30500 30501 30502 30503 30504 30505 30506 30507 30508 30509 30510 30511 30512 30513 30514 30515 30516 30517 30518 30519 30520 30521 30522 30523 30524 30525 30526 30527 30528 30529 30530 30531 30532 30533 30534 30535 30536 30537 30538 30539 30540 30541 30542 30543 30544 30545 30546 30547 30548 30549 30550 30551 30552 30553 30554 30555 30556 30557 30558 30559 30560 30561 30562 30563 30564 30565 30566 30567 30568 30569 30570 30571 30572 30573 30574 30575 30576 30577 
</DataArray>
<DataArray type="UInt32" Name="offsets" format="ascii">
3 6 9 12 15 18 20 23 26 29 31 34 37 40 42 45 48 51 54 57 60 62 64 67 70 73 76 78 80 83 85 87 90 92 95 98 101 103 106 109 111 114 117 120 123 126 129 132 134 137 140 143 146 149 152 155 158 160 163 166 168 171 173 176 178 181 183 186 189 192 195 198 201 204 207 210 213 216 219 222 225 228 231 233 236 239 242 245 248 251 254 257 259 262 265 267 269 272 275 278 281 284 287 290 293 296 299 302 305 307 310 313 316 319 322 324 327 330 332 335 338 341 344 347 350 353 356 359 362 365 368 371 374 377 380 383 386 389 391 394 397 400 403 406 408 411 414 417 420 423 426 429 432 435 438 441 444 447 450 453 456 459 462 465 468 471 474 477 480 482 485 487 490 493 496 498 501 504 507 509 512 515 518 520 522 525 528 530 533 536 539 542 544 547 550 553 556 559 561 564 567 570 573 575 578 580 583 586 588 591 594 597 599 602 605 607 610 613 616 619 622 625 628 631 634 637 639 642 645 647 650 653 656 659 662 665 668 670 673 676 679 682 685 688 691 694 697 700 703 706 709 712 715 718 721 724 727 730 733 735 738 740 743 746 749 752 755 757 760 763 766 769 772 775 778 781 783 786 789 792 794 797 800 802 805 808 811 814 816 819 822 824 827 830 833 836 839 841 844 846 849 852 855 858 861 864 867 870 873 876 879 882 885 888 891 894 897 900 902 905 908 911 914 917 919 921 924 927 930 933 936 939 942 945 948 951 953 956 959 962 965 968 971 974 977 980 982 985 988 990 992 995 998 1001 1003 1006 1009 1011 1014 1017 1020 1023 1026 1029 1032 1035 1038 1041 1044 1047 1050 1053 1056 1058 1061 1064 1067 1070 1073 1076 1079 1082 1084 1087 1090 1092 1095 1098 1101 1104 1106 1109 1112 1115 1118 1121 1124 1127 1130 1133 1136 1139 1142 1145 1148 1150 1152 1155 1158 1160 1162 1165 1167 1170 1172 1175 1177 1180 1183 1185 1188 1191 1194 1197 1200 1203 1206 1209 1212 1214 1216 1219 1222 1224 1227 1230 1233 1236 1239 1241 1244 1247 1249 1252 1255 1258 1261 1263 1266 1269 1272 1274 1277 1280 1283 1285 1288 1290 1293 1296 1298 1301 1304 1307 1310 1313 1316 1319 1322 1325 1328 1331 1333 1336 1339 1342 1345 1348 1351 1353 1356 1359 1362 1364 1367 1370 1373 1376 1379 1382 1385 1387 1390 1393 1396 1399 1402 1404 1407 1409 1412 1415 1418 1421 1424 1426 1428 1431 1434 1437 1439 1441 1444 1446 1449 1452 1455 1458 1461 1464 1467 1469 1472 1475 1478 1481 1484 1487 1490 1493 1496 1499 1502 1505 1508 1511 1513 1516 1519 1521 1524 1526 1529 1532 1535 1538 1541 1544 1547 1550 1553 1556 1559 1562 1565 1568 1570 1573 1576 1579 1582 1585 1588 1591 1594 1597 1600 1603 1606 1609 1612 1615 1618 1620 1623 1626 1629 1632 1635 1638 1641 1644 1647 1650 1653 1655 1657 1660 1663 1666 1669 1672 1675 1678 1681 1684 1687 1690 1693 1696 1699 1702 1705 1707 1710 1713 1716 1719 1722 1725 1728 1730 1733 1736 1739 1742 1745 1748 1751 1754 1756 1759 1762 1765 1767 1770 1773 1776 1779 1782 1785 1788 1791 1794 1797 1800 1803 1806 1809 1812 1815 1818 1821 1824 1827 1830 1833 1836 1839 1842 1845 1848 1851 1853 1856 1858 1861 1864 1867 1870 1873 1876 1879 1882 1885 1888 1891 1894 1897 1899 1902 1905 1908 1910 1913 1916 1919 1922 1925 1928 1931 1934 1937 1940 1943 1946 1949 1951 1953 1956 1959 1962 1965 1968 1971 1974 1976 1979 1982 1985 1988 1991 1994 1997 2000 2003 2006 2009 2011 2014 2017 2020 2023 2026 2029 2032 2034 2037 2040 2043 2046 2049 2052 2055 2058 2061 2064 2067 2070 2073 2076 2079 2082 2085 2087 2090 2093 2096 2099 2102 2105 2108 2111 2114 2117 2119 2122 2125 2128 2131 2134 2136 2139 2142 2145 2147 2150 2153 2156 2159 2161 2164 2167 2170 2173 2176 2179 2182 2184 2187 2189 2192 2195 2197 2200 2202 2205 2208 2211 2214 2217 2220 2223 2226 2229 2232 2235 2238 2241 2244 2247 2250 2253 2256 2259 2262 2265 2268 2271 2274 2277 2280 2283 2286 2289 2292 2295 2298 2301 2304 2307 2309 2312 2314 2316 2319 2322 2325 2328 2331 2334 2337 2340 2343 2346 2349 2351 2354 2357 2360 2363 2366 2369 2372 2374 2377 2379 2382 2384 2387 2390 2393 2396 2399 2402 2404 2407 2409 2411 2414 2417 2420 2423 2426 2429 2432 2435 2438 2441 2444 2447 2450 2453 2456 2459 2462 2464 2467 2470 2473 2476 2479 2482 2485 2488 2491 2494 2497 2500 2503 2506 2508 2511 2514 2517 2520 2523 2526 2529 2532 2535 2538 2541 2544 2547 2549 2552 2555 2558 2561 2564 2567 2570 2573 2576 2578 2581 2584 2587 2590 2593 2595 2597 2600 2603 2606 2609 2611 2613 2616 2619 2622 2625 2628 2631 2634 2637 2640 2643 2646 2648 2651 2654 2657 2660 2662 2665 2668 2671 2674 2677 2680 2682 2685 2688 2690 2693 2695 2698 2701 2704 2706 2709 2712 2715 2718 2721 2724 2727 2729 2732 2735 2738 2741 2743 2745 2748 2751 2753 2756 2759 2762 2764 2766 2768 2770 2773 2776 2778 2781 2784 2787 2790 2793 2796 2799 2802 2804 2806 2809 2812 2815 2818 2821 2824 2826 2829 2831 2834 2837 2840 2842 2845 2848 2851 2854 2857 2860 2863 2866 2869 2872 2875 2878 2881 2884 2887 2890 2893 2896 2899 2902 2905 2908 2911 2914 2917 2920 2923 2926 2928 2931 2934 2937 2940 2943 2946 2949 2952 2955 2958 2961 2964 2967 2970 2973 2976 2979 2982 2985 2988 2991 2993 2996 2999 3002 3005 3008 3011 3014 3017 3020 3022 3025 3028 3031 3034 3037 3040 3042 3045 3048 3051 3054 3057 3059 3062 3065 3068 3071 3074 3076 3079 3082 3085 3088 3091 3094 3097 3100 3103 3106 3108 3111 3114 3117 3120 3122 3124 3127 3130 3132 3135 3138 3141 3144 3146 3149 3152 3154 3157 3160 3163 3166 3169 3171 3173 3176 3179 3182 3185 3188 3191 3193 3196 3199 3202 3205 3208 3211 3214 3216 3218 3221 3224 3227 3229 3232 3235 3238 3240 3243 3246 3248 3251 3253 3256 3259 3262 3264 3267 3270 3272 3274 3277 3280 3283 3286 3289 3292 3294 3297 3299 3302 3304 3307 3310 3313 3315 3317 3320 3322 3325 3328 3331 3334 3337 3340 3343 3346 3349 3352 3355 3358 3361 3364 3367 3370 3372 3375 3378 3381 3384 3387 3390 3393 3395 3398 3401 3404 3407 3410 3412 3415 3418 3421 3423 3426 3429 3432 3435 3437 3440 3442 3445 3447 3450 3453 3456 3459 3461 3464 3467 3469 3472 3475 3478 3481 3484 3487 3490 3493 3496 3499 3502 3504 3507 3510 3513 3516 3518 3521 3524 3527 3530 3532 3535 3538 3541 3544 3547 3550 3552 3555 3558 3561 3563 3566 3568 3570 3573 3576 3579 3582 3585 3588 3591 3594 3597 3600 3603 3606 3609 3612 3615 3618 3621 3624 3627 3630 3633 3636 3639 3642 3645 3648 3651 3654 3656 3659 3662 3664 3666 3669 3671 3674 3677 3680 3683 3685 3688 3691 3693 3696 3699 3702 3705 3708 3711 3714 3717 3720 3723 3726 3729 3732 3735 3738 3741 3744 3747 3750 3753 3756 3759 3762 3765 3768 3771 3774 3777 3779 3782 3785 3788 3791 3794 3797 3800 3803 3805 3808 3811 3814 3817 3820 3823 3826 3828 3831 3833 3836 3839 3842 3844 3847 3850 3853 3856 3859 3862 3865 3867 3870 3872 3875 3878 3881 3884 3887 3889 3892 3895 3898 3901 3904 3907 3910 3913 3916 3919 3922 3925 3928 3931 3934 3937 3940 3943 3946 3949 3952 3955 3958 3961 3964 3967 3970 3973 3976 3979 3982 3985 3988 3991 3994 3997 4000 4003 4006 4008 4010 4013 4016 4018 4021 4024 4027 4029 4032 4035 4038 4040 4042 4045 4048 4050 4053 4056 4059 4062 4065 4068 4071 4074 4077 4080 4083 4086 4089 4092 4095 4098 4101 4104 4107 4110 4113 4115 4118 4120 4123 4126 4129 4132 4135 4138 4141 4144 4147 4150 4153 4156 4159 4162 4165 4168 4171 4174 4177 4180 4183 4186 4189 4192 4195 4198 4201 4204 4207 4210 4213 4216 4219 4222 4225 4228 4231 4234 4237 4240 4243 4246 4249 4252 4255 4257 4260 4262 4265 4267 4270 4273 4275 4278 4281 4284 4287 4290 4293 4296 4299 4302 4305 4308 4311 4314 4317 4320 4323 4326 4329 4332 4335 4338 4341 4344 4347 4350 4353 4356 4358 4361 4364 4367 4370 4373 4376 4379 4382 4385 4388 4391 4394 4397 4400 4403 4406 4409 4412 4415 4418 4421 4424 4427 4430 4433 4436 4439 4442 4445 4448 4451 4454 4457 4460 4463 4466 4469 4472 4475 4478 4481 4484 4487 4490 4493 4496 4499 4502 4505 4507 4510 4513 4516 4519 4521 4524 4527 4530 4533 4536 4539 4542 4545 4547 4550 4553 4556 4559 4562 4564 4566 4568 4571 4574 4577 4580 4582 4584 4587 4590 4592 4595 4598 4601 4604 4607 4610 4613 4616 4619 4622 4625 4628 4631 4634 4636 4638 4641 4643 4646 4649 4652 4655 4658 4661 4664 4667 4670 4673 4676 4679 4682 4685 4688 4691 4694 4697 4699 4702 4705 4708 4711 4714 4717 4719 4722 4725 4728 4731 4734 4737 4740 4743 4746 4749 4752 4755 4758 4761 4764 4767 4770 4773 4775 4778 4781 4784 4787 4790 4793 4796 4799 4802 4804 4807 4810 4812 4815 4818 4821 4824 4827 4830 4833 4836 4839 4842 4845 4848 4851 4854 4857 4860 4862 4865 4867 4870 4873 4876 4879 4881 4884 4886 4889 4892 4894 4896 4899 4902 4904 4907 4910 4913 4915 4918 4921 4924 4927 4930 4933 4935 4938 4941 4944 4946 4949 4952 4955 4958 4960 4963 4966 4969 4972 4975 4978 4981 4983 4986 4989 4992 4995 4998 5000 5003 5006 5008 5011 5014 5017 5020 5023 5026 5029 5031 5034 5037 5040 5042 5044 5047 5050 5053 5055 5058 5061 5064 5067 5070 5072 5074 5076 5079 5082 5085 5088 5091 5094 5097 5100 5103 5105 5107 5110 5112 5115 5118 5121 5124 5127 5129 5132 5135 5137 5140 5142 5145 5148 5151 5153 5156 5159 5161 5164 5167 5170 5173 5176 5179 5182 5184 5187 5190 5192 5194 5197 5200 5202 5205 5207 5210 5213 5215 5218 5221 5223 5226 5228 5231 5234 5237 5239 5242 5245 5247 5250 5252 5255 5258 5260 5263 5265 5268 5271 5274 5277 5279 5281 5284 5287 5290 5293 5296 5299 5302 5305 5308 5310 5313 5316 5319 5322 5325 5328 5331 5334 5337 5340 5343 5346 5349 5352 5355 5358 5361 5364 5366 5368 5371 5374 5377 5379 5382 5385 5388 5391 5393 5396 5399 5401 5404 5407 5410 5412 5415 5418 5420 5423 5426 5429 5432 5434 5437 5440 5443 5446 5449 5451 5454 5457 5460 5462 5464 5467 5470 5472 5475 5478 5481 5484 5487 5489 5491 5494 5497 5500 5503 5505 5508 5511 5514 5517 5519 5522 5525 5528 5531 5534 5537 5540 5543 5546 5549 5552 5555 5558 5561 5564 5567 5570 5573 5576 5579 5582 5585 5588 5591 5594 5597 5600 5603 5605 5608 5611 5614 5617 5620 5623 5626 5629 5632 5635 5638 5640 5643 5646 5649 5652 5654 5657 5660 5663 5665 5668 5671 5673 5676 5679 5682 5685 5688 5690 5693 5696 5699 5702 5705 5708 5711 5714 5717 5720 5723 5726 5729 5732 5735 5738 5741 5744 5747 5750 5752 5755 5758 5761 5764 5767 5769 5772 5775 5778 5781 5784 5787 5790 5792 5795 5798 5801 5804 5807 5810 5813 5816 5819 5822 5825 5828 5831 5833 5836 5839 5842 5845 5848 5850 5852 5855 5858 5861 5864 5866 5869 5871 5874 5877 5880 5882 5884 5887 5890 5892 5895 5898 5901 5903 5906 5909 5912 5915 5917 5920 5923 5925 5927 5930 5933 5936 5939 5942 5945 5947 5950 5953 5955 5958 5961 5964 5967 5969 5972 5975 5978 5981 5984 5987 5990 5993 5996 5999 6002 6005 6008 6011 6014 6017 6020 6023 6026 6028 6031 6033 6036 6039 6042 6044 6047 6049 6052 6054 6057 6060 6062 6065 6068 6070 6072 6074 6077 6080 6083 6085 6088 6091 6094 6097 6100 6103 6105 6108 6111 6114 6117 6120 6123 6126 6128 6131 6133 6136 6139 6142 6145 6148 6151 6154 6156 6159 6162 6165 6168 6171 6174 6177 6180 6183 6186 6189 6191 6194 6197 6199 6202 6205 6208 6211 6214 6217 6220 6223 6226 6229 6232 6235 6238 6241 6244 6247 6249 6252 6255 6258 6261 6264 6267 6270 6273 6276 6279 6282 6285 6288 6291 6294 6297 6300 6303 6306 6309 6312 6314 6317 6320 6323 6325 6328 6331 6334 6337 6340 6343 6346 6349 6352 6355 6357 6360 6363 6366 6369 6372 6375 6378 6381 6384 6387 6389 6392 6395 6398 6401 6404 6407 6409 6412 6415 6418 6420 6423 6426 6429 6432 6435 6438 6441 6444 6447 6450 6453 6456 6459 6462 6465 6468 6471 6474 6477 6480 6483 6485 6488 6491 6494 6497 6500 6502 6505 6508 6510 6513 6516 6519 6522 6525 6528 6530 6533 6536 6539 6542 6544 6547 6550 6553 6556 6559 6562 6565 6568 6571 6574 6577 6580 6583 6586 6589 6592 6595 6598 6600 6603 6606 6609 6612 6615 6617 6620 6623 6626 6628 6631 6633 6636 6639 6642 6645 6648 6651 6654 6656 6659 6662 6665 6667 6669 6672 6675 6678 6681 6684 6686 6689 6692 6695 6697 6700 6703 6706 6709 6712 6715 6718 6721 6724 6727 6730 6733 6736 6739 6742 6744 6747 6750 6753 6756 6759 6762 6764 6767 6770 6773 6776 6779 6782 6785 6788 6791 6794 6797 6799 6802 6805 6808 6811 6814 6817 6820 6823 6826 6828 6831 6834 6837 6840 6842 6844 6847 6850 6853 6856 6859 6862 6865 6868 6870 6872 6875 6877 6880 6883 6886 6889 6892 6894 6897 6900 6903 6906 6909 6912 6914 6917 6919 6922 6925 6928 6931 6934 6937 6940 6943 6946 6949 6951 6954 6957 6960 6963 6966 6969 6971 6974 6977 6980 6983 6986 6989 6992 6995 6997 7000 7003 7006 7009 7012 7014 7017 7020 7022 7025 7028 7031 7034 7037 7040 7042 7045 7048 7051 7054 7057 7060 7063 7066 7068 7071 7074 7077 7080 7082 7085 7088 7091 7094 7097 7100 7103 7106 7109 7112 7114 7117 7120 7123 7126 7129 7132 7135 7138 7141 7143 7146 7149 7152 7155 7157 7160 7163 7166 7169 7172 7175 7178 7181 7183 7186 7188 7191 7194 7197 7199 7202 7205 7208 7211 7214 7217 7220 7223 7225 7228 7231 7234 7236 7239 7242 7245 7247 7250 7253 7255 7258 7261 7264 7267 7270 7273 7276 7279 7282 7285 7288 7291 7294 7297 7300 7303 7306 7309 7312 7315 7318 7321 7324 7327 7330 7333 7336 7339 7342 7345 7348 7351 7354 7357 7360 7363 7366 7369 7372 7375 7378 7381 7384 7387 7390 7393 7396 7399 7402 7405 7408 7411 7414 7416 7419 7422 7425 7427 7430 7433 7436 7439 7442 7445 7447 7450 7452 7455 7458 7461 7464 7466 7468 7471 7474 7477 7480 7483 7486 7489 7492 7495 7498 7501 7504 7507 7510 7513 7516 7519 7522 7525 7528 7531 7534 7536 7539 7542 7544 7547 7550 7553 7555 7558 7561 7564 7567 7570 7573 7576 7579 7582 7585 7588 7591 7594 7597 7599 7602 7604 7607 7609 7612 7615 7618 7621 7624 7627 7630 7633 7636 7639 7642 7645 7648 7651 7654 7657 7660 7662 7665 7668 7671 7674 7677 7680 7683 7686 7689 7692 7695 7698 7701 7704 7707 7710 7713 7716 7719 7722 7725 7728 7731 7734 7737 7740 7743 7746 7749 7752 7755 7758 7761 7763 7766 7769 7772 7775 7778 7781 7783 7786 7789 7791 7794 7796 7799 7802 7804 7807 7810 7813 7815 7818 7821 7824 7827 7830 7833 7836 7839 7842 7845 7848 7851 7854 7857 7860 7863 7866 7869 7872 7875 7878 7881 7884 7887 7890 7892 7895 7898 7901 7904 7906 7909 7912 7914 7917 7920 7923 7926 7929 7932 7935 7938 7941 7944 7947 7950 7953 7956 7959 7962 7965 7968 7971 7974 7977 7980 7983 7986 7989 7992 7995 7998 8001 8004 8006 8009 8012 8015 8017 8020 8023 8026 8029 8031 8034 8037 8040 8043 8046 8048 8051 8054 8057 8060 8062 8065 8068 8071 8074 8077 8080 8083 8086 8089 8092 8095 8098 8101 8104 8106 8108 8111 8113 8116 8118 8121 8124 8127 8130 8133 8136 8139 8142 8145 8148 8151 8154 8157 8160 8163 8166 8169 8172 8175 8178 8181 8184 8187 8190 8193 8195 8197 8200 8203 8205 8208 8211 8213 8216 8219 8222 8225 8228 8231 8234 8237 8240 8243 8246 8248 8251 8254 8256 8259 8262 8265 8268 8271 8274 8277 8280 8283 8286 8289 8292 8295 8298 8300 8302 8305 8307 8309 8312 8315 8318 8321 8323 8326 8329 8332 8334 8336 8339 8342 8345 8348 8351 8354 8357 8359 8362 8365 8368 8371 8374 8377 8380 8383 8386 8389 8392 8395 8398 8401 8404 8407 8409 8412 8415 8418 8421 8423 8426 8429 8432 8435 8438 8441 8444 8446 8449 8452 8455 8458 8461 8464 8467 8469 8472 8475 8477 8480 8483 8486 8489 8492 8495 8498 8501 8504 8507 8510 8513 8516 8519 8522 8524 8527 8530 8533 8536 8539 8542 8545 8548 8550 8553 8556 8559 8562 8565 8568 8571 8573 8576 8579 8582 8585 8588 8590 8593 8596 8599 8602 8604 8607 8610 8613 8616 8619 8622 8625 8628 8631 8634 8637 8640 8642 8645 8648 8651 8654 8657 8660 8663 8666 8669 8672 8675 8678 8681 8684 8686 8689 8692 8695 8698 8701 8704 8707 8710 8713 8716 8719 8722 8725 8727 8729 8732 8735 8737 8740 8743 8746 8749 8751 8754 8757 8760 8762 8765 8768 8770 8773 8776 8779 8782 8784 8787 8790 8793 8796 8799 8802 8805 8808 8811 8814 8817 8820 8823 8826 8829 8832 8835 8838 8841 8844 8847 8850 8853 8856 8859 8862 8865 8868 8871 8874 8877 8880 8883 8886 8888 8891 8894 8897 8899 8902 8904 8907 8910 8913 8916 8919 8922 8925 8928 8931 8934 8937 8940 8943 8946 8948 8951 8954 8957 8960 8963 8966 8969 8972 8974 8977 8980 8983 8985 8988 8991 8994 8997 9000 9003 9006 9008 9011 9013 9016 9019 9022 9025 9028 9031 9034 9037 9040 9043 9046 9049 9052 9055 9057 9060 9063 9065 9068 9071 9074 9077 9080 9083 9086 9088 9091 9094 9097 9100 9103 9106 9109 9112 9115 9118 9121 9124 9127 9130 9133 9136 9139 9142 9145 9148 9151 9154 9157 9160 9163 9166 9169 9171 9174 9177 9179 9182 9185 9188 9190 9193 9196 9198 9201 9204 9207 9210 9213 9216 9219 9222 9225 9228 9231 9234 9237 9240 9243 9246 9249 9252 9255 9257 9260 9263 9266 9269 9272 9275 9278 9281 9284 9287 9290 9293 9296 9298 9301 9304 9307 9310 9313 9316 9319 9322 9325 9328 9331 9334 9337 9340 9343 9346 9349 9352 9355 9357 9360 9363 9366 9369 9372 9375 9378 9381 9384 9387 9390 9393 9396 9399 9402 9405 9407 9410 9413 9415 9418 9421 9424 9426 9429 9432 9434 9437 9440 9443 9446 9449 9452 9455 9458 9461 9464 9467 9470 9473 9476 9478 9481 9484 9486 9489 9492 9495 9498 9501 9504 9507 9510 9513 9516 9519 9522 9525 9528 9531 9534 9537 9540 9543 9546 9549 9552 9555 9558 9561 9564 9567 9570 9573 9576 9579 9582 9585 9588 9591 9594 9596 9599 9602 9605 9608 9610 9613 9616 9619 9622 9625 9628 9631 9634 9637 9640 9643 9646 9649 9652 9655 9657 9660 9662 9664 9667 9670 9672 9675 9677 9680 9683 9686 9689 9692 9695 9698 9701 9703 9706 9709 9711 9714 9717 9720 9723 9725 9727 9730 9732 9735 9738 9741 9744 9747 9750 9753 9756 9759 9762 9765 9768 9771 9774 9777 9780 9783 9786 9789 9792 9795 9797 9800 9803 9806 9809 9812 9815 9818 9821 9824 9827 9830 9833 9836 9839 9842 9845 9848 9851 9854 9857 9860 9863 9866 9869 9872 9874 9877 9880 9883 9886 9889 9891 9894 9897 9900 9903 9906 9909 9912 9915 9918 9920 9923 9926 9929 9932 9935 9938 9941 9944 9947 9950 9953 9956 9959 9962 9965 9968 9971 9973 9975 9978 9981 9983 9986 9989 9992 9994 9997 10000 10003 10006 10009 10012 10015 10018 10021 10024 10026 10029 10032 10034 10037 10039 10042 10045 10048 10051 10053 10056 10059 10062 10064 10067 10070 10073 10076 10079 10082 10084 10087 10090 10093 10096 10099 10102 10104 10107 10110 10113 10116 10119 10122 10125 10128 10131 10134 10137 10140 10143 10146 10148 10151 10154 10156 10159 10162 10165 10167 10169 10172 10175 10178 10181 10184 10187 10190 10193 10196 10199 10201 10204 10207 10210 10212 10215 10218 10221 10224 10226 10229 10232 10235 10238 10241 10244 10247 10250 10252 10255 10258 10261 10264 10267 10269 10271 10274 10277 10280 10282 10285 10287 10289 10292 10295 10298 10301 10304 10306 10309 10312 10315 10318 10321 10324 10326 10329 10332 10335 10338 10341 10344 10347 10349 10352 10355 10357 10360 10363 10365 10368 10371 10374 10377 10380 10383 10386 10389 10392 10395 10398 10401 10404 10407 10409 10412 10415 10418 10420 10423 10426 10428 10431 10434 10437 10440 10442 10445 10448 10451 10454 10457 10460 10463 10466 10468 10471 10474 10477 10480 10482 10485 10488 10491 10494 10497 10500 10503 10506 10508 10511 10514 10517 10520 10523 10526 10529 10532 10535 10537 10540 10543 10546 10548 10551 10554 10556 10559 10562 10564 10567 10570 10573 10576 10579 10582 10585 10588 10591 10593 10596 10599 10602 10605 10608 10611 10614 10617 10620 10623 10626 10629 10632 10635 10638 10641 10643 10646 10649 10652 10655 10658 10661 10664 10667 10670 10673 10676 10679 10682 10685 10688 10691 10694 10697 10700 10703 10706 10709 10712 10715 10718 10721 10723 10726 10728 10731 10734 10737 10740 10743 10746 10749 10752 10755 10758 10760 10763 10766 10768 10771 10774 10777 10780 10783 10786 10789 10792 10795 10798 10801 10804 10807 10810 10813 10816 10819 10822 10825 10828 10831 10833 10836 10839 10842 10845 10848 10851 10854 10857 10860 10862 10865 10867 10870 10873 10876 10879 10882 10885 10888 10890 10893 10895 10898 10901 10904 10907 10910 10913 10916 10919 10922 10925 10928 10930 10933 10936 10939 10942 10944 10947 10949 10952 10955 10958 10961 10964 10967 10969 10972 10975 10977 10980 10983 10985 10988 10991 10994 10996 10998 11000 11003 11006 11009 11012 11015 11018 11021 11024 11027 11030 11033 11036 11039 11041 11044 11047 11050 11053 11056 11059 11062 11064 11067 11069 11072 11074 11077 11080 11082 11084 11087 11090 11093 11096 11099 11102 11104 11107 11110 11113 11116 11118 11121 11123 11126 11128 11131 11133 11136 11139 11142 11145 11147 11150 11153 11156 11159 11162 11164 11167 11170 11173 11176 11179 11182 11185 11188 11191 11194 11197 11200 11203 11206 11208 11211 11214 11217 11220 11223 11225 11228 11231 11234 11236 11239 11242 11245 11248 11251 11254 11257 11260 11263 11266 11269 11272 11275 11278 11281 11284 11287 11289 11292 11295 11298 11301 11303 11306 11309 11312 11315 11318 11321 11323 11326 11329 11332 11335 11338 11341 11344 11347 11350 11353 11355 11358 11361 11363 11366 11368 11371 11374 11377 11380 11383 11386 11389 11392 11395 11398 11401 11403 11406 11409 11412 11415 11418 11421 11423 11426 11428 11430 11433 11435 11438 11441 11444 11447 11450 11453 11456 11458 11461 11464 11467 11470 11473 11476 11479 11482 11485 11488 11491 11494 11497 11500 11503 11506 11508 11511 11514 11517 11520 11523 11526 11529 11532 11535 11538 11540 11543 11546 11549 11552 11555 11558 11561 11564 11567 11570 11572 11575 11578 11581 11584 11586 11589 11592 11595 11598 11601 11603 11606 11609 11612 11615 11617 11620 11623 11626 11629 11632 11635 11638 11641 11644 11647 11650 11653 11656 11659 11662 11665 11668 11671 11673 11676 11679 11682 11685 11688 11691 11694 11697 11699 11702 11704 11706 11709 11712 11715 11718 11721 11723 11726 11729 11732 11735 11738 11741 11744 11747 11750 11753 11756 11759 11762 11765 11767 11770 11773 11775 11778 11780 11782 11785 11788 11791 11794 11797 11800 11802 11805 11808 11811 11814 11816 11819 11821 11824 11827 11829 11832 11835 11838 11841 11844 11847 11849 11851 11854 11857 11860 11863 11866 11869 11872 11875 11878 11881 11884 11887 11890 11893 11896 11898 11901 11904 11907 11910 11913 11916 11919 11921 11924 11926 11929 11932 11935 11937 11940 11942 11945 11948 11951 11954 11957 11960 11963 11966 11968 11971 11974 11977 11980 11983 11985 11988 11990 11993 11996 11999 12002 12004 12007 12010 12013 12016 12019 12021 12024 12027 12030 12033 12036 12039 12042 12045 12048 12051 12054 12057 12060 12063 12066 12069 12072 12075 12078 12081 12084 12087 12090 12093 12095 12098 12101 12104 12106 12109 12111 12114 12117 12120 12122 12125 12128 12131 12134 12137 12140 12143 12146 12149 12152 12155 12158 12161 12164 12167 12170 12173 12175 12177 12179 12181 12184 12187 12190 12193 12196 12199 12201 12204 12207 12210 12212 12215 12218 12221 12224 12227 12230 12233 12236 12239 12242 12244 12246 12248 12251 12254 12256 12258 12261 12264 12267 12270 12273 12276 12279 12282 12285 12287 12290 12293 12296 12299 12302 12305 12308 12311 12313 12315 12318 12321 12324 12326 12329 12332 12335 12338 12341 12344 12347 12350 12353 12356 12359 12361 12364 12366 12369 12372 12375 12378 12381 12383 12385 12388 12391 12393 12395 12398 12401 12404 12407 12410 12413 12416 12419 12422 12425 12428 12431 12434 12437 12440 12443 12446 12449 12452 12455 12458 12461 12464 12467 12470 12473 12476 12479 12482 12485 12488 12491 12494 12497 12500 12503 12506 12509 12512 12515 12518 12521 12523 12525 12528 12531 12534 12537 12540 12543 12546 12549 12552 12555 12558 12561 12564 12567 12570 12573 12576 12579 12582 12585 12587 12590 12593 12596 12599 12602 12605 12608 12611 12614 12617 12620 12623 12626 12629 12632 12635 12637 12640 12642 12645 12648 12651 12654 12657 12660 12663 12666 12668 12671 12674 12677 12680 12683 12686 12689 12692 12695 12698 12701 12703 12706 12709 12711 12714 12717 12719 12722 12725 12728 12731 12733 12736 12739 12742 12745 12747 12750 12753 12755 12758 12760 12763 12766 12769 12772 12775 12777 12780 12783 12786 12789 12792 12795 12798 12800 12803 12806 12809 12812 12815 12818 12821 12824 12827 12830 12833 12836 12839 12842 12845 12848 12851 12854 12857 12860 12863 12866 12869 12872 12874 12877 12880 12883 12885 12888 12891 12893 12896 12899 12902 12904 12907 12910 12913 12916 12918 12921 12923 12926 12929 12932 12935 12938 12941 12944 12947 12949 12952 12955 12958 12961 12964 12967 12970 12973 12976 12979 12981 12984 12987 12989 12992 12995 12997 13000 13003 13005 13007 13010 13013 13016 13019 13022 13025 13028 13030 13032 13035 13038 13041 13043 13046 13049 13051 13053 13056 13059 13062 13064 13066 13069 13071 13074 13077 13079 13082 13085 13088 13091 13093 13096 13098 13100 13103 13106 13109 13111 13114 13116 13118 13121 13123 13125 13127 13129 13132 13134 13137 13139 13142 13144 13147 13150 13153 13155 13158 13161 13163 13166 13168 13170 13173 13176 13179 13182 13184 13187 13189 13191 13194 13197 13200 13202 13204 13207 13210 13212 13214 13217 13220 13223 13226 13228 13231 13234 13237 13240 13242 13245 13248 13251 13254 13256 13259 13261 13264 13266 13269 13271 13274 13276 13279 13281 13284 13287 13290 13293 13296 13298 13301 13304 13306 13308 13310 13313 13316 13318 13320 13323 13325 13328 13331 13333 13336 13339 13342 13345 13348 13351 13353 13356 13359 13361 13364 13366 13369 13372 13375 13378 13380 13383 13385 13388 13390 13393 13396 13399 13401 13404 13407 13409 13412 13414 13417 13419 13422 13425 13428 13431 13434 13436 13439 13442 13445 13448 13451 13454 13457 13460 13463 13466 13468 13471 13474 13477 13480 13482 13485 13488 13490 13493 13496 13499 13502 13505 13507 13510 13513 13515 13518 13521 13524 13526 13529 13531 13534 13537 13540 13542 13545 13548 13551 13554 13556 13559 13562 13565 13568 13570 13572 13575 13578 13581 13584 13587 13590 13592 13595 13598 13600 13603 13606 13609 13612 13615 13618 13621 13624 13627 13630 13633 13636 13639 13642 13645 13648 13651 13654 13657 13660 13663 13666 13669 13672 13675 13678 13681 13684 13687 13690 13693 13696 13699 13702 13705 13708 13711 13714 13717 13720 13723 13726 13729 13732 13735 13738 13741 13744 13747 13750 13753 13756 13759 13762 13765 13768 13771 13774 13776 13779 13782 13785 13788 13791 13794 13797 13800 13803 13806 13809 13812 13814 13817 13820 13822 13825 13828 13831 13833 13836 13839 13842 13845 13848 13851 13854 13857 13860 13863 13866 13869 13872 13875 13878 13880 13883 13886 13889 13892 13895 13898 13901 13904 13907 13910 13913 13916 13919 13922 13925 13928 13930 13933 13936 13939 13942 13945 13948 13951 13954 13957 13960 13963 13966 13969 13971 13974 13977 13979 13982 13985 13987 13990 13992 13995 13998 14001 14004 14007 14010 14013 14015 14018 14021 14024 14027 14030 14033 14036 14039 14042 14045 14048 14051 14053 14056 14059 14062 14064 14067 14070 14073 14076 14079 14082 14085 14088 14091 14093 14096 14099 14102 14105 14108 14111 14113 14116 14119 14122 14125 14128 14131 14133 14136 14139 14142 14144 14147 14150 14153 14156 14159 14162 14165 14167 14170 14173 14176 14179 14182 14185 14188 14191 14194 14197 14199 14202 14205 14208 14211 14214 14217 14220 14223 14226 14229 14232 14235 14238 14241 14244 14247 14249 14252 14254 14257 14260 14263 14266 14269 14272 14275 14278 14281 14284 14286 14289 14291 14294 14297 14300 14303 14306 14309 14312 14315 14318 14321 14324 14326 14329 14332 14335 14338 14341 14344 14347 14350 14353 14356 14359 14361 14364 14367 14370 14373 14376 14379 14382 14384 14387 14390 14393 14396 14399 14402 14405 14407 14410 14413 14416 14419 14422 14425 14428 14431 14434 14437 14440 14442 14445 14448 14451 14454 14457 14460 14463 14466 14468 14471 14473 14476 14479 14482 14485 14488 14491 14494 14497 14500 14503 14505 14508 14511 14514 14516 14519 14522 14525 14528 14531 14534 14537 14540 14543 14545 14548 14551 14554 14557 14560 14563 14566 14569 14572 14575 14578 14581 14584 14587 14590 14593 14595 14598 14601 14604 14607 14610 14613 14616 14619 14622 14625 14628 14631 14634 14637 14640 14643 14646 14649 14651 14654 14657 14659 14662 14665 14667 14670 14673 14676 14679 14682 14684 14687 14690 14693 14696 14699 14702 14705 14708 14711 14714 14717 14720 14723 14726 14729 14732 14735 14738 14741 14744 14747 14750 14753 14756 14759 14762 14765 14768 14771 14774 14777 14780 14783 14786 14789 14792 14795 14798 14801 14804 14807 14810 14813 14816 14819 14822 14825 14828 14831 14834 14837 14840 14843 14846 14849 14852 14855 14858 14861 14863 14866 14869 14871 14874 14877 14880 14883 14886 14889 14892 14895 14898 14901 14904 14907 14910 14913 14916 14919 14922 14925 14928 14931 14934 14937 14940 14943 14945 14947 14950 14953 14956 14959 14962 14965 14968 14971 14974 14977 14980 14983 14986 14989 14992 14995 14997 14999 15002 15005 15008 15011 15014 15017 15020 15022 15025 15027 15030 15033 15035 15037 15040 15043 15046 15049 15052 15055 15058 15061 15064 15067 15070 15072 15075 15077 15080 15083 15086 15088 15091 15094 15097 15099 15102 15104 15107 15110 15113 15116 15119 15121 15123 15126 15129 15132 15135 15138 15141 15144 15147 15150 15153 15156 15159 15162 15165 15168 15171 15174 15177 15180 15183 15186 15189 15192 15195 15198 15201 15204 15207 15210 15213 15216 15219 15222 15225 15228 15231 15234 15237 15240 15243 15246 15249 15252 15255 15258 15261 15264 15267 15270 15273 15276 15279 15282 15285 15288 15291 15294 15297 15300 15303 15306 15309 15312 15315 15318 15321 15324 15327 15330 15333 15336 15339 15342 15345 15348 15351 15354 15357 15360 15363 15366 15369 15372 15375 15378 15381 15384 15387 15390 15393 15396 15399 15402 15405 15408 15411 15414 15417 15420 15423 15426 15429 15432 15435 15437 15439 15442 15444 15447 15449 15452 15455 15457 15460 15463 15466 15469 15471 15474 15477 15480 15483 15486 15489 15492 15494 15496 15498 15501 15504 15507 15510 15513 15515 15517 15520 15523 15526 15529 15532 15535 15538 15541 15544 15547 15550 15553 15556 15559 15562 15565 15568 15571 15574 15577 15580 15583 15586 15589 15592 15595 15598 15601 15604 15607 15610 15613 15616 15619 15621 15624 15627 15629 15632 15635 15638 15641 15644 15647 15650 15653 15656 15659 15662 15664 15667 15670 15673 15676 15679 15682 15685 15687 15690 15693 15696 15699 15702 15705 15708 15711 15714 15717 15720 15723 15726 15729 15732 15735 15737 15740 15743 15745 15748 15751 15754 15757 15760 15763 15766 15769 15772 15775 15778 15781 15784 15787 15790 15793 15796 15799 15802 15805 15808 15811 15814 15816 15819 15822 15824 15827 15830 15832 15835 15838 15841 15844 15847 15850 15853 15855 15858 15861 15864 15867 15870 15873 15875 15878 15881 15883 15886 15889 15892 15895 15897 15900 15902 15905 15908 15910 15913 15916 15919 15922 15924 15927 15929 15932 15935 15937 15940 15943 15946 15949 15952 15955 15958 15961 15964 15967 15970 15973 15975 15978 15981 15984 15986 15989 15992 15994 15997 16000 16003 16006 16008 16011 16014 16017 16020 16023 16026 16029 16032 16035 16038 16040 16043 16046 16049 16052 16055 16058 16061 16064 16067 16070 16072 16075 16078 16081 16084 16087 16090 16093 16096 16099 16102 16105 16108 16110 16113 16116 16118 16121 16124 16127 16130 16133 16136 16139 16142 16145 16148 16150 16153 16156 16159 16162 16165 16167 16170 16172 16174 16177 16180 16182 16185 16188 16191 16194 16197 16200 16203 16206 16209 16211 16213 16216 16219 16222 16225 16228 16231 16233 16236 16239 16242 16245 16248 16251 16254 16257 16260 16263 16266 16269 16272 16275 16278 16281 16284 16287 16290 16293 16296 16299 16302 16305 16308 16310 16313 16316 16319 16322 16325 16328 16331 16334 16337 16340 16343 16346 16349 16352 16355 16358 16361 16364 16367 16370 16373 16376 16379 16382 16385 16388 16391 16394 16397 16400 16403 16406 16409 16412 16415 16418 16421 16424 16427 16430 16432 16435 16438 16441 16444 16447 16450 16453 16456 16459 16462 16464 16467 16470 16473 16475 16478 16480 16483 16486 16489 16491 16494 16497 16500 16502 16505 16507 16510 16512 16515 16517 16519 16522 16525 16527 16530 16533 16536 16538 16541 16544 16547 16550 16553 16555 16558 16561 16564 16567 16569 16572 16575 16578 16580 16583 16586 16589 16592 16594 16597 16599 16602 16605 16608 16611 16614 16617 16620 16623 16626 16629 16632 16635 16638 16641 16643 16646 16649 16652 16655 16657 16660 16663 16665 16668 16671 16673 16675 16678 16681 16683 16686 16688 16691 16694 16697 16699 16701 16703 16705 16708 16711 16713 16716 16719 16722 16725 16727 16730 16732 16735 16738 16740 16742 16744 16747 16749 16752 16755 16757 16759 16761 16764 16767 16770 16773 16776 16779 16782 16785 16788 16790 16792 16795 16798 16801 16804 16806 16808 16811 16814 16817 16819 16822 16824 16827 16830 16833 16836 16839 16842 16845 16848 16851 16854 16857 16859 16862 16865 16868 16871 16874 16877 16880 16883 16886 16889 16892 16895 16898 16901 16904 16907 16910 16913 16916 16919 16922 16925 16928 16930 16933 16936 16939 16942 16945 16948 16951 16954 16957 16960 16963 16966 16969 16972 16975 16978 16980 16983 16986 16988 16991 16994 16997 17000 17003 17006 17009 17012 17015 17017 17020 17023 17026 17028 17030 17033 17036 17038 17041 17044 17047 17050 17053 17055 17058 17060 17063 17066 17069 17071 17074 17077 17080 17083 17086 17089 17092 17094 17097 17100 17102 17105 17108 17111 17114 17116 17119 17122 17125 17127 17129 17132 17135 17137 17140 17143 17146 17148 17151 17154 17157 17160 17163 17166 17169 17171 17174 17177 17179 17182 17184 17186 17188 17191 17193 17196 17198 17200 17203 17206 17209 17212 17215 17218 17220 17223 17226 17228 17231 17234 17237 17240 17243 17246 17249 17252 17255 17258 17261 17264 17267 17270 17273 17276 17279 17282 17285 17288 17291 17294 17297 17300 17303 17306 17309 17312 17315 17318 17321 17324 17327 17330 17333 17335 17337 17340 17343 17346 17349 17352 17355 17358 17361 17363 17365 17367 17369 17372 17375 17377 17380 17383 17386 17389 17392 17395 17398 17401 17403 17406 17409 17411 17414 17417 17420 17422 17425 17428 17431 17434 17436 17439 17442 17445 17448 17451 17454 17457 17460 17463 17466 17469 17472 17475 17478 17480 17483 17486 17489 17492 17495 17497 17500 17503 17506 17509 17512 17515 17518 17521 17523 17526 17529 17532 17534 17536 17539 17542 17544 17546 17549 17552 17555 17558 17561 17563 17566 17569 17572 17575 17578 17581 17583 17586 17588 17591 17594 17597 17600 17603 17606 17609 17612 17614 17616 17619 17621 17623 17625 17628 17630 17633 17636 17639 17642 17645 17648 17650 17653 17656 17659 17662 17665 17668 17671 17673 17676 17679 17682 17685 17688 17691 17694 17697 17700 17703 17706 17709 17712 17715 17718 17721 17724 17727 17730 17733 17736 17739 17742 17745 17748 17751 17754 17757 17760 17763 17766 17769 17772 17775 17778 17781 17784 17787 17790 17793 17796 17799 17802 17805 17808 17811 17814 17817 17820 17823 17826 17829 17832 17835 17838 17841 17844 17846 17849 17852 17855 17858 17861 17864 17867 17869 17872 17875 17877 17880 17883 17886 17888 17891 17893 17896 17899 17901 17904 17907 17910 17913 17916 17919 17922 17924 17927 17930 17933 17935 17938 17941 17944 17947 17950 17953 17956 17958 17961 17963 17966 17969 17972 17975 17978 17981 17984 17987 17990 17993 17996 17999 18002 18005 18008 18011 18014 18017 18020 18023 18026 18029 18032 18035 18038 18040 18042 18045 18047 18050 18053 18056 18059 18062 18065 18068 18070 18073 18075 18078 18080 18082 18084 18087 18090 18092 18095 18098 18100 18103 18106 18109 18111 18114 18117 18120 18123 18126 18129 18132 18134 18136 18139 18142 18144 18147 18150 18153 18155 18158 18161 18164 18167 18169 18172 18174 18177 18180 18183 18186 18189 18192 18194 18197 18199 18202 18205 18208 18211 18214 18216 18219 18222 18224 18227 18230 18233 18236 18239 18242 18245 18248 18251 18254 18257 18260 18263 18266 18269 18272 18274 18277 18280 18282 18284 18287 18289 18292 18295 18298 18301 18304 18307 18310 18313 18315 18318 18321 18324 18327 18330 18333 18336 18339 18342 18345 18348 18351 18354 18357 18360 18363 18365 18368 18371 18374 18376 18379 18382 18384 18387 18390 18393 18396 18399 18402 18404 18407 18410 18413 18416 18419 18422 18425 18428 18431 18434 18437 18440 18443 18446 18449 18452 18455 18458 18461 18463 18465 18468 18471 18474 18477 18480 18483 18486 18488 18491 18494 18497 18499 18502 18505 18507 18510 18512 18515 18518 18520 18523 18525 18527 18530 18532 18535 18537 18540 18542 18545 18548 18551 18554 18557 18560 18563 18566 18569 18572 18575 18578 18581 18584 18587 18589 18591 18594 18597 18600 18603 18606 18609 18612 18614 18617 18620 18623 18626 18629 18632 18635 18638 18641 18644 18647 18650 18653 18656 18659 18661 18664 18666 18669 18672 18675 18678 18681 18684 18686 18689 18692 18695 18697 18700 18703 18706 18708 18711 18714 18717 18720 18723 18726 18729 18732 18735 18738 18741 18744 18747 18750 18753 18756 18759 18762 18765 18768 18771 18773 18776 18779 18782 18785 18787 18790 18793 18796 18799 18802 18804 18807 18810 18813 18815 18818 18821 18824 18827 18830 18833 18836 18839 18842 18845 18848 18851 18853 18856 18859 18862 18865 18867 18870 18873 18876 18879 18882 18885 18888 18891 18893 18896 18899 18902 18905 18908 18911 18914 18916 18919 18922 18925 18928 18930 18933 18936 18939 18942 18945 18948 18951 18954 18956 18959 18962 18965 18968 18971 18974 18977 18980 18983 18985 18988 18991 18994 18997 19000 19003 19006 19009 19012 19015 19018 19021 19024 19027 19030 19033 19036 19039 19042 19045 19048 19051 19054 19057 19060 19063 19066 19069 19071 19074 19077 19080 19083 19086 19089 19092 19094 19097 19100 19103 19106 19109 19112 19115 19118 19121 19124 19127 19130 19133 19136 19139 19142 19145 19148 19151 19154 19157 19160 19163 19166 19169 19172 19175 19178 19181 19183 19186 19189 19192 19195 19198 19201 19204 19207 19210 19213 19216 19219 19222 19225 19228 19231 19234 19237 19240 19243 19246 19249 19252 19255 19258 19261 19264 19267 19270 19273 19276 19279 19281 19284 19287 19289 19292 19295 19298 19301 19303 19306 19309 19311 19314 19317 19320 19323 19325 19328 19331 19334 19336 19339 19342 19345 19347 19350 19353 19356 19359 19362 19365 19368 19371 19374 19377 19379 19382 19385 19387 19390 19393 19396 19399 19402 19405 19407 19410 19413 19416 19419 19422 19424 19427 19430 19433 19436 19438 19441 19444 19447 19450 19453 19456 19459 19462 19465 19468 19470 19473 19476 19479 19482 19485 19488 19491 19494 19497 19499 19502 19505 19508 19511 19514 19517 19520 19523 19526 19529 19532 19535 19538 19540 19543 19546 19549 19552 19555 19558 19561 19563 19566 19569 19572 19575 19578 19580 19583 19586 19589 19592 19595 19598 19601 19604 19607 19610 19613 19616 19619 19622 19624 19627 19630 19633 19636 19639 19642 19645 19648 19650 19653 19656 19659 19662 19665 19668 19671 19674 19677 19680 19683 19686 19689 19692 19695 19698 19701 19704 19707 19710 19713 19716 19719 19722 19725 19728 19731 19734 19737 19740 19743 19746 19749 19751 19754 19757 19760 19763 19765 19767 19770 19773 19775 19778 19781 19783 19786 19789 19791 19794 19797 19800 19803 19806 19809 19812 19815 19818 19821 19824 19827 19830 19833 19836 19839 19842 19845 19848 19850 19853 19856 19859 19862 19864 19867 19870 19873 19876 19879 19882 19885 19888 19891 19894 19897 19900 19903 19906 19909 19912 19915 19918 19921 19924 19927 19930 19933 19936 19939 19942 19945 19948 19951 19954 19957 19960 19963 19966 19969 19972 19975 19978 19981 19984 19987 19990 19993 19996 19999 20002 20005 20008 20011 20014 20017 20020 20023 20026 20029 20032 20035 20038 20041 20044 20047 20050 20053 20056 20059 20062 20065 20068 20071 20074 20077 20079 20082 20085 20088 20091 20093 20096 20098 20101 20104 20106 20109 20112 20115 20118 20120 20123 20126 20128 20131 20134 20137 20140 20143 20146 20149 20152 20155 20158 20161 20164 20167 20170 20173 20176 20179 20182 20185 20188 20191 20194 20197 20200 20203 20206 20209 20212 20215 20218 20221 20224 20227 20230 20233 20236 20239 20242 20245 20248 20251 20254 20257 20260 20263 20266 20269 20272 20275 20278 20281 20284 20287 20290 20293 20296 20299 20302 20305 20308 20310 20313 20316 20319 20322 20325 20328 20331 20334 20337 20339 20342 20345 20348 20351 20354 20357 20360 20362 20365 20368 20371 20374 20377 20380 20383 20386 20389 20392 20395 20398 20401 20404 20407 20410 20413 20416 20419 20421 20423 20426 20429 20431 20434 20436 20439 20442 20445 20448 20451 20454 20457 20460 20463 20466 20469 20472 20475 20478 20481 20484 20487 20490 20493 20496 20499 20502 20505 20508 20511 20514 20517 20520 20523 20526 20529 20532 20535 20538 20541 20544 20547 20550 20553 20556 20559 20562 20565 20568 20571 20574 20577 20580 20583 20586 20589 20592 20595 20598 20601 20603 20605 20608 20611 20614 20617 20620 20623 20626 20629 20632 20635 20638 20641 20644 20647 20650 20653 20656 20659 20662 20665 20667 20670 20673 20676 20679 20682 20685 20688 20691 20694 20697 20699 20702 20705 20708 20710 20713 20716 20719 20722 20725 20728 20730 20733 20736 20739 20742 20745 20748 20751 20754 20757 20760 20763 20766 20769 20771 20774 20777 20780 20783 20786 20789 20791 20793 20796 20798 20801 20804 20806 20809 20812 20815 20817 20820 20823 20826 20828 20831 20834 20837 20840 20843 20845 20848 20850 20853 20856 20859 20862 20864 20867 20870 20873 20876 20878 20881 20883 20886 20889 20891 20893 20896 20899 20902 20905 20908 20910 20913 20916 20919 20922 20925 20927 20929 20931 20934 20936 20939 20941 20944 20947 20950 20953 20956 20958 20961 20964 20967 20970 20973 20976 20979 20982 20984 20986 20989 20992 20994 20997 21000 21003 21006 21008 21011 21014 21016 21019 21022 21024 21027 21030 21033 21036 21039 21042 21045 21048 21051 21053 21056 21059 21062 21065 21068 21071 21074 21077 21079 21082 21085 21088 21091 21094 21097 21100 21103 21106 21108 21110 21113 21116 21119 21122 21125 21128 21131 21134 21137 21140 21143 21146 21149 21152 21155 21158 21161 21164 21167 21170 21173 21176 21179 21182 21185 21188 21191 21194 21197 21200 21203 21206 21209 21212 21215 21217 21220 21223 21226 21229 21231 21234 21237 21240 21243 21246 21249 21252 21255 21258 21261 21264 21267 21270 21273 21276 21279 21281 21283 21286 21289 21292 21295 21298 21301 21304 21307 21310 21312 21315 21318 21321 21324 21326 21329 21332 21334 21337 21340 21343 21346 21349 21352 21355 21358 21361 21364 21367 21370 21373 21375 21378 21381 21384 21387 21390 21393 21396 21399 21402 21405 21408 21411 21414 21417 21420 21423 21426 21429 21432 21435 21438 21441 21444 21447 21450 21452 21455 21458 21461 21464 21467 21469 21472 21475 21478 21480 21483 21486 21489 21491 21493 21496 21499 21502 21505 21508 21511 21514 21517 21520 21523 21526 21529 21532 21535 21537 21540 21543 21546 21548 21551 21554 21557 21560 21562 21564 21567 21570 21573 21576 21579 21582 21585 21588 21591 21594 21597 21600 21603 21606 21609 21612 21615 21618 21621 21624 21627 21630 21633 21635 21638 21641 21644 21647 21650 21653 21656 21659 21662 21664 21667 21670 21673 21676 21678 21681 21683 21686 21689 21692 21695 21697 21700 21703 21706 21709 21712 21715 21718 21721 21724 21727 21730 21733 21736 21739 21742 21744 21747 21750 21752 21755 21758 21761 21764 21767 21770 21773 21776 21779 21782 21784 21786 21789 21792 21795 21798 21800 21803 21806 21809 21811 21814 21817 21820 21823 21825 21827 21830 21832 21835 21837 21840 21842 21845 21848 21850 21853 21856 21858 21861 21864 21866 21869 21872 21875 21877 21880 21883 21885 21888 21890 21893 21895 21898 21901 21903 21906 21909 21912 21915 21918 21921 21924 21927 21930 21933 21936 21939 21942 21944 21947 21950 21953 21956 21959 21962 21965 21968 21971 21974 21977 21980 21983 21986 21989 21992 21994 21996 21999 22002 22005 22008 22011 22013 22016 22019 22022 22025 22027 22030 22033 22035 22038 22041 22044 22047 22049 22052 22055 22058 22061 22064 22067 22070 22073 22076 22079 22082 22085 22088 22091 22094 22097 22100 22103 22106 22109 22112 22115 22118 22121 22124 22127 22130 22133 22136 22139 22142 22145 22148 22151 22154 22157 22160 22163 22165 22168 22171 22174 22177 22180 22183 22186 22189 22192 22195 22198 22201 22204 22206 22209 22211 22214 22217 22220 22223 22225 22228 22231 22234 22237 22240 22243 22246 22249 22252 22255 22258 22261 22264 22267 22270 22273 22276 22279 22281 22284 22286 22289 22292 22294 22297 22300 22303 22305 22308 22311 22314 22317 22320 22323 22326 22329 22332 22335 22338 22341 22344 22347 22350 22353 22356 22359 22362 22365 22368 22371 22374 22377 22380 22383 22386 22388 22391 22394 22396 22399 22402 22405 22408 22411 22414 22417 22420 22423 22426 22429 22432 22435 22438 22441 22444 22447 22450 22453 22456 22459 22462 22465 22468 22471 22474 22477 22480 22483 22486 22489 22492 22495 22498 22501 22503 22506 22508 22511 22514 22517 22520 22523 22526 22529 22532 22535 22538 22541 22544 22547 22550 22553 22556 22559 22561 22563 22566 22569 22572 22575 22578 22580 22583 22586 22589 22592 22594 22597 22600 22603 22606 22608 22611 22614 22617 22620 22623 22626 22629 22632 22635 22638 22641 22644 22647 22650 22653 22656 22659 22662 22664 22667 22670 22673 22676 22679 22682 22684 22687 22690 22692 22695 22698 22701 22704 22707 22710 22713 22716 22719 22722 22725 22728 22730 22733 22736 22738 22741 22744 22747 22750 22753 22756 22759 22762 22764 22767 22770 22773 22776 22779 22782 22784 22787 22790 22792 22795 22798 22801 22804 22807 22810 22813 22816 22819 22822 22825 22828 22831 22834 22837 22840 22843 22846 22849 22852 22855 22858 22861 22864 22867 22870 22873 22876 22879 22882 22885 22888 22891 22894 22897 22900 22902 22905 22908 22911 22913 22916 22919 22921 22924 22927 22930 22933 22936 22939 22941 22944 22947 22950 22953 22956 22958 22961 22964 22967 22970 22973 22976 22978 22981 22984 22987 22990 22992 22995 22997 23000 23003 23005 23008 23011 23014 23016 23019 23022 23025 23028 23031 23034 23037 23040 23043 23046 23049 23052 23055 23057 23060 23063 23066 23069 23072 23075 23078 23081 23084 23087 23090 23093 23096 23099 23102 23105 23108 23111 23114 23117 23120 23123 23126 23129 23131 23134 23136 23139 23141 23144 23146 23149 23152 23155 23158 23160 23163 23166 23169 23172 23174 23177 23180 23183 23186 23189 23192 23195 23198 23201 23204 23207 23210 23213 23216 23218 23221 23224 23227 23229 23232 23235 23238 23240 23243 23246 23248 23251 23254 23257 23259 23262 23265 23268 23271 23273 23276 23279 23282 23285 23287 23290 23293 23296 23299 23302 23305 23308 23311 23314 23317 23319 23322 23325 23328 23331 23334 23336 23339 23341 23344 23347 23350 23353 23356 23358 23360 23363 23366 23368 23371 23373 23376 23379 23381 23384 23387 23390 23393 23396 23399 23402 23405 23408 23411 23414 23417 23420 23422 23425 23428 23431 23434 23437 23439 23442 23445 23448 23451 23454 23457 23460 23463 23466 23469 23471 23474 23476 23479 23482 23484 23487 23490 23492 23495 23497 23500 23502 23505 23508 23511 23514 23517 23519 23521 23524 23527 23530 23533 23536 23539 23542 23545 23548 23551 23554 23556 23559 23562 23565 23568 23571 23573 23576 23579 23582 23584 23587 23589 23592 23595 23598 23601 23604 23607 23610 23613 23616 23619 23622 23625 23628 23631 23634 23636 23639 23642 23645 23648 23650 23653 23656 23659 23662 23665 23668 23671 23674 23677 23680 23683 23686 23689 23692 23695 23698 23701 23704 23707 23710 23713 23716 23719 23721 23724 23727 23729 23732 23735 23738 23741 23744 23747 23750 23752 23755 23758 23760 23763 23765 23768 23771 23774 23777 23780 23783 23786 23789 23792 23794 23797 23800 23802 23805 23808 23811 23813 23816 23819 23822 23825 23828 23831 23834 23836 23839 23842 23845 23848 23850 23852 23855 23858 23861 23864 23867 23870 23873 23876 23879 23881 23884 23887 23890 23893 23896 23899 23902 23905 23908 23911 23914 23917 23920 23923 23926 23929 23931 23934 23936 23939 23942 23945 23947 23950 23953 23956 23959 23962 23965 23968 23971 23974 23977 23980 23983 23986 23988 23991 23994 23997 24000 24003 24005 24008 24011 24014 24016 24018 24021 24024 24027 24029 24032 24035 24037 24040 24043 24046 24049 24051 24053 24056 24059 24062 24064 24067 24070 24072 24075 24078 24081 24084 24086 24089 24091 24094 24097 24100 24102 24105 24108 24111 24114 24117 24120 24123 24126 24129 24132 24135 24138 24141 24144 24147 24150 24153 24156 24159 24162 24165 24167 24170 24173 24176 24179 24182 24185 24188 24191 24194 24196 24199 24202 24205 24207 24210 24212 24215 24218 24221 24224 24227 24230 24233 24236 24239 24242 24245 24247 24250 24253 24256 24259 24262 24264 24267 24270 24273 24276 24279 24281 24284 24287 24290 24293 24296 24299 24302 24305 24308 24311 24314 24317 24320 24323 24326 24329 24331 24334 24337 24340 24343 24346 24349 24352 24355 24358 24360 24363 24366 24369 24372 24375 24378 24381 24384 24387 24390 24393 24396 24399 24402 24405 24407 24410 24413 24416 24419 24422 24425 24428 24431 24434 24437 24440 24443 24446 24449 24452 24455 24458 24461 24464 24467 24470 24473 24476 24479 24482 24485 24488 24491 24494 24496 24499 24502 24505 24508 24510 24513 24515 24517 24520 24523 24526 24529 24532 24535 24537 24540 24542 24545 24548 24551 24553 24556 24559 24561 24564 24567 24570 24573 24576 24579 24581 24584 24587 24590 24593 24596 24599 24602 24604 24607 24610 24613 24616 24618 24621 24624 24627 24630 24633 24636 24638 24641 24644 24647 24650 24653 24656 24659 24662 24665 24668 24671 24674 24676 24679 24681 24684 24687 24690 24693 24696 24699 24702 24704 24706 24709 24712 24715 24718 24721 24724 24727 24730 24732 24735 24738 24741 24743 24746 24749 24751 24754 24757 24760 24763 24766 24769 24772 24775 24778 24781 24784 24787 24790 24793 24796 24799 24802 24805 24808 24811 24814 24817 24820 24823 24826 24828 24831 24834 24836 24839 24842 24845 24848 24851 24853 24856 24859 24861 24864 24866 24869 24872 24875 24877 24880 24883 24886 24889 24891 24894 24897 24899 24901 24904 24907 24910 24913 24916 24918 24921 24924 24926 24929 24932 24935 24938 24941 24943 24946 24949 24952 24955 24958 24961 24964 24967 24970 24972 24975 24978 24981 24984 24986 24989 24992 24995 24998 25001 25004 25006 25009 25011 25014 25017 25020 25022 25025 25027 25030 25033 25035 25038 25040 25043 25046 25049 25051 25054 25057 25060 25063 25066 25069 25072 25075 25078 25081 25084 25087 25090 25092 25095 25098 25101 25104 25106 25109 25112 25115 25118 25121 25124 25126 25129 25132 25135 25138 25141 25144 25147 25149 25152 25155 25158 25161 25164 25167 25169 25172 25175 25178 25181 25184 25187 25190 25192 25195 25198 25200 25203 25206 25209 25212 25215 25218 25221 25224 25227 25229 25231 25234 25237 25240 25243 25246 25249 25252 25255 25258 25261 25264 25267 25269 25272 25275 25278 25281 25284 25287 25290 25292 25295 25298 25301 25303 25306 25308 25311 25314 25316 25319 25322 25325 25328 25331 25333 25336 25339 25342 25344 25347 25350 25353 25356 25358 25361 25364 25367 25369 25372 25375 25378 25381 25384 25387 25390 25392 25395 25398 25400 25403 25406 25409 25411 25414 25417 25420 25422 25425 25428 25431 25434 25436 25439 25442 25445 25447 25450 25453 25456 25459 25462 25465 25468 25471 25474 25476 25479 25482 25485 25488 25491 25494 25497 25500 25503 25505 25508 25511 25514 25517 25519 25522 25525 25527 25530 25533 25536 25539 25542 25545 25548 25551 25554 25557 25560 25563 25566 25569 25572 25575 25578 25581 25584 25587 25590 25593 25596 25599 25602 25605 25607 25610 25613 25616 25619 25622 25625 25628 25631 25634 25637 25640 25642 25645 25648 25651 25653 25656 25659 25662 25665 25668 25671 25673 25676 25679 25682 25685 25688 25691 25694 25697 25700 25703 25706 25709 25712 25715 25718 25721 25724 25727 25730 25733 25736 25739 25742 25745 25748 25751 25753 25756 25758 25761 25764 25766 25768 25771 25774 25777 25780 25783 25786 25789 25792 25795 25798 25801 25804 25807 25810 25813 25816 25819 25821 25824 25827 25830 25833 25836 25839 25842 25845 25848 25851 25854 25857 25860 25863 25866 25869 25872 25875 25878 25881 25884 25887 25890 25893 25896 25899 25902 25905 25908 25911 25914 25917 25920 25923 25926 25929 25932 25935 25938 25941 25944 25947 25950 25953 25956 25959 25962 25965 25968 25971 25974 25977 25980 25983 25986 25989 25992 25995 25998 26001 26004 26006 26009 26012 26014 26017 26020 26023 26026 26028 26031 26034 26037 26040 26043 26046 26049 26052 26055 26058 26060 26063 26065 26068 26071 26074 26076 26079 26082 26085 26087 26090 26092 26095 26098 26101 26103 26106 26108 26111 26113 26116 26119 26122 26124 26127 26130 26133 26136 26138 26141 26143 26146 26149 26152 26155 26158 26160 26163 26165 26167 26170 26173 26176 26179 26182 26185 26187 26190 26193 26196 26198 26201 26204 26207 26210 26213 26216 26219 26222 26225 26228 26231 26234 26237 26240 26243 26246 26249 26252 26255 26257 26260 26263 26266 26268 26270 26273 26276 26279 26282 26285 26287 26290 26293 26296 26299 26302 26305 26308 26311 26314 26317 26320 26323 26326 26329 26331 26334 26337 26339 26342 26344 26347 26350 26353 26355 26358 26360 26363 26366 26368 26371 26374 26377 26380 26383 26386 26389 26392 26395 26398 26401 26403 26406 26409 26412 26415 26418 26421 26424 26427 26430 26433 26435 26437 26440 26443 26446 26449 26452 26455 26458 26460 26463 26466 26469 26472 26475 26478 26481 26484 26487 26490 26493 26496 26499 26502 26504 26507 26510 26513 26516 26519 26522 26525 26528 26531 26534 26536 26539 26542 26545 26547 26550 26552 26554 26557 26560 26563 26566 26569 26572 26575 26578 26580 26583 26586 26589 26592 26595 26598 26601 26604 26607 26609 26612 26614 26617 26619 26622 26625 26628 26631 26634 26637 26640 26643 26645 26648 26650 26653 26656 26659 26662 26665 26668 26670 26673 26676 26678 26681 26683 26686 26689 26692 26695 26698 26701 26704 26707 26710 26713 26716 26719 26722 26725 26727 26730 26733 26736 26739 26742 26745 26748 26751 26754 26757 26759 26762 26765 26768 26771 26774 26777 26779 26782 26785 26788 26791 26794 26797 26800 26803 26806 26809 26812 26815 26818 26821 26824 26827 26830 26833 26836 26839 26842 26845 26848 26851 26854 26856 26859 26862 26865 26868 26871 26873 26876 26879 26882 26885 26888 26891 26894 26897 26900 26903 26906 26908 26911 26914 26917 26920 26922 26925 26928 26931 26934 26937 26939 26942 26945 26948 26951 26954 26956 26959 26962 26964 26967 26970 26973 26976 26979 26982 26985 26988 26991 26994 26997 27000 27003 27006 27009 27012 27015 27018 27021 27024 27027 27030 27033 27036 27039 27042 27044 27047 27050 27052 27055 27058 27061 27064 27067 27070 27073 27076 27079 27082 27085 27088 27091 27094 27097 27099 27102 27105 27108 27111 27114 27117 27120 27123 27126 27128 27131 27134 27137 27140 27143 27146 27149 27151 27154 27157 27160 27163 27166 27168 27171 27174 27177 27180 27183 27186 27188 27191 27194 27197 27200 27202 27205 27208 27211 27214 27217 27220 27223 27225 27228 27231 27233 27236 27239 27241 27244 27247 27250 27253 27255 27258 27261 27264 27267 27270 27273 27276 27279 27281 27284 27287 27289 27292 27295 27298 27301 27304 27307 27310 27313 27316 27318 27321 27324 27327 27330 27333 27335 27338 27341 27344 27347 27349 27352 27355 27358 27360 27363 27366 27369 27372 27375 27378 27381 27384 27387 27390 27393 27395 27397 27400 27403 27406 27409 27412 27415 27418 27421 27424 27427 27430 27432 27435 27438 27441 27444 27447 27449 27452 27454 27456 27459 27461 27463 27466 27469 27471 27474 27477 27480 27483 27486 27489 27491 27494 27496 27498 27501 27504 27507 27510 27513 27515 27518 27521 27524 27527 27530 27533 27536 27539 27541 27544 27547 27550 27553 27555 27558 27561 27564 27567 27570 27572 27575 27578 27580 27583 27586 27589 27592 27595 27598 27601 27603 27606 27608 27611 27614 27617 27620 27623 27626 27629 27631 27633 27636 27639 27642 27645 27648 27651 27654 27656 27659 27662 27665 27668 27671 27674 27676 27679 27682 27685 27688 27691 27694 27697 27700 27703 27706 27709 27712 27715 27718 27720 27723 27726 27728 27731 27734 27737 27740 27742 27745 27748 27751 27754 27756 27759 27762 27765 27768 27771 27774 27776 27779 27782 27785 27788 27791 27794 27797 27799 27802 27805 27808 27810 27813 27816 27819 27822 27824 27827 27830 27832 27835 27838 27841 27844 27847 27850 27853 27855 27858 27861 27864 27867 27869 27872 27874 27877 27880 27883 27886 27889 27892 27895 27898 27901 27904 27907 27910 27913 27916 27918 27921 27924 27927 27930 27933 27936 27939 27941 27944 27947 27949 27952 27955 27957 27960 27963 27966 27969 27972 27975 27978 27981 27984 27986 27989 27992 27995 27997 28000 28003 28006 28009 28012 28015 28018 28021 28024 28026 28029 28032 28035 28038 28041 28044 28047 28050 28053 28056 28059 28061 28064 28067 28070 28072 28075 28078 28081 28084 28087 28090 28093 28096 28099 28102 28105 28107 28110 28113 28116 28119 28122 28125 28128 28131 28134 28137 28139 28142 28145 28148 28151 28154 28156 28159 28162 28165 28168 28171 28174 28177 28180 28182 28185 28188 28190 28193 28196 28198 28201 28204 28207 28210 28212 28214 28217 28220 28223 28226 28228 28231 28234 28237 28240 28242 28245 28248 28250 28253 28256 28259 28262 28264 28267 28270 28272 28275 28278 28281 28284 28287 28289 28292 28295 28298 28301 28304 28307 28310 28313 28315 28318 28320 28323 28326 28329 28332 28335 28338 28341 28344 28347 28349 28351 28354 28357 28360 28363 28366 28369 28371 28374 28377 28379 28382 28385 28387 28390 28392 28395 28398 28401 28403 28406 28409 28411 28414 28417 28420 28423 28426 28429 28432 28435 28437 28439 28442 28445 28447 28449 28452 28455 28458 28461 28463 28466 28469 28472 28474 28477 28479 28482 28484 28486 28488 28491 28493 28496 28499 28502 28504 28507 28510 28513 28516 28519 28522 28525 28528 28531 28533 28536 28539 28541 28544 28547 28550 28553 28556 28559 28561 28564 28567 28570 28573 28576 28579 28581 28583 28585 28588 28591 28594 28597 28600 28603 28606 28609 28612 28615 28618 28620 28623 28626 28629 28632 28634 28637 28640 28643 28646 28649 28652 28655 28658 28660 28663 28666 28668 28671 28674 28677 28679 28682 28685 28688 28691 28694 28697 28700 28703 28706 28708 28711 28714 28717 28720 28723 28726 28729 28732 28734 28737 28740 28743 28745 28748 28751 28753 28756 28759 28762 28764 28767 28769 28772 28775 28777 28780 28782 28785 28788 28790 28793 28796 28799 28802 28805 28808 28810 28813 28816 28818 28821 28824 28827 28830 28833 28836 28839 28842 28845 28848 28851 28854 28857 28860 28863 28866 28869 28872 28875 28878 28881 28884 28887 28890 28893 28896 28899 28902 28905 28908 28911 28914 28917 28920 28923 28926 28929 28932 28935 28938 28941 28944 28947 28950 28953 28956 28959 28962 28965 28968 28971 28974 28977 28980 28983 28986 28989 28992 28995 28998 29001 29004 29007 29010 29013 29016 29019 29022 29025 29028 29031 29034 29037 29040 29043 29046 29049 29052 29055 29058 29061 29064 29067 29070 29073 29076 29079 29082 29085 29088 29091 29094 29097 29100 29103 29106 29108 29111 29114 29117 29120 29122 29125 29128 29131 29134 29137 29140 29143 29146 29149 29152 29155 29158 29160 29162 29165 29168 29171 29174 29177 29180 29183 29186 29189 29192 29195 29198 29201 29204 29207 29209 29212 29215 29218 29220 29223 29226 29229 29232 29235 29238 29241 29244 29247 29250 29252 29255 29257 29260 29263 29266 29269 29272 29275 29278 29281 29284 29287 29290 29293 29296 29299 29302 29305 29308 29311 29314 29317 29320 29323 29326 29329 29331 29334 29337 29340 29343 29345 29348 29351 29354 29357 29360 29363 29366 29369 29371 29374 29377 29380 29383 29386 29389 29392 29395 29398 29401 29404 29407 29410 29413 29416 29419 29422 29425 29428 29431 29434 29437 29440 29443 29446 29449 29452 29455 29458 29461 29464 29467 29470 29473 29476 29479 29482 29485 29488 29491 29494 29497 29500 29503 29506 29509 29512 29515 29518 29520 29523 29526 29529 29532 29535 29538 29541 29544 29547 29550 29553 29556 29559 29562 29565 29568 29571 29574 29577 29580 29583 29586 29589 29592 29595 29598 29601 29604 29607 29610 29613 29616 29618 29621 29624 29627 29630 29633 29636 29638 29641 29644 29647 29650 29653 29656 29658 29661 29664 29666 29669 29671 29674 29676 29679 29682 29685 29688 29690 29693 29696 29699 29702 29705 29707 29710 29713 29716 29718 29720 29723 29726 29729 29731 29734 29737 29740 29743 29745 29747 29750 29753 29756 29759 29762 29765 29768 29771 29774 29777 29780 29783 29786 29789 29791 29794 29797 29799 29802 29805 29807 29809 29812 29815 29818 29821 29824 29827 29830 29833 29836 29839 29841 29844 29846 29849 29852 29855 29858 29861 29864 29867 29870 29873 29876 29879 29881 29884 29887 29890 29893 29896 29899 29902 29904 29907 29910 29913 29916 29919 29922 29925 29928 29931 29934 29937 29940 29943 29946 29949 29952 29955 29958 29960 29962 29965 29968 29971 29974 29977 29980 29983 29986 29989 29992 29995 29998 30001 30004 30007 30010 30013 30015 30018 30021 30024 30027 30030 30033 30036 30039 30042 30044 30047 30050 30053 30056 30059 30062 30065 30068 30071 30074 30077 30080 30082 30085 30088 30091 30094 30096 30099 30101 30104 30107 30110 30113 30116 30119 30122 30125 30128 30130 30133 30136 30139 30142 30144 30147 30150 30153 30156 30158 30161 30163 30166 30169 30172 30175 30178 30181 30184 30187 30190 30193 30196 30199 30201 30204 30207 30210 30213 30216 30219 30222 30225 30228 30231 30234 30237 30240 30243 30246 30248 30251 30253 30256 30259 30261 30264 30267 30270 30272 30275 30277 30280 30283 30285 30288 30291 30293 30296 30298 30301 30304 30307 30310 30313 30316 30319 30321 30323 30326 30329 30332 30335 30337 30339 30342 30345 30347 30349 30352 30354 30357 30360 30362 30364 30367 30370 30372 30375 30378 30380 30383 30386 30389 30392 30395 30398 30401 30404 30406 30409 30412 30414 30417 30419 30422 30425 30428 30430 30433 30436 30439 30442 30445 30448 30451 30454 30456 30459 30462 30465 30468 30471 30474 30477 30480 30483 30486 30489 30492 30495 30498 30501 30504 30507 30510 30513 30516 30519 30522 30524 30527 30530 30533 30536 30539 30542 30545 30548 30551 30554 30557 30560 30563 30566 30569 30572 30575 30578 
</DataArray>
<DataArray type="UInt32" Name="types" format="ascii">
5 5 5 5 5 5 3 5 5 5 3 5 5 5 3 5 5 5 5 5 5 3 3 5 5 5 5 3 3 5 3 3 5 3 5 5 5 3 5 5 3 5 5 5 5 5 5 5 3 5 5 5 5 5 5 5 5 3 5 5 3 5 3 5 3 5 3 5 5 5 5 5 5 5 5 5 5 5 5 5 5 5 5 3 5 5 5 5 5 5 5 5 3 5 5 3 3 5 5 5 5 5 5 5 5 5 5 5 5 3 5 5 5 5 5 3 5 5 3 5 5 5 5 5 5 5 5 5 5 5 5 5 5 5 5 5 5 5 3 5 5 5 5 5 3 5 5 5 5 5 5 5 5 5 5 5 5 5 5 5 5 5 5 5 5 5 5 5 5 3 5 3 5 5 5 3 5 5 5 3 5 5 5 3 3 5 5 3 5 5 5 5 3 5 5 5 5 5 3 5 5 5 5 3 5 3 5 5 3 5 5 5 3 5 5 3 5 5 5 5 5 5 5 5 5 5 3 5 5 3 5 5 5 5 5 5 5 3 5 5 5 5 5 5 5 5 5 5 5 5 5 5 5 5 5 5 5 5 5 3 5 3 5 5 5 5 5 3 5 5 5 5 5 5 5 5 3 5 5 5 3 5 5 3 5 5 5 5 3 5 5 3 5 5 5 5 5 3 5 3 5 5 5 5 5 5 5 5 5 5 5 5 5 5 5 5 5 5 3 5 5 5 5 5 3 3 5 5 5 5 5 5 5 5 5 5 3 5 5 5 5 5 5 5 5 5 3 5 5 3 3 5 5 5 3 5 5 3 5 5 5 5 5 5 5 5 5 5 5 5 5 5 5 3 5 5 5 5 5 5 5 5 3 5 5 3 5 5 5 5 3 5 5 5 5 5 5 5 5 5 5 5 5 5 5 3 3 5 5 3 3 5 3 5 3 5 3 5 5 3 5 5 5 5 5 5 5 5 5 3 3 5 5 3 5 5 5 5 5 3 5 5 3 5 5 5 5 3 5 5 5 3 5 5 5 3 5 3 5 5 3 5 5 5 5 5 5 5 5 5 5 5 3 5 5 5 5 5 5 3 5 5 5 3 5 5 5 5 5 5 5 3 5 5 5 5 5 3 5 3 5 5 5 5 5 3 3 5 5 5 3 3 5 3 5 5 5 5 5 5 5 3 5 5 5 5 5 5 5 5 5 5 5 5 5 5 3 5 5 3 5 3 5 5 5 5 5 5 5 5 5 5 5 5 5 5 3 5 5 5 5 5 5 5 5 5 5 5 5 5 5 5 5 3 5 5 5 5 5 5 5 5 5 5 5 3 3 5 5 5 5 5 5 5 5 5 5 5 5 5 5 5 5 3 5 5 5 5 5 5 5 3 5 5 5 5 5 5 5 5 3 5 5 5 3 5 5 5 5 5 5 5 5 5 5 5 5 5 5 5 5 5 5 5 5 5 5 5 5 5 5 5 5 3 5 3 5 5 5 5 5 5 5 5 5 5 5 5 5 3 5 5 5 3 5 5 5 5 5 5 5 5 5 5 5 5 5 3 3 5 5 5 5 5 5 5 3 5 5 5 5 5 5 5 5 5 5 5 3 5 5 5 5 5 5 5 3 5 5 5 5 5 5 5 5 5 5 5 5 5 5 5 5 5 3 5 5 5 5 5 5 5 5 5 5 3 5 5 5 5 5 3 5 5 5 3 5 5 5 5 3 5 5 5 5 5 5 5 3 5 3 5 5 3 5 3 5 5 5 5 5 5 5 5 5 5 5 5 5 5 5 5 5 5 5 5 5 5 5 5 5 5 5 5 5 5 5 5 5 5 5 3 5 3 3 5 5 5 5 5 5 5 5 5 5 5 3 5 5 5 5 5 5 5 3 5 3 5 3 5 5 5 5 5 5 3 5 3 3 5 5 5 5 5 5 5 5 5 5 5 5 5 5 5 5 5 3 5 5 5 5 5 5 5 5 5 5 5 5 5 5 3 5 5 5 5 5 5 5 5 5 5 5 5 5 3 5 5 5 5 5 5 5 5 5 3 5 5 5 5 5 3 3 5 5 5 5 3 3 5 5 5 5 5 5 5 5 5 5 5 3 5 5 5 5 3 5 5 5 5 5 5 3 5 5 3 5 3 5 5 5 3 5 5 5 5 5 5 5 3 5 5 5 5 3 3 5 5 3 5 5 5 3 3 3 3 5 5 3 5 5 5 5 5 5 5 5 3 3 5 5 5 5 5 5 3 5 3 5 5 5 3 5 5 5 5 5 5 5 5 5 5 5 5 5 5 5 5 5 5 5 5 5 5 5 5 5 5 5 5 3 5 5 5 5 5 5 5 5 5 5 5 5 5 5 5 5 5 5 5 5 5 3 5 5 5 5 5 5 5 5 5 3 5 5 5 5 5 5 3 5 5 5 5 5 3 5 5 5 5 5 3 5 5 5 5 5 5 5 5 5 5 3 5 5 5 5 3 3 5 5 3 5 5 5 5 3 5 5 3 5 5 5 5 5 3 3 5 5 5 5 5 5 3 5 5 5 5 5 5 5 3 3 5 5 5 3 5 5 5 3 5 5 3 5 3 5 5 5 3 5 5 3 3 5 5 5 5 5 5 3 5 3 5 3 5 5 5 3 3 5 3 5 5 5 5 5 5 5 5 5 5 5 5 5 5 5 5 3 5 5 5 5 5 5 5 3 5 5 5 5 5 3 5 5 5 3 5 5 5 5 3 5 3 5 3 5 5 5 5 3 5 5 3 5 5 5 5 5 5 5 5 5 5 5 3 5 5 5 5 3 5 5 5 5 3 5 5 5 5 5 5 3 5 5 5 3 5 3 3 5 5 5 5 5 5 5 5 5 5 5 5 5 5 5 5 5 5 5 5 5 5 5 5 5 5 5 5 3 5 5 3 3 5 3 5 5 5 5 3 5 5 3 5 5 5 5 5 5 5 5 5 5 5 5 5 5 5 5 5 5 5 5 5 5 5 5 5 5 5 5 3 5 5 5 5 5 5 5 5 3 5 5 5 5 5 5 5 3 5 3 5 5 5 3 5 5 5 5 5 5 5 3 5 3 5 5 5 5 5 3 5 5 5 5 5 5 5 5 5 5 5 5 5 5 5 5 5 5 5 5 5 5 5 5 5 5 5 5 5 5 5 5 5 5 5 5 5 5 5 3 3 5 5 3 5 5 5 3 5 5 5 3 3 5 5 3 5 5 5 5 5 5 5 5 5 5 5 5 5 5 5 5 5 5 5 5 5 3 5 3 5 5 5 5 5 5 5 5 5 5 5 5 5 5 5 5 5 5 5 5 5 5 5 5 5 5 5 5 5 5 5 5 5 5 5 5 5 5 5 5 5 5 5 5 5 3 5 3 5 3 5 5 3 5 5 5 5 5 5 5 5 5 5 5 5 5 5 5 5 5 5 5 5 5 5 5 5 5 5 5 3 5 5 5 5 5 5 5 5 5 5 5 5 5 5 5 5 5 5 5 5 5 5 5 5 5 5 5 5 5 5 5 5 5 5 5 5 5 5 5 5 5 5 5 5 5 5 5 5 5 3 5 5 5 5 3 5 5 5 5 5 5 5 5 3 5 5 5 5 5 3 3 3 5 5 5 5 3 3 5 5 3 5 5 5 5 5 5 5 5 5 5 5 5 5 5 3 3 5 3 5 5 5 5 5 5 5 5 5 5 5 5 5 5 5 5 5 5 3 5 5 5 5 5 5 3 5 5 5 5 5 5 5 5 5 5 5 5 5 5 5 5 5 5 3 5 5 5 5 5 5 5 5 5 3 5 5 3 5 5 5 5 5 5 5 5 5 5 5 5 5 5 5 5 3 5 3 5 5 5 5 3 5 3 5 5 3 3 5 5 3 5 5 5 3 5 5 5 5 5 5 3 5 5 5 3 5 5 5 5 3 5 5 5 5 5 5 5 3 5 5 5 5 5 3 5 5 3 5 5 5 5 5 5 5 3 5 5 5 3 3 5 5 5 3 5 5 5 5 5 3 3 3 5 5 5 5 5 5 5 5 5 3 3 5 3 5 5 5 5 5 3 5 5 3 5 3 5 5 5 3 5 5 3 5 5 5 5 5 5 5 3 5 5 3 3 5 5 3 5 3 5 5 3 5 5 3 5 3 5 5 5 3 5 5 3 5 3 5 5 3 5 3 5 5 5 5 3 3 5 5 5 5 5 5 5 5 5 3 5 5 5 5 5 5 5 5 5 5 5 5 5 5 5 5 5 5 3 3 5 5 5 3 5 5 5 5 3 5 5 3 5 5 5 3 5 5 3 5 5 5 5 3 5 5 5 5 5 3 5 5 5 3 3 5 5 3 5 5 5 5 5 3 3 5 5 5 5 3 5 5 5 5 3 5 5 5 5 5 5 5 5 5 5 5 5 5 5 5 5 5 5 5 5 5 5 5 5 5 5 5 5 3 5 5 5 5 5 5 5 5 5 5 5 3 5 5 5 5 3 5 5 5 3 5 5 3 5 5 5 5 5 3 5 5 5 5 5 5 5 5 5 5 5 5 5 5 5 5 5 5 5 5 3 5 5 5 5 5 3 5 5 5 5 5 5 5 3 5 5 5 5 5 5 5 5 5 5 5 5 5 3 5 5 5 5 5 3 3 5 5 5 5 3 5 3 5 5 5 3 3 5 5 3 5 5 5 3 5 5 5 5 3 5 5 3 3 5 5 5 5 5 5 3 5 5 3 5 5 5 5 3 5 5 5 5 5 5 5 5 5 5 5 5 5 5 5 5 5 5 5 3 5 3 5 5 5 3 5 3 5 3 5 5 3 5 5 3 3 3 5 5 5 3 5 5 5 5 5 5 3 5 5 5 5 5 5 5 3 5 3 5 5 5 5 5 5 5 3 5 5 5 5 5 5 5 5 5 5 5 3 5 5 3 5 5 5 5 5 5 5 5 5 5 5 5 5 5 5 5 3 5 5 5 5 5 5 5 5 5 5 5 5 5 5 5 5 5 5 5 5 5 3 5 5 5 3 5 5 5 5 5 5 5 5 5 5 3 5 5 5 5 5 5 5 5 5 5 3 5 5 5 5 5 5 3 5 5 5 3 5 5 5 5 5 5 5 5 5 5 5 5 5 5 5 5 5 5 5 5 5 3 5 5 5 5 5 3 5 5 3 5 5 5 5 5 5 3 5 5 5 5 3 5 5 5 5 5 5 5 5 5 5 5 5 5 5 5 5 5 5 3 5 5 5 5 5 3 5 5 5 3 5 3 5 5 5 5 5 5 5 3 5 5 5 3 3 5 5 5 5 5 3 5 5 5 3 5 5 5 5 5 5 5 5 5 5 5 5 5 5 5 3 5 5 5 5 5 5 3 5 5 5 5 5 5 5 5 5 5 5 3 5 5 5 5 5 5 5 5 5 3 5 5 5 5 3 3 5 5 5 5 5 5 5 5 3 3 5 3 5 5 5 5 5 3 5 5 5 5 5 5 3 5 3 5 5 5 5 5 5 5 5 5 5 3 5 5 5 5 5 5 3 5 5 5 5 5 5 5 5 3 5 5 5 5 5 3 5 5 3 5 5 5 5 5 5 3 5 5 5 5 5 5 5 5 3 5 5 5 5 3 5 5 5 5 5 5 5 5 5 5 3 5 5 5 5 5 5 5 5 5 3 5 5 5 5 3 5 5 5 5 5 5 5 5 3 5 3 5 5 5 3 5 5 5 5 5 5 5 5 3 5 5 5 3 5 5 5 3 5 5 3 5 5 5 5 5 5 5 5 5 5 5 5 5 5 5 5 5 5 5 5 5 5 5 5 5 5 5 5 5 5 5 5 5 5 5 5 5 5 5 5 5 5 5 5 5 5 5 5 5 5 5 5 5 3 5 5 5 3 5 5 5 5 5 5 3 5 3 5 5 5 5 3 3 5 5 5 5 5 5 5 5 5 5 5 5 5 5 5 5 5 5 5 5 5 5 3 5 5 3 5 5 5 3 5 5 5 5 5 5 5 5 5 5 5 5 5 5 3 5 3 5 3 5 5 5 5 5 5 5 5 5 5 5 5 5 5 5 5 5 3 5 5 5 5 5 5 5 5 5 5 5 5 5 5 5 5 5 5 5 5 5 5 5 5 5 5 5 5 5 5 5 5 5 3 5 5 5 5 5 5 3 5 5 3 5 3 5 5 3 5 5 5 3 5 5 5 5 5 5 5 5 5 5 5 5 5 5 5 5 5 5 5 5 5 5 5 5 5 3 5 5 5 5 3 5 5 3 5 5 5 5 5 5 5 5 5 5 5 5 5 5 5 5 5 5 5 5 5 5 5 5 5 5 5 5 5 5 3 5 5 5 3 5 5 5 5 3 5 5 5 5 5 3 5 5 5 5 3 5 5 5 5 5 5 5 5 5 5 5 5 5 5 3 3 5 3 5 3 5 5 5 5 5 5 5 5 5 5 5 5 5 5 5 5 5 5 5 5 5 5 5 5 5 3 3 5 5 3 5 5 3 5 5 5 5 5 5 5 5 5 5 5 3 5 5 3 5 5 5 5 5 5 5 5 5 5 5 5 5 5 3 3 5 3 3 5 5 5 5 3 5 5 5 3 3 5 5 5 5 5 5 5 3 5 5 5 5 5 5 5 5 5 5 5 5 5 5 5 5 3 5 5 5 5 3 5 5 5 5 5 5 5 3 5 5 5 5 5 5 5 3 5 5 3 5 5 5 5 5 5 5 5 5 5 5 5 5 5 5 3 5 5 5 5 5 5 5 5 3 5 5 5 5 5 5 5 3 5 5 5 5 5 3 5 5 5 5 3 5 5 5 5 5 5 5 5 5 5 5 5 3 5 5 5 5 5 5 5 5 5 5 5 5 5 5 3 5 5 5 5 5 5 5 5 5 5 5 5 5 3 3 5 5 3 5 5 5 5 3 5 5 5 3 5 5 3 5 5 5 5 3 5 5 5 5 5 5 5 5 5 5 5 5 5 5 5 5 5 5 5 5 5 5 5 5 5 5 5 5 5 5 5 5 5 5 3 5 5 5 3 5 3 5 5 5 5 5 5 5 5 5 5 5 5 5 5 3 5 5 5 5 5 5 5 5 3 5 5 5 3 5 5 5 5 5 5 5 3 5 3 5 5 5 5 5 5 5 5 5 5 5 5 5 5 3 5 5 3 5 5 5 5 5 5 5 3 5 5 5 5 5 5 5 5 5 5 5 5 5 5 5 5 5 5 5 5 5 5 5 5 5 5 5 3 5 5 3 5 5 5 3 5 5 3 5 5 5 5 5 5 5 5 5 5 5 5 5 5 5 5 5 5 5 3 5 5 5 5 5 5 5 5 5 5 5 5 5 3 5 5 5 5 5 5 5 5 5 5 5 5 5 5 5 5 5 5 5 3 5 5 5 5 5 5 5 5 5 5 5 5 5 5 5 5 3 5 5 3 5 5 5 3 5 5 3 5 5 5 5 5 5 5 5 5 5 5 5 5 5 3 5 5 3 5 5 5 5 5 5 5 5 5 5 5 5 5 5 5 5 5 5 5 5 5 5 5 5 5 5 5 5 5 5 5 5 5 5 5 5 3 5 5 5 5 3 5 5 5 5 5 5 5 5 5 5 5 5 5 5 5 3 5 3 3 5 5 3 5 3 5 5 5 5 5 5 5 5 3 5 5 3 5 5 5 5 3 3 5 3 5 5 5 5 5 5 5 5 5 5 5 5 5 5 5 5 5 5 5 5 5 3 5 5 5 5 5 5 5 5 5 5 5 5 5 5 5 5 5 5 5 5 5 5 5 5 5 3 5 5 5 5 5 3 5 5 5 5 5 5 5 5 5 3 5 5 5 5 5 5 5 5 5 5 5 5 5 5 5 5 5 3 3 5 5 3 5 5 5 3 5 5 5 5 5 5 5 5 5 5 3 5 5 3 5 3 5 5 5 5 3 5 5 5 3 5 5 5 5 5 5 3 5 5 5 5 5 5 3 5 5 5 5 5 5 5 5 5 5 5 5 5 5 3 5 5 3 5 5 5 3 3 5 5 5 5 5 5 5 5 5 5 3 5 5 5 3 5 5 5 5 3 5 5 5 5 5 5 5 5 3 5 5 5 5 5 3 3 5 5 5 3 5 3 3 5 5 5 5 5 3 5 5 5 5 5 5 3 5 5 5 5 5 5 5 3 5 5 3 5 5 3 5 5 5 5 5 5 5 5 5 5 5 5 5 5 3 5 5 5 3 5 5 3 5 5 5 5 3 5 5 5 5 5 5 5 5 3 5 5 5 5 3 5 5 5 5 5 5 5 5 3 5 5 5 5 5 5 5 5 5 3 5 5 5 3 5 5 3 5 5 3 5 5 5 5 5 5 5 5 5 3 5 5 5 5 5 5 5 5 5 5 5 5 5 5 5 5 3 5 5 5 5 5 5 5 5 5 5 5 5 5 5 5 5 5 5 5 5 5 5 5 5 5 5 3 5 3 5 5 5 5 5 5 5 5 5 5 3 5 5 3 5 5 5 5 5 5 5 5 5 5 5 5 5 5 5 5 5 5 5 5 5 3 5 5 5 5 5 5 5 5 5 3 5 3 5 5 5 5 5 5 5 3 5 3 5 5 5 5 5 5 5 5 5 5 5 3 5 5 5 5 3 5 3 5 5 5 5 5 5 3 5 5 3 5 5 3 5 5 5 3 3 3 5 5 5 5 5 5 5 5 5 5 5 5 5 3 5 5 5 5 5 5 5 3 5 3 5 3 5 5 3 3 5 5 5 5 5 5 3 5 5 5 5 3 5 3 5 3 5 3 5 5 5 5 3 5 5 5 5 5 3 5 5 5 5 5 5 5 5 5 5 5 5 5 5 3 5 5 5 5 5 3 5 5 5 3 5 5 5 5 5 5 5 5 5 5 5 5 5 5 5 5 5 3 5 5 5 5 3 5 5 5 5 5 5 3 5 5 5 5 5 5 5 5 5 5 3 5 5 3 5 3 5 5 5 5 5 5 5 5 5 5 5 3 5 5 5 5 5 5 3 5 3 3 5 3 5 5 5 5 5 5 5 3 5 5 5 5 5 5 5 5 5 5 5 5 5 5 5 5 3 5 5 5 5 5 5 5 5 5 5 3 5 5 5 5 5 5 5 5 5 5 3 5 5 5 5 3 5 5 5 5 5 3 5 5 5 5 3 5 5 5 5 5 5 5 5 5 5 5 5 5 5 5 5 5 5 3 5 5 5 5 5 5 5 5 3 5 3 3 5 5 5 5 5 3 5 5 5 5 5 5 5 5 5 5 5 5 5 5 3 5 5 3 5 3 3 5 5 5 5 5 5 3 5 5 5 5 3 5 3 5 5 3 5 5 5 5 5 5 3 3 5 5 5 5 5 5 5 5 5 5 5 5 5 5 5 3 5 5 5 5 5 5 5 3 5 3 5 5 5 3 5 3 5 5 5 5 5 5 5 5 3 5 5 5 5 5 3 5 3 5 5 5 5 3 5 5 5 5 5 3 5 5 5 5 5 5 5 5 5 5 5 5 5 5 5 5 5 5 5 5 5 5 5 5 3 5 5 5 3 5 3 5 5 5 3 5 5 5 5 5 5 5 5 5 5 5 5 5 5 5 5 5 3 3 3 3 5 5 5 5 5 5 3 5 5 5 3 5 5 5 5 5 5 5 5 5 5 3 3 3 5 5 3 3 5 5 5 5 5 5 5 5 5 3 5 5 5 5 5 5 5 5 3 3 5 5 5 3 5 5 5 5 5 5 5 5 5 5 5 3 5 3 5 5 5 5 5 3 3 5 5 3 3 5 5 5 5 5 5 5 5 5 5 5 5 5 5 5 5 5 5 5 5 5 5 5 5 5 5 5 5 5 5 5 5 5 5 5 5 5 5 5 5 5 5 3 3 5 5 5 5 5 5 5 5 5 5 5 5 5 5 5 5 5 5 5 5 3 5 5 5 5 5 5 5 5 5 5 5 5 5 5 5 5 3 5 3 5 5 5 5 5 5 5 5 3 5 5 5 5 5 5 5 5 5 5 5 3 5 5 3 5 5 3 5 5 5 5 3 5 5 5 5 3 5 5 3 5 3 5 5 5 5 5 3 5 5 5 5 5 5 5 3 5 5 5 5 5 5 5 5 5 5 5 5 5 5 5 5 5 5 5 5 5 5 5 5 3 5 5 5 3 5 5 3 5 5 5 3 5 5 5 5 3 5 3 5 5 5 5 5 5 5 5 3 5 5 5 5 5 5 5 5 5 5 3 5 5 3 5 5 3 5 5 3 3 5 5 5 5 5 5 5 3 3 5 5 5 3 5 5 3 3 5 5 5 3 3 5 3 5 5 3 5 5 5 5 3 5 3 3 5 5 5 3 5 3 3 5 3 3 3 3 5 3 5 3 5 3 5 5 5 3 5 5 3 5 3 3 5 5 5 5 3 5 3 3 5 5 5 3 3 5 5 3 3 5 5 5 5 3 5 5 5 5 3 5 5 5 5 3 5 3 5 3 5 3 5 3 5 3 5 5 5 5 5 3 5 5 3 3 3 5 5 3 3 5 3 5 5 3 5 5 5 5 5 5 3 5 5 3 5 3 5 5 5 5 3 5 3 5 3 5 5 5 3 5 5 3 5 3 5 3 5 5 5 5 5 3 5 5 5 5 5 5 5 5 5 5 3 5 5 5 5 3 5 5 3 5 5 5 5 5 3 5 5 3 5 5 5 3 5 3 5 5 5 3 5 5 5 5 3 5 5 5 5 3 3 5 5 5 5 5 5 3 5 5 3 5 5 5 5 5 5 5 5 5 5 5 5 5 5 5 5 5 5 5 5 5 5 5 5 5 5 5 5 5 5 5 5 5 5 5 5 5 5 5 5 5 5 5 5 5 5 5 5 5 5 5 5 5 5 5 5 5 5 3 5 5 5 5 5 5 5 5 5 5 5 5 3 5 5 3 5 5 5 3 5 5 5 5 5 5 5 5 5 5 5 5 5 5 5 3 5 5 5 5 5 5 5 5 5 5 5 5 5 5 5 5 3 5 5 5 5 5 5 5 5 5 5 5 5 5 3 5 5 3 5 5 3 5 3 5 5 5 5 5 5 5 3 5 5 5 5 5 5 5 5 5 5 5 5 3 5 5 5 3 5 5 5 5 5 5 5 5 5 3 5 5 5 5 5 5 3 5 5 5 5 5 5 3 5 5 5 3 5 5 5 5 5 5 5 3 5 5 5 5 5 5 5 5 5 5 3 5 5 5 5 5 5 5 5 5 5 5 5 5 5 5 5 3 5 3 5 5 5 5 5 5 5 5 5 5 3 5 3 5 5 5 5 5 5 5 5 5 5 5 3 5 5 5 5 5 5 5 5 5 5 5 3 5 5 5 5 5 5 5 3 5 5 5 5 5 5 5 3 5 5 5 5 5 5 5 5 5 5 5 3 5 5 5 5 5 5 5 5 3 5 3 5 5 5 5 5 5 5 5 5 5 3 5 5 5 3 5 5 5 5 5 5 5 5 5 3 5 5 5 5 5 5 5 5 5 5 5 5 5 5 5 5 3 5 5 5 5 5 5 5 5 5 5 5 5 5 5 5 5 5 5 3 5 5 3 5 5 3 5 5 5 5 5 3 5 5 5 5 5 5 5 5 5 5 5 5 5 5 5 5 5 5 5 5 5 5 5 5 5 5 5 5 5 5 5 5 5 5 5 5 5 5 5 5 5 5 5 5 5 5 5 5 5 5 5 5 5 5 5 5 5 5 5 3 5 5 3 5 5 5 5 5 5 5 5 5 5 5 5 5 5 5 5 5 5 5 5 5 5 5 5 3 3 5 5 5 5 5 5 5 5 5 5 5 5 5 5 5 5 3 3 5 5 5 5 5 5 5 3 5 3 5 5 3 3 5 5 5 5 5 5 5 5 5 5 5 3 5 3 5 5 5 3 5 5 5 3 5 3 5 5 5 5 5 3 3 5 5 5 5 5 5 5 5 5 5 5 5 5 5 5 5 5 5 5 5 5 5 5 5 5 5 5 5 5 5 5 5 5 5 5 5 5 5 5 5 5 5 5 5 5 5 5 5 5 5 5 5 5 5 5 5 5 5 5 5 5 5 5 5 5 5 5 5 5 5 5 5 5 5 5 5 5 5 5 5 5 5 5 5 5 5 5 5 5 5 5 5 5 5 5 5 5 5 5 5 5 5 5 5 3 3 5 3 5 3 5 5 3 5 5 5 5 3 5 5 5 5 5 5 5 3 3 3 5 5 5 5 5 3 3 5 5 5 5 5 5 5 5 5 5 5 5 5 5 5 5 5 5 5 5 5 5 5 5 5 5 5 5 5 5 5 5 5 5 3 5 5 3 5 5 5 5 5 5 5 5 5 5 5 3 5 5 5 5 5 5 5 3 5 5 5 5 5 5 5 5 5 5 5 5 5 5 5 5 3 5 5 3 5 5 5 5 5 5 5 5 5 5 5 5 5 5 5 5 5 5 5 5 5 5 5 3 5 5 3 5 5 3 5 5 5 5 5 5 5 3 5 5 5 5 5 5 3 5 5 3 5 5 5 5 3 5 3 5 5 3 5 5 5 5 3 5 3 5 5 3 5 5 5 5 5 5 5 5 5 5 5 5 3 5 5 5 3 5 5 3 5 5 5 5 3 5 5 5 5 5 5 5 5 5 5 3 5 5 5 5 5 5 5 5 5 5 3 5 5 5 5 5 5 5 5 5 5 5 5 3 5 5 3 5 5 5 5 5 5 5 5 5 5 3 5 5 5 5 5 3 5 3 3 5 5 3 5 5 5 5 5 5 5 5 5 3 3 5 5 5 5 5 5 3 5 5 5 5 5 5 5 5 5 5 5 5 5 5 5 5 5 5 5 5 5 5 5 5 5 3 5 5 5 5 5 5 5 5 5 5 5 5 5 5 5 5 5 5 5 5 5 5 5 5 5 5 5 5 5 5 5 5 5 5 5 5 5 5 5 5 3 5 5 5 5 5 5 5 5 5 5 3 5 5 5 3 5 3 5 5 5 3 5 5 5 3 5 3 5 3 5 3 3 5 5 3 5 5 5 3 5 5 5 5 5 3 5 5 5 5 3 5 5 5 3 5 5 5 5 3 5 3 5 5 5 5 5 5 5 5 5 5 5 5 5 5 3 5 5 5 5 3 5 5 3 5 5 3 3 5 5 3 5 3 5 5 5 3 3 3 3 5 5 3 5 5 5 5 3 5 3 5 5 3 3 3 5 3 5 5 3 3 3 5 5 5 5 5 5 5 5 5 3 3 5 5 5 5 3 3 5 5 5 3 5 3 5 5 5 5 5 5 5 5 5 5 5 3 5 5 5 5 5 5 5 5 5 5 5 5 5 5 5 5 5 5 5 5 5 5 5 3 5 5 5 5 5 5 5 5 5 5 5 5 5 5 5 5 3 5 5 3 5 5 5 5 5 5 5 5 5 3 5 5 5 3 3 5 5 3 5 5 5 5 5 3 5 3 5 5 5 3 5 5 5 5 5 5 5 3 5 5 3 5 5 5 5 3 5 5 5 3 3 5 5 3 5 5 5 3 5 5 5 5 5 5 5 3 5 5 3 5 3 3 3 5 3 5 3 3 5 5 5 5 5 5 3 5 5 3 5 5 5 5 5 5 5 5 5 5 5 5 5 5 5 5 5 5 5 5 5 5 5 5 5 5 5 5 5 5 5 5 5 5 5 3 3 5 5 5 5 5 5 5 5 3 3 3 3 5 5 3 5 5 5 5 5 5 5 5 3 5 5 3 5 5 5 3 5 5 5 5 3 5 5 5 5 5 5 5 5 5 5 5 5 5 5 3 5 5 5 5 5 3 5 5 5 5 5 5 5 5 3 5 5 5 3 3 5 5 3 3 5 5 5 5 5 3 5 5 5 5 5 5 3 5 3 5 5 5 5 5 5 5 5 3 3 5 3 3 3 5 3 5 5 5 5 5 5 3 5 5 5 5 5 5 5 3 5 5 5 5 5 5 5 5 5 5 5 5 5 5 5 5 5 5 5 5 5 5 5 5 5 5 5 5 5 5 5 5 5 5 5 5 5 5 5 5 5 5 5 5 5 5 5 5 5 5 5 5 5 5 5 5 5 3 5 5 5 5 5 5 5 3 5 5 3 5 5 5 3 5 3 5 5 3 5 5 5 5 5 5 5 3 5 5 5 3 5 5 5 5 5 5 5 3 5 3 5 5 5 5 5 5 5 5 5 5 5 5 5 5 5 5 5 5 5 5 5 5 5 5 5 3 3 5 3 5 5 5 5 5 5 5 3 5 3 5 3 3 3 5 5 3 5 5 3 5 5 5 3 5 5 5 5 5 5 5 3 3 5 5 3 5 5 5 3 5 5 5 5 3 5 3 5 5 5 5 5 5 3 5 3 5 5 5 5 5 3 5 5 3 5 5 5 5 5 5 5 5 5 5 5 5 5 5 5 5 3 5 5 3 3 5 3 5 5 5 5 5 5 5 5 3 5 5 5 5 5 5 5 5 5 5 5 5 5 5 5 5 3 5 5 5 3 5 5 3 5 5 5 5 5 5 3 5 5 5 5 5 5 5 5 5 5 5 5 5 5 5 5 5 5 5 3 3 5 5 5 5 5 5 5 3 5 5 5 3 5 5 3 5 3 5 5 3 5 3 3 5 3 5 3 5 3 5 5 5 5 5 5 5 5 5 5 5 5 5 5 5 3 3 5 5 5 5 5 5 5 3 5 5 5 5 5 5 5 5 5 5 5 5 5 5 5 3 5 3 5 5 5 5 5 5 3 5 5 5 3 5 5 5 3 5 5 5 5 5 5 5 5 5 5 5 5 5 5 5 5 5 5 5 5 5 3 5 5 5 5 3 5 5 5 5 5 3 5 5 5 3 5 5 5 5 5 5 5 5 5 5 5 5 3 5 5 5 5 3 5 5 5 5 5 5 5 5 3 5 5 5 5 5 5 5 3 5 5 5 5 3 5 5 5 5 5 5 5 5 3 5 5 5 5 5 5 5 5 5 3 5 5 5 5 5 5 5 5 5 5 5 5 5 5 5 5 5 5 5 5 5 5 5 5 5 5 5 5 3 5 5 5 5 5 5 5 3 5 5 5 5 5 5 5 5 5 5 5 5 5 5 5 5 5 5 5 5 5 5 5 5 5 5 5 5 5 3 5 5 5 5 5 5 5 5 5 5 5 5 5 5 5 5 5 5 5 5 5 5 5 5 5 5 5 5 5 5 5 5 3 5 5 3 5 5 5 5 3 5 5 3 5 5 5 5 3 5 5 5 3 5 5 5 3 5 5 5 5 5 5 5 5 5 5 3 5 5 3 5 5 5 5 5 5 3 5 5 5 5 5 3 5 5 5 5 3 5 5 5 5 5 5 5 5 5 5 3 5 5 5 5 5 5 5 5 5 3 5 5 5 5 5 5 5 5 5 5 5 5 5 3 5 5 5 5 5 5 5 3 5 5 5 5 5 3 5 5 5 5 5 5 5 5 5 5 5 5 5 5 3 5 5 5 5 5 5 5 5 3 5 5 5 5 5 5 5 5 5 5 5 5 5 5 5 5 5 5 5 5 5 5 5 5 5 5 5 5 5 5 5 5 5 3 5 5 5 5 3 3 5 5 3 5 5 3 5 5 3 5 5 5 5 5 5 5 5 5 5 5 5 5 5 5 5 5 5 5 3 5 5 5 5 3 5 5 5 5 5 5 5 5 5 5 5 5 5 5 5 5 5 5 5 5 5 5 5 5 5 5 5 5 5 5 5 5 5 5 5 5 5 5 5 5 5 5 5 5 5 5 5 5 5 5 5 5 5 5 5 5 5 5 5 5 5 5 5 5 5 5 5 5 5 5 5 3 5 5 5 5 3 5 3 5 5 3 5 5 5 5 3 5 5 3 5 5 5 5 5 5 5 5 5 5 5 5 5 5 5 5 5 5 5 5 5 5 5 5 5 5 5 5 5 5 5 5 5 5 5 5 5 5 5 5 5 5 5 5 5 5 5 5 5 5 5 5 5 5 5 5 5 5 5 5 3 5 5 5 5 5 5 5 5 5 3 5 5 5 5 5 5 5 3 5 5 5 5 5 5 5 5 5 5 5 5 5 5 5 5 5 5 5 3 3 5 5 3 5 3 5 5 5 5 5 5 5 5 5 5 5 5 5 5 5 5 5 5 5 5 5 5 5 5 5 5 5 5 5 5 5 5 5 5 5 5 5 5 5 5 5 5 5 5 5 5 5 5 5 5 5 5 5 5 5 3 3 5 5 5 5 5 5 5 5 5 5 5 5 5 5 5 5 5 5 5 5 3 5 5 5 5 5 5 5 5 5 5 3 5 5 5 3 5 5 5 5 5 5 3 5 5 5 5 5 5 5 5 5 5 5 5 5 3 5 5 5 5 5 5 3 3 5 3 5 5 3 5 5 5 3 5 5 5 3 5 5 5 5 5 3 5 3 5 5 5 5 3 5 5 5 5 3 5 3 5 5 3 3 5 5 5 5 5 3 5 5 5 5 5 3 3 3 5 3 5 3 5 5 5 5 5 3 5 5 5 5 5 5 5 5 3 3 5 5 3 5 5 5 5 3 5 5 3 5 5 3 5 5 5 5 5 5 5 5 5 3 5 5 5 5 5 5 5 5 3 5 5 5 5 5 5 5 5 5 3 3 5 5 5 5 5 5 5 5 5 5 5 5 5 5 5 5 5 5 5 5 5 5 5 5 5 5 5 5 5 5 5 5 5 5 5 3 5 5 5 5 3 5 5 5 5 5 5 5 5 5 5 5 5 5 5 5 5 3 3 5 5 5 5 5 5 5 5 5 3 5 5 5 5 3 5 5 3 5 5 5 5 5 5 5 5 5 5 5 5 5 3 5 5 5 5 5 5 5 5 5 5 5 5 5 5 5 5 5 5 5 5 5 5 5 5 5 3 5 5 5 5 5 3 5 5 5 3 5 5 5 3 3 5 5 5 5 5 5 5 5 5 5 5 5 5 5 3 5 5 5 3 5 5 5 5 3 3 5 5 5 5 5 5 5 5 5 5 5 5 5 5 5 5 5 5 5 5 5 5 5 3 5 5 5 5 5 5 5 5 5 3 5 5 5 5 3 5 3 5 5 5 5 3 5 5 5 5 5 5 5 5 5 5 5 5 5 5 5 3 5 5 3 5 5 5 5 5 5 5 5 5 5 3 3 5 5 5 5 3 5 5 5 3 5 5 5 5 3 3 5 3 5 3 5 3 5 5 3 5 5 3 5 5 3 5 5 5 3 5 5 3 5 3 5 3 5 5 3 5 5 5 5 5 5 5 5 5 5 5 5 5 3 5 5 5 5 5 5 5 5 5 5 5 5 5 5 5 5 3 3 5 5 5 5 5 3 5 5 5 5 3 5 5 3 5 5 5 5 3 5 5 5 5 5 5 5 5 5 5 5 5 5 5 5 5 5 5 5 5 5 5 5 5 5 5 5 5 5 5 5 5 5 5 5 5 5 5 3 5 5 5 5 5 5 5 5 5 5 5 5 5 3 5 3 5 5 5 5 3 5 5 5 5 5 5 5 5 5 5 5 5 5 5 5 5 5 5 3 5 3 5 5 3 5 5 5 3 5 5 5 5 5 5 5 5 5 5 5 5 5 5 5 5 5 5 5 5 5 5 5 5 5 5 5 3 5 5 3 5 5 5 5 5 5 5 5 5 5 5 5 5 5 5 5 5 5 5 5 5 5 5 5 5 5 5 5 5 5 5 5 5 5 5 3 5 3 5 5 5 5 5 5 5 5 5 5 5 5 5 5 5 5 5 3 3 5 5 5 5 5 3 5 5 5 5 3 5 5 5 5 3 5 5 5 5 5 5 5 5 5 5 5 5 5 5 5 5 5 5 3 5 5 5 5 5 5 3 5 5 3 5 5 5 5 5 5 5 5 5 5 5 5 3 5 5 3 5 5 5 5 5 5 5 5 3 5 5 5 5 5 5 3 5 5 3 5 5 5 5 5 5 5 5 5 5 5 5 5 5 5 5 5 5 5 5 5 5 5 5 5 5 5 5 5 5 5 5 5 5 5 5 3 5 5 5 3 5 5 3 5 5 5 5 5 5 3 5 5 5 5 5 3 5 5 5 5 5 5 3 5 5 5 5 3 5 3 5 5 3 5 5 5 3 5 5 5 5 5 5 5 5 5 5 5 5 5 3 5 5 5 5 5 5 5 5 5 5 5 5 5 5 5 5 5 5 5 5 5 5 5 5 3 5 3 5 3 5 3 5 5 5 5 3 5 5 5 5 3 5 5 5 5 5 5 5 5 5 5 5 5 5 5 3 5 5 5 3 5 5 5 3 5 5 3 5 5 5 3 5 5 5 5 3 5 5 5 5 3 5 5 5 5 5 5 5 5 5 5 3 5 5 5 5 5 3 5 3 5 5 5 5 5 3 3 5 5 3 5 3 5 5 3 5 5 5 5 5 5 5 5 5 5 5 5 5 3 5 5 5 5 5 3 5 5 5 5 5 5 5 5 5 5 3 5 3 5 5 3 5 5 3 5 3 5 3 5 5 5 5 5 3 3 5 5 5 5 5 5 5 5 5 5 5 3 5 5 5 5 5 3 5 5 5 3 5 3 5 5 5 5 5 5 5 5 5 5 5 5 5 5 5 3 5 5 5 5 3 5 5 5 5 5 5 5 5 5 5 5 5 5 5 5 5 5 5 5 5 5 5 5 3 5 5 3 5 5 5 5 5 5 5 3 5 5 3 5 3 5 5 5 5 5 5 5 5 5 3 5 5 3 5 5 5 3 5 5 5 5 5 5 5 3 5 5 5 5 3 3 5 5 5 5 5 5 5 5 5 3 5 5 5 5 5 5 5 5 5 5 5 5 5 5 5 5 3 5 3 5 5 5 3 5 5 5 5 5 5 5 5 5 5 5 5 5 3 5 5 5 5 5 3 5 5 5 3 3 5 5 5 3 5 5 3 5 5 5 5 3 3 5 5 5 3 5 5 3 5 5 5 5 3 5 3 5 5 5 3 5 5 5 5 5 5 5 5 5 5 5 5 5 5 5 5 5 5 5 5 5 3 5 5 5 5 5 5 5 5 5 3 5 5 5 3 5 3 5 5 5 5 5 5 5 5 5 5 5 3 5 5 5 5 5 3 5 5 5 5 5 3 5 5 5 5 5 5 5 5 5 5 5 5 5 5 5 5 3 5 5 5 5 5 5 5 5 5 3 5 5 5 5 5 5 5 5 5 5 5 5 5 5 5 3 5 5 5 5 5 5 5 5 5 5 5 5 5 5 5 5 5 5 5 5 5 5 5 5 5 5 5 5 5 3 5 5 5 5 3 5 3 3 5 5 5 5 5 5 3 5 3 5 5 5 3 5 5 3 5 5 5 5 5 5 3 5 5 5 5 5 5 5 3 5 5 5 5 3 5 5 5 5 5 5 3 5 5 5 5 5 5 5 5 5 5 5 5 3 5 3 5 5 5 5 5 5 5 3 3 5 5 5 5 5 5 5 5 3 5 5 5 3 5 5 3 5 5 5 5 5 5 5 5 5 5 5 5 5 5 5 5 5 5 5 5 5 5 5 5 5 3 5 5 3 5 5 5 5 5 3 5 5 3 5 3 5 5 5 3 5 5 5 5 3 5 5 3 3 5 5 5 5 5 3 5 5 3 5 5 5 5 5 3 5 5 5 5 5 5 5 5 5 3 5 5 5 5 3 5 5 5 5 5 5 3 5 3 5 5 5 3 5 3 5 5 3 5 3 5 5 5 3 5 5 5 5 5 5 5 5 5 5 5 5 5 3 5 5 5 5 3 5 5 5 5 5 5 3 5 5 5 5 5 5 5 3 5 5 5 5 5 5 3 5 5 5 5 5 5 5 3 5 5 3 5 5 5 5 5 5 5 5 5 3 3 5 5 5 5 5 5 5 5 5 5 5 5 3 5 5 5 5 5 5 5 3 5 5 5 3 5 3 5 5 3 5 5 5 5 5 3 5 5 5 3 5 5 5 5 3 5 5 5 3 5 5 5 5 5 5 5 3 5 5 3 5 5 5 3 5 5 5 3 5 5 5 5 3 5 5 5 3 5 5 5 5 5 5 5 5 5 3 5 5 5 5 5 5 5 5 5 3 5 5 5 5 3 5 5 3 5 5 5 5 5 5 5 5 5 5 5 5 5 5 5 5 5 5 5 5 5 5 5 5 5 5 3 5 5 5 5 5 5 5 5 5 5 5 3 5 5 5 3 5 5 5 5 5 5 3 5 5 5 5 5 5 5 5 5 5 5 5 5 5 5 5 5 5 5 5 5 5 5 5 5 5 3 5 3 5 5 3 3 5 5 5 5 5 5 5 5 5 5 5 5 5 5 5 5 5 3 5 5 5 5 5 5 5 5 5 5 5 5 5 5 5 5 5 5 5 5 5 5 5 5 5 5 5 5 5 5 5 5 5 5 5 5 5 5 5 5 5 5 5 5 5 5 5 5 5 5 5 5 5 5 5 5 5 5 5 5 5 3 5 5 3 5 5 5 5 3 5 5 5 5 5 5 5 5 5 5 3 5 3 5 5 5 3 5 5 5 3 5 3 5 5 5 3 5 3 5 3 5 5 5 3 5 5 5 5 3 5 3 5 5 5 5 5 3 5 3 3 5 5 5 5 5 5 3 5 5 5 3 5 5 5 5 5 5 5 5 5 5 5 5 5 5 5 5 5 5 5 3 5 5 5 3 3 5 5 5 5 5 3 5 5 5 5 5 5 5 5 5 5 5 5 5 5 3 5 5 3 5 3 5 5 5 3 5 3 5 5 3 5 5 5 5 5 5 5 5 5 5 5 3 5 5 5 5 5 5 5 5 5 5 3 3 5 5 5 5 5 5 5 3 5 5 5 5 5 5 5 5 5 5 5 5 5 5 3 5 5 5 5 5 5 5 5 5 5 3 5 5 5 3 5 3 3 5 5 5 5 5 5 5 5 3 5 5 5 5 5 5 5 5 5 3 5 3 5 3 5 5 5 5 5 5 5 5 3 5 3 5 5 5 5 5 5 3 5 5 3 5 3 5 5 5 5 5 5 5 5 5 5 5 5 5 5 3 5 5 5 5 5 5 5 5 5 5 3 5 5 5 5 5 5 3 5 5 5 5 5 5 5 5 5 5 5 5 5 5 5 5 5 5 5 5 5 5 5 5 5 3 5 5 5 5 5 3 5 5 5 5 5 5 5 5 5 5 5 3 5 5 5 5 3 5 5 5 5 5 3 5 5 5 5 5 3 5 5 3 5 5 5 5 5 5 5 5 5 5 5 5 5 5 5 5 5 5 5 5 5 5 5 5 5 5 3 5 5 3 5 5 5 5 5 5 5 5 5 5 5 5 5 5 5 3 5 5 5 5 5 5 5 5 5 3 5 5 5 5 5 5 5 3 5 5 5 5 5 3 5 5 5 5 5 5 3 5 5 5 5 3 5 5 5 5 5 5 5 3 5 5 3 5 5 3 5 5 5 5 3 5 5 5 5 5 5 5 5 3 5 5 3 5 5 5 5 5 5 5 5 5 3 5 5 5 5 5 3 5 5 5 5 3 5 5 5 3 5 5 5 5 5 5 5 5 5 5 5 3 3 5 5 5 5 5 5 5 5 5 5 5 3 5 5 5 5 5 3 5 3 3 5 3 3 5 5 3 5 5 5 5 5 5 3 5 3 3 5 5 5 5 5 3 5 5 5 5 5 5 5 5 3 5 5 5 5 3 5 5 5 5 5 3 5 5 3 5 5 5 5 5 5 5 3 5 3 5 5 5 5 5 5 5 3 3 5 5 5 5 5 5 5 3 5 5 5 5 5 5 3 5 5 5 5 5 5 5 5 5 5 5 5 5 5 3 5 5 3 5 5 5 5 3 5 5 5 5 3 5 5 5 5 5 5 3 5 5 5 5 5 5 5 3 5 5 5 3 5 5 5 5 3 5 5 3 5 5 5 5 5 5 5 3 5 5 5 5 3 5 3 5 5 5 5 5 5 5 5 5 5 5 5 5 5 3 5 5 5 5 5 5 5 3 5 5 3 5 5 3 5 5 5 5 5 5 5 5 5 3 5 5 5 3 5 5 5 5 5 5 5 5 5 3 5 5 5 5 5 5 5 5 5 5 5 3 5 5 5 3 5 5 5 5 5 5 5 5 5 5 5 3 5 5 5 5 5 5 5 5 5 5 3 5 5 5 5 5 3 5 5 5 5 5 5 5 5 3 5 5 3 5 5 3 5 5 5 5 3 3 5 5 5 5 3 5 5 5 5 3 5 5 3 5 5 5 5 3 5 5 3 5 5 5 5 5 3 5 5 5 5 5 5 5 5 3 5 3 5 5 5 5 5 5 5 5 5 3 3 5 5 5 5 5 5 3 5 5 3 5 5 3 5 3 5 5 5 3 5 5 3 5 5 5 5 5 5 5 5 3 3 5 5 3 3 5 5 5 5 3 5 5 5 3 5 3 5 3 3 3 5 3 5 5 5 3 5 5 5 5 5 5 5 5 5 3 5 5 3 5 5 5 5 5 5 3 5 5 5 5 5 5 3 3 3 5 5 5 5 5 5 5 5 5 5 5 3 5 5 5 5 3 5 5 5 5 5 5 5 5 3 5 5 3 5 5 5 3 5 5 5 5 5 5 5 5 5 3 5 5 5 5 5 5 5 5 3 5 5 5 3 5 5 3 5 5 5 3 5 3 5 5 3 5 3 5 5 3 5 5 5 5 5 5 3 5 5 3 5 5 5 5 5 5 5 5 5 5 5 5 5 5 5 5 5 5 5 5 5 5 5 5 5 5 5 5 5 5 5 5 5 5 5 5 5 5 5 5 5 5 5 5 5 5 5 5 5 5 5 5 5 5 5 5 5 5 5 5 5 5 5 5 5 5 5 5 5 5 5 5 5 5 5 5 5 5 5 5 5 5 5 5 5 5 5 5 5 5 5 5 5 5 5 5 3 5 5 5 5 3 5 5 5 5 5 5 5 5 5 5 5 5 3 3 5 5 5 5 5 5 5 5 5 5 5 5 5 5 5 3 5 5 5 3 5 5 5 5 5 5 5 5 5 5 3 5 3 5 5 5 5 5 5 5 5 5 5 5 5 5 5 5 5 5 5 5 5 5 5 5 5 3 5 5 5 5 3 5 5 5 5 5 5 5 5 3 5 5 5 5 5 5 5 5 5 5 5 5 5 5 5 5 5 5 5 5 5 5 5 5 5 5 5 5 5 5 5 5 5 5 5 5 5 5 5 5 5 5 5 5 5 5 5 5 5 3 5 5 5 5 5 5 5 5 5 5 5 5 5 5 5 5 5 5 5 5 5 5 5 5 5 5 5 5 5 5 5 5 3 5 5 5 5 5 5 3 5 5 5 5 5 5 3 5 5 3 5 3 5 3 5 5 5 5 3 5 5 5 5 5 3 5 5 5 3 3 5 5 5 3 5 5 5 5 3 3 5 5 5 5 5 5 5 5 5 5 5 5 5 5 3 5 5 3 5 5 3 3 5 5 5 5 5 5 5 5 5 5 3 5 3 5 5 5 5 5 5 5 5 5 5 5 3 5 5 5 5 5 5 5 3 5 5 5 5 5 5 5 5 5 5 5 5 5 5 5 5 5 5 3 3 5 5 5 5 5 5 5 5 5 5 5 5 5 5 5 5 5 3 5 5 5 5 5 5 5 5 5 3 5 5 5 5 5 5 5 5 5 5 5 5 3 5 5 5 5 3 5 3 5 5 5 5 5 5 5 5 5 3 5 5 5 5 3 5 5 5 5 3 5 3 5 5 5 5 5 5 5 5 5 5 5 5 3 5 5 5 5 5 5 5 5 5 5 5 5 5 5 5 3 5 3 5 5 3 5 5 5 3 5 3 5 5 3 5 5 3 5 3 5 5 5 5 5 5 5 3 3 5 5 5 5 3 3 5 5 3 3 5 3 5 5 3 3 5 5 3 5 5 3 5 5 5 5 5 5 5 5 3 5 5 3 5 3 5 5 5 3 5 5 5 5 5 5 5 5 3 5 5 5 5 5 5 5 5 5 5 5 5 5 5 5 5 5 5 5 5 5 5 3 5 5 5 5 5 5 5 5 5 5 5 5 5 5 5 5 5 5 
</DataArray>
</Cells>
<PointData Scalars="" Vectors="displacement," Tensors="">
<DataArray type="Float64" Name="displacement" NumberOfComponents="3" format="ascii">
-2.4351881320770273e-07 -0.014999082760919109 0 -9.2316604685018205e-05 -0.014675178867563568 0 1.0579562151143966e-07 -0.013430402196086681 0 -2.4351881320770273e-07 -0.014999082760919109 0 -9.2316604685018205e-05 -0.014675178867563568 0 -1.3731103399653169e-07 -0.014999339953923729 0 -9.2316604685018205e-05 -0.014675178867563568 0 -6.194937506266231e-05 -0.014732104677411352 0 -1.3731103399653169e-07 -0.014999339953923729 0 -9.2316604685018205e-05 -0.014675178867563568 0 -6.194937506266231e-05 -0.014732104677411352 0 -2.0307332759945789e-06 -0.014519049397618486 0 -6.194937506266231e-05 -0.014732104677411352 0 -5.9191070759708852e-05 -0.014755780413520015 0 -2.0307332759945789e-06 -0.014519049397618486 0 -6.194937506266231e-05 -0.014732104677411352 0 -5.9191070759708852e-05 -0.014755780413520015 0 -1.3731103399653169e-07 -0.014999339953923729 0 5.8945007243429718e-06 -0.014792055144686751 0 -3.1547898064247389e-08 -0.014999931312597485 0 0.00030122608046604917 -0.014623004890458856 0 0.0003860816543938556 -0.014791378142930656 0 0.00020284991825568574 -0.014840885642183074 0 -5.9191070759708852e-05 -0.014755780413520015 0 0.0002075591018432659 -0.014576720746004801 0 -2.0307332759945789e-06 -0.014519049397618486 0 6.6800753632568417e-05 -0.014817732808530357 0 0.00030122608046604917 -0.014623004890458856 0 0.00020284991825568574 -0.014840885642183074 0 5.8945007243429718e-06 -0.014792055144686751 0 0.00026359499589630203 -0.014599694077279865 0 -2.0307332759945789e-06 -0.014519049397618486 0 6.3210621185787338e-05 -0.014060005529645057 0 0.00029734648191650668 -0.014317856138351164 0 0.0002075591018432659 -0.014576720746004801 0 -2.0307332759945789e-06 -0.014519049397618486 0 0.00029734648191650668 -0.014317856138351164 0 6.3210621185787338e-05 -0.014060005529645057 0 0.00043858255338907726 -0.014098202511072399 0 0.00029734648191650668 -0.014317856138351164 0 4.8261643013808155e-06 -0.013997234198755546 0 0.00027302903621271386 -0.01385687708093573 0 -9.2316604685018205e-05 -0.014675178867563568 0 6.3210621185787338e-05 -0.014060005529645057 0 1.0579562151143966e-07 -0.013430402196086681 0 -9.2316604685018205e-05 -0.014675178867563568 0 -2.0307332759945789e-06 -0.014519049397618486 0 6.3210621185787338e-05 -0.014060005529645057 0 6.3210621185787338e-05 -0.014060005529645057 0 1.0579562151143966e-07 -0.013430402196086681 0 3.6237096156646243e-05 -0.013474048616864026 0 1.0579562151143966e-07 -0.013430402196086681 0 2.7227977897394123e-05 -0.01269391078153877 0 3.6237096156646243e-05 -0.013474048616864026 0 1.0579562151143966e-07 -0.013430402196086681 0 2.7227977897394123e-05 -0.01269391078153877 0 3.7728963978414041e-07 -0.011372361579720847 0 2.7227977897394123e-05 -0.01269391078153877 0 0.00069994920595819186 -0.013309457911713108 0 3.6237096156646243e-05 -0.013474048616864026 0 2.0679408596373608e-06 -0.012579388597401349 0 0.00043317115665178138 -0.013015700341582108 0 0.00043317115665178138 -0.013015700341582108 0 0.00027302903621271386 -0.01385687708093573 0 0.00074034837462794688 -0.014062870022610512 0 0.00043858255338907726 -0.014098202511072399 0 0.00064725370054050102 -0.014436821044433676 0 2.7227977897394123e-05 -0.01269391078153877 0 -2.084807886009712e-05 -0.012188652545185821 0 3.7728963978414041e-07 -0.011372361579720847 0 1.0422563291226949e-06 -0.011370067137832741 0 0.00037743847113375214 -0.010698403806032557 0 9.9935149986286752e-06 -0.010612034535123814 0 -2.084807886009712e-05 -0.012188652545185821 0 3.7728963978414041e-07 -0.011372361579720847 0 6.761826692853978e-05 -0.011808531964742471 0 0.0003364142246428848 -0.011208537753502324 0 7.9018375076028797e-05 -0.010633509376900071 0 8.904465611092415e-08 -0.011371466781938361 0 0.0003364142246428848 -0.011208537753502324 0 0.00031041480098276217 -0.01228392727766287 0 0.00064602034931724437 -0.012225917145825937 0 0.00053821376900884169 -0.012518455671428159 0 0.00043317115665178138 -0.013015700341582108 0 0.0003364142246428848 -0.011208537753502324 0 0.00043317115665178138 -0.013015700341582108 0 0.00066921611452329898 -0.012797583232201473 0 0.00036376818636805542 -0.010533979427487614 0 0.00025996469539731808 -0.010271921048982302 0 0.00045908111418900723 -0.01018953525338257 0 0.0003364142246428848 -0.011208537753502324 0 0.00066921611452329898 -0.012797583232201473 0 0.00036376818636805542 -0.010533979427487614 0 0.00025996469539731808 -0.010271921048982302 0 9.9935149986286752e-06 -0.010612034535123814 0 0.00085247713928855598 -0.014428368945306764 0 0.00086867322693503482 -0.014558469131442176 0 0.00092287753528112184 -0.014538792071414243 0 0.00025996469539731808 -0.010271921048982302 0 0.00045908111418900723 -0.01018953525338257 0 0.00019958623449616752 -0.0099894795159806253 0 0.00066921611452329898 -0.012797583232201473 0 0.00057591174493002719 -0.012258489350785492 0 0.00074034837462794688 -0.014062870022610512 0 0.00094429535899459398 -0.014298159836379958 0 0.00064725370054050102 -0.014436821044433676 0 0.00094429535899459398 -0.014298159836379958 0 0.00080132819911593524 -0.014616241076856305 0 0.00064725370054050102 -0.014436821044433676 0 0.00066921611452329898 -0.012797583232201473 0 0.0007530813806780227 -0.01518997576034813 0 0.00085247713928855598 -0.014428368945306764 0 0.00080132819911593524 -0.014616241076856305 0 0.00086867322693503482 -0.014558469131442176 0 0.00080132819911593524 -0.014616241076856305 0 0.00085383700562466141 -0.014625546660665855 0 0.00086867322693503482 -0.014558469131442176 0 0.00089685506145218655 -0.014585153088413343 0 0.00092287753528112184 -0.014538792071414243 0 0.00095122959202568872 -0.01457491750608938 0 0.00086867322693503482 -0.014558469131442176 0 0.00089685506145218655 -0.014585153088413343 0 0.00092287753528112184 -0.014538792071414243 0 0.00085383700562466141 -0.014625546660665855 0 0.00089685506145218655 -0.014585153088413343 0 0.0008811595483839053 -0.014623087017979567 0 0.00085383700562466141 -0.014625546660665855 0 0.00086867322693503482 -0.014558469131442176 0 0.00089685506145218655 -0.014585153088413343 0 0.00043858255338907726 -0.014098202511072399 0 0.00029734648191650668 -0.014317856138351164 0 0.00064725370054050102 -0.014436821044433676 0 0.00026359499589630203 -0.014599694077279865 0 0.00063278328794525362 -0.014449965135604698 0 0.0002075591018432659 -0.014576720746004801 0 0.00029734648191650668 -0.014317856138351164 0 0.00064725370054050102 -0.014436821044433676 0 0.00080132819911593524 -0.014616241076856305 0 0.00064725370054050102 -0.014436821044433676 0 0.00054744962115345537 -0.014669641188892113 0 0.00030122608046604917 -0.014623004890458856 0 0.00064725370054050102 -0.014436821044433676 0 0.00054744962115345537 -0.014669641188892113 0 0.00030122608046604917 -0.014623004890458856 0 0.00054744962115345537 -0.014669641188892113 0 0.0003860816543938556 -0.014791378142930656 0 0.0003860816543938556 -0.014791378142930656 0 0.00062194150384235346 -0.014882123880593135 0 0.00031821104107172446 -0.01498266059481375 0 0.00054744962115345537 -0.014669641188892113 0 0.0003860816543938556 -0.014791378142930656 0 0.00062194150384235346 -0.014882123880593135 0 0.00080132819911593524 -0.014616241076856305 0 0.00054744962115345537 -0.014669641188892113 0 0.00062194150384235346 -0.014882123880593135 0 -4.7568137416414337e-05 -0.014158284746019883 0 2.4831515854944502e-06 -0.014193172868024601 0 -5.7360610383494555e-05 -0.014230498062564439 0 0.00024388567202914482 -0.014604378635746264 0 9.0333548688215933e-05 -0.01455168403254088 0 -4.7568137416414337e-05 -0.014158284746019883 0 -5.7360610383494555e-05 -0.014230498062564439 0 -0.00013617782068278016 -0.014181337448890101 0 0.00089685506145218655 -0.014585153088413343 0 0.0008811595483839053 -0.014623087017979567 0 0.00095122959202568872 -0.01457491750608938 0 0.00062194130982914475 -0.01384884102957871 0 0.00025996527816576724 -0.011971975592584594 0 0.00085383700562466141 -0.014625546660665855 0 0.00062194150384235346 -0.014882123880593135 0 0.00094856571596760547 -0.014758093931261875 0 0.00024388567202914482 -0.014604378635746264 0 0.00062194130982914475 -0.01384884102957871 0 0.00080132819911593524 -0.014616241076856305 0 0.00085383700562466141 -0.014625546660665855 0 0.00062194150384235346 -0.014882123880593135 0 0.0010186200294201274 -0.014748453672923835 0 0.00062194130982914475 -0.01384884102957871 0 -4.7568137416414337e-05 -0.014158284746019883 0 2.7693210450631003e-05 -0.014136613895755226 0 2.4831515854944502e-06 -0.014193172868024601 0 0.00062194130982914475 -0.01384884102957871 0 0.0002330733143653174 -0.013038756622160492 0 2.7693210450631003e-05 -0.014136613895755226 0 2.4831515854944502e-06 -0.014193172868024601 0 6.0907482489814518e-05 -0.014190672803275621 0 2.4831515854944502e-06 -0.014193172868024601 0 4.0178128073676448e-05 -0.014236274959004022 0 6.0907482489814518e-05 -0.014190672803275621 0 2.4831515854944502e-06 -0.014193172868024601 0 4.0178128073676448e-05 -0.014236274959004022 0 -3.153014698212199e-06 -0.014243370470816745 0 2.4831515854944502e-06 -0.014193172868024601 0 -3.153014698212199e-06 -0.014243370470816745 0 -5.7360610383494555e-05 -0.014230498062564439 0 -3.153014698212199e-06 -0.014243370470816745 0 -3.2118577024609327e-05 -0.014287625023335977 0 4.3872858814740211e-06 -0.01430931457933677 0 4.0178128073676448e-05 -0.014236274959004022 0 5.4822796170400432e-05 -0.014276989164215784 0 4.3872858814740211e-06 -0.01430931457933677 0 4.0178128073676448e-05 -0.014236274959004022 0 -3.153014698212199e-06 -0.014243370470816745 0 4.3872858814740211e-06 -0.01430931457933677 0 -5.7360610383494555e-05 -0.014230498062564439 0 -0.00013075348745992675 -0.014255879436466301 0 -0.00013617782068278016 -0.014181337448890101 0 -5.7360610383494555e-05 -0.014230498062564439 0 -7.5563084688466737e-05 -0.014303452795519639 0 -0.00013075348745992675 -0.014255879436466301 0 -3.153014698212199e-06 -0.014243370470816745 0 -5.7360610383494555e-05 -0.014230498062564439 0 -3.2118577024609327e-05 -0.014287625023335977 0 -5.7360610383494555e-05 -0.014230498062564439 0 -3.2118577024609327e-05 -0.014287625023335977 0 -7.5563084688466737e-05 -0.014303452795519639 0 -3.2118577024609327e-05 -0.014287625023335977 0 -7.5563084688466737e-05 -0.014303452795519639 0 -4.4117651418007838e-05 -0.014339264284272298 0 -7.5563084688466737e-05 -0.014303452795519639 0 -0.00013075348745992675 -0.014255879436466301 0 -0.00012870230810361631 -0.014349256317638203 0 -0.00013075348745992675 -0.014255879436466301 0 -0.00020979318209769185 -0.014302462462193547 0 -0.00012870230810361631 -0.014349256317638203 0 -0.00017658199063126144 -0.014235919177945035 0 -0.00013075348745992675 -0.014255879436466301 0 -0.00020979318209769185 -0.014302462462193547 0 -0.00017658199063126144 -0.014235919177945035 0 -0.00013075348745992675 -0.014255879436466301 0 -0.00013617782068278016 -0.014181337448890101 0 -0.0001922472624216485 -0.014558205044513514 0 4.3107597003440015e-06 -0.01477035558408369 0 -0.00013405627494361179 -0.014895133726112545 0 -1.1701543690783047e-05 -0.014973632394601602 0 -4.3503868430254439e-05 -0.015049834680864977 0 -0.00017658199063126144 -0.014235919177945035 0 -0.00020979318209769185 -0.014302462462193547 0 -0.00023053050431440906 -0.014208241241082676 0 -0.00013405627494361179 -0.014895133726112545 0 3.3579853043308552e-06 -0.014923791924812161 0 -1.1701543690783047e-05 -0.014973632394601602 0 3.3579853043308552e-06 -0.014923791924812161 0 4.6930596703199858e-06 -0.014973757458763845 0 -6.5101138752002456e-06 -0.014983328238052479 0 3.3579853043308552e-06 -0.014923791924812161 0 4.6930596703199858e-06 -0.014973757458763845 0 -1.1701543690783047e-05 -0.014973632394601602 0 -1.627321781562522e-08 -0.014999953413112032 0 4.6930596703199858e-06 -0.014973757458763845 0 4.0106981255143721e-08 -0.014999973323725067 0 -1.627321781562522e-08 -0.014999953413112032 0 4.6930596703199858e-06 -0.014973757458763845 0 -6.5101138752002456e-06 -0.014983328238052479 0 4.6930596703199858e-06 -0.014973757458763845 0 4.0106981255143721e-08 -0.014999973323725067 0 5.8770444462985947e-06 -0.015005570763664875 0 1.4151732856170314e-08 -0.015000001315905009 0 3.2086299788684525e-06 -0.015006923492926746 0 5.8770444462985947e-06 -0.015005570763664875 0 -1.1701543690783047e-05 -0.014973632394601602 0 -4.3503868430254439e-05 -0.015049834680864977 0 4.6930596703199858e-06 -0.014973757458763845 0 5.8770444462985947e-06 -0.015005570763664875 0 -1.1701543690783047e-05 -0.014973632394601602 0 3.2086299788684525e-06 -0.015006923492926746 0 4.3107597003440015e-06 -0.01477035558408369 0 8.7582815418790191e-05 -0.015020649267802094 0 4.3107597003440015e-06 -0.01477035558408369 0 2.08632475380279e-05 -0.014976062224651629 0 5.6286326266396952e-05 -0.014923634353462802 0 7.1409357310594449e-05 -0.014995316020137 0 2.2033497137549443e-05 -0.015004095843981085 0 2.08632475380279e-05 -0.014976062224651629 0 7.1409357310594449e-05 -0.014995316020137 0 2.2033497137549443e-05 -0.015004095843981085 0 2.08632475380279e-05 -0.014976062224651629 0 2.3349899162390402e-08 -0.015000000796137178 0 2.0239015695333119e-09 -0.01500002120955748 0 2.2033497137549443e-05 -0.015004095843981085 0 2.3349899162390402e-08 -0.015000000796137178 0 2.08632475380279e-05 -0.014976062224651629 0 2.3349899162390402e-08 -0.015000000796137178 0 -6.5410633502362027e-08 -0.014999823961079321 0 2.08632475380279e-05 -0.014976062224651629 0 -6.5410633502362027e-08 -0.014999823961079321 0 5.6286326266396952e-05 -0.014923634353462802 0 6.6800753632568417e-05 -0.014817732808530357 0 -6.5410633502362027e-08 -0.014999823961079321 0 5.6286326266396952e-05 -0.014923634353462802 0 5.6286326266396952e-05 -0.014923634353462802 0 0.00016304189150395716 -0.014944616605669852 0 0.00020284991825568574 -0.014840885642183074 0 6.6800753632568417e-05 -0.014817732808530357 0 5.6286326266396952e-05 -0.014923634353462802 0 0.00020284991825568574 -0.014840885642183074 0 0.0003860816543938556 -0.014791378142930656 0 0.00020284991825568574 -0.014840885642183074 0 0.00031821104107172446 -0.01498266059481375 0 0.00016304189150395716 -0.014944616605669852 0 0.00020284991825568574 -0.014840885642183074 0 0.00031821104107172446 -0.01498266059481375 0 0.00016304189150395716 -0.014944616605669852 0 0.00031821104107172446 -0.01498266059481375 0 9.550717057446008e-05 -0.015038633991531547 0 9.0333548688215933e-05 -0.01455168403254088 0 4.3107597003440015e-06 -0.01477035558408369 0 -0.00017658199063126144 -0.014235919177945035 0 -0.00013617782068278016 -0.014181337448890101 0 -0.00023053050431440906 -0.014208241241082676 0 5.6286326266396952e-05 -0.014923634353462802 0 0.00016304189150395716 -0.014944616605669852 0 9.550717057446008e-05 -0.015038633991531547 0 0.00011024132961291543 -0.0071171157534610507 0 0.0001046565779701576 -0.0070443873887515952 0 6.8253091419978574e-05 -0.0071092982656623064 0 0.00016807316619301153 -0.0070631049812922815 0 0.00011024132961291543 -0.0071171157534610507 0 0.0001046565779701576 -0.0070443873887515952 0 -0.00010340050221028876 -0.0088321910441359393 0 -0.00011313271163681679 -0.0087996320346432119 0 2.9451567965049032e-05 -0.0087146385091646864 0 4.9918032547403451e-05 -0.0078855842750966774 0 5.9733056189720417e-05 -0.0079204123182317499 0 -0.00011313271163681679 -0.0087996320346432119 0 -7.8031842826995721e-05 -0.008421496231008541 0 -0.00012349391169260159 -0.0088312361050215029 0 -0.00011313271163681679 -0.0087996320346432119 0 2.9451567965049032e-05 -0.0087146385091646864 0 -7.8031842826995721e-05 -0.008421496231008541 0 5.9733056189720417e-05 -0.0079204123182317499 0 7.8702604697998454e-05 -0.0076300476466357441 0 2.9451567965049032e-05 -0.0087146385091646864 0 -7.8031842826995721e-05 -0.008421496231008541 0 0.00018965640149378374 -0.0081778191125007824 0 -7.2997144289447272e-06 -0.007988027758348816 0 -7.8031842826995721e-05 -0.008421496231008541 0 0.00018965640149378374 -0.0081778191125007824 0 -7.2997144289447272e-06 -0.007988027758348816 0 7.5561361959146185e-08 -0.007502037679953018 0 -2.2845398189246348e-07 -0.0082759875530389691 0 -7.2997144289447272e-06 -0.007988027758348816 0 7.5561361959146185e-08 -0.007502037679953018 0 5.6386377398701725e-05 -0.0076380281171218754 0 -7.2997144289447272e-06 -0.007988027758348816 0 -2.2845398189246348e-07 -0.0082759875530389691 0 -7.8031842826995721e-05 -0.008421496231008541 0 -2.2845398189246348e-07 -0.0082759875530389691 0 -7.8031842826995721e-05 -0.008421496231008541 0 -7.5124402056175443e-05 -0.0087431096936844144 0 -7.8031842826995721e-05 -0.008421496231008541 0 -0.00012349391169260159 -0.0088312361050215029 0 -7.5124402056175443e-05 -0.0087431096936844144 0 -0.00012349391169260159 -0.0088312361050215029 0 -7.5124402056175443e-05 -0.0087431096936844144 0 -5.7493683592594592e-05 -0.0091510237387976631 0 -2.2845398189246348e-07 -0.0082759875530389691 0 -7.5124402056175443e-05 -0.0087431096936844144 0 -1.4360179302762143e-07 -0.0090497883888063773 0 -7.5124402056175443e-05 -0.0087431096936844144 0 -1.4360179302762143e-07 -0.0090497883888063773 0 -5.7493683592594592e-05 -0.0091510237387976631 0 -1.4360179302762143e-07 -0.0090497883888063773 0 -5.7493683592594592e-05 -0.0091510237387976631 0 3.9984611635940196e-08 -0.009823429134224711 0 -0.00012349391169260159 -0.0088312361050215029 0 -5.7493683592594592e-05 -0.0091510237387976631 0 -9.2259772232416168e-05 -0.0089495340440521251 0 -5.7493683592594592e-05 -0.0091510237387976631 0 -9.2259772232416168e-05 -0.0089495340440521251 0 3.8727588972314676e-05 -0.0095321728994418251 0 -0.00011313271163681679 -0.0087996320346432119 0 -0.00012349391169260159 -0.0088312361050215029 0 -9.2259772232416168e-05 -0.0089495340440521251 0 -0.00011313271163681679 -0.0087996320346432119 0 -9.2259772232416168e-05 -0.0089495340440521251 0 -6.9413811068701195e-05 -0.0088315475547103058 0 -0.00010340050221028876 -0.0088321910441359393 0 -0.00011313271163681679 -0.0087996320346432119 0 -6.9413811068701195e-05 -0.0088315475547103058 0 -9.2259772232416168e-05 -0.0089495340440521251 0 -6.9413811068701195e-05 -0.0088315475547103058 0 3.2301346240739301e-05 -0.0088237908532024251 0 3.2301346240739301e-05 -0.0088237908532024251 0 0.00014118052842055422 -0.0089227289237990264 0 6.3781363504054024e-05 -0.0087574223783477099 0 -9.2259772232416168e-05 -0.0089495340440521251 0 3.2301346240739301e-05 -0.0088237908532024251 0 0.00014118052842055422 -0.0089227289237990264 0 8.1765249321408802e-05 -0.0094461459430993395 0 4.7142133105969379e-05 -0.0093922989881986066 0 4.9838966030755694e-05 -0.0099714491394873681 0 -1.4379464092438599e-05 -0.009986667374883039 0 -6.6135005087098755e-05 -0.0099224693148378361 0 -1.4379464092438599e-05 -0.009986667374883039 0 -6.6135005087098755e-05 -0.0099224693148378361 0 -4.2749439011002634e-05 -0.0099746483210415102 0 4.9838966030755694e-05 -0.0099714491394873681 0 -1.4379464092438599e-05 -0.009986667374883039 0 1.3083086016781895e-05 -0.0099999429553947975 0 -9.2259772232416168e-05 -0.0089495340440521251 0 0.00014118052842055422 -0.0089227289237990264 0 3.8727588972314676e-05 -0.0095321728994418251 0 4.9838966030755694e-05 -0.0099714491394873681 0 -6.6135005087098755e-05 -0.0099224693148378361 0 3.8727588972314676e-05 -0.0095321728994418251 0 8.1765249321408802e-05 -0.0094461459430993395 0 5.2661969747780276e-05 -0.0095237921390442445 0 -5.7493683592594592e-05 -0.0091510237387976631 0 3.8727588972314676e-05 -0.0095321728994418251 0 3.9984611635940196e-08 -0.009823429134224711 0 3.8727588972314676e-05 -0.0095321728994418251 0 3.9984611635940196e-08 -0.009823429134224711 0 -5.6347698164694996e-05 -0.0099869158778754311 0 3.9984611635940196e-08 -0.009823429134224711 0 -5.6347698164694996e-05 -0.0099869158778754311 0 -4.3761770930592778e-07 -0.010597434508115046 0 -6.6135005087098755e-05 -0.0099224693148378361 0 -5.6347698164694996e-05 -0.0099869158778754311 0 -4.9072011952887573e-05 -0.010048601806319519 0 -6.6135005087098755e-05 -0.0099224693148378361 0 3.8727588972314676e-05 -0.0095321728994418251 0 -5.6347698164694996e-05 -0.0099869158778754311 0 -5.6347698164694996e-05 -0.0099869158778754311 0 -2.9221237492623417e-05 -0.010269384580025147 0 -4.9072011952887573e-05 -0.010048601806319519 0 -2.9221237492623417e-05 -0.010269384580025147 0 5.9811481398203561e-05 -0.010155175618455336 0 -4.9072011952887573e-05 -0.010048601806319519 0 -2.9221237492623417e-05 -0.010269384580025147 0 -4.3761770930592778e-07 -0.010597434508115046 0 9.9935149986286752e-06 -0.010612034535123814 0 -5.6347698164694996e-05 -0.0099869158778754311 0 -2.9221237492623417e-05 -0.010269384580025147 0 -4.3761770930592778e-07 -0.010597434508115046 0 1.0422563291226949e-06 -0.011370067137832741 0 -4.3761770930592778e-07 -0.010597434508115046 0 9.9935149986286752e-06 -0.010612034535123814 0 0.00025996469539731808 -0.010271921048982302 0 9.9935149986286752e-06 -0.010612034535123814 0 5.9811481398203561e-05 -0.010155175618455336 0 -2.9221237492623417e-05 -0.010269384580025147 0 9.9935149986286752e-06 -0.010612034535123814 0 5.9811481398203561e-05 -0.010155175618455336 0 0.00019958623449616752 -0.0099894795159806253 0 5.9811481398203561e-05 -0.010155175618455336 0 2.9545253113369947e-05 -0.010003427143061915 0 0.00025996469539731808 -0.010271921048982302 0 0.00019958623449616752 -0.0099894795159806253 0 5.9811481398203561e-05 -0.010155175618455336 0 5.9811481398203561e-05 -0.010155175618455336 0 -4.9072011952887573e-05 -0.010048601806319519 0 2.9545253113369947e-05 -0.010003427143061915 0 -6.6135005087098755e-05 -0.0099224693148378361 0 -4.9072011952887573e-05 -0.010048601806319519 0 -4.2749439011002634e-05 -0.0099746483210415102 0 -4.9072011952887573e-05 -0.010048601806319519 0 -4.2749439011002634e-05 -0.0099746483210415102 0 2.9545253113369947e-05 -0.010003427143061915 0 -1.2154163189006263e-05 -0.0099762776126472684 0 -4.2749439011002634e-05 -0.0099746483210415102 0 2.9545253113369947e-05 -0.010003427143061915 0 -1.2154163189006263e-05 -0.0099762776126472684 0 -4.2749439011002634e-05 -0.0099746483210415102 0 -2.356602536704377e-05 -0.0099764485353318871 0 -1.4379464092438599e-05 -0.009986667374883039 0 -2.356602536704377e-05 -0.0099764485353318871 0 -1.361734275578309e-05 -0.0099837514506606259 0 -2.356602536704377e-05 -0.0099764485353318871 0 -9.9013554204000565e-06 -0.009962469402138855 0 -1.361734275578309e-05 -0.0099837514506606259 0 -1.4379464092438599e-05 -0.009986667374883039 0 -4.2749439011002634e-05 -0.0099746483210415102 0 -2.356602536704377e-05 -0.0099764485353318871 0 -1.2154163189006263e-05 -0.0099762776126472684 0 -2.356602536704377e-05 -0.0099764485353318871 0 -9.9013554204000565e-06 -0.009962469402138855 0 -1.2154163189006263e-05 -0.0099762776126472684 0 -9.9013554204000565e-06 -0.009962469402138855 0 3.3867265413359306e-05 -0.0099292739122355863 0 0.00027507867212745287 -0.011124927288837003 0 0.00025996527816576724 -0.011971975592584594 0 -1.2154163189006263e-05 -0.0099762776126472684 0 2.9545253113369947e-05 -0.010003427143061915 0 3.3867265413359306e-05 -0.0099292739122355863 0 0.00057591174493002719 -0.012258489350785492 0 0.00025996527816576724 -0.011971975592584594 0 0.00019958623449616752 -0.0099894795159806253 0 2.9545253113369947e-05 -0.010003427143061915 0 3.3867265413359306e-05 -0.0099292739122355863 0 0.00079588285760013189 -0.012417904508538391 0 0.00026043924464280206 -0.012543012336928082 0 0.00044651180802038055 -0.01191488888172686 0 -9.9013554204000565e-06 -0.009962469402138855 0 -2.1169064382025085e-05 -0.0099711302977037383 0 -1.2373070549104563e-05 -0.010009734642517783 0 0.00025996527816576724 -0.011971975592584594 0 -8.8950409145355759e-05 -0.011066494025307542 0 -9.9013554204000565e-06 -0.009962469402138855 0 -1.361734275578309e-05 -0.0099837514506606259 0 -1.2373070549104563e-05 -0.010009734642517783 0 -0.00011278442568061887 -0.012144168511227479 0 0.00044651180802038055 -0.01191488888172686 0 7.5374064380318812e-05 -0.011767977453408266 0 0.00026043924464280206 -0.012543012336928082 0 -0.00011278442568061887 -0.012144168511227479 0 0.00044651180802038055 -0.01191488888172686 0 0.0002330733143653174 -0.013038756622160492 0 7.5282153553928819e-06 -0.012303908539539795 0 0.00044651180802038055 -0.01191488888172686 0 9.8002521813900806e-05 -0.011419536253051043 0 7.5374064380318812e-05 -0.011767977453408266 0 4.0178128073676448e-05 -0.014236274959004022 0 6.0907482489814518e-05 -0.014190672803275621 0 9.7912865102603222e-05 -0.014237326735676056 0 4.0178128073676448e-05 -0.014236274959004022 0 5.4822796170400432e-05 -0.014276989164215784 0 9.7912865102603222e-05 -0.014237326735676056 0 -7.2256027769649774e-05 -0.014409576086851637 0 7.5282153553928819e-06 -0.012303908539539795 0 7.5282153553928819e-06 -0.012303908539539795 0 -0.00016242808259760247 -0.012057976900851915 0 -0.00054806909556807189 -0.0094291314961831713 0 -0.00034165388837189078 -0.009288320964609147 0 -0.00017955508818100606 -0.0094879480825534636 0 -0.00054806909556807189 -0.0094291314961831713 0 -0.00017955508818100606 -0.0094879480825534636 0 -0.0003439173085883174 -0.009716577052632399 0 7.5282153553928819e-06 -0.012303908539539795 0 -0.00016921270047887547 -0.010449369515297399 0 -0.00011278442568061887 -0.012144168511227479 0 7.5374064380318812e-05 -0.011767977453408266 0 -0.00019107203543839747 -0.011583136024100282 0 9.8002521813900806e-05 -0.011419536253051043 0 7.5374064380318812e-05 -0.011767977453408266 0 -0.00019107203543839747 -0.011583136024100282 0 -0.00011278442568061887 -0.012144168511227479 0 -0.00048084734030239321 -0.011746549797441119 0 -0.00019107203543839747 -0.011583136024100282 0 -0.00013829692450888293 -0.0091630247116505064 0 -0.00013723039809639045 -0.009315339961590766 0 -0.00034165388837189078 -0.009288320964609147 0 -0.00019496107914989793 -0.010175346621425297 0 -0.00016921270047887547 -0.010449369515297399 0 -0.00013723039809639045 -0.009315339961590766 0 -0.00034165388837189078 -0.009288320964609147 0 -0.00017955508818100606 -0.0094879480825534636 0 -0.00017955508818100606 -0.0094879480825534636 0 3.7386790532593194e-05 -0.0093106386186520337 0 -7.9102377289416098e-06 -0.0096220938013613574 0 3.7386790532593194e-05 -0.0093106386186520337 0 0.00031608136944390994 -0.0093919050442591318 0 -7.9102377289416098e-06 -0.0096220938013613574 0 -0.00013723039809639045 -0.009315339961590766 0 -0.00017955508818100606 -0.0094879480825534636 0 3.7386790532593194e-05 -0.0093106386186520337 0 3.7386790532593194e-05 -0.0093106386186520337 0 2.9541072336905377e-05 -0.0090611706570672204 0 0.0001854075609429165 -0.009176198209964171 0 -0.00019496107914989793 -0.010175346621425297 0 -0.00017072906845465343 -0.0091343533584636299 0 -0.00020521175939383542 -0.0090711132493298766 0 3.7386790532593194e-05 -0.0093106386186520337 0 -0.00011603512698088102 -0.0091036164630033823 0 3.7386790532593194e-05 -0.0093106386186520337 0 -0.00011603512698088102 -0.0091036164630033823 0 2.9541072336905377e-05 -0.0090611706570672204 0 -0.00013829692450888293 -0.0091630247116505064 0 -0.00013723039809639045 -0.009315339961590766 0 3.7386790532593194e-05 -0.0093106386186520337 0 -0.00020521175939383542 -0.0090711132493298766 0 -0.00011603512698088102 -0.0091036164630033823 0 -0.00011329388360396951 -0.0090183896919657294 0 -5.5099379324414282e-05 -0.0092699956881557178 0 -4.8860657166434304e-05 -0.0094624801448239954 0 -0.00011603512698088102 -0.0091036164630033823 0 -0.00011329351637639598 -0.009014047216094603 0 2.9541072336905377e-05 -0.0090611706570672204 0 -0.00019496107914989793 -0.010175346621425297 0 -4.8860657166434304e-05 -0.0094624801448239954 0 2.9541072336905377e-05 -0.0090611706570672204 0 6.0093385856169352e-05 -0.0089110986531377948 0 0.00018596081648298345 -0.0089866864411728992 0 -0.00011329351637639598 -0.009014047216094603 0 2.9541072336905377e-05 -0.0090611706570672204 0 6.0093385856169352e-05 -0.0089110986531377948 0 -4.8860657166434304e-05 -0.0094624801448239954 0 4.7142133105969379e-05 -0.0093922989881986066 0 6.0093385856169352e-05 -0.0089110986531377948 0 6.3781363504054024e-05 -0.0087574223783477099 0 0.00011385694689998269 -0.0088394163702987128 0 -2.9111176256455215e-06 -0.0089498216032633058 0 6.0093385856169352e-05 -0.0089110986531377948 0 6.3781363504054024e-05 -0.0087574223783477099 0 8.0100551760420558e-06 -0.010020013301323787 0 2.1634643505921622e-06 -0.010010646593927619 0 1.3083086016781895e-05 -0.0099999429553947975 0 -4.8860657166434304e-05 -0.0094624801448239954 0 0.00013091270416554254 -0.0090769913002181797 0 4.0976445826028601e-06 -0.010023700820292584 0 8.0100551760420558e-06 -0.010020013301323787 0 2.1634643505921622e-06 -0.010010646593927619 0 -1.2373070549104563e-05 -0.010009734642517783 0 4.0976445826028601e-06 -0.010023700820292584 0 2.1634643505921622e-06 -0.010010646593927619 0 -8.8950409145355759e-05 -0.011066494025307542 0 -0.00019496107914989793 -0.010175346621425297 0 -1.2373070549104563e-05 -0.010009734642517783 0 2.1634643505921622e-06 -0.010010646593927619 0 -4.5821528802842152e-06 -0.0099965503884097435 0 2.1634643505921622e-06 -0.010010646593927619 0 -4.5821528802842152e-06 -0.0099965503884097435 0 1.3083086016781895e-05 -0.0099999429553947975 0 -1.361734275578309e-05 -0.0099837514506606259 0 -1.2373070549104563e-05 -0.010009734642517783 0 -4.5821528802842152e-06 -0.0099965503884097435 0 -1.4379464092438599e-05 -0.009986667374883039 0 -1.361734275578309e-05 -0.0099837514506606259 0 -4.5821528802842152e-06 -0.0099965503884097435 0 -1.4379464092438599e-05 -0.009986667374883039 0 -4.5821528802842152e-06 -0.0099965503884097435 0 1.3083086016781895e-05 -0.0099999429553947975 0 3.2301346240739301e-05 -0.0088237908532024251 0 6.3781363504054024e-05 -0.0087574223783477099 0 8.6930176029189647e-05 -0.0087539961532895859 0 6.3781363504054024e-05 -0.0087574223783477099 0 8.6930176029189647e-05 -0.0087539961532895859 0 0.00011385694689998269 -0.0088394163702987128 0 -6.9413811068701195e-05 -0.0088315475547103058 0 8.6930176029189647e-05 -0.0087539961532895859 0 -7.5121462885610255e-05 -0.0087315811040395725 0 -6.9413811068701195e-05 -0.0088315475547103058 0 3.2301346240739301e-05 -0.0088237908532024251 0 8.6930176029189647e-05 -0.0087539961532895859 0 -0.00010340050221028876 -0.0088321910441359393 0 -6.9413811068701195e-05 -0.0088315475547103058 0 -7.5121462885610255e-05 -0.0087315811040395725 0 4.9918032547403451e-05 -0.0078855842750966774 0 0.00010455373742182212 -0.008210060534280127 0 0.00047375871651834678 -0.0087768456055128709 0 0.00052715909315905233 -0.0087991070114510975 0 0.00049435981020448086 -0.0088695778761488427 0 0.00051737309147557961 -0.0087178058300605762 0 0.00047375871651834678 -0.0087768456055128709 0 0.00052715909315905233 -0.0087991070114510975 0 0.00010455373742182212 -0.008210060534280127 0 0.00011251305570017491 -0.0082968796966914858 0 0.00051737309147557961 -0.0087178058300605762 0 0.00052715909315905233 -0.0087991070114510975 0 0.00062324399673770712 -0.0088279186179161737 0 0.00062324399673770712 -0.0088279186179161737 0 0.00057944847686566326 -0.0089609133313402235 0 0.00074408396878949522 -0.0089880170510747096 0 0.00052715909315905233 -0.0087991070114510975 0 0.00062324399673770712 -0.0088279186179161737 0 0.00049435981020448086 -0.0088695778761488427 0 0.00062324399673770712 -0.0088279186179161737 0 0.00057944847686566326 -0.0089609133313402235 0 0.00049435981020448086 -0.0088695778761488427 0 0.00047375871651834678 -0.0087768456055128709 0 0.00049435981020448086 -0.0088695778761488427 0 0.00033834237239420076 -0.0088598165854634689 0 0.00057944847686566326 -0.0089609133313402235 0 0.00049435981020448086 -0.0088695778761488427 0 0.00045252804315298786 -0.0089877221607693614 0 0.00049435981020448086 -0.0088695778761488427 0 0.00033834237239420076 -0.0088598165854634689 0 0.00045252804315298786 -0.0089877221607693614 0 0.00018119018365356414 -0.0088164816952301765 0 0.00010455373742182212 -0.008210060534280127 0 8.6930176029189647e-05 -0.0087539961532895859 0 0.00047375871651834678 -0.0087768456055128709 0 0.00033834237239420076 -0.0088598165854634689 0 8.6930176029189647e-05 -0.0087539961532895859 0 0.00051089059251260198 -0.0087244682512680263 0 0.00047375871651834678 -0.0087768456055128709 0 0.00031555450517458636 -0.0089593999947084144 0 0.00033834237239420076 -0.0088598165854634689 0 0.00045252804315298786 -0.0089877221607693614 0 0.00031555450517458636 -0.0089593999947084144 0 0.00033834237239420076 -0.0088598165854634689 0 0.00021574487637079581 -0.0088736263417070176 0 8.6930176029189647e-05 -0.0087539961532895859 0 0.00033834237239420076 -0.0088598165854634689 0 0.00021574487637079581 -0.0088736263417070176 0 8.6930176029189647e-05 -0.0087539961532895859 0 0.00011385694689998269 -0.0088394163702987128 0 0.00021574487637079581 -0.0088736263417070176 0 6.0093385856169352e-05 -0.0089110986531377948 0 0.00011385694689998269 -0.0088394163702987128 0 0.00018596081648298345 -0.0089866864411728992 0 0.00011385694689998269 -0.0088394163702987128 0 0.00021574487637079581 -0.0088736263417070176 0 0.00018596081648298345 -0.0089866864411728992 0 0.00031555450517458636 -0.0089593999947084144 0 0.00021574487637079581 -0.0088736263417070176 0 0.00018596081648298345 -0.0089866864411728992 0 2.9541072336905377e-05 -0.0090611706570672204 0 0.00018596081648298345 -0.0089866864411728992 0 0.0001854075609429165 -0.009176198209964171 0 0.00018596081648298345 -0.0089866864411728992 0 0.00034940671410749956 -0.0091237614029129315 0 0.0001854075609429165 -0.009176198209964171 0 0.00031555450517458636 -0.0089593999947084144 0 0.00018596081648298345 -0.0089866864411728992 0 0.00034940671410749956 -0.0091237614029129315 0 0.00031555450517458636 -0.0089593999947084144 0 0.00034940671410749956 -0.0091237614029129315 0 0.00045252804315298786 -0.0089877221607693614 0 0.00034940671410749956 -0.0091237614029129315 0 0.0001854075609429165 -0.009176198209964171 0 0.00031608136944390994 -0.0093919050442591318 0 3.7386790532593194e-05 -0.0093106386186520337 0 0.0001854075609429165 -0.009176198209964171 0 0.00031608136944390994 -0.0093919050442591318 0 0.00031608136944390994 -0.0093919050442591318 0 0.00057393982520666524 -0.0091696714750245673 0 0.00071122457409092074 -0.0095372498037398293 0 0.00034940671410749956 -0.0091237614029129315 0 0.00031608136944390994 -0.0093919050442591318 0 0.00057393982520666524 -0.0091696714750245673 0 0.00034940671410749956 -0.0091237614029129315 0 0.00057393982520666524 -0.0091696714750245673 0 0.00045252804315298786 -0.0089877221607693614 0 0.00057944847686566326 -0.0089609133313402235 0 0.00057393982520666524 -0.0091696714750245673 0 0.00045252804315298786 -0.0089877221607693614 0 0.00057944847686566326 -0.0089609133313402235 0 0.00057393982520666524 -0.0091696714750245673 0 0.00074408396878949522 -0.0089880170510747096 0 0.00074408396878949522 -0.0089880170510747096 0 0.00087174364406716323 -0.0091814835527974197 0 0.0010470516222264698 -0.0087985704415725306 0 0.00213561027247519 -0.006994487313506775 0 0.0014017760070575004 -0.0064077198345976671 0 0.00057393982520666524 -0.0091696714750245673 0 0.00074408396878949522 -0.0089880170510747096 0 0.00087174364406716323 -0.0091814835527974197 0 0.00213561027247519 -0.006994487313506775 0 0.0023185803174400129 -0.0069162399964157245 0 0.00057393982520666524 -0.0091696714750245673 0 0.00087174364406716323 -0.0091814835527974197 0 0.00071122457409092074 -0.0095372498037398293 0 0.003366493028440342 -0.0046804046815663485 0 0.003429345045613875 -0.004338274009146304 0 0.0034960874004150008 -0.0042988991825886518 0 0.003366493028440342 -0.0046804046815663485 0 0.0032777516371156439 -0.0043380567148601007 0 0.003168430355867214 -0.0044843673497876402 0 0.003366493028440342 -0.0046804046815663485 0 0.0032777516371156439 -0.0043380567148601007 0 0.003429345045613875 -0.004338274009146304 0 0.0032777516371156439 -0.0043380567148601007 0 0.003429345045613875 -0.004338274009146304 0 0.0033764456276775983 -0.0042773096079381547 0 0.0031892336267564294 -0.0060877211359564084 0 0.0023185803174400129 -0.0069162399964157245 0 0.003168430355867214 -0.0044843673497876402 0 0.0030800670983229341 -0.0043045642263783521 0 0.0029818310201622715 -0.0044655410805758836 0 0.0032777516371156439 -0.0043380567148601007 0 0.003168430355867214 -0.0044843673497876402 0 0.0030800670983229341 -0.0043045642263783521 0 0.003168430355867214 -0.0044843673497876402 0 0.0031197875925253514 -0.0046951805754753637 0 0.0029818310201622715 -0.0044655410805758836 0 0.0031197875925253514 -0.0046951805754753637 0 0.0028867747239314945 -0.0046752176230598517 0 0.0029818310201622715 -0.0044655410805758836 0 0.003366493028440342 -0.0046804046815663485 0 0.0031197875925253514 -0.0046951805754753637 0 0.0032062688647632501 -0.0050446203250085623 0 0.0031197875925253514 -0.0046951805754753637 0 0.0032062688647632501 -0.0050446203250085623 0 0.002837258016142354 -0.0049596319596601785 0 0.003366493028440342 -0.0046804046815663485 0 0.003168430355867214 -0.0044843673497876402 0 0.0031197875925253514 -0.0046951805754753637 0 0.00092882365212269304 -0.0047706881657154495 0 0.00090051116944476995 -0.0047833238936868848 0 0.00091787096865856817 -0.00477920682495004 0 0.0014017760070575004 -0.0064077198345976671 0 0.0019583487366871483 -0.0047764930728670428 0 0.00051737309147557961 -0.0087178058300605762 0 0.00062324399673770712 -0.0088279186179161737 0 0.0010470516222264698 -0.0087985704415725306 0 0.00062324399673770712 -0.0088279186179161737 0 0.00074408396878949522 -0.0089880170510747096 0 0.0010470516222264698 -0.0087985704415725306 0 0.00021303644200317088 -0.0070149623959589605 0 0.00014460225581501701 -0.006984961098923154 0 0.00016282586889333352 -0.0070243166573438747 0 0.00010455373742182212 -0.008210060534280127 0 0.0014017760070575004 -0.0064077198345976671 0 0.00016807316619301153 -0.0070631049812922815 0 0.00016282586889333352 -0.0070243166573438747 0 0.0001046565779701576 -0.0070443873887515952 0 0.00016807316619301153 -0.0070631049812922815 0 0.00021303644200317088 -0.0070149623959589605 0 0.00016282586889333352 -0.0070243166573438747 0 0.0014017760070575004 -0.0064077198345976671 0 0.0004395072292953517 -0.0058798271395132792 0 0.00014460225581501701 -0.006984961098923154 0 0.00016282586889333352 -0.0070243166573438747 0 0.0001046565779701576 -0.0070443873887515952 0 0.00092882365212269304 -0.0047706881657154495 0 0.0009299121519378555 -0.0048262188755196197 0 0.00090051116944476995 -0.0047833238936868848 0 0.0031053988835855412 -0.0038314353650309419 0 0.0030912879222739836 -0.003824604424219673 0 0.00310089529565649 -0.0038511657103564951 0 0.0031053988835855412 -0.0038314353650309419 0 0.0030912879222739836 -0.003824604424219673 0 0.0031134076012615513 -0.0038183315951735137 0 0.0032594369854439193 -0.0041991520971565045 0 0.003050897020620098 -0.0040549669073791338 0 0.0031053988835855412 -0.0038314353650309419 0 0.0031134076012615513 -0.0038183315951735137 0 0.0031189001552465157 -0.0038316604033226459 0 0.0031053988835855412 -0.0038314353650309419 0 0.00310089529565649 -0.0038511657103564951 0 0.0031189001552465157 -0.0038316604033226459 0 0.003050897020620098 -0.0040549669073791338 0 0.0030964046701552912 -0.0034718556043537622 0 0.0029737751702021099 -0.0031514870166761961 0 0.003030253679677864 -0.0031420141752285615 0 0.0029722018898728866 -0.0032023881566120311 0 0.0029298114886117757 -0.0048691467474520191 0 0.0029929645735773886 -0.0047336373400008545 0 0.0030602902246598699 -0.00490744079694582 0 0.0029298114886117757 -0.0048691467474520191 0 0.0029929645735773886 -0.0047336373400008545 0 0.0027567732005964857 -0.0047772982769671308 0 0.0033019785754629348 -0.0035592627563044519 0 0.0031898296621084539 -0.0037102713264064368 0 0.0034015649722796736 -0.0038418163876536415 0 0.0036841154042118037 -0.0046340635265894985 0 0.0035614042555675396 -0.004370859115816951 0 0.0034641553815132789 -0.0045750000195580011 0 0.0032594369854439193 -0.0041991520971565045 0 0.0034707283932587304 -0.0041143710308409603 0 0.0035614042555675396 -0.004370859115816951 0 0.0034296274725705671 -0.0043665493636074583 0 0.0034641553815132789 -0.0045750000195580011 0 0.0032594369854439193 -0.0041991520971565045 0 0.0030808206227331001 -0.0037125688168631746 0 0.0033019785754629348 -0.0035592627563044519 0 0.0031898296621084539 -0.0037102713264064368 0 0.0030435890098634982 -0.0035920816013531301 0 0.0031898296621084539 -0.0037102713264064368 0 0.0031515515790844413 -0.0038889938129233166 0 0.0029726514652214445 -0.0037405275237077529 0 0.0031898296621084539 -0.0037102713264064368 0 0.0030435890098634982 -0.0035920816013531301 0 0.0029726514652214445 -0.0037405275237077529 0 0.0031515515790844413 -0.0038889938129233166 0 0.0029736772830869264 -0.0039079944951474731 0 0.0029726514652214445 -0.0037405275237077529 0 0.0031515515790844413 -0.0038889938129233166 0 0.0030986405325543146 -0.0040236800499458582 0 0.0032758827646688286 -0.0040668025422058917 0 0.0031515515790844413 -0.0038889938129233166 0 0.0030986405325543146 -0.0040236800499458582 0 0.0029736772830869264 -0.0039079944951474731 0 0.0030986405325543146 -0.0040236800499458582 0 0.0029817204064601726 -0.0041074891806541763 0 0.0029736772830869264 -0.0039079944951474731 0 0.0030986405325543146 -0.0040236800499458582 0 0.0031835135366813654 -0.0041726302195542646 0 0.0029817204064601726 -0.0041074891806541763 0 0.0030986405325543146 -0.0040236800499458582 0 0.0031835135366813654 -0.0041726302195542646 0 0.0032758827646688286 -0.0040668025422058917 0 0.0032777516371156439 -0.0043380567148601007 0 0.0031835135366813654 -0.0041726302195542646 0 0.0030800670983229341 -0.0043045642263783521 0 0.0031835135366813654 -0.0041726302195542646 0 0.0030800670983229341 -0.0043045642263783521 0 0.0029817204064601726 -0.0041074891806541763 0 0.0033764456276775983 -0.0042773096079381547 0 0.003353660162974388 -0.0042094794755379852 0 0.0034739160679751525 -0.0042466374069198851 0 0.003429345045613875 -0.004338274009146304 0 0.0033764456276775983 -0.0042773096079381547 0 0.0034739160679751525 -0.0042466374069198851 0 0.0032777516371156439 -0.0043380567148601007 0 0.0033764456276775983 -0.0042773096079381547 0 0.003353660162974388 -0.0042094794755379852 0 0.0032777516371156439 -0.0043380567148601007 0 0.0031835135366813654 -0.0041726302195542646 0 0.003353660162974388 -0.0042094794755379852 0 0.0031835135366813654 -0.0041726302195542646 0 0.003353660162974388 -0.0042094794755379852 0 0.0032758827646688286 -0.0040668025422058917 0 0.003353660162974388 -0.0042094794755379852 0 0.0032758827646688286 -0.0040668025422058917 0 0.003441107623408747 -0.0042105434536999818 0 0.003353660162974388 -0.0042094794755379852 0 0.003441107623408747 -0.0042105434536999818 0 0.0034739160679751525 -0.0042466374069198851 0 0.0034707283932587304 -0.0041143710308409603 0 0.0034597329653071407 -0.00418687713406033 0 0.0032758827646688286 -0.0040668025422058917 0 0.0034015649722796736 -0.0038418163876536415 0 0.003441107623408747 -0.0042105434536999818 0 0.0035614042555675396 -0.004370859115816951 0 0.0034296274725705671 -0.0043665493636074583 0 0.003441107623408747 -0.0042105434536999818 0 0.0031515515790844413 -0.0038889938129233166 0 0.0032758827646688286 -0.0040668025422058917 0 0.0034015649722796736 -0.0038418163876536415 0 0.0031898296621084539 -0.0037102713264064368 0 0.0031515515790844413 -0.0038889938129233166 0 0.0034015649722796736 -0.0038418163876536415 0 0.0034296274725705671 -0.0043665493636074583 0 0.0033247437984017512 -0.0042797551768917943 0 0.003441107623408747 -0.0042105434536999818 0 0.0023185803174400129 -0.0069162399964157245 0 0.00091218026579229742 -0.0091673413541581324 0 0.0030177844873449013 -0.0062911521607028273 0 0.0023185803174400129 -0.0069162399964157245 0 0.0033247437984017512 -0.0042797551768917943 0 0.003441107623408747 -0.0042105434536999818 0 0.0034739160679751525 -0.0042466374069198851 0 0.00031608136944390994 -0.0093919050442591318 0 0.00071122457409092074 -0.0095372498037398293 0 0.00027591957433242852 -0.0097903310999870943 0 0.0022955945664936851 -0.0088304816490800131 0 0.0027270366306582508 -0.0078682333292057708 0 0.0018281376282982449 -0.0083904068560296773 0 0.00031608136944390994 -0.0093919050442591318 0 0.00027591957433242852 -0.0097903310999870943 0 -7.9102377289416098e-06 -0.0096220938013613574 0 0.0018281376282982449 -0.0083904068560296773 0 0.0018753542258930815 -0.0088104822783106138 0 0.001507405289846967 -0.0089624092330087852 0 0.0022955945664936851 -0.0088304816490800131 0 0.0018281376282982449 -0.0083904068560296773 0 0.0018753542258930815 -0.0088104822783106138 0 0.0022955945664936851 -0.0088304816490800131 0 0.0018753542258930815 -0.0088104822783106138 0 0.0017640818266577479 -0.0091751507874266933 0 0.0018753542258930815 -0.0088104822783106138 0 0.0017640818266577479 -0.0091751507874266933 0 0.001507405289846967 -0.0089624092330087852 0 0.0022955945664936851 -0.0088304816490800131 0 0.0017640818266577479 -0.0091751507874266933 0 0.0018586619033095549 -0.0097309518004230176 0 0.0017640818266577479 -0.0091751507874266933 0 0.0016271587526617115 -0.0095073080568457043 0 0.0018586619033095549 -0.0097309518004230176 0 0.0030177844873449013 -0.0062911521607028273 0 0.0020268087585466627 -0.0075653871502317496 0 0.0017640818266577479 -0.0091751507874266933 0 0.0016271587526617115 -0.0095073080568457043 0 0.0014382632046851388 -0.0092886281431398682 0 0.0033247437984017512 -0.0042797551768917943 0 0.0033166994143650247 -0.00452181174718525 0 0.0030318156536029684 -0.0047805463013570072 0 0.0036841154042118037 -0.0046340635265894985 0 0.0034641553815132789 -0.0045750000195580011 0 0.0032573188873453126 -0.0047317219425133342 0 0.0034296274725705671 -0.0043665493636074583 0 0.0033247437984017512 -0.0042797551768917943 0 0.0033166994143650247 -0.00452181174718525 0 0.0034296274725705671 -0.0043665493636074583 0 0.0033166994143650247 -0.00452181174718525 0 0.0034641553815132789 -0.0045750000195580011 0 0.0034641553815132789 -0.0045750000195580011 0 0.0033295793829936247 -0.0046238614755323175 0 0.0032573188873453126 -0.0047317219425133342 0 0.0033166994143650247 -0.00452181174718525 0 0.0034641553815132789 -0.0045750000195580011 0 0.0033295793829936247 -0.0046238614755323175 0 0.0033166994143650247 -0.00452181174718525 0 0.0032442420947261514 -0.0046935328836885497 0 0.0030318156536029684 -0.0047805463013570072 0 0.0033166994143650247 -0.00452181174718525 0 0.0033295793829936247 -0.0046238614755323175 0 0.0032442420947261514 -0.0046935328836885497 0 0.0030008673744543867 -0.0054179546855136615 0 0.0023973656889504794 -0.0057221828214218222 0 0.0022910267557793686 -0.0063675681880254065 0 0.0019685062019818558 -0.0064213666361268937 0 0.0024467312123842015 -0.0070723244507860054 0 0.0029298114886117757 -0.0048691467474520191 0 0.0027567732005964857 -0.0047772982769671308 0 0.0028012413728390473 -0.0049919229874508054 0 0.0032594369854439193 -0.0041991520971565045 0 0.0030008673744543867 -0.0054179546855136615 0 0.0030008673744543867 -0.0054179546855136615 0 0.002994449792091227 -0.0052873937232573052 0 0.0033295793829936247 -0.0046238614755323175 0 0.0032573188873453126 -0.0047317219425133342 0 0.0032442420947261514 -0.0046935328836885497 0 0.0017477337448678723 -0.0097456357482491925 0 0.001850333091213736 -0.0097277387250736536 0 0.0014862967362507514 -0.010491858807066622 0 0.0016271587526617115 -0.0095073080568457043 0 0.0017477337448678723 -0.0097456357482491925 0 0.0014734305762388199 -0.0097095202658162485 0 0.0018806547710066809 -0.0077865096139011951 0 0.0020268087585466627 -0.0075653871502317496 0 0.0016271587526617115 -0.0095073080568457043 0 0.0017477337448678723 -0.0097456357482491925 0 0.0018586619033095549 -0.0097309518004230176 0 0.0032550952249865714 -0.0047455770028603864 0 0.0032442420947261514 -0.0046935328836885497 0 0.0030318156536029684 -0.0047805463013570072 0 0.0030008673744543867 -0.0054179546855136615 0 0.0020268087585466627 -0.0075653871502317496 0 0.0017477337448678723 -0.0097456357482491925 0 0.0013778803856512307 -0.0099613342923226562 0 0.0014862967362507514 -0.010491858807066622 0 0.0012605237236407818 -0.0097651333245154116 0 0.00098878813917739226 -0.0094891486745770949 0 0.001358025248358681 -0.0095623977762050363 0 0.0012605237236407818 -0.0097651333245154116 0 0.0010552406185748797 -0.0098921449713933202 0 0.00098878813917739226 -0.0094891486745770949 0 0.0012605237236407818 -0.0097651333245154116 0 0.0014734305762388199 -0.0097095202658162485 0 0.001358025248358681 -0.0095623977762050363 0 0.0017477337448678723 -0.0097456357482491925 0 0.0014734305762388199 -0.0097095202658162485 0 0.0013778803856512307 -0.0099613342923226562 0 0.0016271587526617115 -0.0095073080568457043 0 0.0014734305762388199 -0.0097095202658162485 0 0.001358025248358681 -0.0095623977762050363 0 0.0012605237236407818 -0.0097651333245154116 0 0.0014734305762388199 -0.0097095202658162485 0 0.0013778803856512307 -0.0099613342923226562 0 0.0012605237236407818 -0.0097651333245154116 0 0.0013778803856512307 -0.0099613342923226562 0 0.0010552406185748797 -0.0098921449713933202 0 0.0013778803856512307 -0.0099613342923226562 0 0.0010552406185748797 -0.0098921449713933202 0 0.0011261084498785812 -0.010198572537761356 0 0.0010552406185748797 -0.0098921449713933202 0 0.0008008870974290387 -0.010119909293271521 0 0.0011261084498785812 -0.010198572537761356 0 0.0010552406185748797 -0.0098921449713933202 0 0.00068801214294865519 -0.009809417270735258 0 0.0008008870974290387 -0.010119909293271521 0 0.00068801214294865519 -0.009809417270735258 0 0.00043494035806217212 -0.010125741024782215 0 0.0008008870974290387 -0.010119909293271521 0 0.0010552406185748797 -0.0098921449713933202 0 0.00068801214294865519 -0.009809417270735258 0 0.00098878813917739226 -0.0094891486745770949 0 0.00098878813917739226 -0.0094891486745770949 0 0.0010001230660244258 -0.0089594183862782579 0 0.00020996452301458434 -0.0094303756874440977 0 0.00068801214294865519 -0.009809417270735258 0 0.00098878813917739226 -0.0094891486745770949 0 0.00020996452301458434 -0.0094303756874440977 0 0.00048389777462566527 -0.010898130079818418 0 0.00010299097816086792 -0.01193826652608007 0 0.00098878813917739226 -0.0094891486745770949 0 0.0011674447805154638 -0.0091823871109014063 0 0.0010001230660244258 -0.0089594183862782579 0 0.0011674447805154638 -0.0091823871109014063 0 0.0012365165732109509 -0.009381356474583942 0 0.0014382632046851388 -0.0092886281431398682 0 0.00098878813917739226 -0.0094891486745770949 0 0.0011674447805154638 -0.0091823871109014063 0 0.0012365165732109509 -0.009381356474583942 0 0.00098878813917739226 -0.0094891486745770949 0 0.0012365165732109509 -0.009381356474583942 0 0.001358025248358681 -0.0095623977762050363 0 0.0012365165732109509 -0.009381356474583942 0 0.001358025248358681 -0.0095623977762050363 0 0.0014382632046851388 -0.0092886281431398682 0 0.0016271587526617115 -0.0095073080568457043 0 0.001358025248358681 -0.0095623977762050363 0 0.0014382632046851388 -0.0092886281431398682 0 0.0017640818266577479 -0.0091751507874266933 0 0.0014382632046851388 -0.0092886281431398682 0 0.001507405289846967 -0.0089624092330087852 0 0.0011674447805154638 -0.0091823871109014063 0 0.0014382632046851388 -0.0092886281431398682 0 0.001507405289846967 -0.0089624092330087852 0 0.00091218026579229742 -0.0091673413541581324 0 0.00048389777462566527 -0.010898130079818418 0 0.0018281376282982449 -0.0083904068560296773 0 0.001507405289846967 -0.0089624092330087852 0 0.00096659600530609206 -0.0089119115353334007 0 0.0011674447805154638 -0.0091823871109014063 0 0.001507405289846967 -0.0089624092330087852 0 0.00096659600530609206 -0.0089119115353334007 0 0.00049700313942029051 -0.0094873050029469167 0 0.00048389777462566527 -0.010898130079818418 0 0.00027591957433242852 -0.0097903310999870943 0 -7.9102377289416098e-06 -0.0096220938013613574 0 -0.00012661282846942459 -0.010027140392194413 0 -0.00017955508818100606 -0.0094879480825534636 0 -7.9102377289416098e-06 -0.0096220938013613574 0 -0.0003439173085883174 -0.009716577052632399 0 -7.9102377289416098e-06 -0.0096220938013613574 0 -0.0003439173085883174 -0.009716577052632399 0 -0.00012661282846942459 -0.010027140392194413 0 0.00015270595980577484 -0.014260810921253768 0 0.00010444007052488259 -0.014274839880409789 0 8.6491377324125404e-05 -0.01433132332505542 0 -0.00016242808259760247 -0.012057976900851915 0 0.00048389777462566527 -0.010898130079818418 0 0.00011306792003191378 -0.014232050884538881 0 0.00015270595980577484 -0.014260810921253768 0 0.00010444007052488259 -0.014274839880409789 0 0.00011306792003191378 -0.014232050884538881 0 0.00010444007052488259 -0.014274839880409789 0 6.5356875178591235e-05 -0.014276796820534478 0 0.00010444007052488259 -0.014274839880409789 0 6.5356875178591235e-05 -0.014276796820534478 0 8.6491377324125404e-05 -0.01433132332505542 0 7.7797526900932391e-05 -0.014187444002359006 0 0.00011306792003191378 -0.014232050884538881 0 6.5356875178591235e-05 -0.014276796820534478 0 3.4111487373839189e-05 -0.014239389768474419 0 7.7797526900932391e-05 -0.014187444002359006 0 6.5356875178591235e-05 -0.014276796820534478 0 3.4111487373839189e-05 -0.014239389768474419 0 6.5356875178591235e-05 -0.014276796820534478 0 1.3963024261318223e-05 -0.014323759307413267 0 6.5356875178591235e-05 -0.014276796820534478 0 3.9389994582962942e-05 -0.014325683940198793 0 1.3963024261318223e-05 -0.014323759307413267 0 6.5356875178591235e-05 -0.014276796820534478 0 3.9389994582962942e-05 -0.014325683940198793 0 8.6491377324125404e-05 -0.01433132332505542 0 3.9389994582962942e-05 -0.014325683940198793 0 8.6491377324125404e-05 -0.01433132332505542 0 9.1776788007150665e-06 -0.014359474534545577 0 8.6491377324125404e-05 -0.01433132332505542 0 9.1776788007150665e-06 -0.014359474534545577 0 5.7610263659562098e-06 -0.014389693573091731 0 0.00068801214294865519 -0.009809417270735258 0 0.00020996452301458434 -0.0094303756874440977 0 0.00043494035806217212 -0.010125741024782215 0 0.00020996452301458434 -0.0094303756874440977 0 -5.2210143474483918e-05 -0.010000359629098165 0 0.00043494035806217212 -0.010125741024782215 0 -5.2210143474483918e-05 -0.010000359629098165 0 -0.00026534533629924903 -0.010552789017287503 0 -0.00058994070902681638 -0.0098994302648383239 0 0.00020996452301458434 -0.0094303756874440977 0 -5.2210143474483918e-05 -0.010000359629098165 0 -0.00058994070902681638 -0.0098994302648383239 0 0.00010299097816086792 -0.01193826652608007 0 -3.3627315051565723e-05 -0.012510429252104558 0 -0.00010631126446317974 -0.011754047585973136 0 -3.3627315051565723e-05 -0.012510429252104558 0 -0.00022017510529704143 -0.010505410551254315 0 0.00043494035806217212 -0.010125741024782215 0 -0.00014403110205445511 -0.01065752012595436 0 -5.2210143474483918e-05 -0.010000359629098165 0 -0.00026534533629924903 -0.010552789017287503 0 0.00043494035806217212 -0.010125741024782215 0 -0.00010631126446317974 -0.011754047585973136 0 0.0002515012787758203 -0.010618454776595614 0 -0.00010631126446317974 -0.011754047585973136 0 -0.00037614536073865925 -0.012524315635963351 0 0.00043494035806217212 -0.010125741024782215 0 -0.00014403110205445511 -0.01065752012595436 0 0.00064994953739687226 -0.01057781842683409 0 -0.00010631126446317974 -0.011754047585973136 0 0.0004558649119660849 -0.0098542762366505103 0 0.0010140825122345158 -0.0090568487000158432 0 0.0011178043250651116 -0.0092339011966600763 0 0.0012121140702885942 -0.0091458391140573376 0 0.0002515012787758203 -0.010618454776595614 0 0.0009378824668475616 -0.0098872045297366817 0 0.0010140825122345158 -0.0090568487000158432 0 0.0012121140702885942 -0.0091458391140573376 0 0.0012095708858808666 -0.0090194008488244746 0 0.0002515012787758203 -0.010618454776595614 0 0.00061063556529881665 -0.01090378219374726 0 -7.04182297256889e-05 -0.011849270428164308 0 -1.2019954054824786e-05 -0.012017207955767505 0 9.4113939188118022e-05 -0.012085842007562068 0 -7.04182297256889e-05 -0.011849270428164308 0 -0.00017814854136887607 -0.011959015370961871 0 -0.00032630981900422679 -0.01181276009919347 0 0.0002515012787758203 -0.010618454776595614 0 -0.00037614536073865925 -0.012524315635963351 0 0.00012378546781347107 -0.011419582836960608 0 0.00025394787550810034 -0.011679938520440549 0 -0.00045964698222186067 -0.011751207943225645 0 -7.04182297256889e-05 -0.011849270428164308 0 -0.00017814854136887607 -0.011959015370961871 0 -1.2019954054824786e-05 -0.012017207955767505 0 -0.00017814854136887607 -0.011959015370961871 0 -1.2019954054824786e-05 -0.012017207955767505 0 -0.00032027226459020437 -0.012191737498154245 0 -1.2019954054824786e-05 -0.012017207955767505 0 -6.293932668897229e-05 -0.012364198076768572 0 -0.00032027226459020437 -0.012191737498154245 0 -1.2019954054824786e-05 -0.012017207955767505 0 -6.293932668897229e-05 -0.012364198076768572 0 0.00026112018402476282 -0.012491713831946723 0 -6.293932668897229e-05 -0.012364198076768572 0 -0.00023301903658557677 -0.012520811554223934 0 -0.00032027226459020437 -0.012191737498154245 0 -6.293932668897229e-05 -0.012364198076768572 0 -0.00023301903658557677 -0.012520811554223934 0 3.1516632207693885e-05 -0.0126108607155422 0 -6.293932668897229e-05 -0.012364198076768572 0 3.1516632207693885e-05 -0.0126108607155422 0 0.00026112018402476282 -0.012491713831946723 0 -0.00023301903658557677 -0.012520811554223934 0 3.1516632207693885e-05 -0.0126108607155422 0 -0.0001660611719520556 -0.012782215747031396 0 0.00025253365480386319 -0.012616939966663647 0 0.00064843623201623799 -0.01065961640283406 0 0.00061063556529881665 -0.01090378219374726 0 0.0011532260398160077 -0.0093512904403526224 0 0.00011628888876617308 -0.012108451931870687 0 9.4113939188118022e-05 -0.012085842007562068 0 0.00017979372560545298 -0.012117466240193574 0 3.1516632207693885e-05 -0.0126108607155422 0 0.00026112018402476282 -0.012491713831946723 0 0.00023792860584625011 -0.012759781530372246 0 -3.8786052943238814e-05 -0.011915081289871662 0 0.00025253365480386319 -0.012616939966663647 0 -1.2019954054824786e-05 -0.012017207955767505 0 0.00011628888876617308 -0.012108451931870687 0 9.4113939188118022e-05 -0.012085842007562068 0 0.0012121140702885942 -0.0091458391140573376 0 0.001275455678491835 -0.0092715244274879059 0 0.0013437624828923959 -0.0091314259794583932 0 0.0011178043250651116 -0.0092339011966600763 0 0.0012121140702885942 -0.0091458391140573376 0 0.001275455678491835 -0.0092715244274879059 0 0.001630279288673553 -0.006053245097573357 0 0.0015982386315772563 -0.0062982005070675714 0 0.0017856286478456669 -0.0063073327643691788 0 0.001630279288673553 -0.006053245097573357 0 0.0014527657179248244 -0.0063372777438879518 0 0.0015982386315772563 -0.0062982005070675714 0 0.0015315632202083846 -0.0074292833464343934 0 0.0011532260398160077 -0.0093512904403526224 0 0.0011178043250651116 -0.0092339011966600763 0 0.001275455678491835 -0.0092715244274879059 0 0.0012120981310766857 -0.0094075830746057475 0 0.001630279288673553 -0.006053245097573357 0 0.0018846404078754488 -0.0060819768583300522 0 0.0017856286478456669 -0.0063073327643691788 0 0.0015315632202083846 -0.0074292833464343934 0 0.001585504232421876 -0.0073788179716876125 0 0.0018846404078754488 -0.0060819768583300522 0 0.0017677680108775988 -0.005837232168440949 0 0.0020232992925524741 -0.0059441335325055187 0 0.001630279288673553 -0.006053245097573357 0 0.0018846404078754488 -0.0060819768583300522 0 0.0017677680108775988 -0.005837232168440949 0 0.0017677680108775988 -0.005837232168440949 0 0.0018738360048453338 -0.0056463207410050375 0 0.0019478077035347664 -0.0058003126765682833 0 0.0013437624828923959 -0.0091314259794583932 0 0.0012095708858808666 -0.0090194008488244746 0 0.0014120397444687429 -0.0089833293090947949 0 0.001585504232421876 -0.0073788179716876125 0 0.0015672813693300843 -0.0081906165027638388 0 0.0012121140702885942 -0.0091458391140573376 0 0.0013437624828923959 -0.0091314259794583932 0 0.0012095708858808666 -0.0090194008488244746 0 0.00043494035806217212 -0.010125741024782215 0 0.00064994953739687226 -0.01057781842683409 0 0.0008008870974290387 -0.010119909293271521 0 0.00064994953739687226 -0.01057781842683409 0 0.0008008870974290387 -0.010119909293271521 0 0.0011261084498785812 -0.010198572537761356 0 0.0009378824668475616 -0.0098872045297366817 0 0.0015672813693300843 -0.0081906165027638388 0 0.00064994953739687226 -0.01057781842683409 0 0.0011261084498785812 -0.010198572537761356 0 0.0014862967362507514 -0.010491858807066622 0 0.0013778803856512307 -0.0099613342923226562 0 0.0011261084498785812 -0.010198572537761356 0 0.0014862967362507514 -0.010491858807066622 0 0.0019685062019818558 -0.0064213666361268937 0 0.001632471796858473 -0.0071603520308887985 0 0.0024467312123842015 -0.0070723244507860054 0 0.0015672813693300843 -0.0081906165027638388 0 0.0023973656889504794 -0.0057221828214218222 0 0.0018738360048453338 -0.0056463207410050375 0 0.0021600416780292401 -0.0056129826467460342 0 0.0020265209808321837 -0.0057190683014758156 0 0.0020268087585466627 -0.0075653871502317496 0 0.0015672813693300843 -0.0081906165027638388 0 0.0021600416780292401 -0.0056129826467460342 0 0.0021302475320415571 -0.0057416840110526002 0 0.0020265209808321837 -0.0057190683014758156 0 0.0021600416780292401 -0.0056129826467460342 0 0.0021302475320415571 -0.0057416840110526002 0 0.0021966111209262705 -0.0057677654591980739 0 0.0023973656889504794 -0.0057221828214218222 0 0.0022437257003862822 -0.005309155158195588 0 0.0021302475320415571 -0.0057416840110526002 0 0.0021966111209262705 -0.0057677654591980739 0 0.0020801681171762928 -0.0058302332725346908 0 0.0021302475320415571 -0.0057416840110526002 0 0.0020801681171762928 -0.0058302332725346908 0 0.0020265209808321837 -0.0057190683014758156 0 0.0020801681171762928 -0.0058302332725346908 0 0.0020265209808321837 -0.0057190683014758156 0 0.0019478077035347664 -0.0058003126765682833 0 0.0018738360048453338 -0.0056463207410050375 0 0.0020265209808321837 -0.0057190683014758156 0 0.0019478077035347664 -0.0058003126765682833 0 0.0017677680108775988 -0.005837232168440949 0 0.0019478077035347664 -0.0058003126765682833 0 0.0020232992925524741 -0.0059441335325055187 0 0.0020801681171762928 -0.0058302332725346908 0 0.0019478077035347664 -0.0058003126765682833 0 0.0020232992925524741 -0.0059441335325055187 0 0.0018846404078754488 -0.0060819768583300522 0 0.0020878064076997544 -0.0060916326988755326 0 0.0019986134279842954 -0.006321696576133704 0 0.0018846404078754488 -0.0060819768583300522 0 0.0020232992925524741 -0.0059441335325055187 0 0.0020878064076997544 -0.0060916326988755326 0 0.0020878064076997544 -0.0060916326988755326 0 0.002170769715114301 -0.00614035370957951 0 0.0022546548988529621 -0.0059663111229385094 0 0.002170769715114301 -0.00614035370957951 0 0.0022546548988529621 -0.0059663111229385094 0 0.0023405153747956867 -0.0061108253605299126 0 0.0020232992925524741 -0.0059441335325055187 0 0.0020878064076997544 -0.0060916326988755326 0 0.0022546548988529621 -0.0059663111229385094 0 0.0022437257003862822 -0.005309155158195588 0 0.0022155384041994044 -0.0057319996020208592 0 0.0020801681171762928 -0.0058302332725346908 0 0.0020232992925524741 -0.0059441335325055187 0 0.0022546548988529621 -0.0059663111229385094 0 0.0021966111209262705 -0.0057677654591980739 0 0.0020801681171762928 -0.0058302332725346908 0 0.0022546548988529621 -0.0059663111229385094 0 0.0021742904771613839 -0.0054832094368169543 0 0.0023525853153621504 -0.0051266829151577721 0 0.0026615426774272374 -0.005262993133103854 0 0.0020455659279819422 -0.0048938650950696499 0 0.0021742904771613839 -0.0054832094368169543 0 0.0023525853153621504 -0.0051266829151577721 0 0.0021742904771613839 -0.0054832094368169543 0 0.0025700911824338038 -0.0056747096341299569 0 0.0026615426774272374 -0.005262993133103854 0 0.0023525853153621504 -0.0051266829151577721 0 0.0026615426774272374 -0.005262993133103854 0 0.002528638324309317 -0.0048674815010101291 0 0.0022155384041994044 -0.0057319996020208592 0 0.0023224560825440832 -0.0060788005209538249 0 0.0021742904771613839 -0.0054832094368169543 0 0.0025700911824338038 -0.0056747096341299569 0 0.0023405153747956867 -0.0061108253605299126 0 0.0025700911824338038 -0.0056747096341299569 0 0.0027243174283750489 -0.0059258553899350667 0 0.0023405153747956867 -0.0061108253605299126 0 0.0029962349493717249 -0.0057960740604349158 0 0.0028477407754866281 -0.0055541627890818707 0 0.0031847740396171282 -0.0052930961509712179 0 0.0028299814399330553 -0.0063284645516990231 0 0.0032684735336251979 -0.0033687230429321302 0 0.0029962349493717249 -0.0057960740604349158 0 0.0027243174283750489 -0.0059258553899350667 0 0.0027994608101110322 -0.0062341135963966945 0 0.0029962349493717249 -0.0057960740604349158 0 0.0027243174283750489 -0.0059258553899350667 0 0.0028477407754866281 -0.0055541627890818707 0 0.0025700911824338038 -0.0056747096341299569 0 0.0027243174283750489 -0.0059258553899350667 0 0.0028477407754866281 -0.0055541627890818707 0 0.0026615426774272374 -0.005262993133103854 0 0.0030075846458956961 -0.0048275914213876548 0 0.0031847740396171282 -0.0052930961509712179 0 0.0028477407754866281 -0.0055541627890818707 0 0.0026615426774272374 -0.005262993133103854 0 0.0031847740396171282 -0.0052930961509712179 0 0.0025700911824338038 -0.0056747096341299569 0 0.0028477407754866281 -0.0055541627890818707 0 0.0026615426774272374 -0.005262993133103854 0 0.0030075846458956961 -0.0048275914213876548 0 0.0027238376528597873 -0.0046416145432007722 0 0.002528638324309317 -0.0048674815010101291 0 0.0030330199173845026 -0.0040181040560627775 0 0.0032684735336251979 -0.0033687230429321302 0 0.0026615426774272374 -0.005262993133103854 0 0.0030075846458956961 -0.0048275914213876548 0 0.002528638324309317 -0.0048674815010101291 0 0.0030075846458956961 -0.0048275914213876548 0 0.0027238376528597873 -0.0046416145432007722 0 0.0028259353575929231 -0.0043610209642960312 0 0.0027238376528597873 -0.0046416145432007722 0 0.002528638324309317 -0.0048674815010101291 0 0.0025741105078240282 -0.0043854653974917729 0 0.0020455659279819422 -0.0048938650950696499 0 0.0023525853153621504 -0.0051266829151577721 0 0.002528638324309317 -0.0048674815010101291 0 0.0020455659279819422 -0.0048938650950696499 0 0.002528638324309317 -0.0048674815010101291 0 0.0025741105078240282 -0.0043854653974917729 0 0.0022437257003862822 -0.005309155158195588 0 0.0027794761704260621 -0.0045730560353929245 0 0.0029298114886117757 -0.0048691467474520191 0 0.0028012413728390473 -0.0049919229874508054 0 0.0029998609184001077 -0.0049670374094833627 0 0.0023973656889504794 -0.0057221828214218222 0 0.0027794761704260621 -0.0045730560353929245 0 0.0023016930407376134 -0.0050851144184381747 0 0.0023706245997199035 -0.0053973314687088799 0 0.0027414594087711635 -0.0050407804442278376 0 0.0029298114886117757 -0.0048691467474520191 0 0.0029998609184001077 -0.0049670374094833627 0 0.0030602902246598699 -0.00490744079694582 0 0.002841462292464817 -0.0042447414534794526 0 0.0030089480357205801 -0.0040838483947015511 0 0.003063604708833741 -0.0042230403010025831 0 0.0029845047700699438 -0.003048601408025571 0 0.0029984801076896783 -0.0031157062660095085 0 0.0029636004072298751 -0.0030868151828845353 0 0.0029845047700699438 -0.003048601408025571 0 0.0030156720251230933 -0.0031155354005888065 0 0.0029984801076896783 -0.0031157062660095085 0 0.0027794761704260621 -0.0045730560353929245 0 0.003050897020620098 -0.0040549669073791338 0 0.003050897020620098 -0.0040549669073791338 0 0.0029478872091212834 -0.0038433102289664642 0 0.003030253679677864 -0.0031420141752285615 0 0.0030189520636053299 -0.0031151982056728022 0 0.0029984801076896783 -0.0031157062660095085 0 0.0029737751702021099 -0.0031514870166761961 0 0.003030253679677864 -0.0031420141752285615 0 0.0029984801076896783 -0.0031157062660095085 0 0.0029737751702021099 -0.0031514870166761961 0 0.0029984801076896783 -0.0031157062660095085 0 0.0029677213963228929 -0.0031177178327055806 0 0.0029478872091212834 -0.0038433102289664642 0 0.0029931980422771977 -0.0037349186904925653 0 0.0030330199173845026 -0.0040181040560627775 0 0.0029478872091212834 -0.0038433102289664642 0 0.0029984801076896783 -0.0031157062660095085 0 0.0029636004072298751 -0.0030868151828845353 0 0.0029677213963228929 -0.0031177178327055806 0 0.0027794761704260621 -0.0045730560353929245 0 0.0029478872091212834 -0.0038433102289664642 0 0.0027238376528597873 -0.0046416145432007722 0 0.0025741105078240282 -0.0043854653974917729 0 0.0028259353575929231 -0.0043610209642960312 0 -0.00011458853893649388 -0.014469343810041486 0 -0.00013346899232446235 -0.014452218155129861 0 -0.00011977603110567942 -0.014459253290385098 0 -0.00012477425526932702 -0.014456204599611364 0 -9.6093495700170909e-05 -0.014483413149883382 0 -8.4968774248245666e-05 -0.014440474759352263 0 -0.00011458853893649388 -0.014469343810041486 0 -0.00012477425526932702 -0.014456204599611364 0 -9.6093495700170909e-05 -0.014483413149883382 0 -0.00011458853893649388 -0.014469343810041486 0 -0.00011977603110567942 -0.014459253290385098 0 -0.00012477425526932702 -0.014456204599611364 0 -0.00011458853893649388 -0.014469343810041486 0 -9.6093495700170909e-05 -0.014483413149883382 0 -0.00010612842161508658 -0.01452032573592652 0 -9.6093495700170909e-05 -0.014483413149883382 0 -0.00010612842161508658 -0.01452032573592652 0 -9.6768253466479826e-05 -0.014537948302013834 0 -8.0038231273599916e-05 -0.014722606915718516 0 -0.00011602933627609421 -0.014633084844643832 0 -0.00013346899232446235 -0.014452218155129861 0 -0.00010612842161508658 -0.01452032573592652 0 -0.00011941609060352144 -0.014628988755542364 0 -3.7022970970997465e-05 -0.015000132175449512 0 -2.2067542717472532e-05 -0.014870899308088974 0 -0.00011941609060352144 -0.014628988755542364 0 -0.00011458853893649388 -0.014469343810041486 0 -0.00013346899232446235 -0.014452218155129861 0 -0.00010612842161508658 -0.01452032573592652 0 -3.7022970970997465e-05 -0.015000132175449512 0 -2.2067542717472532e-05 -0.014870899308088974 0 5.4622586537017897e-06 -0.014976864045837155 0 -2.2067542717472532e-05 -0.014870899308088974 0 5.4622586537017897e-06 -0.014976864045837155 0 -6.4325765655028899e-06 -0.014956662959828494 0 1.3396423525679707e-08 -0.014999928512941629 0 5.4622586537017897e-06 -0.014976864045837155 0 -6.4325765655028899e-06 -0.014956662959828494 0 1.3396423525679707e-08 -0.014999928512941629 0 5.4622586537017897e-06 -0.014976864045837155 0 1.9798713323931614e-11 -0.015000005751715256 0 5.4622586537017897e-06 -0.014976864045837155 0 -3.6693271407921473e-06 -0.0149985905941589 0 1.9798713323931614e-11 -0.015000005751715256 0 -3.7022970970997465e-05 -0.015000132175449512 0 5.4622586537017897e-06 -0.014976864045837155 0 -3.6693271407921473e-06 -0.0149985905941589 0 -3.7022970970997465e-05 -0.015000132175449512 0 5.4682389074580731e-06 -0.014995205007620681 0 -3.6693271407921473e-06 -0.0149985905941589 0 5.4682389074580731e-06 -0.014995205007620681 0 -3.6693271407921473e-06 -0.0149985905941589 0 -6.5101138752002456e-06 -0.014983328238052479 0 -3.6693271407921473e-06 -0.0149985905941589 0 1.9798713323931614e-11 -0.015000005751715256 0 -6.5101138752002456e-06 -0.014983328238052479 0 -1.627321781562522e-08 -0.014999953413112032 0 1.9798713323931614e-11 -0.015000005751715256 0 -6.5101138752002456e-06 -0.014983328238052479 0 3.3579853043308552e-06 -0.014923791924812161 0 5.4682389074580731e-06 -0.014995205007620681 0 -6.5101138752002456e-06 -0.014983328238052479 0 5.6871526716863477e-06 -0.014908968052352338 0 -1.3041872951203785e-05 -0.01476923271137124 0 -0.00013405627494361179 -0.014895133726112545 0 3.3579853043308552e-06 -0.014923791924812161 0 -1.5420562366823395e-05 -0.014525396132621106 0 -0.00013405627494361179 -0.014895133726112545 0 -1.5420562366823395e-05 -0.014525396132621106 0 -0.00017219088943748546 -0.014466198556250854 0 -0.0001922472624216485 -0.014558205044513514 0 -0.0001663625572325708 -0.014498448478112075 0 -0.00011977603110567942 -0.014459253290385098 0 -1.5420562366823395e-05 -0.014525396132621106 0 -0.00017219088943748546 -0.014466198556250854 0 -8.0038231273599916e-05 -0.014722606915718516 0 -1.3041872951203785e-05 -0.01476923271137124 0 -0.00013346899232446235 -0.014452218155129861 0 -0.00011977603110567942 -0.014459253290385098 0 -1.5420562366823395e-05 -0.014525396132621106 0 -0.00012477425526932702 -0.014456204599611364 0 -0.00017219088943748546 -0.014466198556250854 0 -0.00011023406538440084 -0.01442549760544823 0 -0.00011977603110567942 -0.014459253290385098 0 -0.00012477425526932702 -0.014456204599611364 0 -0.00017219088943748546 -0.014466198556250854 0 -0.00017219088943748546 -0.014466198556250854 0 -0.00012870230810361631 -0.014349256317638203 0 -0.00011023406538440084 -0.01442549760544823 0 -0.00020979318209769185 -0.014302462462193547 0 -0.00017219088943748546 -0.014466198556250854 0 -0.00012870230810361631 -0.014349256317638203 0 -7.5563084688466737e-05 -0.014303452795519639 0 -0.00012870230810361631 -0.014349256317638203 0 -8.1498310272599657e-05 -0.014364958439925933 0 -0.00012870230810361631 -0.014349256317638203 0 -8.1498310272599657e-05 -0.014364958439925933 0 -0.00011023406538440084 -0.01442549760544823 0 -7.5563084688466737e-05 -0.014303452795519639 0 -8.1498310272599657e-05 -0.014364958439925933 0 -4.4117651418007838e-05 -0.014339264284272298 0 -8.1498310272599657e-05 -0.014364958439925933 0 -4.4117651418007838e-05 -0.014339264284272298 0 -6.30276668996378e-05 -0.014394981198762835 0 -4.4117651418007838e-05 -0.014339264284272298 0 -6.30276668996378e-05 -0.014394981198762835 0 -2.5106677329085956e-05 -0.014363951757984187 0 -6.30276668996378e-05 -0.014394981198762835 0 -2.5106677329085956e-05 -0.014363951757984187 0 -3.5078484309074058e-05 -0.014409536338284755 0 -6.30276668996378e-05 -0.014394981198762835 0 -0.00011023406538440084 -0.01442549760544823 0 -8.4968774248245666e-05 -0.014440474759352263 0 -0.00012477425526932702 -0.014456204599611364 0 -0.00011023406538440084 -0.01442549760544823 0 -8.4968774248245666e-05 -0.014440474759352263 0 -8.1498310272599657e-05 -0.014364958439925933 0 -6.30276668996378e-05 -0.014394981198762835 0 -0.00011023406538440084 -0.01442549760544823 0 -7.2256027769649774e-05 -0.014409576086851637 0 6.2094387308098901e-05 -0.014260743534809573 0 3.4111487373839189e-05 -0.014239389768474419 0 4.3872858814740211e-06 -0.01430931457933677 0 1.3963024261318223e-05 -0.014323759307413267 0 -4.4117651418007838e-05 -0.014339264284272298 0 4.3872858814740211e-06 -0.01430931457933677 0 -2.5106677329085956e-05 -0.014363951757984187 0 -3.2118577024609327e-05 -0.014287625023335977 0 -4.4117651418007838e-05 -0.014339264284272298 0 4.3872858814740211e-06 -0.01430931457933677 0 -2.5106677329085956e-05 -0.014363951757984187 0 1.3963024261318223e-05 -0.014323759307413267 0 -1.5340301897272225e-05 -0.014373588492916036 0 4.3872858814740211e-06 -0.01430931457933677 0 -2.5106677329085956e-05 -0.014363951757984187 0 1.3963024261318223e-05 -0.014323759307413267 0 3.9389994582962942e-05 -0.014325683940198793 0 1.3963024261318223e-05 -0.014323759307413267 0 9.1776788007150665e-06 -0.014359474534545577 0 1.3963024261318223e-05 -0.014323759307413267 0 9.1776788007150665e-06 -0.014359474534545577 0 -1.5340301897272225e-05 -0.014373588492916036 0 9.1776788007150665e-06 -0.014359474534545577 0 -1.8860532223443484e-05 -0.014393270154153844 0 -1.2751054275728816e-05 -0.014384702054000133 0 9.1776788007150665e-06 -0.014359474534545577 0 -1.5340301897272225e-05 -0.014373588492916036 0 -1.8860532223443484e-05 -0.014393270154153844 0 -1.5340301897272225e-05 -0.014373588492916036 0 -1.8860532223443484e-05 -0.014393270154153844 0 -3.5078484309074058e-05 -0.014409536338284755 0 -1.8860532223443484e-05 -0.014393270154153844 0 -3.5078484309074058e-05 -0.014409536338284755 0 -1.6757101543988996e-05 -0.014434008917420067 0 -2.5106677329085956e-05 -0.014363951757984187 0 -1.5340301897272225e-05 -0.014373588492916036 0 -3.5078484309074058e-05 -0.014409536338284755 0 -1.8860532223443484e-05 -0.014393270154153844 0 -4.1482785657949492e-05 -0.01438074880185854 0 -1.6757101543988996e-05 -0.014434008917420067 0 -1.8860532223443484e-05 -0.014393270154153844 0 -1.2751054275728816e-05 -0.014384702054000133 0 -4.1482785657949492e-05 -0.01438074880185854 0 -4.1482785657949492e-05 -0.01438074880185854 0 -0.00010361667132110287 -0.014395859788402344 0 -9.1489734559076899e-05 -0.014327975311139201 0 -1.2751054275728816e-05 -0.014384702054000133 0 -4.1482785657949492e-05 -0.01438074880185854 0 5.7610263659562098e-06 -0.014389693573091731 0 -0.00038984837221095334 -0.014150341601051959 0 -3.3627315051565723e-05 -0.012510429252104558 0 9.1776788007150665e-06 -0.014359474534545577 0 -1.2751054275728816e-05 -0.014384702054000133 0 5.7610263659562098e-06 -0.014389693573091731 0 -9.6093495700170909e-05 -0.014483413149883382 0 -8.4968774248245666e-05 -0.014440474759352263 0 -6.1738085613792908e-05 -0.014449204980195682 0 -6.30276668996378e-05 -0.014394981198762835 0 -8.4968774248245666e-05 -0.014440474759352263 0 -3.5078484309074058e-05 -0.014409536338284755 0 -8.4968774248245666e-05 -0.014440474759352263 0 -3.5078484309074058e-05 -0.014409536338284755 0 -6.1738085613792908e-05 -0.014449204980195682 0 -3.5078484309074058e-05 -0.014409536338284755 0 -1.6757101543988996e-05 -0.014434008917420067 0 -6.1738085613792908e-05 -0.014449204980195682 0 -1.6757101543988996e-05 -0.014434008917420067 0 -7.0531761559186257e-05 -0.014493986713990471 0 -6.1738085613792908e-05 -0.014449204980195682 0 -9.6093495700170909e-05 -0.014483413149883382 0 -7.0531761559186257e-05 -0.014493986713990471 0 -9.6768253466479826e-05 -0.014537948302013834 0 -9.6093495700170909e-05 -0.014483413149883382 0 -7.0531761559186257e-05 -0.014493986713990471 0 -6.1738085613792908e-05 -0.014449204980195682 0 -7.0531761559186257e-05 -0.014493986713990471 0 -8.6631655088564372e-05 -0.014535149964768446 0 -4.5554263811847196e-05 -0.014528492052552085 0 -7.0531761559186257e-05 -0.014493986713990471 0 -8.6631655088564372e-05 -0.014535149964768446 0 -9.6768253466479826e-05 -0.014537948302013834 0 -1.6757101543988996e-05 -0.014434008917420067 0 -7.0531761559186257e-05 -0.014493986713990471 0 -4.5554263811847196e-05 -0.014528492052552085 0 -1.4578552239158253e-05 -0.01438750689784718 0 -1.9739537029765697e-06 -0.014521879421812397 0 -1.9739537029765697e-06 -0.014521879421812397 0 -0.00015936072980030343 -0.013863796759424745 0 2.9686687316526799e-05 -0.014310395852764923 0 -3.6954064401284224e-05 -0.014239285678829041 0 3.6850100212287898e-05 -0.014194220040283659 0 -4.5554263811847196e-05 -0.014528492052552085 0 -7.8972191086535594e-05 -0.014540881759547809 0 -7.0913690097793001e-05 -0.01454097600703939 0 -8.6631655088564372e-05 -0.014535149964768446 0 -4.5554263811847196e-05 -0.014528492052552085 0 -7.8972191086535594e-05 -0.014540881759547809 0 -7.8972191086535594e-05 -0.014540881759547809 0 -8.8149471356836306e-05 -0.014539943845330189 0 -9.3595061489253523e-05 -0.014545220908045811 0 -8.6631655088564372e-05 -0.014535149964768446 0 -7.8972191086535594e-05 -0.014540881759547809 0 -9.3595061489253523e-05 -0.014545220908045811 0 -0.00015329716775189884 -0.014288721484348874 0 -0.00010361667132110287 -0.014395859788402344 0 -9.1489734559076899e-05 -0.014327975311139201 0 -0.00015329716775189884 -0.014288721484348874 0 -0.00010208177095507246 -0.014290768575066297 0 -9.1489734559076899e-05 -0.014327975311139201 0 -0.00015329716775189884 -0.014288721484348874 0 -0.00010208177095507246 -0.014290768575066297 0 -0.00010115777161318858 -0.014272853824169722 0 -4.1482785657949492e-05 -0.01438074880185854 0 -9.1489734559076899e-05 -0.014327975311139201 0 -3.5200839304373053e-05 -0.014326980144222188 0 -0.00010208177095507246 -0.014290768575066297 0 -9.1489734559076899e-05 -0.014327975311139201 0 -7.0357403950992804e-05 -0.014291645595196623 0 -9.1489734559076899e-05 -0.014327975311139201 0 -3.5200839304373053e-05 -0.014326980144222188 0 -7.0357403950992804e-05 -0.014291645595196623 0 -4.1482785657949492e-05 -0.01438074880185854 0 -1.6757101543988996e-05 -0.014434008917420067 0 -3.5200839304373053e-05 -0.014326980144222188 0 -1.6757101543988996e-05 -0.014434008917420067 0 2.9686687316526799e-05 -0.014310395852764923 0 -3.5200839304373053e-05 -0.014326980144222188 0 -3.5200839304373053e-05 -0.014326980144222188 0 -3.6954064401284224e-05 -0.014239285678829041 0 -7.0357403950992804e-05 -0.014291645595196623 0 2.9686687316526799e-05 -0.014310395852764923 0 -3.5200839304373053e-05 -0.014326980144222188 0 -3.6954064401284224e-05 -0.014239285678829041 0 -0.00067103608576330571 -0.011980135240499968 0 -0.00037296925149533033 -0.011985074355292344 0 -0.00032630981900422679 -0.01181276009919347 0 -0.00036575965775651457 -0.013114548502641057 0 -0.00037614536073865925 -0.012524315635963351 0 -3.6954064401284224e-05 -0.014239285678829041 0 -7.0357403950992804e-05 -0.014291645595196623 0 -0.00010115777161318858 -0.014272853824169722 0 -0.00067103608576330571 -0.011980135240499968 0 -0.00037296925149533033 -0.011985074355292344 0 -0.00032027226459020437 -0.012191737498154245 0 -0.00017814854136887607 -0.011959015370961871 0 -0.00037296925149533033 -0.011985074355292344 0 -0.00032027226459020437 -0.012191737498154245 0 -0.00017814854136887607 -0.011959015370961871 0 -0.00037296925149533033 -0.011985074355292344 0 -0.00032630981900422679 -0.01181276009919347 0 -0.00010208177095507246 -0.014290768575066297 0 -7.0357403950992804e-05 -0.014291645595196623 0 -0.00010115777161318858 -0.014272853824169722 0 -0.00067103608576330571 -0.011980135240499968 0 -0.00032027226459020437 -0.012191737498154245 0 -0.00067780737856337943 -0.012353082237197723 0 -0.00032027226459020437 -0.012191737498154245 0 -0.00067780737856337943 -0.012353082237197723 0 -0.00045260472483652203 -0.012448317049904456 0 -0.00036575965775651457 -0.013114548502641057 0 -0.00015936072980030343 -0.013863796759424745 0 -0.00067103608576330571 -0.011980135240499968 0 -0.00067780737856337943 -0.012353082237197723 0 -0.001016040377037279 -0.012174724100853086 0 -0.00067780737856337943 -0.012353082237197723 0 -0.00057959176480089434 -0.012727464238555454 0 -0.0010432020986078953 -0.012638059231534186 0 -0.00067780737856337943 -0.012353082237197723 0 -0.00057959176480089434 -0.012727464238555454 0 -0.00045260472483652203 -0.012448317049904456 0 -0.00023301903658557677 -0.012520811554223934 0 -0.00057959176480089434 -0.012727464238555454 0 -0.00045260472483652203 -0.012448317049904456 0 -0.00023301903658557677 -0.012520811554223934 0 -0.00057959176480089434 -0.012727464238555454 0 -0.0001660611719520556 -0.012782215747031396 0 -0.00023301903658557677 -0.012520811554223934 0 -0.00032027226459020437 -0.012191737498154245 0 -0.00045260472483652203 -0.012448317049904456 0 -8.7667735894029266e-05 -0.014535191425980474 0 -8.8149471356836306e-05 -0.014539943845330189 0 -8.527311371056231e-05 -0.014531682151942452 0 -7.8972191086535594e-05 -0.014540881759547809 0 -8.7667735894029266e-05 -0.014535191425980474 0 -8.8149471356836306e-05 -0.014539943845330189 0 -0.00015936072980030343 -0.013863796759424745 0 -0.0005950618446274238 -0.013483927420654662 0 -7.8972191086535594e-05 -0.014540881759547809 0 -8.7667735894029266e-05 -0.014535191425980474 0 -7.0913690097793001e-05 -0.01454097600703939 0 -8.7667735894029266e-05 -0.014535191425980474 0 -9.9762701787605172e-05 -0.014534771708189995 0 -0.00010164035893071204 -0.014518196125637423 0 -0.00067780737856337943 -0.012353082237197723 0 -0.001016040377037279 -0.012174724100853086 0 -0.0010432020986078953 -0.012638059231534186 0 -0.00018289513682297412 -0.014513890954860872 0 -0.00015936072980030343 -0.013863796759424745 0 -8.7667735894029266e-05 -0.014535191425980474 0 -8.7307216666603342e-05 -0.014527310964043508 0 -8.527311371056231e-05 -0.014531682151942452 0 -0.00010164035893071204 -0.014518196125637423 0 -8.7307216666603342e-05 -0.014527310964043508 0 -8.9344179678627991e-05 -0.014519128552584708 0 -8.7667735894029266e-05 -0.014535191425980474 0 -0.00010164035893071204 -0.014518196125637423 0 -8.7307216666603342e-05 -0.014527310964043508 0 -8.7307216666603342e-05 -0.014527310964043508 0 -8.3944158788360818e-05 -0.014525357637329697 0 -8.9344179678627991e-05 -0.014519128552584708 0 -8.3944158788360818e-05 -0.014525357637329697 0 -7.8348217216760139e-05 -0.014524587482299138 0 -8.1399825991340861e-05 -0.014521495146506917 0 -8.3944158788360818e-05 -0.014525357637329697 0 -7.8348217216760139e-05 -0.014524587482299138 0 -8.527311371056231e-05 -0.014531682151942452 0 -7.8348217216760139e-05 -0.014524587482299138 0 -7.9289174577545419e-05 -0.014528170074995949 0 -8.527311371056231e-05 -0.014531682151942452 0 -8.7307216666603342e-05 -0.014527310964043508 0 -8.3944158788360818e-05 -0.014525357637329697 0 -8.527311371056231e-05 -0.014531682151942452 0 -7.5511982006794704e-05 -0.014523797514381773 0 -7.8348217216760139e-05 -0.014524587482299138 0 -7.3717935177157365e-05 -0.014524599010956089 0 -7.8348217216760139e-05 -0.014524587482299138 0 -7.9289174577545419e-05 -0.014528170074995949 0 -7.3717935177157365e-05 -0.014524599010956089 0 -7.0362189288573058e-05 -0.014528453733958158 0 -7.9289174577545419e-05 -0.014528170074995949 0 -7.3717935177157365e-05 -0.014524599010956089 0 -7.0362189288573058e-05 -0.014528453733958158 0 -7.9289174577545419e-05 -0.014528170074995949 0 -9.0791118522769553e-05 -0.014539787346621886 0 -7.9289174577545419e-05 -0.014528170074995949 0 -8.527311371056231e-05 -0.014531682151942452 0 -9.0791118522769553e-05 -0.014539787346621886 0 -8.8149471356836306e-05 -0.014539943845330189 0 -8.527311371056231e-05 -0.014531682151942452 0 -9.0791118522769553e-05 -0.014539787346621886 0 -8.6631655088564372e-05 -0.014535149964768446 0 -9.3595061489253523e-05 -0.014545220908045811 0 -0.00010475465085434497 -0.014559730955089945 0 -8.8149471356836306e-05 -0.014539943845330189 0 -9.3595061489253523e-05 -0.014545220908045811 0 -9.0791118522769553e-05 -0.014539787346621886 0 -9.3595061489253523e-05 -0.014545220908045811 0 -9.0791118522769553e-05 -0.014539787346621886 0 -0.00010475465085434497 -0.014559730955089945 0 -7.0362189288573058e-05 -0.014528453733958158 0 -9.0616043665577543e-05 -0.014549775348539302 0 -2.9114292038472062e-05 -0.01453738907880371 0 -7.0362189288573058e-05 -0.014528453733958158 0 -9.0791118522769553e-05 -0.014539787346621886 0 -9.0616043665577543e-05 -0.014549775348539302 0 -9.0791118522769553e-05 -0.014539787346621886 0 -9.0616043665577543e-05 -0.014549775348539302 0 -0.00010475465085434497 -0.014559730955089945 0 -9.0616043665577543e-05 -0.014549775348539302 0 -0.00011941609060352144 -0.014628988755542364 0 -0.00010475465085434497 -0.014559730955089945 0 -0.00010612842161508658 -0.01452032573592652 0 -0.00011941609060352144 -0.014628988755542364 0 -9.6768253466479826e-05 -0.014537948302013834 0 -9.0616043665577543e-05 -0.014549775348539302 0 -0.00011941609060352144 -0.014628988755542364 0 -2.9114292038472062e-05 -0.01453738907880371 0 -8.6631655088564372e-05 -0.014535149964768446 0 -9.6768253466479826e-05 -0.014537948302013834 0 -0.00010475465085434497 -0.014559730955089945 0 -0.00011941609060352144 -0.014628988755542364 0 -9.6768253466479826e-05 -0.014537948302013834 0 -0.00010475465085434497 -0.014559730955089945 0 -6.4325765655028899e-06 -0.014956662959828494 0 8.7433949352163076e-06 -0.014988487834231599 0 -2.2356068123041555e-08 -0.014999970235292346 0 1.3396423525679707e-08 -0.014999928512941629 0 -6.4325765655028899e-06 -0.014956662959828494 0 -2.2356068123041555e-08 -0.014999970235292346 0 -2.2067542717472532e-05 -0.014870899308088974 0 -0.00011941609060352144 -0.014628988755542364 0 -2.9114292038472062e-05 -0.01453738907880371 0 -2.5429620570644741e-05 -0.014869828761689744 0 -1.3397218465442094e-05 -0.01477620263312885 0 -2.2067542717472532e-05 -0.014870899308088974 0 -6.4325765655028899e-06 -0.014956662959828494 0 8.7433949352163076e-06 -0.014988487834231599 0 -1.3397218465442094e-05 -0.01477620263312885 0 -3.0501632705780964e-05 -0.014742726092749828 0 8.7433949352163076e-06 -0.014988487834231599 0 2.5681826876705157e-06 -0.014996522454758235 0 2.481136046265527e-06 -0.014999823699711612 0 8.7433949352163076e-06 -0.014988487834231599 0 2.5681826876705157e-06 -0.014996522454758235 0 -2.2356068123041555e-08 -0.014999970235292346 0 2.5681826876705157e-06 -0.014996522454758235 0 -2.2356068123041555e-08 -0.014999970235292346 0 7.7800561650505923e-09 -0.015000005127444262 0 2.5681826876705157e-06 -0.014996522454758235 0 7.7800561650505923e-09 -0.015000005127444262 0 2.481136046265527e-06 -0.014999823699711612 0 -7.0362189288573058e-05 -0.014528453733958158 0 -2.9114292038472062e-05 -0.01453738907880371 0 -6.7581487731838887e-05 -0.014525313983179543 0 -7.0362189288573058e-05 -0.014528453733958158 0 -6.7581487731838887e-05 -0.014525313983179543 0 -7.3717935177157365e-05 -0.014524599010956089 0 -6.7581487731838887e-05 -0.014525313983179543 0 -7.3717935177157365e-05 -0.014524599010956089 0 -7.5502965111196482e-05 -0.014524121361397031 0 -7.3717935177157365e-05 -0.014524599010956089 0 -7.5502965111196482e-05 -0.014524121361397031 0 -7.5539584751064853e-05 -0.014523860925880813 0 -7.5511982006794704e-05 -0.014523797514381773 0 -7.3717935177157365e-05 -0.014524599010956089 0 -7.5539584751064853e-05 -0.014523860925880813 0 7.7800561650505923e-09 -0.015000005127444262 0 2.481136046265527e-06 -0.014999823699711612 0 4.6290953183159604e-07 -0.014999808586777288 0 7.7800561650505923e-09 -0.015000005127444262 0 4.6290953183159604e-07 -0.014999808586777288 0 -1.6518317935773824e-09 -0.014999996671851345 0 2.481136046265527e-06 -0.014999823699711612 0 4.6290953183159604e-07 -0.014999808586777288 0 -4.0249688615087022e-07 -0.014999169378177673 0 -6.7581487731838887e-05 -0.014525313983179543 0 -7.5502965111196482e-05 -0.014524121361397031 0 -8.3875029599240924e-05 -0.014524125432659877 0 -3.0501632705780964e-05 -0.014742726092749828 0 -3.0349929303103003e-05 -0.014854304176400344 0 4.6290953183159604e-07 -0.014999808586777288 0 -1.6518317935773824e-09 -0.014999996671851345 0 8.5048907899962371e-08 -0.01499956780825281 0 4.6290953183159604e-07 -0.014999808586777288 0 8.5048907899962371e-08 -0.01499956780825281 0 -4.0249688615087022e-07 -0.014999169378177673 0 -1.6518317935773824e-09 -0.014999996671851345 0 8.5048907899962371e-08 -0.01499956780825281 0 3.5598538720074261e-08 -0.014999644568919321 0 2.3398083524980501e-06 -0.014944850130326605 0 -3.0349929303103003e-05 -0.014854304176400344 0 -8.3875029599240924e-05 -0.014524125432659877 0 -7.9878224126976049e-05 -0.014524425962622293 0 -8.3560338055999378e-05 -0.014528581840313 0 -7.5502965111196482e-05 -0.014524121361397031 0 -8.3875029599240924e-05 -0.014524125432659877 0 -7.9878224126976049e-05 -0.014524425962622293 0 -7.5502965111196482e-05 -0.014524121361397031 0 -7.5539584751064853e-05 -0.014523860925880813 0 -7.9878224126976049e-05 -0.014524425962622293 0 -7.9878224126976049e-05 -0.014524425962622293 0 -7.5869726725278413e-05 -0.014524305019669111 0 -7.873993178305335e-05 -0.01452557842029947 0 -7.5511982006794704e-05 -0.014523797514381773 0 -7.5539584751064853e-05 -0.014523860925880813 0 -7.5869726725278413e-05 -0.014524305019669111 0 -7.5539584751064853e-05 -0.014523860925880813 0 -7.9878224126976049e-05 -0.014524425962622293 0 -7.5869726725278413e-05 -0.014524305019669111 0 -7.5869726725278413e-05 -0.014524305019669111 0 -7.873993178305335e-05 -0.01452557842029947 0 -7.4741484078278162e-05 -0.014526803091203236 0 -7.873993178305335e-05 -0.01452557842029947 0 -7.4741484078278162e-05 -0.014526803091203236 0 -8.3560338055999378e-05 -0.014528581840313 0 -7.9878224126976049e-05 -0.014524425962622293 0 -7.873993178305335e-05 -0.01452557842029947 0 -8.3560338055999378e-05 -0.014528581840313 0 -8.3560338055999378e-05 -0.014528581840313 0 -6.9529926920992901e-05 -0.014532723571741043 0 -0.00010262615874747356 -0.014547998479184724 0 -8.3875029599240924e-05 -0.014524125432659877 0 -8.3560338055999378e-05 -0.014528581840313 0 -0.00010262615874747356 -0.014547998479184724 0 -7.4741484078278162e-05 -0.014526803091203236 0 -8.3560338055999378e-05 -0.014528581840313 0 -6.9529926920992901e-05 -0.014532723571741043 0 -1.6518317935773824e-09 -0.014999996671851345 0 3.5598538720074261e-08 -0.014999644568919321 0 6.5671569328968749e-10 -0.015000000886492169 0 -3.0349929303103003e-05 -0.014854304176400344 0 -2.6323540066411185e-08 -0.01500021747714644 0 -3.0349929303103003e-05 -0.014854304176400344 0 -5.9489738189688283e-05 -0.014758292376113931 0 -3.6805560641590841e-06 -0.015001718374790576 0 -5.9992131025834824e-06 -0.015001242777464547 0 -8.8470033782844435e-09 -0.015000016800269087 0 -8.1399825991340861e-05 -0.014521495146506917 0 -7.4663917566347894e-05 -0.014522718433224332 0 -8.7272035046519208e-05 -0.014512350728787381 0 -7.8348217216760139e-05 -0.014524587482299138 0 -8.1399825991340861e-05 -0.014521495146506917 0 -7.4663917566347894e-05 -0.014522718433224332 0 -8.3944158788360818e-05 -0.014525357637329697 0 -8.1399825991340861e-05 -0.014521495146506917 0 -8.9344179678627991e-05 -0.014519128552584708 0 -7.5511982006794704e-05 -0.014523797514381773 0 -7.8348217216760139e-05 -0.014524587482299138 0 -7.4663917566347894e-05 -0.014522718433224332 0 -7.5511982006794704e-05 -0.014523797514381773 0 -7.5869726725278413e-05 -0.014524305019669111 0 -7.4663917566347894e-05 -0.014522718433224332 0 -7.5869726725278413e-05 -0.014524305019669111 0 -7.4741484078278162e-05 -0.014526803091203236 0 -7.4663917566347894e-05 -0.014522718433224332 0 -9.7502785179388022e-05 -0.014512904287728348 0 5.0730901974428188e-05 -0.014591491214353618 0 -6.9529926920992901e-05 -0.014532723571741043 0 -7.4663917566347894e-05 -0.014522718433224332 0 -8.108415810691711e-05 -0.014505866396435297 0 -7.4741484078278162e-05 -0.014526803091203236 0 -6.9529926920992901e-05 -0.014532723571741043 0 -7.4663917566347894e-05 -0.014522718433224332 0 -7.4663917566347894e-05 -0.014522718433224332 0 -8.108415810691711e-05 -0.014505866396435297 0 -8.7272035046519208e-05 -0.014512350728787381 0 5.5103933347485146e-05 -0.014562481903950668 0 -3.2687992553685089e-05 -0.014596078322387107 0 5.7546348475311366e-05 -0.014679827915052433 0 -6.9529926920992901e-05 -0.014532723571741043 0 5.5103933347485146e-05 -0.014562481903950668 0 -3.2687992553685089e-05 -0.014596078322387107 0 -3.2687992553685089e-05 -0.014596078322387107 0 5.7546348475311366e-05 -0.014679827915052433 0 -8.1815116294235975e-05 -0.014658330657839148 0 5.7546348475311366e-05 -0.014679827915052433 0 -8.1815116294235975e-05 -0.014658330657839148 0 -2.0810339713208233e-05 -0.014831743983171044 0 -1.6504642400100577e-06 -0.014992084834247039 0 -8.8470033782844435e-09 -0.015000016800269087 0 1.4848840533532229e-08 -0.01499993705821424 0 -5.9992131025834824e-06 -0.015001242777464547 0 -1.6504642400100577e-06 -0.014992084834247039 0 -8.8470033782844435e-09 -0.015000016800269087 0 -6.9529926920992901e-05 -0.014532723571741043 0 -0.00010262615874747356 -0.014547998479184724 0 -3.2687992553685089e-05 -0.014596078322387107 0 -5.9992131025834824e-06 -0.015001242777464547 0 -1.6504642400100577e-06 -0.014992084834247039 0 -2.2766176034522369e-05 -0.014974406651915092 0 -5.9489738189688283e-05 -0.014758292376113931 0 -4.5886363755348875e-05 -0.014820623216671897 0 -0.00010262615874747356 -0.014547998479184724 0 -3.2687992553685089e-05 -0.014596078322387107 0 -8.1815116294235975e-05 -0.014658330657839148 0 -1.6504642400100577e-06 -0.014992084834247039 0 -2.2766176034522369e-05 -0.014974406651915092 0 -2.5108670130070321e-07 -0.014943892372177019 0 -1.6504642400100577e-06 -0.014992084834247039 0 1.4848840533532229e-08 -0.01499993705821424 0 -2.5108670130070321e-07 -0.014943892372177019 0 1.4848840533532229e-08 -0.01499993705821424 0 -2.1671789151620846e-09 -0.014999906304958151 0 -2.5108670130070321e-07 -0.014943892372177019 0 -2.1671789151620846e-09 -0.014999906304958151 0 -2.5108670130070321e-07 -0.014943892372177019 0 -7.7076374372791751e-06 -0.014918582207814175 0 -2.5108670130070321e-07 -0.014943892372177019 0 -2.0810339713208233e-05 -0.014831743983171044 0 -7.7076374372791751e-06 -0.014918582207814175 0 -2.2766176034522369e-05 -0.014974406651915092 0 -2.5108670130070321e-07 -0.014943892372177019 0 -2.0810339713208233e-05 -0.014831743983171044 0 -4.5886363755348875e-05 -0.014820623216671897 0 -2.4949330196620722e-05 -0.014835147473636533 0 5.7546348475311366e-05 -0.014679827915052433 0 -2.0810339713208233e-05 -0.014831743983171044 0 6.3124900367191733e-05 -0.014761946386606826 0 -2.0810339713208233e-05 -0.014831743983171044 0 1.4435098951059731e-05 -0.014838544349491277 0 6.3124900367191733e-05 -0.014761946386606826 0 -2.0810339713208233e-05 -0.014831743983171044 0 1.4435098951059731e-05 -0.014838544349491277 0 -7.7076374372791751e-06 -0.014918582207814175 0 1.4435098951059731e-05 -0.014838544349491277 0 1.0781594268751928e-05 -0.014889678116804242 0 -7.7076374372791751e-06 -0.014918582207814175 0 1.4435098951059731e-05 -0.014838544349491277 0 1.0781594268751928e-05 -0.014889678116804242 0 6.7729663894514004e-05 -0.014821728215905166 0 1.4435098951059731e-05 -0.014838544349491277 0 6.7729663894514004e-05 -0.014821728215905166 0 6.3124900367191733e-05 -0.014761946386606826 0 1.0781594268751928e-05 -0.014889678116804242 0 3.8829146740704776e-05 -0.014884748477406935 0 6.7729663894514004e-05 -0.014821728215905166 0 3.8829146740704776e-05 -0.014884748477406935 0 6.7729663894514004e-05 -0.014821728215905166 0 7.5841493546436651e-05 -0.014877409392293213 0 1.0781594268751928e-05 -0.014889678116804242 0 3.8829146740704776e-05 -0.014884748477406935 0 1.3744683506362771e-05 -0.014920607395512802 0 1.0781594268751928e-05 -0.014889678116804242 0 1.3744683506362771e-05 -0.014920607395512802 0 -2.9041911422337175e-06 -0.014954709574261928 0 -2.9041911422337175e-06 -0.014954709574261928 0 -1.2034319047575651e-08 -0.014999926233520096 0 -5.8006275640337905e-09 -0.014999964408673034 0 -2.1671789151620846e-09 -0.014999906304958151 0 -1.2034319047575651e-08 -0.014999926233520096 0 -7.7076374372791751e-06 -0.014918582207814175 0 -2.9041911422337175e-06 -0.014954709574261928 0 -1.2034319047575651e-08 -0.014999926233520096 0 -7.7076374372791751e-06 -0.014918582207814175 0 1.0781594268751928e-05 -0.014889678116804242 0 -2.9041911422337175e-06 -0.014954709574261928 0 -7.7076374372791751e-06 -0.014918582207814175 0 0.00034279104238246825 -0.014784919527326936 0 0.00023206380704248521 -0.014780821241125284 0 0.00022327102349830273 -0.014671741711329692 0 0.00023206380704248521 -0.014780821241125284 0 0.00015038728712719082 -0.014770698761105691 0 0.00022327102349830273 -0.014671741711329692 0 0.00034279104238246825 -0.014784919527326936 0 0.00022327102349830273 -0.014671741711329692 0 0.00039727703294681577 -0.014534766776905409 0 0.00036876194583681312 -0.014674312488592521 0 0.00022732080232747891 -0.014803504125188782 0 0.00034279104238246825 -0.014784919527326936 0 0.00023206380704248521 -0.014780821241125284 0 0.00021600427151476675 -0.014815315469037747 0 0.00023206380704248521 -0.014780821241125284 0 0.00014514161104610477 -0.014835448423590764 0 0.00015038728712719082 -0.014770698761105691 0 0.00023206380704248521 -0.014780821241125284 0 0.00014514161104610477 -0.014835448423590764 0 0.00021600427151476675 -0.014815315469037747 0 0.00014514161104610477 -0.014835448423590764 0 6.7729663894514004e-05 -0.014821728215905166 0 7.5841493546436651e-05 -0.014877409392293213 0 0.00014514161104610477 -0.014835448423590764 0 6.7729663894514004e-05 -0.014821728215905166 0 0.00015038728712719082 -0.014770698761105691 0 6.7729663894514004e-05 -0.014821728215905166 0 6.3124900367191733e-05 -0.014761946386606826 0 0.00011525848245386221 -0.014725339371995012 0 6.7729663894514004e-05 -0.014821728215905166 0 0.00015038728712719082 -0.014770698761105691 0 0.00011525848245386221 -0.014725339371995012 0 0.00015038728712719082 -0.014770698761105691 0 0.00011525848245386221 -0.014725339371995012 0 0.00022327102349830273 -0.014671741711329692 0 0.00014338416591041112 -0.014606147936064427 0 0.00011525848245386221 -0.014725339371995012 0 0.00022327102349830273 -0.014671741711329692 0 0.00014338416591041112 -0.014606147936064427 0 6.3124900367191733e-05 -0.014761946386606826 0 0.00011525848245386221 -0.014725339371995012 0 0.00014663878891085818 -0.014658480739509703 0 6.960691671959456e-05 -0.014741621446901639 0 5.7546348475311366e-05 -0.014679827915052433 0 6.3124900367191733e-05 -0.014761946386606826 0 9.0267336184753018e-05 -0.014681559482521608 0 0.0001381166124759013 -0.014708862421545042 0 6.3124900367191733e-05 -0.014761946386606826 0 9.0267336184753018e-05 -0.014681559482521608 0 0.0001381166124759013 -0.014708862421545042 0 0.00012623109865483973 -0.014607659284179125 0 0.0003174697171721162 -0.014610293841197141 0 0.0001381166124759013 -0.014708862421545042 0 9.0267336184753018e-05 -0.014681559482521608 0 0.00012623109865483973 -0.014607659284179125 0 0.00012623109865483973 -0.014607659284179125 0 0.0003174697171721162 -0.014610293841197141 0 0.0002386223917278417 -0.014463370667877744 0 0.00014663878891085818 -0.014658480739509703 0 0.00029714597026233122 -0.014537180560077688 0 0.00014338416591041112 -0.014606147936064427 0 0.00027310295901647924 -0.014468523882837113 0 0.00022327102349830273 -0.014671741711329692 0 0.00027310295901647924 -0.014468523882837113 0 0.00022327102349830273 -0.014671741711329692 0 0.00039727703294681577 -0.014534766776905409 0 0.00027310295901647924 -0.014468523882837113 0 0.00039727703294681577 -0.014534766776905409 0 0.00045786199596605502 -0.014327491113765521 0 0.00029714597026233122 -0.014537180560077688 0 0.00047939429771329213 -0.014393700498911298 0 0.0003174697171721162 -0.014610293841197141 0 0.00038456034198780872 -0.014345314553307495 0 0.00050615947483615407 -0.014464742762989846 0 0.0003174697171721162 -0.014610293841197141 0 0.0002386223917278417 -0.014463370667877744 0 0.00038456034198780872 -0.014345314553307495 0 -0.00048085353459613987 -0.013731905558394281 0 -0.0010796953333770776 -0.013587768478584509 0 -0.00065604347546266754 -0.013224571631208512 0 0.0002386223917278417 -0.014463370667877744 0 0.00038456034198780872 -0.014345314553307495 0 0.0001108184083544543 -0.014301810009852364 0 -0.0001068738066377311 -0.013997371137182369 0 -0.00023856356936438782 -0.014191227188658811 0 -0.00048085353459613987 -0.013731905558394281 0 -0.00023080073195880466 -0.013362885727271314 0 -6.0795109372025396e-05 -0.013599571656230217 0 -0.00048085353459613987 -0.013731905558394281 0 -0.00065604347546266754 -0.013224571631208512 0 -0.00023080073195880466 -0.013362885727271314 0 9.0267336184753018e-05 -0.014681559482521608 0 0.00012623109865483973 -0.014607659284179125 0 0.0001036932936740047 -0.014621940803758423 0 5.7546348475311366e-05 -0.014679827915052433 0 9.0267336184753018e-05 -0.014681559482521608 0 0.0001036932936740047 -0.014621940803758423 0 5.5103933347485146e-05 -0.014562481903950668 0 5.7546348475311366e-05 -0.014679827915052433 0 0.0001036932936740047 -0.014621940803758423 0 0.00012623109865483973 -0.014607659284179125 0 0.0002386223917278417 -0.014463370667877744 0 0.0001108184083544543 -0.014301810009852364 0 0.00012623109865483973 -0.014607659284179125 0 0.0001036932936740047 -0.014621940803758423 0 0.00012644558766584588 -0.014594191235725232 0 0.00019750718016916865 -0.014700736632519517 0 -0.00023856356936438782 -0.014191227188658811 0 5.5103933347485146e-05 -0.014562481903950668 0 0.0001036932936740047 -0.014621940803758423 0 0.00012644558766584588 -0.014594191235725232 0 5.0730901974428188e-05 -0.014591491214353618 0 -0.00023856356936438782 -0.014191227188658811 0 -8.108415810691711e-05 -0.014505866396435297 0 -0.00010389866770203017 -0.014490834293901498 0 -8.7272035046519208e-05 -0.014512350728787381 0 -0.0010796953333770776 -0.013587768478584509 0 -0.0010659254527842514 -0.013113484515330441 0 -0.00065604347546266754 -0.013224571631208512 0 -0.00023856356936438782 -0.014191227188658811 0 -0.00060589248572216563 -0.013800136389761563 0 -0.00010389866770203017 -0.014490834293901498 0 -8.7272035046519208e-05 -0.014512350728787381 0 -0.00010349971763983005 -0.014506350631095202 0 -0.0005950618446274238 -0.013483927420654662 0 -0.00060589248572216563 -0.013800136389761563 0 -0.0010432020986078953 -0.012638059231534186 0 -0.0010659254527842514 -0.013113484515330441 0 -0.00083671389993326105 -0.012925264774333091 0 -0.00010164035893071204 -0.014518196125637423 0 -0.00010349971763983005 -0.014506350631095202 0 -8.9344179678627991e-05 -0.014519128552584708 0 -8.7272035046519208e-05 -0.014512350728787381 0 -0.00010349971763983005 -0.014506350631095202 0 -8.9344179678627991e-05 -0.014519128552584708 0 -8.1399825991340861e-05 -0.014521495146506917 0 -8.7272035046519208e-05 -0.014512350728787381 0 -8.9344179678627991e-05 -0.014519128552584708 0 -0.00065604347546266754 -0.013224571631208512 0 -0.00028031897792557461 -0.013045248625493014 0 -0.00023080073195880466 -0.013362885727271314 0 -0.00057959176480089434 -0.012727464238555454 0 -0.00065604347546266754 -0.013224571631208512 0 -0.00083671389993326105 -0.012925264774333091 0 -0.00057959176480089434 -0.012727464238555454 0 -0.0010432020986078953 -0.012638059231534186 0 -0.00083671389993326105 -0.012925264774333091 0 -0.0010659254527842514 -0.013113484515330441 0 -0.00065604347546266754 -0.013224571631208512 0 -0.00083671389993326105 -0.012925264774333091 0 -0.00057959176480089434 -0.012727464238555454 0 -0.00028031897792557461 -0.013045248625493014 0 -0.0001660611719520556 -0.012782215747031396 0 -0.00057959176480089434 -0.012727464238555454 0 -0.00065604347546266754 -0.013224571631208512 0 -0.00028031897792557461 -0.013045248625493014 0 3.1516632207693885e-05 -0.0126108607155422 0 -0.0001660611719520556 -0.012782215747031396 0 0.000105289998043471 -0.012827783783468102 0 -0.0001660611719520556 -0.012782215747031396 0 0.000105289998043471 -0.012827783783468102 0 -3.0191278011389452e-05 -0.012962500454897096 0 -3.0191278011389452e-05 -0.012962500454897096 0 7.8962065826660011e-06 -0.0131709044843771 0 0.00012716332273504948 -0.012999096079856111 0 0.000105289998043471 -0.012827783783468102 0 -3.0191278011389452e-05 -0.012962500454897096 0 0.00012716332273504948 -0.012999096079856111 0 -0.00028031897792557461 -0.013045248625493014 0 -3.0191278011389452e-05 -0.012962500454897096 0 7.8962065826660011e-06 -0.0131709044843771 0 -0.00028031897792557461 -0.013045248625493014 0 -0.0001660611719520556 -0.012782215747031396 0 -3.0191278011389452e-05 -0.012962500454897096 0 -0.00028031897792557461 -0.013045248625493014 0 7.8962065826660011e-06 -0.0131709044843771 0 -0.00023080073195880466 -0.013362885727271314 0 7.8962065826660011e-06 -0.0131709044843771 0 8.5831693455991955e-05 -0.013376692258955051 0 0.00021775607277079183 -0.013147036246966313 0 7.8962065826660011e-06 -0.0131709044843771 0 8.5831693455991955e-05 -0.013376692258955051 0 -0.00023080073195880466 -0.013362885727271314 0 8.5831693455991955e-05 -0.013376692258955051 0 0.00042390638143098726 -0.01332874055289123 0 0.00021775607277079183 -0.013147036246966313 0 7.8962065826660011e-06 -0.0131709044843771 0 0.00021775607277079183 -0.013147036246966313 0 0.00012716332273504948 -0.012999096079856111 0 0.00042390638143098726 -0.01332874055289123 0 0.00033929411457393505 -0.013081162262169439 0 0.00046268266820200974 -0.012994687023455962 0 0.00042390638143098726 -0.01332874055289123 0 0.00021775607277079183 -0.013147036246966313 0 0.00033929411457393505 -0.013081162262169439 0 0.00026112018402476282 -0.012491713831946723 0 0.00023792860584625011 -0.012759781530372246 0 0.00049489524712782479 -0.012921430144058939 0 0.00021775607277079183 -0.013147036246966313 0 0.00033929411457393505 -0.013081162262169439 0 0.00029204410291719184 -0.012945604163460297 0 0.00011628888876617308 -0.012108451931870687 0 0.00017979372560545298 -0.012117466240193574 0 0.00018022075734943418 -0.012120131827529726 0 0.00029204410291719184 -0.012945604163460297 0 0.00046268266820200974 -0.012994687023455962 0 0.00049489524712782479 -0.012921430144058939 0 0.00033929411457393505 -0.013081162262169439 0 0.00029204410291719184 -0.012945604163460297 0 0.00046268266820200974 -0.012994687023455962 0 0.00021775607277079183 -0.013147036246966313 0 0.00029204410291719184 -0.012945604163460297 0 0.00012716332273504948 -0.012999096079856111 0 0.000105289998043471 -0.012827783783468102 0 0.00029204410291719184 -0.012945604163460297 0 0.00012716332273504948 -0.012999096079856111 0 0.000105289998043471 -0.012827783783468102 0 0.00029204410291719184 -0.012945604163460297 0 0.00023792860584625011 -0.012759781530372246 0 3.1516632207693885e-05 -0.0126108607155422 0 0.000105289998043471 -0.012827783783468102 0 0.00023792860584625011 -0.012759781530372246 0 0.00029204410291719184 -0.012945604163460297 0 0.00023792860584625011 -0.012759781530372246 0 0.00049489524712782479 -0.012921430144058939 0 0.0014527657179248244 -0.0063372777438879518 0 0.0015982386315772563 -0.0062982005070675714 0 0.0014755497725303464 -0.0063990948803816037 0 0.0015982386315772563 -0.0062982005070675714 0 0.0016337551112763588 -0.0064474266950230175 0 0.0014755497725303464 -0.0063990948803816037 0 0.00038300946350323896 -0.011480510087358835 0 0.00064843623201623799 -0.01065961640283406 0 0.001450019357136086 -0.0063627785749195802 0 0.001432291140097049 -0.0063882942613972381 0 0.0014755497725303464 -0.0063990948803816037 0 0.0011532260398160077 -0.0093512904403526224 0 0.00064843623201623799 -0.01065961640283406 0 0.0011532260398160077 -0.0093512904403526224 0 0.00085185306893775293 -0.0082021106779213739 0 0.0018846404078754488 -0.0060819768583300522 0 0.0017856286478456669 -0.0063073327643691788 0 0.0019986134279842954 -0.006321696576133704 0 0.0015982386315772563 -0.0062982005070675714 0 0.0016337551112763588 -0.0064474266950230175 0 0.0017856286478456669 -0.0063073327643691788 0 0.0016337551112763588 -0.0064474266950230175 0 0.0017856286478456669 -0.0063073327643691788 0 0.0017766997183508808 -0.0065388583329655083 0 0.0017856286478456669 -0.0063073327643691788 0 0.0017766997183508808 -0.0065388583329655083 0 0.0019625487985773945 -0.0064773192923827461 0 0.0017856286478456669 -0.0063073327643691788 0 0.0019986134279842954 -0.006321696576133704 0 0.0019625487985773945 -0.0064773192923827461 0 0.0017766997183508808 -0.0065388583329655083 0 0.0019625487985773945 -0.0064773192923827461 0 0.0020196014924481428 -0.0066441357160308663 0 0.0016337551112763588 -0.0064474266950230175 0 0.0017766997183508808 -0.0065388583329655083 0 0.0015199014933705522 -0.0067411149790145668 0 0.0017766997183508808 -0.0065388583329655083 0 0.0015199014933705522 -0.0067411149790145668 0 0.0019107573624978121 -0.0068019261006745345 0 0.0017766997183508808 -0.0065388583329655083 0 0.0019107573624978121 -0.0068019261006745345 0 0.0020196014924481428 -0.0066441357160308663 0 0.00042390638143098726 -0.01332874055289123 0 0.00046268266820200974 -0.012994687023455962 0 0.00074559595283383477 -0.013386795374908774 0 0.0016337551112763588 -0.0064474266950230175 0 0.0014755497725303464 -0.0063990948803816037 0 0.0015199014933705522 -0.0067411149790145668 0 0.00064843623201623799 -0.01065961640283406 0 0.0011003668042340142 -0.0098853034072298156 0 0.001432291140097049 -0.0063882942613972381 0 0.0014755497725303464 -0.0063990948803816037 0 0.0015199014933705522 -0.0067411149790145668 0 0.00046268266820200974 -0.012994687023455962 0 0.00050031427545106589 -0.012910198502810107 0 0.00074559595283383477 -0.013386795374908774 0 0.00042390638143098726 -0.01332874055289123 0 0.00074559595283383477 -0.013386795374908774 0 0.00051976313254695856 -0.013709170455023701 0 0.00074559595283383477 -0.013386795374908774 0 0.00073311294972378189 -0.013830669040970064 0 0.00051976313254695856 -0.013709170455023701 0 0.0019107573624978121 -0.0068019261006745345 0 0.0020880469952579586 -0.0075192509677064834 0 0.0017468679630354049 -0.0074465928152719647 0 0.0015199014933705522 -0.0067411149790145668 0 0.0019107573624978121 -0.0068019261006745345 0 0.0017468679630354049 -0.0074465928152719647 0 0.00074559595283383477 -0.013386795374908774 0 0.00073311294972378189 -0.013830669040970064 0 0.00093762573116983278 -0.013907263656159227 0 0.0011003668042340142 -0.0098853034072298156 0 0.0013815166641754789 -0.010878544982117891 0 0.0019107573624978121 -0.0068019261006745345 0 0.0019447718535039304 -0.0074192983903075254 0 0.00210341143029006 -0.0070975245202970468 0 0.0019422527942389062 -0.0070020172586144304 0 0.0019682198526997769 -0.0071194474070284753 0 0.0020880469952579586 -0.0075192509677064834 0 0.0017468679630354049 -0.0074465928152719647 0 0.0021969491913883398 -0.0084568925411830816 0 0.0013815166641754789 -0.010878544982117891 0 0.0018859953099992189 -0.010252693288377406 0 0.00093762573116983278 -0.013907263656159227 0 0.00077095706214234494 -0.01410843333183795 0 0.0009828569554293108 -0.014190952160698805 0 0.00073311294972378189 -0.013830669040970064 0 0.00093762573116983278 -0.013907263656159227 0 0.00077095706214234494 -0.01410843333183795 0 0.00073311294972378189 -0.013830669040970064 0 0.00051976313254695856 -0.013709170455023701 0 0.00077095706214234494 -0.01410843333183795 0 0.00051976313254695856 -0.013709170455023701 0 0.00077095706214234494 -0.01410843333183795 0 0.00040826322204674613 -0.013835954648602343 0 0.00077095706214234494 -0.01410843333183795 0 0.00065183114495622147 -0.014244510330278036 0 0.00071058072236509823 -0.014219562804081402 0 0.00077095706214234494 -0.01410843333183795 0 0.00065183114495622147 -0.014244510330278036 0 0.00059747199296751412 -0.014287290867699556 0 0.00075428666276086329 -0.014117873657085969 0 0.00038875657840710582 -0.014100470964969367 0 0.00077095706214234494 -0.01410843333183795 0 0.00040826322204674613 -0.013835954648602343 0 0.00012120310841579454 -0.013902846130713379 0 0.00063508594020797145 -0.01427217363138493 0 0.00047939429771329213 -0.014393700498911298 0 -0.0001068738066377311 -0.013997371137182369 0 0.00038875657840710582 -0.014100470964969367 0 0.00038456034198780872 -0.014345314553307495 0 0.00059747199296751412 -0.014287290867699556 0 0.00050615947483615407 -0.014464742762989846 0 0.00065183114495622147 -0.014244510330278036 0 0.00059747199296751412 -0.014287290867699556 0 0.00050615947483615407 -0.014464742762989846 0 -0.00048085353459613987 -0.013731905558394281 0 0.00012120310841579454 -0.013902846130713379 0 -6.0795109372025396e-05 -0.013599571656230217 0 0.00012120310841579454 -0.013902846130713379 0 -6.0795109372025396e-05 -0.013599571656230217 0 0.00022681940811690004 -0.01363176978777958 0 8.5831693455991955e-05 -0.013376692258955051 0 -0.00023080073195880466 -0.013362885727271314 0 -6.0795109372025396e-05 -0.013599571656230217 0 8.5831693455991955e-05 -0.013376692258955051 0 -6.0795109372025396e-05 -0.013599571656230217 0 0.00022681940811690004 -0.01363176978777958 0 8.5831693455991955e-05 -0.013376692258955051 0 0.00042390638143098726 -0.01332874055289123 0 0.00022681940811690004 -0.01363176978777958 0 0.00042390638143098726 -0.01332874055289123 0 0.00051976313254695856 -0.013709170455023701 0 0.00022681940811690004 -0.01363176978777958 0 0.00051976313254695856 -0.013709170455023701 0 0.00040826322204674613 -0.013835954648602343 0 0.00022681940811690004 -0.01363176978777958 0 0.00040826322204674613 -0.013835954648602343 0 0.00012120310841579454 -0.013902846130713379 0 0.00022681940811690004 -0.01363176978777958 0 0.002642577221761045 -0.0064017484360409972 0 0.0026072102809984823 -0.0065409125479463856 0 0.0027998503867081282 -0.0064923592245810183 0 0.002642577221761045 -0.0064017484360409972 0 0.0024980225481613097 -0.0064802504209918723 0 0.0026072102809984823 -0.0065409125479463856 0 0.002642577221761045 -0.0064017484360409972 0 0.002805787544909124 -0.0063062751408738396 0 0.0027998503867081282 -0.0064923592245810183 0 0.002642577221761045 -0.0064017484360409972 0 0.0026415257822579889 -0.0062297936040068393 0 0.002805787544909124 -0.0063062751408738396 0 0.0029962349493717249 -0.0057960740604349158 0 0.0027994608101110322 -0.0062341135963966945 0 0.0031828881378115235 -0.0059811837712154155 0 0.002642577221761045 -0.0064017484360409972 0 0.0026415257822579889 -0.0062297936040068393 0 0.0025039268899101031 -0.0063639514105756972 0 0.0026415257822579889 -0.0062297936040068393 0 0.0025039268899101031 -0.0063639514105756972 0 0.0023567589986052068 -0.0062865915762486055 0 0.0027754358267578242 -0.0065261570159488407 0 0.0022773030279044019 -0.0062442633845396309 0 0.0027994608101110322 -0.0062341135963966945 0 0.0023405153747956867 -0.0061108253605299126 0 0.0022155101388327443 -0.0062545513485774929 0 0.0027243174283750489 -0.0059258553899350667 0 0.0027994608101110322 -0.0062341135963966945 0 0.0023405153747956867 -0.0061108253605299126 0 0.0025039268899101031 -0.0063639514105756972 0 0.0023751821544629953 -0.0064291877371033396 0 0.0023567589986052068 -0.0062865915762486055 0 0.0025039268899101031 -0.0063639514105756972 0 0.0024980225481613097 -0.0064802504209918723 0 0.0023751821544629953 -0.0064291877371033396 0 0.002642577221761045 -0.0064017484360409972 0 0.0025039268899101031 -0.0063639514105756972 0 0.0024980225481613097 -0.0064802504209918723 0 0.0024980225481613097 -0.0064802504209918723 0 0.0023724401532595409 -0.0065543429798403776 0 0.0023751821544629953 -0.0064291877371033396 0 0.0023724401532595409 -0.0065543429798403776 0 0.0022651932818442562 -0.0065066123296004634 0 0.0023751821544629953 -0.0064291877371033396 0 0.0023724401532595409 -0.0065543429798403776 0 0.0022651932818442562 -0.0065066123296004634 0 0.0022402257307391903 -0.0066190556236752664 0 0.0022651932818442562 -0.0065066123296004634 0 0.0021683751079349775 -0.0065463895768742139 0 0.0022402257307391903 -0.0066190556236752664 0 0.0022651932818442562 -0.0065066123296004634 0 0.0022767599717245903 -0.0063963530037100562 0 0.0021625245443581131 -0.0064566579846059456 0 0.0022651932818442562 -0.0065066123296004634 0 0.0021625245443581131 -0.0064566579846059456 0 0.0021683751079349775 -0.0065463895768742139 0 0.0022651932818442562 -0.0065066123296004634 0 0.0022767599717245903 -0.0063963530037100562 0 0.0023751821544629953 -0.0064291877371033396 0 0.002170769715114301 -0.00614035370957951 0 0.0022155101388327443 -0.0062545513485774929 0 0.0019986134279842954 -0.006321696576133704 0 0.0022767599717245903 -0.0063963530037100562 0 0.0023567589986052068 -0.0062865915762486055 0 0.0019986134279842954 -0.006321696576133704 0 0.0022773030279044019 -0.0062442633845396309 0 0.0020163562846077844 -0.0063180318214775136 0 0.0022767599717245903 -0.0063963530037100562 0 0.0023751821544629953 -0.0064291877371033396 0 0.0023567589986052068 -0.0062865915762486055 0 0.002170769715114301 -0.00614035370957951 0 0.0023405153747956867 -0.0061108253605299126 0 0.0022155101388327443 -0.0062545513485774929 0 0.0020878064076997544 -0.0060916326988755326 0 0.002170769715114301 -0.00614035370957951 0 0.0019986134279842954 -0.006321696576133704 0 0.0022767599717245903 -0.0063963530037100562 0 0.0019986134279842954 -0.006321696576133704 0 0.0021625245443581131 -0.0064566579846059456 0 0.0019986134279842954 -0.006321696576133704 0 0.0019625487985773945 -0.0064773192923827461 0 0.0020833228183991005 -0.0064801584978299749 0 0.0019625487985773945 -0.0064773192923827461 0 0.0020833228183991005 -0.0064801584978299749 0 0.0020824380447179098 -0.0065717408840092542 0 0.0019986134279842954 -0.006321696576133704 0 0.0021625245443581131 -0.0064566579846059456 0 0.0020833228183991005 -0.0064801584978299749 0 0.0021625245443581131 -0.0064566579846059456 0 0.0020833228183991005 -0.0064801584978299749 0 0.0021683751079349775 -0.0065463895768742139 0 0.0020833228183991005 -0.0064801584978299749 0 0.0021683751079349775 -0.0065463895768742139 0 0.0020824380447179098 -0.0065717408840092542 0 0.0021683751079349775 -0.0065463895768742139 0 0.0020824380447179098 -0.0065717408840092542 0 0.0021390473937228519 -0.0066216533570201998 0 0.0021683751079349775 -0.0065463895768742139 0 0.0021390473937228519 -0.0066216533570201998 0 0.0022402257307391903 -0.0066190556236752664 0 0.0020196014924481428 -0.0066441357160308663 0 0.0020824380447179098 -0.0065717408840092542 0 0.0021390473937228519 -0.0066216533570201998 0 0.0019625487985773945 -0.0064773192923827461 0 0.0020196014924481428 -0.0066441357160308663 0 0.0020824380447179098 -0.0065717408840092542 0 0.0020599859585122668 -0.0066636391942299852 0 0.0022818981515137266 -0.0069027712522239347 0 0.0019107573624978121 -0.0068019261006745345 0 0.002107505490178243 -0.0069160099730848504 0 0.00210341143029006 -0.0070975245202970468 0 0.0020196014924481428 -0.0066441357160308663 0 0.002107505490178243 -0.0069160099730848504 0 0.0024365060945608433 -0.0071242392844448315 0 0.0019107573624978121 -0.0068019261006745345 0 0.0020196014924481428 -0.0066441357160308663 0 0.002107505490178243 -0.0069160099730848504 0 0.0021390473937228519 -0.0066216533570201998 0 0.0021712379011610741 -0.0066921407505695241 0 0.0022402257307391903 -0.0066190556236752664 0 0.0020196014924481428 -0.0066441357160308663 0 0.0021390473937228519 -0.0066216533570201998 0 0.0021712379011610741 -0.0066921407505695241 0 0.0024365060945608433 -0.0071242392844448315 0 0.0021916162232975991 -0.0073096802085673906 0 0.0024205548341468112 -0.0074010163234098517 0 0.0019447718535039304 -0.0074192983903075254 0 0.00210341143029006 -0.0070975245202970468 0 0.0021916162232975991 -0.0073096802085673906 0 0.002107505490178243 -0.0069160099730848504 0 0.0024365060945608433 -0.0071242392844448315 0 0.00210341143029006 -0.0070975245202970468 0 0.0024365060945608433 -0.0071242392844448315 0 0.00210341143029006 -0.0070975245202970468 0 0.0021916162232975991 -0.0073096802085673906 0 0.0019682198526997769 -0.0071194474070284753 0 0.0018859953099992189 -0.010252693288377406 0 0.0019447718535039304 -0.0074192983903075254 0 0.0021916162232975991 -0.0073096802085673906 0 0.0022448706235642731 -0.0076861287062562449 0 0.0019447718535039304 -0.0074192983903075254 0 0.0022448706235642731 -0.0076861287062562449 0 0.0020187714347248932 -0.0081641571639759596 0 0.0022448706235642731 -0.0076861287062562449 0 0.0025225311339895974 -0.0078099010191356724 0 0.002349705685726199 -0.0081485424004640403 0 0.0022448706235642731 -0.0076861287062562449 0 0.0025225311339895974 -0.0078099010191356724 0 0.0024205548341468112 -0.0074010163234098517 0 0.0021916162232975991 -0.0073096802085673906 0 0.0022448706235642731 -0.0076861287062562449 0 0.0024205548341468112 -0.0074010163234098517 0 0.0022818981515137266 -0.0069027712522239347 0 0.0029527702498276112 -0.006980925944032013 0 0.0026049966935645188 -0.0073678346652615257 0 0.0029527702498276112 -0.006980925944032013 0 0.0024365060945608433 -0.0071242392844448315 0 0.0024205548341468112 -0.0074010163234098517 0 0.0028331954848383758 -0.0076207608077949228 0 0.0021712379011610741 -0.0066921407505695241 0 0.0023010988060285023 -0.0068161538246706765 0 0.0022871428956200107 -0.0067127940533558712 0 0.0025225311339895974 -0.0078099010191356724 0 0.0029018791024294456 -0.0076458931671410189 0 0.0026915637919632538 -0.0081892260110697501 0 0.0025225311339895974 -0.0078099010191356724 0 0.0024205548341468112 -0.0074010163234098517 0 0.0029018791024294456 -0.0076458931671410189 0 0.0029527702498276112 -0.006980925944032013 0 0.0024300221326272842 -0.0033304078025015063 0 0.0029527702498276112 -0.006980925944032013 0 0.0022342808482865408 -0.0050266361709245507 0 0.0023010988060285023 -0.0068161538246706765 0 0.0022871428956200107 -0.0067127940533558712 0 0.0024147948753998282 -0.0067339515295622718 0 0.0023560409445471712 -0.0066576466234505331 0 0.0022871428956200107 -0.0067127940533558712 0 0.0024147948753998282 -0.0067339515295622718 0 0.0023560409445471712 -0.0066576466234505331 0 0.0022871428956200107 -0.0067127940533558712 0 0.0022402257307391903 -0.0066190556236752664 0 0.0021712379011610741 -0.0066921407505695241 0 0.0022871428956200107 -0.0067127940533558712 0 0.0022402257307391903 -0.0066190556236752664 0 0.0023724401532595409 -0.0065543429798403776 0 0.0023560409445471712 -0.0066576466234505331 0 0.0022402257307391903 -0.0066190556236752664 0 0.0024926206196068329 -0.0066214248134559076 0 0.0024147948753998282 -0.0067339515295622718 0 0.0026107544404486969 -0.0067037739733438731 0 0.0024980225481613097 -0.0064802504209918723 0 0.0023724401532595409 -0.0065543429798403776 0 0.0024926206196068329 -0.0066214248134559076 0 0.0023724401532595409 -0.0065543429798403776 0 0.0023560409445471712 -0.0066576466234505331 0 0.0024926206196068329 -0.0066214248134559076 0 0.0024980225481613097 -0.0064802504209918723 0 0.0024926206196068329 -0.0066214248134559076 0 0.0026072102809984823 -0.0065409125479463856 0 0.0023560409445471712 -0.0066576466234505331 0 0.0024926206196068329 -0.0066214248134559076 0 0.0024147948753998282 -0.0067339515295622718 0 0.0024147948753998282 -0.0067339515295622718 0 0.0026107544404486969 -0.0067037739733438731 0 0.0024452724240529525 -0.0068767458670449377 0 0.0022949329240517392 -0.0036095579090529338 0 0.0024300221326272842 -0.0033304078025015063 0 0.0020429887720902263 -0.00044192516713309065 0 0.002044819686373483 -0.00043499365787554831 0 0.0020344005544554278 -0.00046067616153008372 0 0.0023010988060285023 -0.0068161538246706765 0 0.0024147948753998282 -0.0067339515295622718 0 0.0024452724240529525 -0.0068767458670449377 0 0.0020429887720902263 -0.00044192516713309065 0 0.002044819686373483 -0.00043499365787554831 0 0.002051918772716761 -0.0004186103583951054 0 0.0026107544404486969 -0.0067037739733438731 0 0.0026072102809984823 -0.0065409125479463856 0 0.0027998503867081282 -0.0064923592245810183 0 0.0022949329240517392 -0.0036095579090529338 0 0.0024203200699284013 -0.0035907759795278721 0 0.002044819686373483 -0.00043499365787554831 0 0.002051918772716761 -0.0004186103583951054 0 0.0020662677937482127 -0.00042679159982557445 0 0.0024926206196068329 -0.0066214248134559076 0 0.0026107544404486969 -0.0067037739733438731 0 0.0026072102809984823 -0.0065409125479463856 0 0.002964497590881032 -0.0010065312244068019 0 0.0028592346125482166 -0.0013007792157210651 0 0.0032852773781938218 -0.001457877611270491 0 0.002964497590881032 -0.0010065312244068019 0 0.0028592346125482166 -0.0013007792157210651 0 0.0027123301230173409 -0.00094910134720314681 0 0.0020429887720902263 -0.00044192516713309065 0 0.0020450123264500338 -0.0004484820236411505 0 0.002051918772716761 -0.0004186103583951054 0 0.0020429887720902263 -0.00044192516713309065 0 0.0020450123264500338 -0.0004484820236411505 0 0.0020344005544554278 -0.00046067616153008372 0 0.0023692096614168312 -0.00062084529646381733 0 0.0024300221326272842 -0.0033304078025015063 0 0.0028592346125482166 -0.0013007792157210651 0 0.0032119224048926475 -0.0015446849622877822 0 0.0032852773781938218 -0.001457877611270491 0 0.0033834299639585006 -0.0059125247540348039 0 0.0017442885483406735 -0.0050031632707478318 0 0.0022303564496672489 -0.0044221494929182177 0 0.0024300221326272842 -0.0033304078025015063 0 0.0022342808482865408 -0.0050266361709245507 0 0.0017535594701042268 -0.0057643971685345146 0 0.0017476768502333712 -0.0057487364189100273 0 0.0017451616395635365 -0.0057743575444537893 0 0.0023741432682179986 -0.0028771586077121856 0 0.0022342808482865408 -0.0050266361709245507 0 0.0017451616395635365 -0.0057743575444537893 0 0.001728392660602687 -0.0057784237829267048 0 0.0017388204257857817 -0.0057971269447702964 0 0.0017476768502333712 -0.0057487364189100273 0 0.0017451616395635365 -0.0057743575444537893 0 0.001728392660602687 -0.0057784237829267048 0 0.0027895064155955903 -0.0087770029978819653 0 0.0026915637919632538 -0.0081892260110697501 0 0.0024054817315588952 -0.0087248548412131258 0 0.0022342808482865408 -0.0050266361709245507 0 0.0023268427794930881 -0.0072194988269565679 0 0.0032965292175436735 -0.0081357742490329125 0 0.0027895064155955903 -0.0087770029978819653 0 0.0026915637919632538 -0.0081892260110697501 0 0.0029018791024294456 -0.0076458931671410189 0 0.0032965292175436735 -0.0081357742490329125 0 0.0026915637919632538 -0.0081892260110697501 0 0.0026915637919632538 -0.0081892260110697501 0 0.002349705685726199 -0.0081485424004640403 0 0.0024054817315588952 -0.0087248548412131258 0 0.002349705685726199 -0.0081485424004640403 0 0.002144806348895573 -0.0084230125494721923 0 0.0024054817315588952 -0.0087248548412131258 0 0.0025225311339895974 -0.0078099010191356724 0 0.0026915637919632538 -0.0081892260110697501 0 0.002349705685726199 -0.0081485424004640403 0 0.0022448706235642731 -0.0076861287062562449 0 0.002349705685726199 -0.0081485424004640403 0 0.0020187714347248932 -0.0081641571639759596 0 0.002349705685726199 -0.0081485424004640403 0 0.0020187714347248932 -0.0081641571639759596 0 0.002144806348895573 -0.0084230125494721923 0 0.0018859953099992189 -0.010252693288377406 0 0.0016074221452689096 -0.0088953503632815522 0 0.0020116907981475684 -0.0081700360173806701 0 0.002144806348895573 -0.0084230125494721923 0 0.0021834533704728873 -0.0094032234835010955 0 0.0027895064155955903 -0.0087770029978819653 0 0.0024054817315588952 -0.0087248548412131258 0 0.0022611386402834289 -0.0094238385936356254 0 0.002144806348895573 -0.0084230125494721923 0 0.0024054817315588952 -0.0087248548412131258 0 0.0021834533704728873 -0.0094032234835010955 0 0.0024054817315588952 -0.0087248548412131258 0 0.0021834533704728873 -0.0094032234835010955 0 0.0022611386402834289 -0.0094238385936356254 0 0.0018859953099992189 -0.010252693288377406 0 0.0014626655171650496 -0.011323009461546012 0 0.0023268427794930881 -0.0072194988269565679 0 0.0016507151204005312 -0.0096579151364980156 0 0.00096032235861570755 -0.014389823743640198 0 0.00094339192973308156 -0.014413097897795522 0 0.00097508942874433826 -0.014522155456076999 0 0.0017511980474144869 -0.0076807966391437468 0 0.0017337013462627266 -0.0075889662293533904 0 0.0017043782500268596 -0.0076255340034873933 0 0.0014626655171650496 -0.011323009461546012 0 0.0011691744464818036 -0.01364378544914154 0 0.00095454788396165987 -0.014380270985563666 0 0.00094339192973308156 -0.014413097897795522 0 0.00089386633542190065 -0.0144214252598174 0 0.00095454788396165987 -0.014380270985563666 0 0.00095704118027600024 -0.014393854352867332 0 0.00094339192973308156 -0.014413097897795522 0 0.00085203341869843007 -0.01025403776156455 0 0.00083704981041710872 -0.010160838571759015 0 0.00077729446379550492 -0.010232602648487046 0 0.0014626655171650496 -0.011323009461546012 0 0.0012710182743473275 -0.010920216460473486 0 0.0014626655171650496 -0.011323009461546012 0 0.0016507151204005312 -0.0096579151364980156 0 0.0012710182743473275 -0.010920216460473486 0 0.0016507151204005312 -0.0096579151364980156 0 0.0012710182743473275 -0.010920216460473486 0 0.00078048490865343159 -0.011841687179664556 0 0.0017511980474144869 -0.0076807966391437468 0 0.0017432352536182261 -0.0076892422963380815 0 0.0017043782500268596 -0.0076255340034873933 0 0.00094339192973308156 -0.014413097897795522 0 0.00091351639234902335 -0.014495327057738481 0 0.00089386633542190065 -0.0144214252598174 0 0.0012710182743473275 -0.010920216460473486 0 0.0013655991872800238 -0.011098024722452093 0 0.00094339192973308156 -0.014413097897795522 0 0.00091351639234902335 -0.014495327057738481 0 0.00097508942874433826 -0.014522155456076999 0 0.0017337013462627266 -0.0075889662293533904 0 0.0017043782500268596 -0.0076255340034873933 0 0.0016871126266366793 -0.0075427146639792005 0 0.00091351639234902335 -0.014495327057738481 0 0.00097508942874433826 -0.014522155456076999 0 0.00092746041361814404 -0.014597639196630591 0 0.0016527723512793392 -0.0076231202715599912 0 0.0017043782500268596 -0.0076255340034873933 0 0.0016402565547338865 -0.0075609170266668184 0 0.0017043782500268596 -0.0076255340034873933 0 0.0016402565547338865 -0.0075609170266668184 0 0.0016871126266366793 -0.0075427146639792005 0 0.0016402565547338865 -0.0075609170266668184 0 0.001635086629598968 -0.0075144343668357644 0 0.0016871126266366793 -0.0075427146639792005 0 0.001728392660602687 -0.0057784237829267048 0 0.0017072900535080673 -0.0058218581588914851 0 0.0017388204257857817 -0.0057971269447702964 0 0.0017432352536182261 -0.0076892422963380815 0 0.0016527723512793392 -0.0076231202715599912 0 0.0017043782500268596 -0.0076255340034873933 0 0.0016507151204005312 -0.0096579151364980156 0 0.0015965980907938898 -0.0064906211172479902 0 0.0015965980907938898 -0.0064906211172479902 0 0.0017395499729779182 -0.0068207808716889322 0 0.0017451616395635365 -0.0057743575444537893 0 0.0017388204257857817 -0.0057971269447702964 0 0.001752032649878684 -0.0057716637937600236 0 0.0017535594701042268 -0.0057643971685345146 0 0.0017451616395635365 -0.0057743575444537893 0 0.001752032649878684 -0.0057716637937600236 0 0.0016402565547338865 -0.0075609170266668184 0 0.0015970448634911379 -0.00751045391041454 0 0.0015844372947569102 -0.0075514338691486617 0 0.0016527723512793392 -0.0076231202715599912 0 0.0016402565547338865 -0.0075609170266668184 0 0.0015844372947569102 -0.0075514338691486617 0 0.0016402565547338865 -0.0075609170266668184 0 0.0015970448634911379 -0.00751045391041454 0 0.001635086629598968 -0.0075144343668357644 0 0.0015844372947569102 -0.0075514338691486617 0 0.0015571070947902953 -0.0074846351695651058 0 0.0015399074607287309 -0.0074774193749209275 0 0.0017395499729779182 -0.0068207808716889322 0 0.0017686270917452605 -0.0046155659306719565 0 0.0015970448634911379 -0.00751045391041454 0 0.0015844372947569102 -0.0075514338691486617 0 0.0015571070947902953 -0.0074846351695651058 0 0.0023741432682179986 -0.0028771586077121856 0 0.0017686270917452605 -0.0046155659306719565 0 0.0017535594701042268 -0.0057643971685345146 0 0.001752032649878684 -0.0057716637937600236 0 0.0017476206619072175 -0.0057535200412318598 0 0.00059101114257758657 -0.01436331389698698 0 0.00073388173262744941 -0.014302693847324707 0 0.00055565814046335286 -0.014604372060283363 0 0.00073388173262744941 -0.014302693847324707 0 0.0007291573670940917 -0.014415801454829883 0 0.00057668329970335754 -0.014398118659481055 0 0.0007237875206480578 -0.014320975778834616 0 0.00056294966485794093 -0.014498461606830238 0 0.00039727703294681577 -0.014534766776905409 0 0.00059101114257758657 -0.01436331389698698 0 0.00055565814046335286 -0.014604372060283363 0 0.00039727703294681577 -0.014534766776905409 0 0.00045786199596605502 -0.014327491113765521 0 0.00059101114257758657 -0.01436331389698698 0 0.00065183114495622147 -0.014244510330278036 0 0.00045786199596605502 -0.014327491113765521 0 0.00059101114257758657 -0.01436331389698698 0 0.00059101114257758657 -0.01436331389698698 0 0.00073388173262744941 -0.014302693847324707 0 0.00071058072236509823 -0.014219562804081402 0 0.00065183114495622147 -0.014244510330278036 0 0.00059101114257758657 -0.01436331389698698 0 0.00071058072236509823 -0.014219562804081402 0 0.00077095706214234494 -0.01410843333183795 0 0.00073388173262744941 -0.014302693847324707 0 0.00071058072236509823 -0.014219562804081402 0 0.00077095706214234494 -0.01410843333183795 0 0.00073388173262744941 -0.014302693847324707 0 0.00085649089485606599 -0.014297880614385639 0 0.00077095706214234494 -0.01410843333183795 0 0.0009828569554293108 -0.014190952160698805 0 0.00085649089485606599 -0.014297880614385639 0 0.0009828569554293108 -0.014190952160698805 0 0.0009674688904456472 -0.014393579949431693 0 0.00085649089485606599 -0.014297880614385639 0 0.0009674688904456472 -0.014393579949431693 0 0.00085649089485606599 -0.014297880614385639 0 0.00088244936767632688 -0.014384161487479665 0 0.00085649089485606599 -0.014297880614385639 0 0.00088244936767632688 -0.014384161487479665 0 0.0008144595348126832 -0.014423510697875118 0 0.00073388173262744941 -0.014302693847324707 0 0.00085649089485606599 -0.014297880614385639 0 0.0007291573670940917 -0.014415801454829883 0 0.00085649089485606599 -0.014297880614385639 0 0.0007291573670940917 -0.014415801454829883 0 0.0008144595348126832 -0.014423510697875118 0 0.0007291573670940917 -0.014415801454829883 0 0.0008144595348126832 -0.014423510697875118 0 0.00077973195036566852 -0.014540925478261656 0 0.0008144595348126832 -0.014423510697875118 0 0.00085392496040750368 -0.014483664069451015 0 0.00077973195036566852 -0.014540925478261656 0 0.00088244936767632688 -0.014384161487479665 0 0.0008144595348126832 -0.014423510697875118 0 0.00089386633542190065 -0.0144214252598174 0 0.00095454788396165987 -0.014380270985563666 0 0.00088244936767632688 -0.014384161487479665 0 0.00089386633542190065 -0.0144214252598174 0 0.0008144595348126832 -0.014423510697875118 0 0.00089386633542190065 -0.0144214252598174 0 0.00085392496040750368 -0.014483664069451015 0 0.00091351639234902335 -0.014495327057738481 0 0.00089386633542190065 -0.0144214252598174 0 0.00085392496040750368 -0.014483664069451015 0 0.00091351639234902335 -0.014495327057738481 0 0.00085392496040750368 -0.014483664069451015 0 0.00085450847741457047 -0.014566483322962448 0 0.00085392496040750368 -0.014483664069451015 0 0.00085450847741457047 -0.014566483322962448 0 0.00077973195036566852 -0.014540925478261656 0 0.00085450847741457047 -0.014566483322962448 0 0.00077973195036566852 -0.014540925478261656 0 0.00080394614105336001 -0.01461403491052329 0 0.00091351639234902335 -0.014495327057738481 0 0.00085450847741457047 -0.014566483322962448 0 0.00092746041361814404 -0.014597639196630591 0 0.00077973195036566852 -0.014540925478261656 0 0.00062388495768880533 -0.01457405369620696 0 0.00073524170320669131 -0.014674200223832383 0 0.0007291573670940917 -0.014415801454829883 0 0.00077973195036566852 -0.014540925478261656 0 0.00062388495768880533 -0.01457405369620696 0 0.0007291573670940917 -0.014415801454829883 0 0.00062388495768880533 -0.01457405369620696 0 0.00057668329970335754 -0.014398118659481055 0 0.00038951305767364903 -0.014564608531415113 0 0.00062388495768880533 -0.01457405369620696 0 0.00057668329970335754 -0.014398118659481055 0 0.00034279104238246825 -0.014784919527326936 0 0.00039727703294681577 -0.014534766776905409 0 0.00055565814046335286 -0.014604372060283363 0 0.00036876194583681312 -0.014674312488592521 0 0.00056294966485794093 -0.014498461606830238 0 0.00038951305767364903 -0.014564608531415113 0 0.00062388495768880533 -0.01457405369620696 0 0.000509652046800799 -0.014700451881018553 0 0.000509652046800799 -0.014700451881018553 0 0.00050167624522739346 -0.014831217414231834 0 0.00037998083578138668 -0.014790577329860709 0 0.000509652046800799 -0.014700451881018553 0 0.00050167624522739346 -0.014831217414231834 0 0.00061565335717172597 -0.014746268474515567 0 0.00050167624522739346 -0.014831217414231834 0 0.00047950272688438491 -0.014903552799740753 0 0.00052418878645583186 -0.014883102252072533 0 0.00050167624522739346 -0.014831217414231834 0 0.00060340944994937708 -0.014858076885357382 0 0.00052418878645583186 -0.014883102252072533 0 0.00050167624522739346 -0.014831217414231834 0 0.00047950272688438491 -0.014903552799740753 0 0.00039035352619058245 -0.014907571796940428 0 0.00060340944994937708 -0.014858076885357382 0 0.00061565335717172597 -0.014746268474515567 0 0.0007074493530925363 -0.01482467372824646 0 0.00050167624522739346 -0.014831217414231834 0 0.00060340944994937708 -0.014858076885357382 0 0.00061565335717172597 -0.014746268474515567 0 0.00062388495768880533 -0.01457405369620696 0 0.00061565335717172597 -0.014746268474515567 0 0.00073524170320669131 -0.014674200223832383 0 0.00062388495768880533 -0.01457405369620696 0 0.000509652046800799 -0.014700451881018553 0 0.00061565335717172597 -0.014746268474515567 0 0.00077973195036566852 -0.014540925478261656 0 0.00073524170320669131 -0.014674200223832383 0 0.00080394614105336001 -0.01461403491052329 0 0.00073524170320669131 -0.014674200223832383 0 0.00085251728529549362 -0.014659912153625712 0 0.00079684886311152448 -0.014787392510696634 0 0.00073524170320669131 -0.014674200223832383 0 0.00080394614105336001 -0.01461403491052329 0 0.00085251728529549362 -0.014659912153625712 0 0.00085450847741457047 -0.014566483322962448 0 0.00085251728529549362 -0.014659912153625712 0 0.00092746041361814404 -0.014597639196630591 0 0.00085450847741457047 -0.014566483322962448 0 0.00080394614105336001 -0.01461403491052329 0 0.00085251728529549362 -0.014659912153625712 0 0.00085251728529549362 -0.014659912153625712 0 0.00093251016414431522 -0.014654114870553871 0 0.00091588788941533467 -0.014698121452293798 0 0.00085251728529549362 -0.014659912153625712 0 0.00092746041361814404 -0.014597639196630591 0 0.00093251016414431522 -0.014654114870553871 0 0.00085251728529549362 -0.014659912153625712 0 0.00079684886311152448 -0.014787392510696634 0 0.00091588788941533467 -0.014698121452293798 0 0.00073524170320669131 -0.014674200223832383 0 0.00079684886311152448 -0.014787392510696634 0 0.0007074493530925363 -0.01482467372824646 0 0.00061565335717172597 -0.014746268474515567 0 0.00073524170320669131 -0.014674200223832383 0 0.0007074493530925363 -0.01482467372824646 0 0.00069640628362414511 -0.012745954420534698 0 0.00074681163980715138 -0.012724260596743227 0 0.00081084488137383873 -0.012761651588281334 0 0.00081694000725510412 -0.013888502817889364 0 0.00072596249421747849 -0.013797207337073092 0 0.0007074493530925363 -0.01482467372824646 0 0.00082675308634733483 -0.014871953080834338 0 0.00067057071508053927 -0.014917852999407431 0 0.00079684886311152448 -0.014787392510696634 0 0.0007074493530925363 -0.01482467372824646 0 0.00082675308634733483 -0.014871953080834338 0 0.00079684886311152448 -0.014787392510696634 0 0.00082675308634733483 -0.014871953080834338 0 0.00088368581322673817 -0.014820737375526702 0 0.00069640628362414511 -0.012745954420534698 0 0.00070154637342043893 -0.012666536703001559 0 0.00074681163980715138 -0.012724260596743227 0 0.00069640628362414511 -0.012745954420534698 0 0.00070154637342043893 -0.012666536703001559 0 0.0006627433202403061 -0.01269488937197333 0 0.00070154637342043893 -0.012666536703001559 0 0.00074681163980715138 -0.012724260596743227 0 0.00074131230488820067 -0.012706742935226254 0 0.00074681163980715138 -0.012724260596743227 0 0.00075445758236450833 -0.012758997281482807 0 0.00081084488137383873 -0.012761651588281334 0 0.00074681163980715138 -0.012724260596743227 0 0.00074131230488820067 -0.012706742935226254 0 0.00075445758236450833 -0.012758997281482807 0 0.00074131230488820067 -0.012706742935226254 0 0.00075445758236450833 -0.012758997281482807 0 0.00077620084517070014 -0.012711567135318317 0 0.00069727017983958826 -0.0128309019913592 0 0.00072124134541249707 -0.013095468767106034 0 0.00050997922347913876 -0.013083382356823966 0 0.00067509159598902685 -0.012800241352522551 0 0.00070338480294569565 -0.013513943811783651 0 0.00075445758236450833 -0.012758997281482807 0 0.00067509159598902685 -0.012800241352522551 0 0.00077620084517070014 -0.012711567135318317 0 0.00025494952179108769 -0.013277646404621877 0 0.00050997922347913876 -0.013083382356823966 0 0.00070338480294569565 -0.013513943811783651 0 0.00025494952179108769 -0.013277646404621877 0 0.00050997922347913876 -0.013083382356823966 0 0.00042084937618383451 -0.012799267877113977 0 0.00050997922347913876 -0.013083382356823966 0 0.00042084937618383451 -0.012799267877113977 0 0.00067509159598902685 -0.012800241352522551 0 0.00051167650120373701 -0.014939969024775061 0 0.00048194674111419142 -0.014959408325306983 0 0.00067057071508053927 -0.014917852999407431 0 0.00036145094247528735 -0.014374888676768395 0 0.0004126369361748131 -0.01422573930220658 0 0.00047787725166464803 -0.014962750127173137 0 0.00047950272688438491 -0.014903552799740753 0 0.00039035352619058245 -0.014907571796940428 0 0.00051167650120373701 -0.014939969024775061 0 0.00047787725166464803 -0.014962750127173137 0 0.00047950272688438491 -0.014903552799740753 0 0.00060340944994937708 -0.014858076885357382 0 0.00051167650120373701 -0.014939969024775061 0 0.00052418878645583186 -0.014883102252072533 0 0.00051167650120373701 -0.014939969024775061 0 0.00047950272688438491 -0.014903552799740753 0 0.00052418878645583186 -0.014883102252072533 0 0.00060340944994937708 -0.014858076885357382 0 0.00051167650120373701 -0.014939969024775061 0 0.00067057071508053927 -0.014917852999407431 0 0.0004126369361748131 -0.01422573930220658 0 0.00072596249421747849 -0.013797207337073092 0 0.00042084937618383451 -0.012799267877113977 0 0.00081084488137383873 -0.012761651588281334 0 0.00067509159598902685 -0.012800241352522551 0 0.00060340944994937708 -0.014858076885357382 0 0.0007074493530925363 -0.01482467372824646 0 0.00067057071508053927 -0.014917852999407431 0 0.00075445758236450833 -0.012758997281482807 0 0.00081084488137383873 -0.012761651588281334 0 0.00067509159598902685 -0.012800241352522551 0 0.0014841487317326992 -0.0074848573710113442 0 0.0014965357778205441 -0.0074741531348169691 0 0.0015049894883164942 -0.0074539291272015546 0 0.0015701021458401677 -0.0074516927383119318 0 0.0016001350986652135 -0.0074411883522510569 0 0.001537265433355417 -0.0074261301084952323 0 0.0016120427665860652 -0.0072681745008075938 0 0.0015072114241026563 -0.0074599213187106841 0 0.0014841487317326992 -0.0074848573710113442 0 0.0014878435529939664 -0.0074859474818159766 0 0.0014965357778205441 -0.0074741531348169691 0 0.0015701021458401677 -0.0074516927383119318 0 0.0016017018806211742 -0.0074780462153923926 0 0.0016001350986652135 -0.0074411883522510569 0 0.0015701021458401677 -0.0074516927383119318 0 0.0015682741617131788 -0.0074708208961615161 0 0.0015499692324445335 -0.0074452696875121601 0 0.0015571070947902953 -0.0074846351695651058 0 0.0015682741617131788 -0.0074708208961615161 0 0.0015409680133705445 -0.0074484375863732178 0 0.0015970448634911379 -0.00751045391041454 0 0.0015682741617131788 -0.0074708208961615161 0 0.0016017018806211742 -0.0074780462153923926 0 0.0015970448634911379 -0.00751045391041454 0 0.0015571070947902953 -0.0074846351695651058 0 0.0015682741617131788 -0.0074708208961615161 0 0.0015701021458401677 -0.0074516927383119318 0 0.0015682741617131788 -0.0074708208961615161 0 0.0016017018806211742 -0.0074780462153923926 0 0.0015970448634911379 -0.00751045391041454 0 0.0016017018806211742 -0.0074780462153923926 0 0.001635086629598968 -0.0075144343668357644 0 0.0016017018806211742 -0.0074780462153923926 0 0.001635086629598968 -0.0075144343668357644 0 0.0016521224945222923 -0.0074916040448639535 0 0.0014841487317326992 -0.0074848573710113442 0 0.0014719346541852668 -0.0075121615693535693 0 0.0014823197734866705 -0.0074958572613469214 0 0.0016120427665860652 -0.0072681745008075938 0 0.0013008851949913359 -0.0094601315972004316 0 0.0016017018806211742 -0.0074780462153923926 0 0.0016001350986652135 -0.0074411883522510569 0 0.0016521224945222923 -0.0074916040448639535 0 0.0014841487317326992 -0.0074848573710113442 0 0.0014823197734866705 -0.0074958572613469214 0 0.0014878435529939664 -0.0074859474818159766 0 0.0016832250528382785 -0.0074640501876532964 0 0.0016521224945222923 -0.0074916040448639535 0 0.0017150275382904997 -0.0075144739858711432 0 0.0016001350986652135 -0.0074411883522510569 0 0.0016832250528382785 -0.0074640501876532964 0 0.0016521224945222923 -0.0074916040448639535 0 0.0013008851949913359 -0.0094601315972004316 0 0.0010265653334517251 -0.012813840924143201 0 0.0013008851949913359 -0.0094601315972004316 0 0.0012060438325486422 -0.010986065232253183 0 0.0016521224945222923 -0.0074916040448639535 0 0.0016871126266366793 -0.0075427146639792005 0 0.0017150275382904997 -0.0075144739858711432 0 0.001635086629598968 -0.0075144343668357644 0 0.0016521224945222923 -0.0074916040448639535 0 0.0016871126266366793 -0.0075427146639792005 0 0.0013655991872800238 -0.011098024722452093 0 0.0012060438325486422 -0.010986065232253183 0 0.00097508942874433826 -0.014522155456076999 0 0.00099069559733515854 -0.0146507197988407 0 0.00092746041361814404 -0.014597639196630591 0 0.0017337013462627266 -0.0075889662293533904 0 0.0016871126266366793 -0.0075427146639792005 0 0.0017150275382904997 -0.0075144739858711432 0 0.00099069559733515854 -0.0146507197988407 0 0.00093251016414431522 -0.014654114870553871 0 0.00091588788941533467 -0.014698121452293798 0 0.00099069559733515854 -0.0146507197988407 0 0.00092746041361814404 -0.014597639196630591 0 0.00093251016414431522 -0.014654114870553871 0 0.00076198927299907086 -0.015285182756142228 0 0.0010265653334517251 -0.012813840924143201 0 0.00079684886311152448 -0.014787392510696634 0 0.00092379029245281583 -0.014758505372141902 0 0.00088368581322673817 -0.014820737375526702 0 0.00079684886311152448 -0.014787392510696634 0 0.00091588788941533467 -0.014698121452293798 0 0.0010056111538565146 -0.014741287924481797 0 0.0012060438325486422 -0.010986065232253183 0 0.0010265653334517251 -0.012813840924143201 0 0.0013776796659951773 -0.01084399398800052 0 0.0014870271662446968 -0.011017415962481987 0 0.0014588030663307656 -0.010843245358656821 0 0.00099069559733515854 -0.0146507197988407 0 0.00091588788941533467 -0.014698121452293798 0 0.0010056111538565146 -0.014741287924481797 0 0.00069640628362414511 -0.012745954420534698 0 0.00063747421262594221 -0.012699559928356989 0 0.00061539408481320985 -0.012702199196681949 0 0.00082675308634733483 -0.014871953080834338 0 0.00088368581322673817 -0.014820737375526702 0 0.00093411958684112644 -0.014843064715483845 0 0.00092379029245281583 -0.014758505372141902 0 0.00088368581322673817 -0.014820737375526702 0 0.00093411958684112644 -0.014843064715483845 0 0.00081694000725510412 -0.013888502817889364 0 0.00053337135952444357 -0.013055488409886727 0 0.00077243878690455678 -0.01260788074316758 0 0.00052856960947235908 -0.012872324543547281 0 0.00070154637342043893 -0.012666536703001559 0 0.00073465824196950467 -0.012586253126276136 0 0.00071179956157591613 -0.012622436678942509 0 0.00069640628362414511 -0.012745954420534698 0 0.0006627433202403061 -0.01269488937197333 0 0.00063747421262594221 -0.012699559928356989 0 0.00070154637342043893 -0.012666536703001559 0 0.0006627433202403061 -0.01269488937197333 0 0.00061992107130167035 -0.012674175039782253 0 0.00061992107130167035 -0.012674175039782253 0 0.00063747421262594221 -0.012699559928356989 0 0.00062024218810641132 -0.01268994094661928 0 0.0006627433202403061 -0.01269488937197333 0 0.00061992107130167035 -0.012674175039782253 0 0.00063747421262594221 -0.012699559928356989 0 0.00063747421262594221 -0.012699559928356989 0 0.00062024218810641132 -0.01268994094661928 0 0.00061539408481320985 -0.012702199196681949 0 0.00052856960947235908 -0.012872324543547281 0 0.0010311102995220079 -0.010201173920940531 0 0.00062024218810641132 -0.01268994094661928 0 0.00060951115989177438 -0.012686496174184702 0 0.00061539408481320985 -0.012702199196681949 0 0.00073465824196950467 -0.012586253126276136 0 0.0007230198505139108 -0.012578866342405279 0 0.00069649554305463554 -0.01269596108717729 0 0.00061992107130167035 -0.012674175039782253 0 0.00060018115579266824 -0.012677594435639261 0 0.00057745552963013244 -0.012656087691431952 0 0.00060951115989177438 -0.012686496174184702 0 0.00060018115579266824 -0.012677594435639261 0 0.00061539408481320985 -0.012702199196681949 0 0.00061992107130167035 -0.012674175039782253 0 0.00060951115989177438 -0.012686496174184702 0 0.00060018115579266824 -0.012677594435639261 0 0.00061992107130167035 -0.012674175039782253 0 0.00062024218810641132 -0.01268994094661928 0 0.00060951115989177438 -0.012686496174184702 0 0.00073465824196950467 -0.012586253126276136 0 0.0007230198505139108 -0.012578866342405279 0 0.00072281815342576381 -0.012591452896728758 0 0.0013008851949913359 -0.0094601315972004316 0 0.00098683469593229488 -0.00995604864861027 0 0.0010265653334517251 -0.012813840924143201 0 0.00053337135952444357 -0.013055488409886727 0 0.00060018115579266824 -0.012677594435639261 0 0.00061539408481320985 -0.012702199196681949 0 0.00058495987745264843 -0.012673052643825067 0 0.00081821072230295994 -0.011418226997871716 0 0.00083510368737626313 -0.01129258398138697 0 0.00073289651753663781 -0.011276737602551372 0 0.00081821072230295994 -0.011418226997871716 0 0.00085588267752883065 -0.011420381788391273 0 0.00083510368737626313 -0.01129258398138697 0 0.00053337135952444357 -0.013055488409886727 0 0.00098683469593229488 -0.00995604864861027 0 0.0014719346541852668 -0.0075121615693535693 0 0.0014823197734866705 -0.0074958572613469214 0 0.0014775497167506344 -0.0075117446555306843 0 0.0014823197734866705 -0.0074958572613469214 0 0.0014886428856519327 -0.0074883547694788296 0 0.0014878435529939664 -0.0074859474818159766 0 0.0014823197734866705 -0.0074958572613469214 0 0.0014865933296131419 -0.0074994840392221948 0 0.0014886428856519327 -0.0074883547694788296 0 0.00098683469593229488 -0.00995604864861027 0 0.0014446565524252959 -0.0082004920195161701 0 0.0014823197734866705 -0.0074958572613469214 0 0.0014775497167506344 -0.0075117446555306843 0 0.0014865933296131419 -0.0074994840392221948 0 0.00060018115579266824 -0.012677594435639261 0 0.00058495987745264843 -0.012673052643825067 0 0.00057745552963013244 -0.012656087691431952 0 0.0010311102995220079 -0.010201173920940531 0 0.00083902414253365248 -0.0098643576392313977 0 0.00069649554305463554 -0.01269596108717729 0 0.00062977235602969554 -0.012503521924528523 0 0.000240831530541715 -0.012036565788921311 0 0.00098683469593229488 -0.00995604864861027 0 0.0010311102995220079 -0.010201173920940531 0 0.00069649554305463554 -0.01269596108717729 0 0.00062977235602969554 -0.012503521924528523 0 0.00069494477836166404 -0.012538384720128175 0 0.0007230198505139108 -0.012578866342405279 0 0.00069649554305463554 -0.01269596108717729 0 0.00069494477836166404 -0.012538384720128175 0 0.001060503606429414 -0.0088222453542220747 0 0.0011342463674987413 -0.0089373911703971697 0 0.001328270033566385 -0.0088186896849659566 0 0.0010311102995220079 -0.010201173920940531 0 0.0015306088013368419 -0.0074320761176132058 0 0.0011342463674987413 -0.0089373911703971697 0 0.001328270033566385 -0.0088186896849659566 0 0.001595619149933554 -0.0088128756852233568 0 0.0013699356426419116 -0.0073678061324783739 0 0.0013809590687881275 -0.0073685878088760393 0 0.0013959752953596907 -0.0073286017498352621 0 0.0014446565524252959 -0.0082004920195161701 0 0.0015306088013368419 -0.0074320761176132058 0 0.0014899710211258481 -0.0074817601464159467 0 0.0015304731127330502 -0.0074519220147413728 0 0.0014886428856519327 -0.0074883547694788296 0 0.0014965357778205441 -0.0074741531348169691 0 0.0015082133708409127 -0.007472046236070686 0 0.0014886428856519327 -0.0074883547694788296 0 0.0015383584865788064 -0.007442063085784132 0 0.0015198129466933853 -0.0074847422272239636 0 0.0014865933296131419 -0.0074994840392221948 0 0.0014886428856519327 -0.0074883547694788296 0 0.0015198129466933853 -0.0074847422272239636 0 0.0014886428856519327 -0.0074883547694788296 0 0.0014878435529939664 -0.0074859474818159766 0 0.0014965357778205441 -0.0074741531348169691 0 0.0013898867176739391 -0.0073798454583498315 0 0.0013809590687881275 -0.0073685878088760393 0 0.0014011160847030833 -0.0073518833874035112 0 -0.00029656408351317649 -0.011134352939088129 0 0.000240831530541715 -0.012036565788921311 0 -7.2217875532079323e-06 -0.011046512224822568 0 0.00076612212433661679 -0.008032616342874702 0 0.00083902414253365248 -0.0098643576392313977 0 0.000240831530541715 -0.012036565788921311 0 0.00081399883428841355 -0.011874941137553233 0 -7.2217875532079323e-06 -0.011046512224822568 0 0.00076612212433661679 -0.008032616342874702 0 0.0005543737414534822 -0.0089959450001382731 0 0.0013809590687881275 -0.0073685878088760393 0 0.0014011160847030833 -0.0073518833874035112 0 0.0013959752953596907 -0.0073286017498352621 0 0.00066166757762591737 -0.012474893473685914 0 0.00080796669202307472 -0.01222631216979128 0 0.00062977235602969554 -0.012503521924528523 0 0.000240831530541715 -0.012036565788921311 0 0.00081399883428841355 -0.011874941137553233 0 0.00062977235602969554 -0.012503521924528523 0 0.00069494477836166404 -0.012538384720128175 0 0.00071699331202196607 -0.012544953240846266 0 0.00069494477836166404 -0.012538384720128175 0 0.00071699331202196607 -0.012544953240846266 0 0.00071792875267946493 -0.012555922973045123 0 0.00080796669202307472 -0.01222631216979128 0 0.00082584423525290597 -0.012437230413604821 0 0.00080796669202307472 -0.01222631216979128 0 0.0005543737414534822 -0.0089959450001382731 0 0.00085873126160377212 -0.011276988923403038 0 0.0010185621526343474 -0.010487042464799631 0 0.00026518496961523279 -0.010724536840276107 0 0.00080796669202307472 -0.01222631216979128 0 0.00080242517973476836 -0.011103259064092904 0 0.00074695071958118622 -0.012577050225878482 0 0.00072337400043559648 -0.012602208942919562 0 0.00076703718586863215 -0.012650690250330424 0 0.00072337400043559648 -0.012602208942919562 0 0.00070173222700287499 -0.012617309965458371 0 0.00072710178658938127 -0.012628927855221754 0 0.00072337400043559648 -0.012602208942919562 0 0.00071898010764534959 -0.012584246652139161 0 0.00070660721820416659 -0.012614688669693419 0 0.00074695071958118622 -0.012577050225878482 0 0.00072337400043559648 -0.012602208942919562 0 0.00071898010764534959 -0.012584246652139161 0 0.00074695071958118622 -0.012577050225878482 0 0.00071898010764534959 -0.012584246652139161 0 0.00071792875267946493 -0.012555922973045123 0 0.00071898010764534959 -0.012584246652139161 0 0.00071792875267946493 -0.012555922973045123 0 0.00072281815342576381 -0.012591452896728758 0 0.0007230198505139108 -0.012578866342405279 0 0.00071792875267946493 -0.012555922973045123 0 0.00072281815342576381 -0.012591452896728758 0 0.0007230198505139108 -0.012578866342405279 0 0.00069494477836166404 -0.012538384720128175 0 0.00071792875267946493 -0.012555922973045123 0 0.00071898010764534959 -0.012584246652139161 0 0.00072281815342576381 -0.012591452896728758 0 0.00070660721820416659 -0.012614688669693419 0 0.00072281815342576381 -0.012591452896728758 0 0.00070660721820416659 -0.012614688669693419 0 0.00071179956157591613 -0.012622436678942509 0 0.00073465824196950467 -0.012586253126276136 0 0.00072281815342576381 -0.012591452896728758 0 0.00071179956157591613 -0.012622436678942509 0 0.00070660721820416659 -0.012614688669693419 0 0.00071179956157591613 -0.012622436678942509 0 0.00070387601223930948 -0.012641482099151955 0 0.00070660721820416659 -0.012614688669693419 0 0.00070387601223930948 -0.012641482099151955 0 0.00069971557919866695 -0.012633556727368723 0 0.00070660721820416659 -0.012614688669693419 0 0.00070173222700287499 -0.012617309965458371 0 0.00069971557919866695 -0.012633556727368723 0 0.00072337400043559648 -0.012602208942919562 0 0.00070660721820416659 -0.012614688669693419 0 0.00070173222700287499 -0.012617309965458371 0 0.00070173222700287499 -0.012617309965458371 0 0.00068122966916618199 -0.012625484017790322 0 0.00069971557919866695 -0.012633556727368723 0 0.00067165545557823037 -0.012622937576484248 0 0.00052893711030300864 -0.012653038727183851 0 0.00068122966916618199 -0.012625484017790322 0 0.00069971557919866695 -0.012633556727368723 0 0.00070851711266313748 -0.012623534541769217 0 0.00068122966916618199 -0.012625484017790322 0 0.00062513010706192356 -0.012738487065736799 0 0.0003709676911665805 -0.012664995341676156 0 0.00070173222700287499 -0.012617309965458371 0 0.00068122966916618199 -0.012625484017790322 0 0.00072710178658938127 -0.012628927855221754 0 0.00068122966916618199 -0.012625484017790322 0 0.00062513010706192356 -0.012738487065736799 0 0.00075696651693732192 -0.012679360784369858 0 0.00052562480983700576 -0.012874453592181135 0 0.00072819691716677305 -0.012843428929304582 0 0.00055978771198679359 -0.013146632124188191 0 0.00062513010706192356 -0.012738487065736799 0 0.00052562480983700576 -0.012874453592181135 0 0.0003709676911665805 -0.012664995341676156 0 0.00062513010706192356 -0.012738487065736799 0 0.00052562480983700576 -0.012874453592181135 0 0.00072819691716677305 -0.012843428929304582 0 0.00080242517973476836 -0.011103259064092904 0 0.00019615194839458301 -0.01097012110116366 0 0.0002470086085597383 -0.00903920209355219 0 0.00023990354532464245 -0.0088297506633202485 0 0.0001435779734649627 -0.0092902867319928743 0 0.00072819691716677305 -0.012843428929304582 0 0.00087473432358892102 -0.012634743749481342 0 0.00082714382253293436 -0.012975706840987445 0 0.00062513010706192356 -0.012738487065736799 0 0.00072819691716677305 -0.012843428929304582 0 0.00075696651693732192 -0.012679360784369858 0 0.0002470086085597383 -0.00903920209355219 0 0.00031382707530535145 -0.0092051251886185841 0 0.0001435779734649627 -0.0092902867319928743 0 0.00072337400043559648 -0.012602208942919562 0 0.00076703718586863215 -0.012650690250330424 0 0.00072710178658938127 -0.012628927855221754 0 0.00080242517973476836 -0.011103259064092904 0 0.00054483381933882876 -0.01204297729397405 0 0.00072819691716677305 -0.012843428929304582 0 0.00087473432358892102 -0.012634743749481342 0 0.00075696651693732192 -0.012679360784369858 0 0.00068122966916618199 -0.012625484017790322 0 0.00075696651693732192 -0.012679360784369858 0 0.00072710178658938127 -0.012628927855221754 0 0.00076703718586863215 -0.012650690250330424 0 0.00075696651693732192 -0.012679360784369858 0 0.00072710178658938127 -0.012628927855221754 0 0.00080242517973476836 -0.011103259064092904 0 0.0005543737414534822 -0.0089959450001382731 0 0.00023990354532464245 -0.0088297506633202485 0 0.00041355132688729383 -0.0089484984435219857 0 0.00066602189738953219 -0.0086721718318013164 0 0.0002470086085597383 -0.00903920209355219 0 0.00023990354532464245 -0.0088297506633202485 0 0.00041355132688729383 -0.0089484984435219857 0 8.1108880609639608e-06 -0.0065754321800847683 0 0.00022787467504992298 -0.0064478756567337781 0 0.00020987664531014829 -0.0066593079901451852 0 0.00030893640445849453 -0.0091819610764978347 0 0.00041355132688729383 -0.0089484984435219857 0 0.0005998474291824587 -0.0090201790016212671 0 0.0005768660123277806 -0.008598540952866952 0 0.00027261267014741189 -0.0078446083284274982 0 0.0002470086085597383 -0.00903920209355219 0 0.00030893640445849453 -0.0091819610764978347 0 0.00041355132688729383 -0.0089484984435219857 0 0.00046123281802991876 -0.009040054169999966 0 0.0005768660123277806 -0.008598540952866952 0 0.00022787467504992298 -0.0064478756567337781 0 0.00020987664531014829 -0.0066593079901451852 0 0.00037410835783312414 -0.006606108577787268 0 0.00027261267014741189 -0.0078446083284274982 0 0.00063883069615881219 -0.0054612907978444838 0 0.00022787467504992298 -0.0064478756567337781 0 0.00045408379367153998 -0.0063196024502527115 0 0.00037410835783312414 -0.006606108577787268 0 0.0005998474291824587 -0.0090201790016212671 0 0.00066602189738953219 -0.0086721718318013164 0 0.00088532321071872094 -0.0088561235434420297 0 0.00041355132688729383 -0.0089484984435219857 0 0.0005998474291824587 -0.0090201790016212671 0 0.00066602189738953219 -0.0086721718318013164 0 0.00069144853270242254 -0.0057674934628719676 0 0.00054267733412833208 -0.0058164398458016645 0 0.00077987115019117028 -0.0058926898515092013 0 0.0005543737414534822 -0.0089959450001382731 0 0.00063883069615881219 -0.0054612907978444838 0 0.00076764681461597025 -0.012655621496397818 0 0.00077620084517070014 -0.012711567135318317 0 0.00072598410816656874 -0.012658378839294661 0 0.00076764681461597025 -0.012655621496397818 0 0.00072598410816656874 -0.012658378839294661 0 0.00073941155471403223 -0.012643218876825266 0 0.00072180806629955146 -0.013480718312793467 0 0.00072124134541249707 -0.013095468767106034 0 0.00058440002719447833 -0.014188212746161924 0 0.00020858604574407958 -0.014250486853763317 0 0.00012566706170362587 -0.013870206888189266 0 0.00058440002719447833 -0.014188212746161924 0 0.00070338480294569565 -0.013513943811783651 0 0.00012566706170362587 -0.013870206888189266 0 0.00025494952179108769 -0.013277646404621877 0 0.00070338480294569565 -0.013513943811783651 0 0.00012566706170362587 -0.013870206888189266 0 0.00074131230488820067 -0.012706742935226254 0 0.00077620084517070014 -0.012711567135318317 0 0.00072598410816656874 -0.012658378839294661 0 0.00070154637342043893 -0.012666536703001559 0 0.00074131230488820067 -0.012706742935226254 0 0.00072598410816656874 -0.012658378839294661 0 0.00070154637342043893 -0.012666536703001559 0 0.00070387601223930948 -0.012641482099151955 0 0.00072598410816656874 -0.012658378839294661 0 0.00070154637342043893 -0.012666536703001559 0 0.00071179956157591613 -0.012622436678942509 0 0.00070387601223930948 -0.012641482099151955 0 0.00070387601223930948 -0.012641482099151955 0 0.00069971557919866695 -0.012633556727368723 0 0.00072598410816656874 -0.012658378839294661 0 0.00069971557919866695 -0.012633556727368723 0 0.00072598410816656874 -0.012658378839294661 0 0.00070851711266313748 -0.012623534541769217 0 0.00072598410816656874 -0.012658378839294661 0 0.00070851711266313748 -0.012623534541769217 0 0.00073941155471403223 -0.012643218876825266 0 0.00073774808415459495 -0.012628489753994509 0 0.00070851711266313748 -0.012623534541769217 0 0.00073941155471403223 -0.012643218876825266 0 0.00043937242488026118 -0.012630133286204265 0 0.00052893711030300864 -0.012653038727183851 0 0.00052562480983700576 -0.012874453592181135 0 0.0003709676911665805 -0.012664995341676156 0 0.00027798438082466 -0.01297653706791548 0 4.7846705570949711e-05 -0.0127423585813037 0 -6.8996224691235942e-05 -0.012984743014570154 0 0.00027798438082466 -0.01297653706791548 0 4.7846705570949711e-05 -0.0127423585813037 0 0.0003709676911665805 -0.012664995341676156 0 0.00027798438082466 -0.01297653706791548 0 4.7846705570949711e-05 -0.0127423585813037 0 -6.8996224691235942e-05 -0.012984743014570154 0 -0.00028681232249624662 -0.012827735841330859 0 0.00043937242488026118 -0.012630133286204265 0 9.1441344565916334e-05 -0.013355926288963517 0 0.00073774808415459495 -0.012628489753994509 0 0.00075094891836719217 -0.01263948928747193 0 0.00073941155471403223 -0.012643218876825266 0 0.00073774808415459495 -0.012628489753994509 0 0.00075094891836719217 -0.01263948928747193 0 0.00075704294245112645 -0.012632286161990977 0 0.00076764681461597025 -0.012655621496397818 0 0.00075094891836719217 -0.01263948928747193 0 0.00073941155471403223 -0.012643218876825266 0 0.00058440002719447833 -0.014188212746161924 0 0.00032587988630960476 -0.014470379437749582 0 0.00045953564566991614 -0.014737725257117595 0 0.00072180806629955146 -0.013480718312793467 0 9.1441344565916334e-05 -0.013355926288963517 0 0.00076764681461597025 -0.012655621496397818 0 0.00075094891836719217 -0.01263948928747193 0 0.00075704294245112645 -0.012632286161990977 0 0.00058440002719447833 -0.014188212746161924 0 0.00032587988630960476 -0.014470379437749582 0 0.00020858604574407958 -0.014250486853763317 0 0.00032587988630960476 -0.014470379437749582 0 0.0002466221092529551 -0.014592691040536255 0 0.00031012429007639362 -0.01465328057293983 0 0.00031012429007639362 -0.01465328057293983 0 0.0002429040871681293 -0.014754035446180536 0 0.00018963240140136033 -0.014669902777573704 0 0.00021904138941087088 -0.014790928688454361 0 0.0002429040871681293 -0.014754035446180536 0 0.00045953564566991614 -0.014737725257117595 0 0.00032587988630960476 -0.014470379437749582 0 0.00031012429007639362 -0.01465328057293983 0 0.00045953564566991614 -0.014737725257117595 0 9.1441344565916334e-05 -0.013355926288963517 0 -0.00031795026073930667 -0.013086557394581869 0 0.0002466221092529551 -0.014592691040536255 0 0.00031012429007639362 -0.01465328057293983 0 0.00018963240140136033 -0.014669902777573704 0 -6.8996224691235942e-05 -0.012984743014570154 0 -0.00028681232249624662 -0.012827735841330859 0 -0.00032735830635170852 -0.013083636478935123 0 -0.00042100218403886251 -0.013057847454516295 0 -0.0003187034651955264 -0.01303354185870011 0 -0.00034460030193683093 -0.013196686164110124 0 -6.5528574101299283e-05 -0.014222173735283108 0 9.1441344565916334e-05 -0.013355926288963517 0 0.00031012429007639362 -0.01465328057293983 0 0.0002429040871681293 -0.014754035446180536 0 0.00045953564566991614 -0.014737725257117595 0 -6.5528574101299283e-05 -0.014222173735283108 0 -6.9937134406158883e-05 -0.014264778386414378 0 -6.5528574101299283e-05 -0.014222173735283108 0 -0.00020849503904643482 -0.014871153608444246 0 0.00020917293357427386 -0.014787608215902024 0 6.6457828787164864e-05 -0.014704577961943625 0 -0.0002184883658355013 -0.014776964642021802 0 6.6457828787164864e-05 -0.014704577961943625 0 -0.0002184883658355013 -0.014776964642021802 0 -4.4465804360854739e-05 -0.014629351153046208 0 6.6457828787164864e-05 -0.014704577961943625 0 0.00011110926027900833 -0.014611233612825772 0 -4.4465804360854739e-05 -0.014629351153046208 0 0.00018963240140136033 -0.014669902777573704 0 6.6457828787164864e-05 -0.014704577961943625 0 0.00011110926027900833 -0.014611233612825772 0 0.0002466221092529551 -0.014592691040536255 0 0.00018963240140136033 -0.014669902777573704 0 0.00011110926027900833 -0.014611233612825772 0 0.00018963240140136033 -0.014669902777573704 0 0.00017536045429577361 -0.014729178683184626 0 6.6457828787164864e-05 -0.014704577961943625 0 0.00020917293357427386 -0.014787608215902024 0 0.00017536045429577361 -0.014729178683184626 0 6.6457828787164864e-05 -0.014704577961943625 0 0.0002429040871681293 -0.014754035446180536 0 0.00018963240140136033 -0.014669902777573704 0 0.00017536045429577361 -0.014729178683184626 0 0.00020917293357427386 -0.014787608215902024 0 0.0002429040871681293 -0.014754035446180536 0 0.00017536045429577361 -0.014729178683184626 0 -0.0002184883658355013 -0.014776964642021802 0 -0.00023522700396746486 -0.014655434722769912 0 -4.4465804360854739e-05 -0.014629351153046208 0 -0.0002184883658355013 -0.014776964642021802 0 -0.00023522700396746486 -0.014655434722769912 0 -0.00025086642909031735 -0.014740360213134735 0 -0.00023522700396746486 -0.014655434722769912 0 -0.0001041625890439491 -0.014470248541491716 0 -0.00031651461620413063 -0.014330867949633234 0 -0.00023522700396746486 -0.014655434722769912 0 -0.0001041625890439491 -0.014470248541491716 0 -4.4465804360854739e-05 -0.014629351153046208 0 -0.0001041625890439491 -0.014470248541491716 0 -0.00031651461620413063 -0.014330867949633234 0 -7.5283528291838841e-05 -0.014252466407887132 0 0.00032587988630960476 -0.014470379437749582 0 0.0002466221092529551 -0.014592691040536255 0 0.00010619312984799984 -0.014448732605714772 0 0.0002466221092529551 -0.014592691040536255 0 0.00011110926027900833 -0.014611233612825772 0 0.00010619312984799984 -0.014448732605714772 0 0.00011110926027900833 -0.014611233612825772 0 -4.4465804360854739e-05 -0.014629351153046208 0 0.00010619312984799984 -0.014448732605714772 0 -0.0001041625890439491 -0.014470248541491716 0 -4.4465804360854739e-05 -0.014629351153046208 0 0.00010619312984799984 -0.014448732605714772 0 -0.0001041625890439491 -0.014470248541491716 0 0.00010619312984799984 -0.014448732605714772 0 -7.5283528291838841e-05 -0.014252466407887132 0 0.00010619312984799984 -0.014448732605714772 0 0.00020858604574407958 -0.014250486853763317 0 -7.5283528291838841e-05 -0.014252466407887132 0 0.00032587988630960476 -0.014470379437749582 0 0.00010619312984799984 -0.014448732605714772 0 0.00020858604574407958 -0.014250486853763317 0 0.00020858604574407958 -0.014250486853763317 0 0.00012566706170362587 -0.013870206888189266 0 -7.5283528291838841e-05 -0.014252466407887132 0 0.00012566706170362587 -0.013870206888189266 0 -7.5283528291838841e-05 -0.014252466407887132 0 -0.00013259223753275132 -0.013962761333375505 0 -7.5283528291838841e-05 -0.014252466407887132 0 -0.00042095278792282219 -0.014047541387748313 0 -0.00013259223753275132 -0.013962761333375505 0 -0.00031651461620413063 -0.014330867949633234 0 -7.5283528291838841e-05 -0.014252466407887132 0 -0.00042095278792282219 -0.014047541387748313 0 -0.00019854441890818978 -0.013720083586642343 0 -0.0005910741019006107 -0.013833102485678839 0 -0.00052073058855549987 -0.013533333738026799 0 -0.00042095278792282219 -0.014047541387748313 0 -0.00019854441890818978 -0.013720083586642343 0 -0.0005910741019006107 -0.013833102485678839 0 -0.00042095278792282219 -0.014047541387748313 0 -0.00013259223753275132 -0.013962761333375505 0 -0.00019854441890818978 -0.013720083586642343 0 -0.00034947689407058041 -0.013584192602053791 0 -0.00025705825441771937 -0.014105026045114506 0 0.00025494952179108769 -0.013277646404621877 0 0.00012566706170362587 -0.013870206888189266 0 -0.0003159973212009082 -0.013577181128384557 0 0.00012566706170362587 -0.013870206888189266 0 -0.00013259223753275132 -0.013962761333375505 0 -0.00019854441890818978 -0.013720083586642343 0 0.00012074703653200302 -0.013873395156483847 0 -0.00034947689407058041 -0.013584192602053791 0 -0.00051405059907864764 -0.014350369514737442 0 -0.00033835499486466983 -0.014618241498273248 0 -0.00089384605848166483 -0.013713381933092164 0 -0.0005910741019006107 -0.013833102485678839 0 -0.00052073058855549987 -0.013533333738026799 0 -0.00051405059907864764 -0.014350369514737442 0 -0.00025705825441771937 -0.014105026045114506 0 -0.00089384605848166483 -0.013713381933092164 0 -0.0005910741019006107 -0.013833102485678839 0 -0.0007833773496160306 -0.014221936529277385 0 -0.00031651461620413063 -0.014330867949633234 0 -0.00042095278792282219 -0.014047541387748313 0 -0.0007833773496160306 -0.014221936529277385 0 -0.00042095278792282219 -0.014047541387748313 0 -0.0005910741019006107 -0.013833102485678839 0 -0.0007833773496160306 -0.014221936529277385 0 -0.00024950192983983247 -0.014819779292137132 0 -0.00021278916505435518 -0.014821540662745988 0 -0.0001858979871984378 -0.014919021919713397 0 -0.00059457171332570396 -0.014469013315977674 0 -0.00033835499486466983 -0.014618241498273248 0 -0.00089384605848166483 -0.013713381933092164 0 -0.0007833773496160306 -0.014221936529277385 0 -0.0012473803029895958 -0.013885353165710821 0 -0.00024950192983983247 -0.014819779292137132 0 -0.00021278916505435518 -0.014821540662745988 0 -0.00023102235228657483 -0.014773065710115961 0 -0.00020657722921687711 -0.014683478848350124 0 -0.00059457171332570396 -0.014469013315977674 0 -0.00024950192983983247 -0.014819779292137132 0 -0.00025086642909031735 -0.014740360213134735 0 -0.00023102235228657483 -0.014773065710115961 0 -0.00023522700396746486 -0.014655434722769912 0 -0.00031651461620413063 -0.014330867949633234 0 -0.0007833773496160306 -0.014221936529277385 0 -0.00023522700396746486 -0.014655434722769912 0 -0.00024950192983983247 -0.014819779292137132 0 -0.00025086642909031735 -0.014740360213134735 0 -0.00025086642909031735 -0.014740360213134735 0 -0.00023102235228657483 -0.014773065710115961 0 -0.00023718393988109209 -0.014750671471634598 0 -0.00021278916505435518 -0.014821540662745988 0 -0.00023102235228657483 -0.014773065710115961 0 -0.00018867409991061838 -0.014800196807197878 0 -0.00023102235228657483 -0.014773065710115961 0 -0.00018867409991061838 -0.014800196807197878 0 -0.00022008079028770192 -0.014756127962769663 0 -0.00023102235228657483 -0.014773065710115961 0 -0.00023718393988109209 -0.014750671471634598 0 -0.00022008079028770192 -0.014756127962769663 0 -0.00018867409991061838 -0.014800196807197878 0 -0.00013367020188405514 -0.014825966054896139 0 -0.00015275079376154879 -0.014773301366722433 0 -0.00018867409991061838 -0.014800196807197878 0 -0.00013367020188405514 -0.014825966054896139 0 -0.00014355345598966496 -0.014861966564969117 0 -0.00013367020188405514 -0.014825966054896139 0 -0.00010243072081775387 -0.014795468432169551 0 -0.00015275079376154879 -0.014773301366722433 0 -0.00014355345598966496 -0.014861966564969117 0 -0.0001721780720685946 -0.014862973527734597 0 -0.00012234964667808966 -0.014923420954070635 0 -0.00014355345598966496 -0.014861966564969117 0 -9.5998650762817262e-05 -0.014892012601376542 0 -0.00012234964667808966 -0.014923420954070635 0 -0.00013367020188405514 -0.014825966054896139 0 -0.00014355345598966496 -0.014861966564969117 0 -9.5998650762817262e-05 -0.014892012601376542 0 -0.00021278916505435518 -0.014821540662745988 0 -0.00018867409991061838 -0.014800196807197878 0 -0.0001721780720685946 -0.014862973527734597 0 -0.00018867409991061838 -0.014800196807197878 0 -0.00014355345598966496 -0.014861966564969117 0 -0.0001721780720685946 -0.014862973527734597 0 -5.064540666986379e-09 -0.015000019476838175 0 6.3065636300167135e-07 -0.01499942959279321 0 1.0936252288036329e-06 -0.014995213676273881 0 -4.7011289429973236e-06 -0.014813238429145361 0 -6.2568275857926184e-05 -0.014814876053359207 0 -6.2006418686843458e-05 -0.014772055815208265 0 -4.7011289429973236e-06 -0.014813238429145361 0 -4.7446428910877219e-05 -0.014851560388707826 0 -6.2568275857926184e-05 -0.014814876053359207 0 -4.7011289429973236e-06 -0.014813238429145361 0 -4.7446428910877219e-05 -0.014851560388707826 0 -2.581035267751964e-05 -0.014905387836358697 0 -4.7446428910877219e-05 -0.014851560388707826 0 -8.4563393949061195e-05 -0.014842937698138199 0 -5.0902956666327646e-05 -0.014902242826904492 0 -4.7446428910877219e-05 -0.014851560388707826 0 -6.2568275857926184e-05 -0.014814876053359207 0 -8.4563393949061195e-05 -0.014842937698138199 0 -0.00013367020188405514 -0.014825966054896139 0 -0.00010243072081775387 -0.014795468432169551 0 -8.4563393949061195e-05 -0.014842937698138199 0 -6.2568275857926184e-05 -0.014814876053359207 0 -0.00010243072081775387 -0.014795468432169551 0 -8.4563393949061195e-05 -0.014842937698138199 0 -0.00013367020188405514 -0.014825966054896139 0 -8.4563393949061195e-05 -0.014842937698138199 0 -9.5998650762817262e-05 -0.014892012601376542 0 -9.5998650762817262e-05 -0.014892012601376542 0 -5.0902956666327646e-05 -0.014902242826904492 0 -2.98204025033196e-05 -0.014965818553054022 0 -8.4563393949061195e-05 -0.014842937698138199 0 -9.5998650762817262e-05 -0.014892012601376542 0 -5.0902956666327646e-05 -0.014902242826904492 0 -5.064540666986379e-09 -0.015000019476838175 0 1.0936252288036329e-06 -0.014995213676273881 0 2.1606527628854863e-08 -0.014999892721028626 0 -4.7011289429973236e-06 -0.014813238429145361 0 -2.581035267751964e-05 -0.014905387836358697 0 1.0936252288036329e-06 -0.014995213676273881 0 -5.8964039981447684e-06 -0.014909236555107211 0 3.5825332728446718e-06 -0.014985091915719832 0 -4.7446428910877219e-05 -0.014851560388707826 0 -5.0902956666327646e-05 -0.014902242826904492 0 -2.581035267751964e-05 -0.014905387836358697 0 -5.0902956666327646e-05 -0.014902242826904492 0 -2.581035267751964e-05 -0.014905387836358697 0 -1.8137498300328215e-05 -0.014956956630882477 0 -5.0902956666327646e-05 -0.014902242826904492 0 -2.98204025033196e-05 -0.014965818553054022 0 -1.8137498300328215e-05 -0.014956956630882477 0 -1.8137498300328215e-05 -0.014956956630882477 0 1.0936252288036329e-06 -0.014995213676273881 0 2.1606527628854863e-08 -0.014999892721028626 0 -2.98204025033196e-05 -0.014965818553054022 0 -1.8137498300328215e-05 -0.014956956630882477 0 2.1606527628854863e-08 -0.014999892721028626 0 -2.581035267751964e-05 -0.014905387836358697 0 -1.8137498300328215e-05 -0.014956956630882477 0 1.0936252288036329e-06 -0.014995213676273881 0 2.1606527628854863e-08 -0.014999892721028626 0 -1.7000090937045607e-05 -0.014988043085910674 0 -1.9467356982061526e-08 -0.015000008974696751 0 -2.98204025033196e-05 -0.014965818553054022 0 2.1606527628854863e-08 -0.014999892721028626 0 -1.7000090937045607e-05 -0.014988043085910674 0 -3.744346354104609e-05 -0.014956208803077336 0 -4.0648916402247822e-05 -0.014973467494593719 0 -2.98204025033196e-05 -0.014965818553054022 0 -1.7000090937045607e-05 -0.014988043085910674 0 -2.2594048561927318e-05 -0.01498095792029874 0 -9.5998650762817262e-05 -0.014892012601376542 0 -2.98204025033196e-05 -0.014965818553054022 0 -0.00012234964667808966 -0.014923420954070635 0 -1.7000090937045607e-05 -0.014988043085910674 0 -2.2594048561927318e-05 -0.01498095792029874 0 -1.7596823041942707e-05 -0.014983639646780253 0 -1.7000090937045607e-05 -0.014988043085910674 0 -1.7596823041942707e-05 -0.014983639646780253 0 -9.7886141791394196e-06 -0.014994720149410798 0 -1.7000090937045607e-05 -0.014988043085910674 0 -1.9467356982061526e-08 -0.015000008974696751 0 -9.7886141791394196e-06 -0.014994720149410798 0 -0.00021278916505435518 -0.014821540662745988 0 -0.0001721780720685946 -0.014862973527734597 0 -0.0001858979871984378 -0.014919021919713397 0 -0.0001721780720685946 -0.014862973527734597 0 -0.00012234964667808966 -0.014923420954070635 0 -0.0001858979871984378 -0.014919021919713397 0 -4.0648916402247822e-05 -0.014973467494593719 0 -0.00033835499486466983 -0.014618241498273248 0 -2.2594048561927318e-05 -0.01498095792029874 0 -1.7596823041942707e-05 -0.014983639646780253 0 -2.651462050367584e-05 -0.014979386304066044 0 0.00012003615038171373 -0.015094649511277657 0 -0.00033835499486466983 -0.014618241498273248 0 -3.6554391909179523e-05 -0.014958308021530763 0 -2.0651013088628823e-05 -0.0149619683619531 0 -1.7232520244638243e-05 -0.014973453070873019 0 -1.7596823041942707e-05 -0.014983639646780253 0 -2.0651013088628823e-05 -0.0149619683619531 0 -1.7232520244638243e-05 -0.014973453070873019 0 -1.7232520244638243e-05 -0.014973453070873019 0 -1.4421092615940217e-05 -0.014989957319523199 0 -3.5922658461902935e-05 -0.014979096971692432 0 -1.5806387365842718e-05 -0.014975714421345728 0 -3.9537649624284283e-06 -0.01498926489169544 0 -1.7232520244638243e-05 -0.014973453070873019 0 -2.0598255825276588e-06 -0.014982422672329425 0 7.4751107323314374e-06 -0.014984543327382929 0 -1.7596823041942707e-05 -0.014983639646780253 0 -1.7232520244638243e-05 -0.014973453070873019 0 -1.4328177452910207e-05 -0.014995210516030146 0 7.2642070732264919e-06 -0.014986503144499888 0 7.4751107323314374e-06 -0.014984543327382929 0 5.8851614017624441e-06 -0.014978810944816545 0 -2.0598255825276588e-06 -0.014982422672329425 0 7.2642070732264919e-06 -0.014986503144499888 0 7.4751107323314374e-06 -0.014984543327382929 0 7.2642070732264919e-06 -0.014986503144499888 0 2.9271438082329468e-05 -0.014976240091455317 0 1.5251952700792917e-05 -0.014970316862034825 0 7.2642070732264919e-06 -0.014986503144499888 0 1.5251952700792917e-05 -0.014970316862034825 0 5.8851614017624441e-06 -0.014978810944816545 0 -1.7232520244638243e-05 -0.014973453070873019 0 -2.0598255825276588e-06 -0.014982422672329425 0 -1.4421092615940217e-05 -0.014989957319523199 0 8.9346581152757626e-06 -0.014948644581242362 0 4.0623773023822349e-05 -0.014804518709219448 0 7.2642070732264919e-06 -0.014986503144499888 0 2.9271438082329468e-05 -0.014976240091455317 0 5.4709220423644663e-05 -0.014991977496732478 0 7.7448575280320567e-05 -0.014914106651073565 0 4.0623773023822349e-05 -0.014804518709219448 0 -2.0598255825276588e-06 -0.014982422672329425 0 7.2642070732264919e-06 -0.014986503144499888 0 -1.4421092615940217e-05 -0.014989957319523199 0 -1.9467356982061526e-08 -0.015000008974696751 0 -9.7886141791394196e-06 -0.014994720149410798 0 2.5085402117526555e-09 -0.015000000263321182 0 -1.7596823041942707e-05 -0.014983639646780253 0 -9.7886141791394196e-06 -0.014994720149410798 0 -1.4328177452910207e-05 -0.014995210516030146 0 7.4751107323314374e-06 -0.014984543327382929 0 8.0676919666918262e-07 -0.014984392066742683 0 5.8851614017624441e-06 -0.014978810944816545 0 -9.7886141791394196e-06 -0.014994720149410798 0 -1.4328177452910207e-05 -0.014995210516030146 0 2.5085402117526555e-09 -0.015000000263321182 0 -3.9537649624284283e-06 -0.01498926489169544 0 -3.117680116585202e-09 -0.014999996087365561 0 7.4751107323314374e-06 -0.014984543327382929 0 -3.7637381510541225e-09 -0.014999972978710099 0 8.0676919666918262e-07 -0.014984392066742683 0 8.0676919666918262e-07 -0.014984392066742683 0 1.1550123762732248e-07 -0.014972693443135128 0 -5.8006275640337905e-09 -0.014999964408673034 0 -3.7637381510541225e-09 -0.014999972978710099 0 8.0676919666918262e-07 -0.014984392066742683 0 -5.8006275640337905e-09 -0.014999964408673034 0 8.0676919666918262e-07 -0.014984392066742683 0 3.5388834715930827e-06 -0.014969539992430012 0 1.1550123762732248e-07 -0.014972693443135128 0 8.0676919666918262e-07 -0.014984392066742683 0 3.5388834715930827e-06 -0.014969539992430012 0 5.8851614017624441e-06 -0.014978810944816545 0 1.3744683506362771e-05 -0.014920607395512802 0 -2.9041911422337175e-06 -0.014954709574261928 0 5.5194693858395448e-06 -0.014951484025409018 0 -2.9041911422337175e-06 -0.014954709574261928 0 5.5194693858395448e-06 -0.014951484025409018 0 1.1550123762732248e-07 -0.014972693443135128 0 3.5388834715930827e-06 -0.014969539992430012 0 5.5194693858395448e-06 -0.014951484025409018 0 1.1550123762732248e-07 -0.014972693443135128 0 -2.9041911422337175e-06 -0.014954709574261928 0 1.1550123762732248e-07 -0.014972693443135128 0 -5.8006275640337905e-09 -0.014999964408673034 0 3.1983485338861292e-05 -0.01495118557947891 0 6.9253628262561993e-05 -0.014937398661669632 0 3.0670653787007106e-05 -0.014924231597902493 0 2.9271438082329468e-05 -0.014976240091455317 0 5.2928245357031037e-05 -0.014988615389558575 0 6.9253628262561993e-05 -0.014937398661669632 0 2.9271438082329468e-05 -0.014976240091455317 0 3.1983485338861292e-05 -0.01495118557947891 0 6.9253628262561993e-05 -0.014937398661669632 0 3.1983485338861292e-05 -0.01495118557947891 0 1.5251952700792917e-05 -0.014970316862034825 0 1.3116783832448103e-05 -0.01495919933154018 0 2.9271438082329468e-05 -0.014976240091455317 0 3.1983485338861292e-05 -0.01495118557947891 0 1.5251952700792917e-05 -0.014970316862034825 0 3.5388834715930827e-06 -0.014969539992430012 0 5.8851614017624441e-06 -0.014978810944816545 0 1.3116783832448103e-05 -0.01495919933154018 0 1.5251952700792917e-05 -0.014970316862034825 0 5.8851614017624441e-06 -0.014978810944816545 0 1.3116783832448103e-05 -0.01495919933154018 0 3.5388834715930827e-06 -0.014969539992430012 0 5.5194693858395448e-06 -0.014951484025409018 0 1.3116783832448103e-05 -0.01495919933154018 0 3.1983485338861292e-05 -0.01495118557947891 0 1.3116783832448103e-05 -0.01495919933154018 0 3.0670653787007106e-05 -0.014924231597902493 0 1.3744683506362771e-05 -0.014920607395512802 0 5.5194693858395448e-06 -0.014951484025409018 0 3.0670653787007106e-05 -0.014924231597902493 0 5.5194693858395448e-06 -0.014951484025409018 0 1.3116783832448103e-05 -0.01495919933154018 0 3.0670653787007106e-05 -0.014924231597902493 0 3.8829146740704776e-05 -0.014884748477406935 0 1.3744683506362771e-05 -0.014920607395512802 0 3.0670653787007106e-05 -0.014924231597902493 0 3.8829146740704776e-05 -0.014884748477406935 0 3.0670653787007106e-05 -0.014924231597902493 0 7.5841493546436651e-05 -0.014877409392293213 0 6.9253628262561993e-05 -0.014937398661669632 0 3.0670653787007106e-05 -0.014924231597902493 0 7.5841493546436651e-05 -0.014877409392293213 0 6.9253628262561993e-05 -0.014937398661669632 0 7.5841493546436651e-05 -0.014877409392293213 0 0.00014832383779730569 -0.014892425947858915 0 0.00014514161104610477 -0.014835448423590764 0 7.5841493546436651e-05 -0.014877409392293213 0 0.00014832383779730569 -0.014892425947858915 0 6.9253628262561993e-05 -0.014937398661669632 0 0.00014832383779730569 -0.014892425947858915 0 0.00014467572621543081 -0.014983976440166183 0 0.00014832383779730569 -0.014892425947858915 0 0.00024893564031094694 -0.014897354243171075 0 0.00014467572621543081 -0.014983976440166183 0 0.00014832383779730569 -0.014892425947858915 0 0.00021600427151476675 -0.014815315469037747 0 0.00024893564031094694 -0.014897354243171075 0 0.00014514161104610477 -0.014835448423590764 0 0.00014832383779730569 -0.014892425947858915 0 0.00021600427151476675 -0.014815315469037747 0 0.00021600427151476675 -0.014815315469037747 0 0.00037998083578138668 -0.014790577329860709 0 0.00024893564031094694 -0.014897354243171075 0 0.00038951305767364903 -0.014564608531415113 0 0.000509652046800799 -0.014700451881018553 0 0.00037998083578138668 -0.014790577329860709 0 0.00038951305767364903 -0.014564608531415113 0 0.00021600427151476675 -0.014815315469037747 0 0.00037998083578138668 -0.014790577329860709 0 0.00037998083578138668 -0.014790577329860709 0 0.00039035352619058245 -0.014907571796940428 0 0.00024893564031094694 -0.014897354243171075 0 0.00050167624522739346 -0.014831217414231834 0 0.00037998083578138668 -0.014790577329860709 0 0.00039035352619058245 -0.014907571796940428 0 0.00039035352619058245 -0.014907571796940428 0 0.00024893564031094694 -0.014897354243171075 0 0.00028620752181921638 -0.014982247437634049 0 0.00015386557302488301 -0.014433600643652195 0 0.000164052609710678 -0.014452538777562548 0 0.00013044504437960354 -0.014449959513688477 0 0.00024893564031094694 -0.014897354243171075 0 0.00028620752181921638 -0.014982247437634049 0 0.00014467572621543081 -0.014983976440166183 0 0.00047787725166464803 -0.014962750127173137 0 0.00039035352619058245 -0.014907571796940428 0 0.00028620752181921638 -0.014982247437634049 0 0.00021271902346083592 -0.014428491258187452 0 0.00015386557302488301 -0.014433600643652195 0 0.000164052609710678 -0.014452538777562548 0 0.0004126369361748131 -0.01422573930220658 0 0.0002071345833918689 -0.014756717931361492 0 0.0004126369361748131 -0.01422573930220658 0 8.7020239761419513e-06 -0.01368125042387729 0 0.00025494952179108769 -0.013277646404621877 0 0.00042084937618383451 -0.012799267877113977 0 -0.00017511045028128868 -0.013045272303247016 0 0.00025494952179108769 -0.013277646404621877 0 -0.0003159973212009082 -0.013577181128384557 0 -0.00017511045028128868 -0.013045272303247016 0 8.7020239761419513e-06 -0.01368125042387729 0 -0.00025705825441771937 -0.014105026045114506 0 -0.0003159973212009082 -0.013577181128384557 0 -0.00017511045028128868 -0.013045272303247016 0 -0.00074068238184248091 -0.013311149561933206 0 0.000164052609710678 -0.014452538777562548 0 0.00013044504437960354 -0.014449959513688477 0 0.00012681033600089712 -0.014467392382940945 0 -3.6554391909179523e-05 -0.014958308021530763 0 -6.0297803681811404e-05 -0.014960163410691353 0 -3.5922658461902935e-05 -0.014979096971692432 0 -0.00025705825441771937 -0.014105026045114506 0 0.00010890758816253119 -0.014781780314653929 0 0.00013044504437960354 -0.014449959513688477 0 0.00012681033600089712 -0.014467392382940945 0 0.00010428087658876391 -0.014454921269365551 0 -3.6554391909179523e-05 -0.014958308021530763 0 -1.7232520244638243e-05 -0.014973453070873019 0 -3.5922658461902935e-05 -0.014979096971692432 0 5.2928245357031037e-05 -0.014988615389558575 0 6.9253628262561993e-05 -0.014937398661669632 0 0.00014467572621543081 -0.014983976440166183 0 4.0623773023822349e-05 -0.014804518709219448 0 0.00010890758816253119 -0.014781780314653929 0 4.0623773023822349e-05 -0.014804518709219448 0 0.00013782792912791456 -0.014699252275026008 0 8.5643391454901703e-05 -0.014449036002348882 0 0.00010428087658876391 -0.014454921269365551 0 0.00011334374760201537 -0.014441995325722943 0 0.00013044504437960354 -0.014449959513688477 0 0.00010428087658876391 -0.014454921269365551 0 0.00011334374760201537 -0.014441995325722943 0 0.0002071345833918689 -0.014756717931361492 0 0.00013782792912791456 -0.014699252275026008 0 0.00015386557302488301 -0.014433600643652195 0 0.00013044504437960354 -0.014449959513688477 0 0.00011334374760201537 -0.014441995325722943 0 0.0020478902178586731 0.0058357965112827643 0 0.0019079855556765771 0.0056235610170477478 0 0.0019764430716259908 0.0059448449184141159 0 0.0020478902178586731 0.0058357965112827643 0 0.0021755393651253317 0.0056158553484523923 0 0.0019079855556765771 0.0056235610170477478 0 0.0021755393651253317 0.0056158553484523923 0 0.0021801028049750547 0.0060965118328965909 0 0.0027475596374852886 0.0057426613252612906 0 0.0020478902178586731 0.0058357965112827643 0 0.0021755393651253317 0.0056158553484523923 0 0.0021801028049750547 0.0060965118328965909 0 0.0021755393651253317 0.0056158553484523923 0 0.0023579150858396205 0.0053302668454431514 0 0.0020446826162335142 0.0052375580017898996 0 0.0023579150858396205 0.0053302668454431514 0 0.0020446826162335142 0.0052375580017898996 0 0.0022148522034586685 0.0049881653811439594 0 0.0020446826162335142 0.0052375580017898996 0 0.0019170005069825389 0.0052699171487182303 0 0.0019952607299349918 0.0054353744412613059 0 0.0021755393651253317 0.0056158553484523923 0 0.0020446826162335142 0.0052375580017898996 0 0.0019952607299349918 0.0054353744412613059 0 0.0021755393651253317 0.0056158553484523923 0 0.0019952607299349918 0.0054353744412613059 0 0.0019079855556765771 0.0056235610170477478 0 0.0019079855556765771 0.0056235610170477478 0 0.0018301573172948473 0.0053652646486429881 0 0.0014324719206877062 0.0054475355107499162 0 0.0019952607299349918 0.0054353744412613059 0 0.0019079855556765771 0.0056235610170477478 0 0.0018301573172948473 0.0053652646486429881 0 0.0019170005069825389 0.0052699171487182303 0 0.0018301573172948473 0.0053652646486429881 0 0.0018060080641827516 0.0050565660196540555 0 0.0019170005069825389 0.0052699171487182303 0 0.0019952607299349918 0.0054353744412613059 0 0.0018301573172948473 0.0053652646486429881 0 0.0014324719206877062 0.0054475355107499162 0 0.0010979366510895777 0.0051205859011763995 0 0.0010868946839727651 0.0057580656539207237 0 0.0019079855556765771 0.0056235610170477478 0 0.0014324719206877062 0.0054475355107499162 0 0.0010868946839727651 0.0057580656539207237 0 0.0018301573172948473 0.0053652646486429881 0 0.0015372814849432797 0.0051290557448622548 0 0.0014324719206877062 0.0054475355107499162 0 0.0015372814849432797 0.0051290557448622548 0 0.0014324719206877062 0.0054475355107499162 0 0.0010979366510895777 0.0051205859011763995 0 0.0010979366510895777 0.0051205859011763995 0 0.0010868946839727651 0.0057580656539207237 0 0.00057159507442043362 0.005386982400061381 0 0.0010979366510895777 0.0051205859011763995 0 0.00067877914540647941 0.0049695702493597433 0 0.00057159507442043362 0.005386982400061381 0 0.0010868946839727651 0.0057580656539207237 0 0.00030579729342887897 0.005934880233433807 0 0.00057159507442043362 0.005386982400061381 0 0.0013694825962940033 0.0059312819658924269 0 0.0013910454539546413 0.0044428589623478733 0 0.0018737181967419187 0.005807970172126177 0 0.0019125896295412081 0.00593296158736604 0 0.0017595552329527215 0.0058503255279913199 0 0.0019523560913475351 0.0055996313581157539 0 0.0013694825962940033 0.0059312819658924269 0 0.0019079855556765771 0.0056235610170477478 0 0.0018737181967419187 0.005807970172126177 0 0.0019764430716259908 0.0059448449184141159 0 0.0018737181967419187 0.005807970172126177 0 0.0019764430716259908 0.0059448449184141159 0 0.0019125896295412081 0.00593296158736604 0 0.0019764430716259908 0.0059448449184141159 0 0.0019125896295412081 0.00593296158736604 0 0.0020198782279205003 0.0060338021712773408 0 0.0019125896295412081 0.00593296158736604 0 0.0019098636726843764 0.0060197597316323905 0 0.0017595552329527215 0.0058503255279913199 0 0.0019098636726843764 0.0060197597316323905 0 0.0020198782279205003 0.0060338021712773408 0 0.0021323994494959592 0.0060058544969467456 0 0.0019125896295412081 0.00593296158736604 0 0.0019098636726843764 0.0060197597316323905 0 0.0020198782279205003 0.0060338021712773408 0 0.0019764430716259908 0.0059448449184141159 0 0.0020198782279205003 0.0060338021712773408 0 0.0021064721801584804 0.0061096604009163438 0 0.0019764430716259908 0.0059448449184141159 0 0.0021064721801584804 0.0061096604009163438 0 0.0021801028049750547 0.0060965118328965909 0 0.0020478902178586731 0.0058357965112827643 0 0.0019764430716259908 0.0059448449184141159 0 0.0021801028049750547 0.0060965118328965909 0 0.0021064721801584804 0.0061096604009163438 0 0.0021801028049750547 0.0060965118328965909 0 0.0021473122281644324 0.0061736319480699305 0 0.0021801028049750547 0.0060965118328965909 0 0.0021473122281644324 0.0061736319480699305 0 0.0021277112388108808 0.0063033717619161954 0 0.0021473122281644324 0.0061736319480699305 0 0.0021277112388108808 0.0063033717619161954 0 0.0020857908537370239 0.0062214408825833215 0 0.0020397108506859641 0.0063651730806262513 0 0.0019509157757097784 0.0063792815332872578 0 0.0020857908537370239 0.0062214408825833215 0 0.0021277112388108808 0.0063033717619161954 0 0.0020397108506859641 0.0063651730806262513 0 0.0020857908537370239 0.0062214408825833215 0 0.0020397108506859641 0.0063651730806262513 0 0.0020329476241775137 0.0065005129056605691 0 0.0019588391601924461 0.0064836255895533686 0 0.0021277112388108808 0.0063033717619161954 0 0.0020397108506859641 0.0063651730806262513 0 0.0020329476241775137 0.0065005129056605691 0 0.0021277112388108808 0.0063033717619161954 0 0.0020329476241775137 0.0065005129056605691 0 0.0021206968047365561 0.0065786153699904145 0 0.0020329476241775137 0.0065005129056605691 0 0.00196353411624622 0.0066996787985117278 0 0.0021206968047365561 0.0065786153699904145 0 0.0021801028049750547 0.0060965118328965909 0 0.0021277112388108808 0.0063033717619161954 0 0.0021206968047365561 0.0065786153699904145 0 0.0017190135271399078 0.0066052995450313224 0 0.0018156237304229926 0.006423416852202578 0 0.0016456519401980196 0.0065127993468866259 0 0.0017190135271399078 0.0066052995450313224 0 0.0018521170954301396 0.0065478534911574396 0 0.0018156237304229926 0.006423416852202578 0 0.0017190135271399078 0.0066052995450313224 0 0.0018521170954301396 0.0065478534911574396 0 0.0017542880617981722 0.0067355995512100881 0 0.0018521170954301396 0.0065478534911574396 0 0.0019509157757097784 0.0063792815332872578 0 0.0018156237304229926 0.006423416852202578 0 0.0020397108506859641 0.0063651730806262513 0 0.0019509157757097784 0.0063792815332872578 0 0.0019588391601924461 0.0064836255895533686 0 0.0018521170954301396 0.0065478534911574396 0 0.0019509157757097784 0.0063792815332872578 0 0.0019588391601924461 0.0064836255895533686 0 0.0020329476241775137 0.0065005129056605691 0 0.0019588391601924461 0.0064836255895533686 0 0.0019009410800579982 0.0066431723338905863 0 0.0020329476241775137 0.0065005129056605691 0 0.0019009410800579982 0.0066431723338905863 0 0.00196353411624622 0.0066996787985117278 0 0.0019009410800579982 0.0066431723338905863 0 0.0018329224331460026 0.0068285985580096775 0 0.00196353411624622 0.0066996787985117278 0 0.0018521170954301396 0.0065478534911574396 0 0.0019009410800579982 0.0066431723338905863 0 0.0017542880617981722 0.0067355995512100881 0 0.0018521170954301396 0.0065478534911574396 0 0.0019588391601924461 0.0064836255895533686 0 0.0019009410800579982 0.0066431723338905863 0 0.0019009410800579982 0.0066431723338905863 0 0.0017542880617981722 0.0067355995512100881 0 0.0018329224331460026 0.0068285985580096775 0 0.0017542880617981722 0.0067355995512100881 0 0.0017047410834288308 0.0069089403232906058 0 0.0016124331212043434 0.0068606586955734482 0 0.0017542880617981722 0.0067355995512100881 0 0.0016124331212043434 0.0068606586955734482 0 0.001654281293622916 0.0067437342554852557 0 0.0017190135271399078 0.0066052995450313224 0 0.0017542880617981722 0.0067355995512100881 0 0.001654281293622916 0.0067437342554852557 0 0.0016732899323078604 0.0070475079863404951 0 0.0017047410834288308 0.0069089403232906058 0 0.0017735788053428905 0.0069899243707001769 0 0.0017047410834288308 0.0069089403232906058 0 0.0018329224331460026 0.0068285985580096775 0 0.0017735788053428905 0.0069899243707001769 0 0.0017542880617981722 0.0067355995512100881 0 0.0017047410834288308 0.0069089403232906058 0 0.0018329224331460026 0.0068285985580096775 0 0.0018329224331460026 0.0068285985580096775 0 0.0017735788053428905 0.0069899243707001769 0 0.0018938279047043837 0.0069832806785583732 0 0.0018329224331460026 0.0068285985580096775 0 0.00196353411624622 0.0066996787985117278 0 0.0018938279047043837 0.0069832806785583732 0 0.0030817581368909035 0.0052459133884777921 0 0.0032608753026463141 0.005403854657843008 0 0.002932818937733876 0.0053925700382852363 0 0.0030817581368909035 0.0052459133884777921 0 0.0032463603939548772 0.0053199886885430736 0 0.0031066644709703182 0.0049881121406242538 0 0.0030817581368909035 0.0052459133884777921 0 0.0032463603939548772 0.0053199886885430736 0 0.0032608753026463141 0.005403854657843008 0 0.0017735788053428905 0.0069899243707001769 0 0.0018938279047043837 0.0069832806785583732 0 0.0015811963328288576 0.0072835476380281594 0 0.0016732899323078604 0.0070475079863404951 0 0.0017735788053428905 0.0069899243707001769 0 0.0015811963328288576 0.0072835476380281594 0 0.0032608753026463141 0.005403854657843008 0 0.0032773277940825111 0.005328466838630151 0 0.0032659738802268065 0.0053290327145242159 0 0.0032789111218180203 0.0053056113199434493 0 0.0034591864378559702 0.0052173415039866271 0 0.0032463603939548772 0.0053199886885430736 0 0.0032608753026463141 0.005403854657843008 0 0.0032773277940825111 0.005328466838630151 0 0.0025708347273720933 0.0061949879634705021 0 0.0023621828431163441 0.0063264367760827861 0 0.0021755393651253317 0.0056158553484523923 0 0.0023579150858396205 0.0053302668454431514 0 0.0027475596374852886 0.0057426613252612906 0 0.0021784383417574348 0.0061255562739107429 0 0.0024053961522644256 0.0061628099442343444 0 0.0032608753026463141 0.005403854657843008 0 0.0027475596374852886 0.0057426613252612906 0 0.002932818937733876 0.0053925700382852363 0 0.00196353411624622 0.0066996787985117278 0 0.0018938279047043837 0.0069832806785583732 0 0.0021206968047365561 0.0065786153699904145 0 0.0025708347273720933 0.0061949879634705021 0 0.0024053961522644256 0.0061628099442343444 0 0.002932818937733876 0.0053925700382852363 0 0.0025835683616270157 0.0051549571476820592 0 0.0028267510737452722 0.0050140422245265196 0 0.0027475596374852886 0.0057426613252612906 0 0.002932818937733876 0.0053925700382852363 0 0.0025835683616270157 0.0051549571476820592 0 0.0030817581368909035 0.0052459133884777921 0 0.002932818937733876 0.0053925700382852363 0 0.0028267510737452722 0.0050140422245265196 0 0.0023579150858396205 0.0053302668454431514 0 0.0027475596374852886 0.0057426613252612906 0 0.0025835683616270157 0.0051549571476820592 0 0.0025066292700936001 0.0048776058522905013 0 0.0025835683616270157 0.0051549571476820592 0 0.0022148522034586685 0.0049881653811439594 0 0.0023579150858396205 0.0053302668454431514 0 0.0025835683616270157 0.0051549571476820592 0 0.0022148522034586685 0.0049881653811439594 0 0.0025066292700936001 0.0048776058522905013 0 0.0023797375674432433 0.0046421044736642486 0 0.0022148522034586685 0.0049881653811439594 0 0.0025066292700936001 0.0048776058522905013 0 0.0028267510737452722 0.0050140422245265196 0 0.0026814283795169001 0.0046760352258470991 0 0.0025066292700936001 0.0048776058522905013 0 0.0025835683616270157 0.0051549571476820592 0 0.0028267510737452722 0.0050140422245265196 0 0.0030817581368909035 0.0052459133884777921 0 0.0028267510737452722 0.0050140422245265196 0 0.0031066644709703182 0.0049881121406242538 0 0.0028267510737452722 0.0050140422245265196 0 0.0029535008951753635 0.004776931514958299 0 0.0031066644709703182 0.0049881121406242538 0 0.0028267510737452722 0.0050140422245265196 0 0.0029535008951753635 0.004776931514958299 0 0.0026814283795169001 0.0046760352258470991 0 0.0029054776088647538 0.0044518772718124232 0 0.0025381170858666821 0.0044010272201227048 0 0.0026814283795169001 0.0046760352258470991 0 0.0029535008951753635 0.004776931514958299 0 0.0029054776088647538 0.0044518772718124232 0 0.0026814283795169001 0.0046760352258470991 0 0.0025381170858666821 0.0044010272201227048 0 0.0023797375674432433 0.0046421044736642486 0 0.0021842600596134543 0.0042947866959879349 0 0.0025381170858666821 0.0044010272201227048 0 0.0023797375674432433 0.0046421044736642486 0 0.0026814283795169001 0.0046760352258470991 0 0.0025066292700936001 0.0048776058522905013 0 0.0023797375674432433 0.0046421044736642486 0 0.0026814283795169001 0.0046760352258470991 0 0.0032463603939548772 0.0053199886885430736 0 0.0036907650200238749 0.0050712793445328334 0 0.0033749558249645062 0.0050178222858649974 0 0.0037053153584762116 0.0047420152323371222 0 0.0036907650200238749 0.0050712793445328334 0 0.0033749558249645062 0.0050178222858649974 0 0.0037053153584762116 0.0047420152323371222 0 0.0033749558249645062 0.0050178222858649974 0 0.0032769104717819473 0.0046432351608732877 0 0.0033749558249645062 0.0050178222858649974 0 0.0031066644709703182 0.0049881121406242538 0 0.0032769104717819473 0.0046432351608732877 0 0.0032463603939548772 0.0053199886885430736 0 0.0033749558249645062 0.0050178222858649974 0 0.0031066644709703182 0.0049881121406242538 0 0.0029535008951753635 0.004776931514958299 0 0.0031066644709703182 0.0049881121406242538 0 0.0032769104717819473 0.0046432351608732877 0 0.0029535008951753635 0.004776931514958299 0 0.0029054776088647538 0.0044518772718124232 0 0.0032769104717819473 0.0046432351608732877 0 0.0029054776088647538 0.0044518772718124232 0 0.0032769104717819473 0.0046432351608732877 0 0.0032239587084514519 0.0042976304669051285 0 0.0032769104717819473 0.0046432351608732877 0 0.0034352601450027458 0.0044545245650389606 0 0.0032239587084514519 0.0042976304669051285 0 0.0035273875175701849 0.0046162093313559536 0 0.0032769104717819473 0.0046432351608732877 0 0.0034352601450027458 0.0044545245650389606 0 0.0036355810414814105 0.0046954298619042122 0 0.0033079855798334814 0.0046374561483064191 0 0.0034352601450027458 0.0044545245650389606 0 0.0034863255055366067 0.0042083295401849682 0 0.0036460722013349949 0.0044120565842192053 0 0.0035273875175701849 0.0046162093313559536 0 0.0034352601450027458 0.0044545245650389606 0 0.0036460722013349949 0.0044120565842192053 0 0.0034863255055366067 0.0042083295401849682 0 0.0032239587084514519 0.0042976304669051285 0 0.0033396655592164417 0.0039219621396949936 0 0.0034863255055366067 0.0042083295401849682 0 0.0033396655592164417 0.0039219621396949936 0 0.0036068899459530432 0.0038826271893675972 0 0.0034352601450027458 0.0044545245650389606 0 0.0034863255055366067 0.0042083295401849682 0 0.0032239587084514519 0.0042976304669051285 0 0.0029054776088647538 0.0044518772718124232 0 0.0032239587084514519 0.0042976304669051285 0 0.0030094688950649518 0.0040170064165544238 0 0.0032239587084514519 0.0042976304669051285 0 0.0030094688950649518 0.0040170064165544238 0 0.0033396655592164417 0.0039219621396949936 0 0.0030094688950649518 0.0040170064165544238 0 0.003189713281109932 0.003600131792911744 0 0.002904695486014301 0.0036264315550182231 0 0.0030094688950649518 0.0040170064165544238 0 0.0033396655592164417 0.0039219621396949936 0 0.003189713281109932 0.003600131792911744 0 0.0033396655592164417 0.0039219621396949936 0 0.0035327700852854221 0.0035687947188668347 0 0.003189713281109932 0.003600131792911744 0 0.0033396655592164417 0.0039219621396949936 0 0.0036068899459530432 0.0038826271893675972 0 0.0035327700852854221 0.0035687947188668347 0 0.0025381170858666821 0.0044010272201227048 0 0.0024022611122278235 0.0040138047246095375 0 0.0027165069464733333 0.0041434863428298566 0 0.0025381170858666821 0.0044010272201227048 0 0.0024022611122278235 0.0040138047246095375 0 0.0021842600596134543 0.0042947866959879349 0 0.0029054776088647538 0.0044518772718124232 0 0.0030094688950649518 0.0040170064165544238 0 0.0027165069464733333 0.0041434863428298566 0 0.0029054776088647538 0.0044518772718124232 0 0.0025381170858666821 0.0044010272201227048 0 0.0027165069464733333 0.0041434863428298566 0 0.0030094688950649518 0.0040170064165544238 0 0.0027079194290347873 0.0038608137396504384 0 0.002904695486014301 0.0036264315550182231 0 0.0027079194290347873 0.0038608137396504384 0 0.002904695486014301 0.0036264315550182231 0 0.0024826407366062837 0.0035611239213100081 0 0.0030094688950649518 0.0040170064165544238 0 0.0027165069464733333 0.0041434863428298566 0 0.0027079194290347873 0.0038608137396504384 0 0.0024022611122278235 0.0040138047246095375 0 0.0027079194290347873 0.0038608137396504384 0 0.0024826407366062837 0.0035611239213100081 0 0.0024022611122278235 0.0040138047246095375 0 0.0021710187225012375 0.0038089176061812443 0 0.0024826407366062837 0.0035611239213100081 0 0.0024022611122278235 0.0040138047246095375 0 0.0027165069464733333 0.0041434863428298566 0 0.0027079194290347873 0.0038608137396504384 0 0.0021710187225012375 0.0038089176061812443 0 0.0018555247865477797 0.0037667525145081249 0 0.0020553029152167797 0.003500218868409359 0 0.0021710187225012375 0.0038089176061812443 0 0.0021835392423813203 0.0040337405550545423 0 0.001972586812033785 0.0040192309322021986 0 0.0021710187225012375 0.0038089176061812443 0 0.0018555247865477797 0.0037667525145081249 0 0.001972586812033785 0.0040192309322021986 0 0.0024022611122278235 0.0040138047246095375 0 0.0021710187225012375 0.0038089176061812443 0 0.0021835392423813203 0.0040337405550545423 0 0.0015893072648398723 0.0038128566899319157 0 0.0018555247865477797 0.0037667525145081249 0 0.0016232272102229166 0.0034479432232652689 0 0.0018555247865477797 0.0037667525145081249 0 0.0017108027685473213 0.0040086914761760881 0 0.001972586812033785 0.0040192309322021986 0 0.0015893072648398723 0.0038128566899319157 0 0.0018555247865477797 0.0037667525145081249 0 0.0017108027685473213 0.0040086914761760881 0 0.0015893072648398723 0.0038128566899319157 0 0.0017108027685473213 0.0040086914761760881 0 0.0014640168743381007 0.0040118751898666439 0 0.0017108027685473213 0.0040086914761760881 0 0.001839618374143921 0.0041912328759035715 0 0.0016115939006517742 0.0042280004924717032 0 0.0017108027685473213 0.0040086914761760881 0 0.0016115939006517742 0.0042280004924717032 0 0.0014640168743381007 0.0040118751898666439 0 0.0017108027685473213 0.0040086914761760881 0 0.001839618374143921 0.0041912328759035715 0 0.001972586812033785 0.0040192309322021986 0 0.001839618374143921 0.0041912328759035715 0 0.0016115939006517742 0.0042280004924717032 0 0.001898484831954522 0.0044069690463530231 0 0.0016115939006517742 0.0042280004924717032 0 0.001898484831954522 0.0044069690463530231 0 0.0016249321752840214 0.0044445918810758862 0 0.0024022611122278235 0.0040138047246095375 0 0.0021835392423813203 0.0040337405550545423 0 0.0021842600596134543 0.0042947866959879349 0 0.0021835392423813203 0.0040337405550545423 0 0.001972586812033785 0.0040192309322021986 0 0.0021842600596134543 0.0042947866959879349 0 0.001839618374143921 0.0041912328759035715 0 0.001972586812033785 0.0040192309322021986 0 0.0021842600596134543 0.0042947866959879349 0 0.001839618374143921 0.0041912328759035715 0 0.0021842600596134543 0.0042947866959879349 0 0.001898484831954522 0.0044069690463530231 0 0.0023797375674432433 0.0046421044736642486 0 0.0021842600596134543 0.0042947866959879349 0 0.0021471553424932139 0.0046298048607414533 0 0.0023797375674432433 0.0046421044736642486 0 0.0021471553424932139 0.0046298048607414533 0 0.0022148522034586685 0.0049881653811439594 0 0.0021471553424932139 0.0046298048607414533 0 0.0019482853524732827 0.004703875987629458 0 0.0022148522034586685 0.0049881653811439594 0 0.0021842600596134543 0.0042947866959879349 0 0.0021471553424932139 0.0046298048607414533 0 0.001898484831954522 0.0044069690463530231 0 0.0021471553424932139 0.0046298048607414533 0 0.001898484831954522 0.0044069690463530231 0 0.0019482853524732827 0.004703875987629458 0 0.001898484831954522 0.0044069690463530231 0 0.0017711547778759167 0.0045609841870533274 0 0.0019482853524732827 0.004703875987629458 0 0.001898484831954522 0.0044069690463530231 0 0.0016249321752840214 0.0044445918810758862 0 0.0017711547778759167 0.0045609841870533274 0 0.0016249321752840214 0.0044445918810758862 0 0.0017711547778759167 0.0045609841870533274 0 0.0016049521809539226 0.0045963189843631442 0 0.0017338136798067452 0.0047045699161473884 0 0.0018815808985642442 0.0049510988129133574 0 0.0015389377118337144 0.0047222021610268394 0 0.0016049521809539226 0.0045963189843631442 0 0.0017338136798067452 0.0047045699161473884 0 0.0015469892682235505 0.0047186623324147548 0 0.0017711547778759167 0.0045609841870533274 0 0.0016049521809539226 0.0045963189843631442 0 0.0017338136798067452 0.0047045699161473884 0 0.0016644371894184858 0.004164915642123357 0 0.0018288357841368746 0.0038659333423194681 0 0.0017711547778759167 0.0045609841870533274 0 0.0017338136798067452 0.0047045699161473884 0 0.0019482853524732827 0.004703875987629458 0 0.0017338136798067452 0.0047045699161473884 0 0.0019482853524732827 0.004703875987629458 0 0.0018815808985642442 0.0049510988129133574 0 0.0019482853524732827 0.004703875987629458 0 0.0018815808985642442 0.0049510988129133574 0 0.0022148522034586685 0.0049881653811439594 0 0.0018301573172948473 0.0053652646486429881 0 0.0018060080641827516 0.0050565660196540555 0 0.0015178415365225116 0.0047571550022473992 0 0.0019828333070348891 0.0048571753916712493 0 0.0018288357841368746 0.0038659333423194681 0 0.0018815808985642442 0.0049510988129133574 0 0.0018060080641827516 0.0050565660196540555 0 0.001642347854572017 0.0047460108545650057 0 0.0020446826162335142 0.0052375580017898996 0 0.0019170005069825389 0.0052699171487182303 0 0.0018060080641827516 0.0050565660196540555 0 0.0020446826162335142 0.0052375580017898996 0 0.0018815808985642442 0.0049510988129133574 0 0.0018060080641827516 0.0050565660196540555 0 0.0020446826162335142 0.0052375580017898996 0 0.0018815808985642442 0.0049510988129133574 0 0.0022148522034586685 0.0049881653811439594 0 0.0010979366510895777 0.0051205859011763995 0 0.0012740008233003391 0.0047733111915990809 0 0.00075071188341932081 0.0044597053293434523 0 0.0010979366510895777 0.0051205859011763995 0 0.00067877914540647941 0.0049695702493597433 0 0.00075071188341932081 0.0044597053293434523 0 0.0015372814849432797 0.0051290557448622548 0 0.0012740008233003391 0.0047733111915990809 0 0.0015071457846033238 0.0043928153511225351 0 0.0012740008233003391 0.0047733111915990809 0 0.0015071457846033238 0.0043928153511225351 0 0.00075071188341932081 0.0044597053293434523 0 0.0018233585242528713 0.0058387953543511733 0 0.001764147637478836 0.0032536927714558444 0 0.0018301573172948473 0.0053652646486429881 0 0.0015372814849432797 0.0051290557448622548 0 0.0015071457846033238 0.0043928153511225351 0 0.0015372814849432797 0.0051290557448622548 0 0.0010979366510895777 0.0051205859011763995 0 0.0012740008233003391 0.0047733111915990809 0 0.0018060080641827516 0.0050565660196540555 0 0.001642347854572017 0.0047460108545650057 0 0.0015178415365225116 0.0047571550022473992 0 0.0014720825618270994 -0.00010130375273022826 0 0.0014072537766872794 -0.00027185772670884471 0 0.00093019205225011703 -7.001056299538927e-05 0 0.0016049521809539226 0.0045963189843631442 0 0.0015469892682235505 0.0047186623324147548 0 0.0013529257761473771 0.0045588644965665337 0 0.0018288357841368746 0.0038659333423194681 0 0.001764147637478836 0.0032536927714558444 0 0.0018288357841368746 0.0038659333423194681 0 0.0014765169981935955 0.0017885579718441764 0 0.001764147637478836 0.0032536927714558444 0 0.0014765169981935955 0.0017885579718441764 0 0.0020905661165933772 0.0031591310427905137 0 0.0016128251639763837 0.0032016119587801521 0 0.0013715929693218058 0.0025842915574060123 0 0.0016249321752840214 0.0044445918810758862 0 0.0016049521809539226 0.0045963189843631442 0 0.0013529257761473771 0.0045588644965665337 0 0.0016249321752840214 0.0044445918810758862 0 0.0013529257761473771 0.0045588644965665337 0 0.0014838831260100824 0.0043603891434667924 0 0.0014072537766872794 -0.00027185772670884471 0 0.00093019205225011703 -7.001056299538927e-05 0 0.00070045264047649991 -0.00046509441379488268 0 0.001764147637478836 0.0032536927714558444 0 0.00078823747680110241 0.0021913180618137575 0 0.0014765169981935955 0.0017885579718441764 0 0.0008861999840176478 -0.00075590880042470548 0 0.0014072537766872794 -0.00027185772670884471 0 0.00080782184219511813 -0.00072748772474328098 0 0.00070045264047649991 -0.00046509441379488268 0 0.0018570113981361612 0.00047267373547959097 0 0.0010590729982497297 -0.00021535527119872141 0 0.0014969843928451839 -0.00046105653665545521 0 0.0014765169981935955 0.0017885579718441764 0 0.00089732077372488674 0.0025690651790769383 0 0.0013529257761473771 0.0045588644965665337 0 0.0013462190233313966 0.0042114534034886969 0 0.0010929649352137577 0.0039425579848522165 0 0.0013529257761473771 0.0045588644965665337 0 0.0014838831260100824 0.0043603891434667924 0 0.0013462190233313966 0.0042114534034886969 0 0.0016115939006517742 0.0042280004924717032 0 0.0014838831260100824 0.0043603891434667924 0 0.0013462190233313966 0.0042114534034886969 0 0.0016115939006517742 0.0042280004924717032 0 0.0016249321752840214 0.0044445918810758862 0 0.0014838831260100824 0.0043603891434667924 0 0.0013462190233313966 0.0042114534034886969 0 0.0012077972527805472 0.0040120880887776862 0 0.0010929649352137577 0.0039425579848522165 0 0.0013462190233313966 0.0042114534034886969 0 0.0012077972527805472 0.0040120880887776862 0 0.0014640168743381007 0.0040118751898666439 0 0.0016115939006517742 0.0042280004924717032 0 0.0013462190233313966 0.0042114534034886969 0 0.0014640168743381007 0.0040118751898666439 0 0.0013195864403155342 0.0037994438632672069 0 0.0010912469727292129 0.003953160445271082 0 0.0011964906729128623 0.0035124036033735927 0 0.0015893072648398723 0.0038128566899319157 0 0.0014640168743381007 0.0040118751898666439 0 0.0013195864403155342 0.0037994438632672069 0 0.0012077972527805472 0.0040120880887776862 0 0.0014640168743381007 0.0040118751898666439 0 0.0013195864403155342 0.0037994438632672069 0 0.0012077972527805472 0.0040120880887776862 0 0.0013195864403155342 0.0037994438632672069 0 0.0010912469727292129 0.003953160445271082 0 0.0015893072648398723 0.0038128566899319157 0 0.0013195864403155342 0.0037994438632672069 0 0.0016232272102229166 0.0034479432232652689 0 0.0010590729982497297 -0.00021535527119872141 0 0.0014969843928451839 -0.00046105653665545521 0 0.00087028476921144826 -0.00084097351437827659 0 0.00042752956859190409 0.0028452833226884308 0 0.00026345139485294271 0.0027569935412632479 0 0.00033118922106891498 0.0026211831733658807 0 0.00089732077372488674 0.0025690651790769383 0 0.00049123232238108328 0.00082034146325779078 0 0.0012932286900237911 0.0030996115971235918 0 0.00089732077372488674 0.0025690651790769383 0 0.00080782184219511813 -0.00072748772474328098 0 0.00047698004373963963 -0.00077267783082804529 0 0.00045898493106989713 -0.00085820934834656304 0 0.0008861999840176478 -0.00075590880042470548 0 0.00053254680158716108 -0.00073304512773060982 0 0.0010590729982497297 -0.00021535527119872141 0 0.00087028476921144826 -0.00084097351437827659 0 0.00045898493106989713 -0.00085820934834656304 0 0.00080782184219511813 -0.00072748772474328098 0 0.0006487642144141296 -0.00059927814710572893 0 0.00055210733757685723 -0.00068764193045251496 0 0.00080782184219511813 -0.00072748772474328098 0 0.00055210733757685723 -0.00068764193045251496 0 0.00047698004373963963 -0.00077267783082804529 0 0.0006487642144141296 -0.00059927814710572893 0 0.00070045264047649991 -0.00046509441379488268 0 0.00055772707423290047 -0.00052840552888969584 0 0.0006487642144141296 -0.00059927814710572893 0 0.00055210733757685723 -0.00068764193045251496 0 0.00055772707423290047 -0.00052840552888969584 0 0.00080782184219511813 -0.00072748772474328098 0 0.0006487642144141296 -0.00059927814710572893 0 0.00070045264047649991 -0.00046509441379488268 0 0.00044763865607695197 -0.00063257597106025285 0 0.00034525004982130817 -0.000766370098368801 0 0.00034770586428144092 -0.00056381238128760394 0 0.00044763865607695197 -0.00063257597106025285 0 0.000438309639238282 -0.00049779911865453904 0 0.00034770586428144092 -0.00056381238128760394 0 0.00044763865607695197 -0.00063257597106025285 0 0.00055210733757685723 -0.00068764193045251496 0 0.00055772707423290047 -0.00052840552888969584 0 0.00044763865607695197 -0.00063257597106025285 0 0.00055772707423290047 -0.00052840552888969584 0 0.000438309639238282 -0.00049779911865453904 0 0.00055210733757685723 -0.00068764193045251496 0 0.00042060595352039524 -0.00073558366369150545 0 0.00047698004373963963 -0.00077267783082804529 0 0.00044763865607695197 -0.00063257597106025285 0 0.00055210733757685723 -0.00068764193045251496 0 0.00042060595352039524 -0.00073558366369150545 0 0.00042060595352039524 -0.00073558366369150545 0 0.00036561364797136324 -0.00076192336948658506 0 0.00047698004373963963 -0.00077267783082804529 0 0.00044763865607695197 -0.00063257597106025285 0 0.00042060595352039524 -0.00073558366369150545 0 0.00034525004982130817 -0.000766370098368801 0 0.00042060595352039524 -0.00073558366369150545 0 0.00034525004982130817 -0.000766370098368801 0 0.00036561364797136324 -0.00076192336948658506 0 0.00047698004373963963 -0.00077267783082804529 0 0.00045898493106989713 -0.00085820934834656304 0 0.00037733694906951453 -0.00083937468260109342 0 0.00036561364797136324 -0.00076192336948658506 0 0.00047698004373963963 -0.00077267783082804529 0 0.00037733694906951453 -0.00083937468260109342 0 0.00045898493106989713 -0.00085820934834656304 0 0.00037733694906951453 -0.00083937468260109342 0 0.00030297689592563576 -0.00089439302086567936 0 0.00039257230832205549 -0.00076600841518022602 0 0.00028932782609671212 -0.00076697042738702536 0 0.00036561364797136324 -0.00076192336948658506 0 0.00030297689592563576 -0.00089439302086567936 0 0.00018522606911302176 -0.00084943197076816311 0 0.00036561364797136324 -0.00076192336948658506 0 0.00055609041458483572 -0.00073293079945156432 0 0.00044570703209225761 -0.00080372232030883348 0 0.00030297689592563576 -0.00089439302086567936 0 0.00018522606911302176 -0.00084943197076816311 0 0.00023967275479577652 -0.00099071974818742904 0 0.00055609041458483572 -0.00073293079945156432 0 0.00054005959618881735 -0.00084496627147749744 0 0.00044570703209225761 -0.00080372232030883348 0 0.00036561364797136324 -0.00076192336948658506 0 0.00037733694906951453 -0.00083937468260109342 0 0.00030297689592563576 -0.00089439302086567936 0 0.00055609041458483572 -0.00073293079945156432 0 0.00081514548327475136 -0.00066514926529106296 0 0.00074905739030606744 -0.0008342172063652921 0 0.00028932782609671212 -0.00076697042738702536 0 0.0010627405351776788 -0.0015475670002935218 0 0.00018522606911302176 -0.00084943197076816311 0 3.3362072888907865e-05 -0.00092137007483300819 0 0.000131295797086617 -0.0010114916350213584 0 0.00055609041458483572 -0.00073293079945156432 0 0.0006323188448203378 -0.00087412394372300944 0 0.00074905739030606744 -0.0008342172063652921 0 0.0006323188448203378 -0.00087412394372300944 0 0.00074905739030606744 -0.0008342172063652921 0 0.00075755168666266658 -0.00096350896022406873 0 0.00055609041458483572 -0.00073293079945156432 0 0.0006323188448203378 -0.00087412394372300944 0 0.00054005959618881735 -0.00084496627147749744 0 0.0006323188448203378 -0.00087412394372300944 0 0.00054005959618881735 -0.00084496627147749744 0 0.00057879329988069588 -0.00093875550101759904 0 0.0006323188448203378 -0.00087412394372300944 0 0.00057879329988069588 -0.00093875550101759904 0 0.00066842936248541485 -0.00099954129008590588 0 0.00057879329988069588 -0.00093875550101759904 0 0.00051629570547635534 -0.0010229852663812295 0 0.00060244668840134491 -0.0010422786485699634 0 0.00057879329988069588 -0.00093875550101759904 0 0.00066842936248541485 -0.00099954129008590588 0 0.00060244668840134491 -0.0010422786485699634 0 0.00066842936248541485 -0.00099954129008590588 0 0.00074267932409457821 -0.0010676820130728606 0 0.00075755168666266658 -0.00096350896022406873 0 0.0006323188448203378 -0.00087412394372300944 0 0.00066842936248541485 -0.00099954129008590588 0 0.00075755168666266658 -0.00096350896022406873 0 0.00034525004982130817 -0.000766370098368801 0 0.00042822996381436319 -0.00084632486357889434 0 0.00044570703209225761 -0.00080372232030883348 0 0.00034525004982130817 -0.000766370098368801 0 0.00036561364797136324 -0.00076192336948658506 0 0.00044570703209225761 -0.00080372232030883348 0 0.00054005959618881735 -0.00084496627147749744 0 0.00044570703209225761 -0.00080372232030883348 0 0.00049028189108978721 -0.00089063632862077327 0 0.00054005959618881735 -0.00084496627147749744 0 0.00057879329988069588 -0.00093875550101759904 0 0.00049028189108978721 -0.00089063632862077327 0 0.00042822996381436319 -0.00084632486357889434 0 0.00044570703209225761 -0.00080372232030883348 0 0.00049028189108978721 -0.00089063632862077327 0 0.00042822996381436319 -0.00084632486357889434 0 0.00049028189108978721 -0.00089063632862077327 0 0.00043108703820780853 -0.00092989726722636176 0 0.00057879329988069588 -0.00093875550101759904 0 0.00049028189108978721 -0.00089063632862077327 0 0.00051629570547635534 -0.0010229852663812295 0 0.00049028189108978721 -0.00089063632862077327 0 0.00043108703820780853 -0.00092989726722636176 0 0.00051629570547635534 -0.0010229852663812295 0 0.00034143613568505263 -0.00080025940168123092 0 0.00027427678648299272 -0.00071874053721339187 0 0.00034525004982130817 -0.000766370098368801 0 0.00043108703820780853 -0.00092989726722636176 0 0.00039669536023678801 -0.0010975309854962105 0 0.00034525004982130817 -0.000766370098368801 0 0.0001969624085959931 -0.00046468851515361616 0 0.00034770586428144092 -0.00056381238128760394 0 0.00034525004982130817 -0.000766370098368801 0 0.00042822996381436319 -0.00084632486357889434 0 0.00043108703820780853 -0.00092989726722636176 0 0.0001969624085959931 -0.00046468851515361616 0 0.00034770586428144092 -0.00056381238128760394 0 0.00032192849871353425 -0.00045242757306417753 0 0.0001969624085959931 -0.00046468851515361616 0 0.00024022341932742567 -0.00037061650370526493 0 0.00032192849871353425 -0.00045242757306417753 0 0.00039669536023678801 -0.0010975309854962105 0 0.00051629570547635534 -0.0010229852663812295 0 0.00051551962092020607 -0.0011737402929392694 0 0.00043108703820780853 -0.00092989726722636176 0 0.00039669536023678801 -0.0010975309854962105 0 0.00051629570547635534 -0.0010229852663812295 0 0.00039669536023678801 -0.0010975309854962105 0 0.00051551962092020607 -0.0011737402929392694 0 0.00050164024149095465 -0.0013371741929049386 0 0.0001969624085959931 -0.00046468851515361616 0 0.00024022341932742567 -0.00037061650370526493 0 0.00010652001461262544 -0.00025080999535266059 0 0.00027427678648299272 -0.00071874053721339187 0 0.00041248900183012404 -0.001233565134154504 0 0.00024022341932742567 -0.00037061650370526493 0 0.00032192849871353425 -0.00045242757306417753 0 0.00037341657671646349 -0.00037069245109758371 0 0.00024022341932742567 -0.00037061650370526493 0 0.00030993671554874853 -0.00025283495411638308 0 0.00037341657671646349 -0.00037069245109758371 0 0.00013418745024832684 -0.00024608115944645646 0 0.00021314209546978799 0.00016840063208871768 0 0.00074267932409457821 -0.0010676820130728606 0 0.00066086608521589117 -0.0010984902342853228 0 0.00071234921086572411 -0.0011630189266193444 0 0.00066842936248541485 -0.00099954129008590588 0 0.00074267932409457821 -0.0010676820130728606 0 0.00066086608521589117 -0.0010984902342853228 0 0.00051629570547635534 -0.0010229852663812295 0 0.00051551962092020607 -0.0011737402929392694 0 0.00058429934468422499 -0.001133210414491154 0 0.00066086608521589117 -0.0010984902342853228 0 0.00058429934468422499 -0.001133210414491154 0 0.00064213579933424208 -0.0011982843844612415 0 0.00066086608521589117 -0.0010984902342853228 0 0.00060244668840134491 -0.0010422786485699634 0 0.00058429934468422499 -0.001133210414491154 0 0.00066842936248541485 -0.00099954129008590588 0 0.00066086608521589117 -0.0010984902342853228 0 0.00060244668840134491 -0.0010422786485699634 0 0.00051629570547635534 -0.0010229852663812295 0 0.00060244668840134491 -0.0010422786485699634 0 0.00058429934468422499 -0.001133210414491154 0 0.00051551962092020607 -0.0011737402929392694 0 0.00058170634325784758 -0.0012498670485986667 0 0.00050164024149095465 -0.0013371741929049386 0 0.00051551962092020607 -0.0011737402929392694 0 0.00058429934468422499 -0.001133210414491154 0 0.00058170634325784758 -0.0012498670485986667 0 0.00058170634325784758 -0.0012498670485986667 0 0.00064213579933424208 -0.0011982843844612415 0 0.00067532155937676821 -0.0013163812207460455 0 0.00058429934468422499 -0.001133210414491154 0 0.00058170634325784758 -0.0012498670485986667 0 0.00064213579933424208 -0.0011982843844612415 0 0.00064213579933424208 -0.0011982843844612415 0 0.00071234921086572411 -0.0011630189266193444 0 0.00067532155937676821 -0.0013163812207460455 0 0.00071234921086572411 -0.0011630189266193444 0 0.00067532155937676821 -0.0013163812207460455 0 0.00080427540822322434 -0.0011322362229638505 0 0.00066086608521589117 -0.0010984902342853228 0 0.00064213579933424208 -0.0011982843844612415 0 0.00071234921086572411 -0.0011630189266193444 0 0.00093319958996332809 -0.0029696790024269551 0 0.001146844759686386 -0.0035520564942354764 0 0.0006329732602299345 -0.0038186418862345768 0 0.00093319958996332809 -0.0029696790024269551 0 0.00018987905273395864 -0.0028868770686668798 0 0.0006329732602299345 -0.0038186418862345768 0 0.00041248900183012404 -0.001233565134154504 0 0.0010919028708414747 -0.0023828744498413184 0 0.00073319739023098999 -0.001372867093751148 0 0.00067532155937676821 -0.0013163812207460455 0 0.00050164024149095465 -0.0013371741929049386 0 0.00077295833983717611 -0.0022292167336209054 0 0.00041248900183012404 -0.001233565134154504 0 0.00058170634325784758 -0.0012498670485986667 0 0.00067532155937676821 -0.0013163812207460455 0 0.00050164024149095465 -0.0013371741929049386 0 0.0010274911843254216 0.00014126401940687224 0 0.00073700819315029886 -0.00044077284816051418 0 0.0015330005452354059 -0.00091193922190401921 0 0.0002974433033451939 0.0002164766677082121 0 0.0010274911843254216 0.00014126401940687224 0 0.00073700819315029886 -0.00044077284816051418 0 0.00024022341932742567 -0.00037061650370526493 0 0.00029825278456075153 -0.00026696645651658738 0 0.00010652001461262544 -0.00025080999535266059 0 0.00021314209546978799 0.00016840063208871768 0 0.00041248900183012404 -0.001233565134154504 0 0.0002974433033451939 0.0002164766677082121 0 0.00073700819315029886 -0.00044077284816051418 0 2.4107185028650913e-06 -0.00030228217947669063 0 0.00021314209546978799 0.00016840063208871768 0 0.00045787636652948923 0.0020936266598199625 0 0.00030993671554874853 -0.00025283495411638308 0 0.00052807355905467885 -0.00027773989147051247 0 0.00037341657671646349 -0.00037069245109758371 0 0.00020607019748793083 0.0010940204379808248 0 0.00028718307550329138 0.0012410118556318633 0 0.00041482829739988126 0.0010771310164687411 0 0.00021314209546978799 0.00016840063208871768 0 0.00017724726194155263 0.001266670546937786 0 0.00045787636652948923 0.0020936266598199625 0 0.00017724726194155263 0.001266670546937786 0 -0.00028163157308102742 0.0048849371792882585 0 2.1373229096374467e-05 0.0045074934506293728 0 0.00023187084237949742 0.0049589841897882125 0 0.00075071188341932081 0.0044597053293434523 0 2.1373229096374467e-05 0.0045074934506293728 0 0.00023187084237949742 0.0049589841897882125 0 0.00078823747680110241 0.0021913180618137575 0 0.00017724726194155263 0.001266670546937786 0 0.00067877914540647941 0.0049695702493597433 0 0.00075071188341932081 0.0044597053293434523 0 0.00023187084237949742 0.0049589841897882125 0 0.00093019205225011703 -7.001056299538927e-05 0 0.00033415305697389778 -1.5051638609016244e-06 0 0.00070045264047649991 -0.00046509441379488268 0 0.00052807355905467885 -0.00027773989147051247 0 0.00070045264047649991 -0.00046509441379488268 0 0.00055772707423290047 -0.00052840552888969584 0 0.00017724726194155263 0.001266670546937786 0 0.00092006702025065586 -0.00084336228097322619 0 0.00052807355905467885 -0.00027773989147051247 0 0.00055772707423290047 -0.00052840552888969584 0 0.000438309639238282 -0.00049779911865453904 0 0.000438309639238282 -0.00049779911865453904 0 0.00032192849871353425 -0.00045242757306417753 0 0.00037341657671646349 -0.00037069245109758371 0 0.000438309639238282 -0.00049779911865453904 0 0.00034770586428144092 -0.00056381238128760394 0 0.00032192849871353425 -0.00045242757306417753 0 0.00052807355905467885 -0.00027773989147051247 0 0.000438309639238282 -0.00049779911865453904 0 0.00037341657671646349 -0.00037069245109758371 0 0.00054267733412833208 -0.0058164398458016645 0 0.00077987115019117028 -0.0058926898515092013 0 0.00085127785642854126 -0.0060833428624128237 0 0.00067996287655738732 -0.0057390325416463075 0 0.00077987115019117028 -0.0058926898515092013 0 0.001040075963363237 -0.0057705036386585303 0 0.00076612212433661679 -0.008032616342874702 0 0.00028159586168200455 -0.0064335204205744735 0 0.00077987115019117028 -0.0058926898515092013 0 0.001040075963363237 -0.0057705036386585303 0 0.00085127785642854126 -0.0060833428624128237 0 0.00045408379367153998 -0.0063196024502527115 0 0.00052455719610506929 -0.0065770962157050182 0 0.00037410835783312414 -0.006606108577787268 0 0.00045408379367153998 -0.0063196024502527115 0 0.00063399309200937702 -0.0064743146250005549 0 0.00052455719610506929 -0.0065770962157050182 0 0.00063883069615881219 -0.0054612907978444838 0 0.00062034341696539969 -0.0040985200690400571 0 0.00036331602954368686 -0.0015571518185322748 0 0.00090647803252542263 -0.0020525024550416362 0 0.0012511334991191167 -0.001693271026982592 0 0.00090647803252542263 -0.0020525024550416362 0 0.0014959032228379604 -0.0020756985753309035 0 0.0014487376863307137 -0.0025427725197822381 0 0.00090647803252542263 -0.0020525024550416362 0 0.0012511334991191167 -0.001693271026982592 0 0.0014959032228379604 -0.0020756985753309035 0 0.00036331602954368686 -0.0015571518185322748 0 0.0011941244063689641 -0.0011218248591190307 0 0.0011565017874602382 -0.0011858139050420745 0 0.00063883069615881219 -0.0054612907978444838 0 0.0013894170653537148 -0.0033904643549739367 0 0.00036331602954368686 -0.0015571518185322748 0 0.0012511334991191167 -0.001693271026982592 0 0.0011565017874602382 -0.0011858139050420745 0 0.001040075963363237 -0.0057705036386585303 0 0.00085127785642854126 -0.0060833428624128237 0 0.0013999616498743942 -0.0057937582063073588 0 0.0011941244063689641 -0.0011218248591190307 0 0.0011565017874602382 -0.0011858139050420745 0 0.0010822773725728397 -0.0010489833974552764 0 0.0010108335379795839 -0.0011109856235197702 0 0.00090692516155184736 -0.000959284282523046 0 0.00090353755486483999 -0.0012795566451566163 0 0.0011941244063689641 -0.0011218248591190307 0 0.0010108335379795839 -0.0011109856235197702 0 0.0010822773725728397 -0.0010489833974552764 0 0.0010108335379795839 -0.0011109856235197702 0 0.0010822773725728397 -0.0010489833974552764 0 0.00090692516155184736 -0.000959284282523046 0 0.0010822773725728397 -0.0010489833974552764 0 0.0010307341424998174 -0.0008696612855558694 0 0.00090692516155184736 -0.000959284282523046 0 0.0011585558051177239 -0.0011645770475849468 0 0.0014243923667268551 -0.0013234061718827102 0 0.0012511334991191167 -0.001693271026982592 0 0.0011565017874602382 -0.0011858139050420745 0 0.0017364183545116811 -0.0017239846094319544 0 0.0011565017874602382 -0.0011858139050420745 0 0.0010822773725728397 -0.0010489833974552764 0 0.0010307341424998174 -0.0008696612855558694 0 0.0012511334991191167 -0.001693271026982592 0 0.0014959032228379604 -0.0020756985753309035 0 0.0017364183545116811 -0.0017239846094319544 0 0.0014959032228379604 -0.0020756985753309035 0 0.0017364183545116811 -0.0017239846094319544 0 0.0022975233255105375 -0.0022206045088203454 0 0.0014959032228379604 -0.0020756985753309035 0 0.0022975233255105375 -0.0022206045088203454 0 0.0014487376863307137 -0.0025427725197822381 0 0.0014243923667268551 -0.0013234061718827102 0 0.0010627405351776788 -0.0015475670002935218 0 0.0010307341424998174 -0.0008696612855558694 0 0.00086255038966269882 -0.00082135539958504014 0 0.00081514548327475136 -0.00066514926529106296 0 0.00086255038966269882 -0.00082135539958504014 0 0.00081514548327475136 -0.00066514926529106296 0 0.00074905739030606744 -0.0008342172063652921 0 0.00090685908592760074 -0.00062156347908130577 0 0.00090631257236204984 -0.0022418507946098086 0 0.00074905739030606744 -0.0008342172063652921 0 0.00090692516155184736 -0.000959284282523046 0 0.00075755168666266658 -0.00096350896022406873 0 0.00090692516155184736 -0.000959284282523046 0 0.00082978972812397804 -0.0010500451101687319 0 0.00091922783413971206 -0.0011549936243253679 0 0.0010307341424998174 -0.0008696612855558694 0 0.00086255038966269882 -0.00082135539958504014 0 0.00090692516155184736 -0.000959284282523046 0 0.00086255038966269882 -0.00082135539958504014 0 0.00074905739030606744 -0.0008342172063652921 0 0.00090692516155184736 -0.000959284282523046 0 0.00090692516155184736 -0.000959284282523046 0 0.00082978972812397804 -0.0010500451101687319 0 0.00075755168666266658 -0.00096350896022406873 0 0.00074267932409457821 -0.0010676820130728606 0 0.00082978972812397804 -0.0010500451101687319 0 0.00075755168666266658 -0.00096350896022406873 0 0.00067532155937676821 -0.0013163812207460455 0 0.00080427540822322434 -0.0011322362229638505 0 0.00091922783413971206 -0.0011549936243253679 0 0.00079741601878762815 -0.0011163427623770317 0 0.00090631257236204984 -0.0022418507946098086 0 0.00074267932409457821 -0.0010676820130728606 0 0.00071234921086572411 -0.0011630189266193444 0 0.00080427540822322434 -0.0011322362229638505 0 0.00074267932409457821 -0.0010676820130728606 0 0.00082978972812397804 -0.0010500451101687319 0 0.00080427540822322434 -0.0011322362229638505 0 0.00082978972812397804 -0.0010500451101687319 0 0.00080427540822322434 -0.0011322362229638505 0 0.00091922783413971206 -0.0011549936243253679 0 0.00090631257236204984 -0.0022418507946098086 0 0.0012665105800976136 -0.0049374105548095218 0 0.00077295833983717611 -0.0022292167336209054 0 0.0014485950745659034 -0.00476148134132385 0 0.00073319739023098999 -0.001372867093751148 0 0.00067532155937676821 -0.0013163812207460455 0 0.00092911439867569259 -0.0012496748409045145 0 0.00093319958996332809 -0.0029696790024269551 0 0.0016708337449719232 -0.0030544410649072143 0 0.001146844759686386 -0.0035520564942354764 0 0.00073319739023098999 -0.001372867093751148 0 0.00092911439867569259 -0.0012496748409045145 0 0.00092902814629932122 -0.0013631756456235092 0 0.0014485950745659034 -0.00476148134132385 0 0.0012665105800976136 -0.0049374105548095218 0 0.00073319739023098999 -0.001372867093751148 0 0.00093083504125899674 -0.0014280094911325088 0 0.00092902814629932122 -0.0013631756456235092 0 0.0014604488610350168 -0.0073061442236091309 0 0.0014487698206799744 -0.0073079630869849832 0 0.0014253255329850216 -0.0073482576370969598 0 0.0014568100454190069 -0.0073008329799011621 0 0.0014487698206799744 -0.0073079630869849832 0 0.0014573517298747563 -0.0072816970378466964 0 0.0014487698206799744 -0.0073079630869849832 0 0.0014251286409612044 -0.0073239961699683087 0 0.0014402981654519605 -0.0073036071701989003 0 0.0014604054276302549 -0.0072982292808611918 0 0.0014604488610350168 -0.0073061442236091309 0 0.0014487698206799744 -0.0073079630869849832 0 0.0014485950745659034 -0.00476148134132385 0 0.0015681388103290512 -0.0058701332665998121 0 0.0012665105800976136 -0.0049374105548095218 0 0.0015146904523914795 -0.0063814496693913635 0 0.0013894170653537148 -0.0033904643549739367 0 0.00090631257236204984 -0.0022418507946098086 0 0.0011941244063689641 -0.0011218248591190307 0 0.0010108335379795839 -0.0011109856235197702 0 0.00090353755486483999 -0.0012795566451566163 0 0.0019496086325026141 -0.0054935849413691009 0 0.0019474730050363692 -0.0052464157604086023 0 0.0013106683016993474 -0.0054889886624572681 0 0.0013999616498743942 -0.0057937582063073588 0 0.0019496086325026141 -0.0054935849413691009 0 0.0013106683016993474 -0.0054889886624572681 0 0.001040075963363237 -0.0057705036386585303 0 0.0013999616498743942 -0.0057937582063073588 0 0.0013106683016993474 -0.0054889886624572681 0 0.0014253255329850216 -0.0073482576370969598 0 0.0014251286409612044 -0.0073239961699683087 0 0.0014011160847030833 -0.0073518833874035112 0 0.0014487698206799744 -0.0073079630869849832 0 0.0014253255329850216 -0.0073482576370969598 0 0.0014251286409612044 -0.0073239961699683087 0 0.0014251286409612044 -0.0073239961699683087 0 0.0014011160847030833 -0.0073518833874035112 0 0.0013959752953596907 -0.0073286017498352621 0 0.0013898867176739391 -0.0073798454583498315 0 0.0014253255329850216 -0.0073482576370969598 0 0.0014011160847030833 -0.0073518833874035112 0 0.00067996287655738732 -0.0057390325416463075 0 0.001040075963363237 -0.0057705036386585303 0 0.0013106683016993474 -0.0054889886624572681 0 0.00076612212433661679 -0.008032616342874702 0 0.0015146904523914795 -0.0063814496693913635 0 0.0015306088013368419 -0.0074320761176132058 0 0.0015447975150124007 -0.0071617199818920126 0 0.0015383584865788064 -0.007442063085784132 0 0.0015198129466933853 -0.0074847422272239636 0 0.0015970695787205255 -0.0074409826249343235 0 0.0015306088013368419 -0.0074320761176132058 0 0.00142457478630932 -0.0070615540609356674 0 0.0014251286409612044 -0.0073239961699683087 0 0.0013959752953596907 -0.0073286017498352621 0 0.0014277676603421015 -0.0073012472975382062 0 0.0014251286409612044 -0.0073239961699683087 0 0.0014277676603421015 -0.0073012472975382062 0 0.0014402981654519605 -0.0073036071701989003 0 0.0014324594468795421 -0.0067386097726541043 0 0.0014986213956456238 -0.0067183385117466554 0 0.0014985094118692339 -0.0067005550011630501 0 0.0015082133708409127 -0.007472046236070686 0 0.0015400025571995035 -0.0074477978187533749 0 0.0015233858373054072 -0.0074489666068681204 0 0.0015383584865788064 -0.007442063085784132 0 0.0015970695787205255 -0.0074409826249343235 0 0.0016096397383543093 -0.0073987880181586151 0 0.0015304731127330502 -0.0074519220147413728 0 0.0015555656045894467 -0.0075086805643412536 0 0.0014985094118692339 -0.0067005550011630501 0 0.0015712289394652628 -0.0067077481991100725 0 0.0015711452393029446 -0.0066706015233484175 0 0.0015970695787205255 -0.0074409826249343235 0 0.0016096397383543093 -0.0073987880181586151 0 0.0016973828778443722 -0.007394471124579232 0 0.0015555656045894467 -0.0075086805643412536 0 0.0015712228604806261 -0.0058640727355312892 0 0.0016096397383543093 -0.0073987880181586151 0 0.0016973828778443722 -0.007394471124579232 0 0.0016973519859313352 -0.0073602474294188888 0 0.0015447975150124007 -0.0071617199818920126 0 0.0014980301929171426 -0.0057794940161349072 0 0.0014277676603421015 -0.0073012472975382062 0 0.0014402981654519605 -0.0073036071701989003 0 0.0014573517298747563 -0.0072816970378466964 0 0.0014487698206799744 -0.0073079630869849832 0 0.0014402981654519605 -0.0073036071701989003 0 0.0014573517298747563 -0.0072816970378466964 0 0.0014986213956456238 -0.0067183385117466554 0 0.0014985094118692339 -0.0067005550011630501 0 0.0015712289394652628 -0.0067077481991100725 0 0.00142457478630932 -0.0070615540609356674 0 0.0016071838265910411 -0.006023422104236547 0 0.0016708337449719232 -0.0030544410649072143 0 0.0016753439822578692 -0.0040713128778171043 0 0.0014482754915886486 -0.0038209442227323826 0 0.0016708337449719232 -0.0030544410649072143 0 0.0014482754915886486 -0.0038209442227323826 0 0.001146844759686386 -0.0035520564942354764 0 0.0014485950745659034 -0.00476148134132385 0 0.0016071838265910411 -0.006023422104236547 0 0.0016753439822578692 -0.0040713128778171043 0 0.0014209858818800545 -0.0040596837302104396 0 0.0014374667684152662 -0.0042794916592149429 0 0.0016753439822578692 -0.0040713128778171043 0 0.0014209858818800545 -0.0040596837302104396 0 0.0014482754915886486 -0.0038209442227323826 0 0.0014482754915886486 -0.0038209442227323826 0 0.001146844759686386 -0.0035520564942354764 0 0.0011528887225447913 -0.0040686464516975513 0 0.0014209858818800545 -0.0040596837302104396 0 0.0014482754915886486 -0.0038209442227323826 0 0.0011528887225447913 -0.0040686464516975513 0 0.0014209858818800545 -0.0040596837302104396 0 0.0011528887225447913 -0.0040686464516975513 0 0.0014374667684152662 -0.0042794916592149429 0 0.0011528887225447913 -0.0040686464516975513 0 0.0014374667684152662 -0.0042794916592149429 0 0.001074896965954128 -0.0047348244281784913 0 0.0014374667684152662 -0.0042794916592149429 0 0.0016779365935286098 -0.004622603112758754 0 0.001074896965954128 -0.0047348244281784913 0 0.0016071838265910411 -0.006023422104236547 0 0.0014980301929171426 -0.0057794940161349072 0 0.0016753439822578692 -0.0040713128778171043 0 0.0014374667684152662 -0.0042794916592149429 0 0.0016779365935286098 -0.004622603112758754 0 0.001466382901769752 -0.0047045381491451349 0 0.0017004790042510877 -0.0044832086483527316 0 0.0014658518090945323 -0.0045254215028973184 0 0.0014980301929171426 -0.0057794940161349072 0 0.0015712228604806261 -0.0058640727355312892 0 0.0014980301929171426 -0.0057794940161349072 0 0.0017032605585764523 -0.0033996479656137951 0 0.001466382901769752 -0.0047045381491451349 0 0.0017736687872815264 -0.0046356964091176936 0 0.0017004790042510877 -0.0044832086483527316 0 0.0020358841500021851 -0.0019689997029862351 0 0.0022029745539055164 -0.0023170894847756363 0 0.0017381596290133704 -0.0020244093829647741 0 0.0017032605585764523 -0.0033996479656137951 0 0.0020029183283580701 -0.0029783025033390392 0 0.0030629952205953638 0.00027398563179397095 0 0.0032914419016914333 -0.00021788003476171387 0 0.002641047301961825 0.00013729304193465432 0 0.0020029183283580701 -0.0029783025033390392 0 0.002309600289003011 -0.0022598321554379735 0 0.0018633215282619854 -0.0042639994072086801 0 0.0017979696649139617 -0.004222067934984094 0 0.0018100227903798515 -0.0041533895425886124 0 0.0017510283238346242 -0.0042876268171131281 0 0.0017979696649139617 -0.004222067934984094 0 0.0017517292016325419 -0.0041405595960738511 0 0.0020029183283580701 -0.0029783025033390392 0 0.0015712228604806261 -0.0058640727355312892 0 0.0018633215282619854 -0.0042639994072086801 0 0.0017510283238346242 -0.0042876268171131281 0 0.0017979696649139617 -0.004222067934984094 0 0.0015741243087942377 -0.0074219910220923412 0 0.0015722263918037766 -0.0074017295960848318 0 0.0015663864024186231 -0.0074154316430170121 0 0.0015712228604806261 -0.0058640727355312892 0 0.0019271264450956029 -0.0053459173812443698 0 0.0017979696649139617 -0.004222067934984094 0 0.0017517292016325419 -0.0041405595960738511 0 0.0018100227903798515 -0.0041533895425886124 0 0.0019271264450956029 -0.0053459173812443698 0 0.002309600289003011 -0.0022598321554379735 0 0.0025329522536659248 -0.00042781233968626535 0 0.0026577091784473236 -0.00056036438705210515 0 0.0024227688419733132 -0.00047176794042788313 0 0.0022829094470242632 -0.00042558466485870348 0 0.0022150371835957462 -0.00041828564384488535 0 0.0022454781015791834 -0.00046218928548437643 0 0.0025849406237627962 -0.00032055829225291038 0 0.0025329522536659248 -0.00042781233968626535 0 0.0023817571410578403 -0.00035389535601773375 0 0.0024105356545903026 -0.0013596822420749478 0 0.00229599179542721 -0.00040855751173714646 0 0.0023102392979666118 -0.0023686383091398393 0 0.002311262232525891 -0.0029697058993051122 0 0.0019854921627074883 -0.0022794052411444637 0 0.0025329522536659248 -0.00042781233968626535 0 0.0026577091784473236 -0.00056036438705210515 0 0.0026578112107682465 -0.00046549421306648795 0 0.0024105356545903026 -0.0013596822420749478 0 0.0023773770716850428 -0.0034954426511627857 0 0.0025849406237627962 -0.00032055829225291038 0 0.0025329522536659248 -0.00042781233968626535 0 0.0026578112107682465 -0.00046549421306648795 0 0.002309600289003011 -0.0022598321554379735 0 0.0023773770716850428 -0.0034954426511627857 0 0.0014542886607130663 -0.0073100019761573902 0 0.0014503440944342704 -0.0073496506348609044 0 0.0014671001160561177 -0.0073576956823260507 0 0.0025884135256726715 -0.0034978214131560952 0 0.0024739800533115828 -0.0034652997759565432 0 0.0025917746282370867 -0.0037056961776151549 0 0.0019271264450956029 -0.0053459173812443698 0 0.0023773770716850428 -0.0034954426511627857 0 0.0014542886607130663 -0.0073100019761573902 0 0.0014975242762514352 -0.0073870667739272481 0 0.0015306920204973917 -0.0074120351179207521 0 0.0019271264450956029 -0.0053459173812443698 0 0.0014291331312515736 -0.0079761138442304667 0 0.0014660160440932196 -0.0073768148387284398 0 0.0014975242762514352 -0.0073870667739272481 0 0.0015147353316111681 -0.0074245443413512848 0 0.0014542886607130663 -0.0073100019761573902 0 0.0014671001160561177 -0.0073576956823260507 0 0.0014975242762514352 -0.0073870667739272481 0 0.0014671001160561177 -0.0073576956823260507 0 0.0014660160440932196 -0.0073768148387284398 0 0.0014975242762514352 -0.0073870667739272481 0 0.0014503440944342704 -0.0073496506348609044 0 0.0014671001160561177 -0.0073576956823260507 0 0.0014660160440932196 -0.0073768148387284398 0 0.0023773770716850428 -0.0034954426511627857 0 0.0024504454303138487 -0.0026138452150362068 0 0.0024105356545903026 -0.0013596822420749478 0 0.0024504454303138487 -0.0026138452150362068 0 0.0015722263918037766 -0.0074017295960848318 0 0.0015551320150752859 -0.0074150781197679337 0 0.0015306920204973917 -0.0074120351179207521 0 0.0015400025571995035 -0.0074477978187533749 0 0.0015741243087942377 -0.0074219910220923412 0 0.0015557774330338232 -0.0074244644580324327 0 0.0015551320150752859 -0.0074150781197679337 0 0.0015557774330338232 -0.0074244644580324327 0 0.0015421264799378399 -0.0074215656111703459 0 0.0015722263918037766 -0.0074017295960848318 0 0.0015551320150752859 -0.0074150781197679337 0 0.0015663864024186231 -0.0074154316430170121 0 0.0015551320150752859 -0.0074150781197679337 0 0.0015663864024186231 -0.0074154316430170121 0 0.0015557774330338232 -0.0074244644580324327 0 0.0015741243087942377 -0.0074219910220923412 0 0.0015663864024186231 -0.0074154316430170121 0 0.0015557774330338232 -0.0074244644580324327 0 0.0015400025571995035 -0.0074477978187533749 0 0.0015557774330338232 -0.0074244644580324327 0 0.0015421264799378399 -0.0074215656111703459 0 0.0015233858373054072 -0.0074489666068681204 0 0.0015421264799378399 -0.0074215656111703459 0 0.0015049894883164942 -0.0074539291272015546 0 0.0015551320150752859 -0.0074150781197679337 0 0.0015421264799378399 -0.0074215656111703459 0 0.0015306920204973917 -0.0074120351179207521 0 0.0015487764319283386 -0.0074211051152956106 0 0.0015072114241026563 -0.0074599213187106841 0 0.0015421264799378399 -0.0074215656111703459 0 0.0015337369224047313 -0.0074245334019032794 0 0.001537265433355417 -0.0074261301084952323 0 0.0015400025571995035 -0.0074477978187533749 0 0.0015233858373054072 -0.0074489666068681204 0 0.0015421264799378399 -0.0074215656111703459 0 0.0015421264799378399 -0.0074215656111703459 0 0.0015306920204973917 -0.0074120351179207521 0 0.0015337369224047313 -0.0074245334019032794 0 0.0014975242762514352 -0.0073870667739272481 0 0.0015306920204973917 -0.0074120351179207521 0 0.0015147353316111681 -0.0074245443413512848 0 0.0015306920204973917 -0.0074120351179207521 0 0.0015316054370185209 -0.0074427749747494731 0 0.0015147353316111681 -0.0074245443413512848 0 0.0015306920204973917 -0.0074120351179207521 0 0.0015337369224047313 -0.0074245334019032794 0 0.0015409680133705445 -0.0074484375863732178 0 0.0015306920204973917 -0.0074120351179207521 0 0.0015409680133705445 -0.0074484375863732178 0 0.0015316054370185209 -0.0074427749747494731 0 0.0015409680133705445 -0.0074484375863732178 0 0.0015316054370185209 -0.0074427749747494731 0 0.0015392505173304318 -0.0074591815220043716 0 0.0015337369224047313 -0.0074245334019032794 0 0.0015409680133705445 -0.0074484375863732178 0 0.0015499692324445335 -0.0074452696875121601 0 0.0015682741617131788 -0.0074708208961615161 0 0.0015409680133705445 -0.0074484375863732178 0 0.0015499692324445335 -0.0074452696875121601 0 0.0015701021458401677 -0.0074516927383119318 0 0.0015499692324445335 -0.0074452696875121601 0 0.001537265433355417 -0.0074261301084952323 0 0.0015337369224047313 -0.0074245334019032794 0 0.0015499692324445335 -0.0074452696875121601 0 0.001537265433355417 -0.0074261301084952323 0 0.0015082133708409127 -0.007472046236070686 0 0.0015233858373054072 -0.0074489666068681204 0 0.0015049894883164942 -0.0074539291272015546 0 0.0014965357778205441 -0.0074741531348169691 0 0.0015082133708409127 -0.007472046236070686 0 0.0015049894883164942 -0.0074539291272015546 0 0.00069238694296641493 0.00061221157718755631 0 0.0013797188441663554 0.00077113255992161656 0 0.0019859430467292528 0.00019895884441077413 0 0.0010017342762870993 0.0010757952904812266 0 0.00066899495245021018 0.00081226630487430242 0 0.00071845134772598109 0.0014126377291645276 0 0.0010017342762870993 0.0010757952904812266 0 0.00069238694296641493 0.00061221157718755631 0 0.0013797188441663554 0.00077113255992161656 0 0.0010017342762870993 0.0010757952904812266 0 0.00066899495245021018 0.00081226630487430242 0 0.00069238694296641493 0.00061221157718755631 0 0.0012435299364255711 0.0014726456952328891 0 0.0012865447994835268 0.0020538628118274994 0 0.0012865447994835268 0.0020538628118274994 0 0.0013910454539546413 0.0044428589623478733 0 0.00030579729342887897 0.005934880233433807 0 0.00057159507442043362 0.005386982400061381 0 1.0134347275328384e-05 0.0054171195569565822 0 0.00066899495245021018 0.00081226630487430242 0 0.000693876909214123 0.00063468838538745936 0 0.0003424824265099836 0.00072927073688962155 0 0.00066899495245021018 0.00081226630487430242 0 0.0003424824265099836 0.00072927073688962155 0 0.00071845134772598109 0.0014126377291645276 0 0.0013910454539546413 0.0044428589623478733 0 0.00034896175116668697 0.0033718446948055188 0 0.00023187084237949742 0.0049589841897882125 0 0.00057159507442043362 0.005386982400061381 0 1.0134347275328384e-05 0.0054171195569565822 0 0.00067877914540647941 0.0049695702493597433 0 0.00023187084237949742 0.0049589841897882125 0 0.00057159507442043362 0.005386982400061381 0 0.0011139874847259147 0.0021231842264477266 0 0.0010017342762870993 0.0010757952904812266 0 0.00071845134772598109 0.0014126377291645276 0 0.0011139874847259147 0.0021231842264477266 0 0.0010017342762870993 0.0010757952904812266 0 0.001846572915287776 0.0012003192924342112 0 0.00045787636652948923 0.0020936266598199625 0 0.00034896175116668697 0.0033718446948055188 0 -0.00028163157308102742 0.0048849371792882585 0 0.00023187084237949742 0.0049589841897882125 0 1.0134347275328384e-05 0.0054171195569565822 0 0.00073700819315029886 -0.00044077284816051418 0 0.0015330005452354059 -0.00091193922190401921 0 0.00082641171180685086 -0.0013519462412491068 0 0.00045787636652948923 0.0020936266598199625 0 0.0013967132437560409 -0.00030678558679307692 0 0.00073700819315029886 -0.00044077284816051418 0 2.4107185028650913e-06 -0.00030228217947669063 0 0.00082641171180685086 -0.0013519462412491068 0 0.001146844759686386 -0.0035520564942354764 0 0.0011528887225447913 -0.0040686464516975513 0 0.0006329732602299345 -0.0038186418862345768 0 0.0015330005452354059 -0.00091193922190401921 0 0.0015168284260453234 -0.0016670776249186846 0 0.00082641171180685086 -0.0013519462412491068 0 0.0017032605585764523 -0.0033996479656137951 0 0.0010919028708414747 -0.0023828744498413184 0 0.0011528887225447913 -0.0040686464516975513 0 0.001074896965954128 -0.0047348244281784913 0 0.0006329732602299345 -0.0038186418862345768 0 0.001846572915287776 0.0012003192924342112 0 0.0019859430467292528 0.00019895884441077413 0 0.0025774612485014296 0.00022878670246206527 0 0.0013967132437560409 -0.00030678558679307692 0 0.0023208240841339103 -0.00082111947239957956 0 0.0015168284260453234 -0.0016670776249186846 0 0.00082641171180685086 -0.0013519462412491068 0 0.0016536117764395534 -0.0023974209180255908 0 0.0020371119443523761 -0.0019691510559444623 0 0.0015330005452354059 -0.00091193922190401921 0 0.0015168284260453234 -0.0016670776249186846 0 0.0020371119443523761 -0.0019691510559444623 0 0.0015168284260453234 -0.0016670776249186846 0 0.0017381596290133704 -0.0020244093829647741 0 0.0015168284260453234 -0.0016670776249186846 0 0.0017381596290133704 -0.0020244093829647741 0 0.0016536117764395534 -0.0023974209180255908 0 0.0017032605585764523 -0.0033996479656137951 0 0.0019039127066933434 -0.0030089945536345484 0 0.0010017342762870993 0.0010757952904812266 0 0.001846572915287776 0.0012003192924342112 0 0.0013797188441663554 0.00077113255992161656 0 0.001846572915287776 0.0012003192924342112 0 0.0013797188441663554 0.00077113255992161656 0 0.0019859430467292528 0.00019895884441077413 0 0.0022590175485215935 -0.00021682525436570699 0 0.0023817571410578403 -0.00035389535601773375 0 0.0022084201115772795 -0.00036777364972493721 0 0.0022590175485215935 -0.00021682525436570699 0 0.0022084201115772795 -0.00036777364972493721 0 0.0021463432213023092 -0.00027994309081976978 0 0.0032914419016914333 -0.00021788003476171387 0 0.0019859430467292528 0.00019895884441077413 0 0.002641047301961825 0.00013729304193465432 0 0.002309600289003011 -0.0022598321554379735 0 0.00227039860264046 -2.5648161073859045e-06 0 0.0025849406237627962 -0.00032055829225291038 0 0.0022590175485215935 -0.00021682525436570699 0 0.0023817571410578403 -0.00035389535601773375 0 0.0030629952205953638 0.00027398563179397095 0 0.002576619751803818 0.00021710126363200347 0 0.002641047301961825 0.00013729304193465432 0 0.0022029745539055164 -0.0023170894847756363 0 0.0017381596290133704 -0.0020244093829647741 0 0.0016536117764395534 -0.0023974209180255908 0 0.0020029183283580701 -0.0029783025033390392 0 0.0023208240841339103 -0.00082111947239957956 0 0.0023208240841339103 -0.00082111947239957956 0 0.0022900638312331073 -0.00072134594008621598 0 0.0019859430467292528 0.00019895884441077413 0 0.0025774612485014296 0.00022878670246206527 0 0.002641047301961825 0.00013729304193465432 0 0.0022150371835957462 -0.00041828564384488535 0 0.0022084201115772795 -0.00036777364972493721 0 0.0022116144577296938 -0.00044248204625529106 0 0.00229599179542721 -0.00040855751173714646 0 0.0022267894330431129 -0.0003884092969107875 0 0.0023817571410578403 -0.00035389535601773375 0 0.0024227688419733132 -0.00047176794042788313 0 0.0022084201115772795 -0.00036777364972493721 0 0.0025329522536659248 -0.00042781233968626535 0 0.0023817571410578403 -0.00035389535601773375 0 0.0024227688419733132 -0.00047176794042788313 0 0.0022084201115772795 -0.00036777364972493721 0 0.0021088735491161781 -0.00037052711132268479 0 0.0021750221988789411 -0.00041152280604776032 0 0.0022084201115772795 -0.00036777364972493721 0 0.0021088735491161781 -0.00037052711132268479 0 0.0021463432213023092 -0.00027994309081976978 0 0.0021531261690464999 0.0057251037375216909 0 0.0021865590952230289 0.0058852501142593041 0 0.0022018040540256641 0.0058208877207542951 0 0.0012865447994835268 0.0020538628118274994 0 0.0022527871780118986 0.0029272726285875785 0 0.0012865447994835268 0.0020538628118274994 0 0.00227039860264046 -2.5648161073859045e-06 0 0.0020287277143855326 -0.00014296725168779553 0 0.0021088735491161781 -0.00037052711132268479 0 0.0021463432213023092 -0.00027994309081976978 0 0.0020287277143855326 -0.00014296725168779553 0 0.0022590175485215935 -0.00021682525436570699 0 0.0021463432213023092 -0.00027994309081976978 0 0.0022388363511544303 0.0058898792059909645 0 0.0022050737755366983 0.0057146196166984204 0 0.0022018040540256641 0.0058208877207542951 0 0.0021531261690464999 0.0057251037375216909 0 0.0022050737755366983 0.0057146196166984204 0 0.0022018040540256641 0.0058208877207542951 0 0.0022252134266002241 0.006257362006430147 0 0.0013910454539546413 0.0044428589623478733 0 0.0022388363511544303 0.0058898792059909645 0 0.0021865590952230289 0.0058852501142593041 0 0.0022154723681451676 0.0059349220338983533 0 0.0022388363511544303 0.0058898792059909645 0 0.0021865590952230289 0.0058852501142593041 0 0.0022018040540256641 0.0058208877207542951 0 0.0022926420721420091 0.0058865589296453963 0 0.0022715054483956193 0.0058266081780992979 0 0.0022022698788730353 0.0059060185701862592 0 0.0022154723681451676 0.0059349220338983533 0 0.0022926420721420091 0.0058865589296453963 0 0.0022022698788730353 0.0059060185701862592 0 0.0022527871780118986 0.0029272726285875785 0 0.0022427633342392986 0.0026370795737016262 0 0.0021865590952230289 0.0058852501142593041 0 0.0022154723681451676 0.0059349220338983533 0 0.0022926420721420091 0.0058865589296453963 0 0.0021088735491161781 -0.00037052711132268479 0 0.0022025521199902187 -0.00043086537851226597 0 0.0021750221988789411 -0.00041152280604776032 0 0.0022084201115772795 -0.00036777364972493721 0 0.002201598270577745 -0.00044166084584282631 0 0.0022116144577296938 -0.00044248204625529106 0 0.0022084201115772795 -0.00036777364972493721 0 0.0021750221988789411 -0.00041152280604776032 0 0.002201598270577745 -0.00044166084584282631 0 0.0022025521199902187 -0.00043086537851226597 0 0.0021750221988789411 -0.00041152280604776032 0 0.002201598270577745 -0.00044166084584282631 0 0.0022116144577296938 -0.00044248204625529106 0 0.0022171158697571504 -0.00049011915529140518 0 0.0022236186040752561 -0.00046340681796683411 0 0.0022150371835957462 -0.00041828564384488535 0 0.0022116144577296938 -0.00044248204625529106 0 0.0022236186040752561 -0.00046340681796683411 0 0.002201598270577745 -0.00044166084584282631 0 0.0022116144577296938 -0.00044248204625529106 0 0.0022120430760176613 -0.00047158923497208721 0 0.0022120430760176613 -0.00047158923497208721 0 0.0022171158697571504 -0.00049011915529140518 0 0.0022165575979533601 -0.00049786642021880227 0 0.0022116144577296938 -0.00044248204625529106 0 0.0022120430760176613 -0.00047158923497208721 0 0.0022171158697571504 -0.00049011915529140518 0 0.002201598270577745 -0.00044166084584282631 0 0.0022120430760176613 -0.00047158923497208721 0 0.0022162865055428797 -0.00045683282279503117 0 0.0022120430760176613 -0.00047158923497208721 0 0.0022165575979533601 -0.00049786642021880227 0 0.0022162865055428797 -0.00045683282279503117 0 0.0022165575979533601 -0.00049786642021880227 0 0.0022162865055428797 -0.00045683282279503117 0 0.0022127065915555216 -0.00047502985492982113 0 0.0022025521199902187 -0.00043086537851226597 0 0.002201598270577745 -0.00044166084584282631 0 0.0022162865055428797 -0.00045683282279503117 0 0.0022025521199902187 -0.00043086537851226597 0 0.0022162865055428797 -0.00045683282279503117 0 0.0022479874358284583 -0.00038997329308904642 0 0.0022162865055428797 -0.00045683282279503117 0 0.002216916467869195 -0.00044017798931420172 0 0.0022479874358284583 -0.00038997329308904642 0 0.002216916467869195 -0.00044017798931420172 0 0.0022127065915555216 -0.00047502985492982113 0 0.0021953227094112576 -0.00044535822234989715 0 0.0022162865055428797 -0.00045683282279503117 0 0.002216916467869195 -0.00044017798931420172 0 0.0022127065915555216 -0.00047502985492982113 0 0.002216916467869195 -0.00044017798931420172 0 0.002223589805502699 -0.00040313969787354606 0 0.0021953227094112576 -0.00044535822234989715 0 0.002216916467869195 -0.00044017798931420172 0 0.002223589805502699 -0.00040313969787354606 0 0.0022479874358284583 -0.00038997329308904642 0 0.002223589805502699 -0.00040313969787354606 0 0.0022479874358284583 -0.00038997329308904642 0 0.0022286137196407267 -0.00036485846746804146 0 0.002404289388645071 0.0057216765775428289 0 0.002275135846611816 0.0057333093068142587 0 0.0022715054483956193 0.0058266081780992979 0 0.002404289388645071 0.0057216765775428289 0 0.002275135846611816 0.0057333093068142587 0 0.0023363965979938369 0.0056289588153845254 0 0.002275135846611816 0.0057333093068142587 0 0.0022526594560478793 0.0056333887547164495 0 0.0023363965979938369 0.0056289588153845254 0 0.002275135846611816 0.0057333093068142587 0 0.0022526594560478793 0.0056333887547164495 0 0.0021896702198808361 0.0057222799461641967 0 0.002275135846611816 0.0057333093068142587 0 0.0021896702198808361 0.0057222799461641967 0 0.0022057687738882815 0.0058278494705479578 0 0.0022715054483956193 0.0058266081780992979 0 0.0022057687738882815 0.0058278494705479578 0 0.0022022698788730353 0.0059060185701862592 0 0.002275135846611816 0.0057333093068142587 0 0.0022715054483956193 0.0058266081780992979 0 0.0022057687738882815 0.0058278494705479578 0 0.0022427633342392986 0.0026370795737016262 0 0.0022769449143394743 0.0029061098048007911 0 0.0022926420721420091 0.0058865589296453963 0 0.002404289388645071 0.0057216765775428289 0 0.0022715054483956193 0.0058266081780992979 0 0.0027123301230173409 -0.00094910134720314681 0 0.0026791336287800686 -0.00065989898558409059 0 0.0025110969390281326 -0.00077922318485576839 0 0.0027123301230173409 -0.00094910134720314681 0 0.0025110969390281326 -0.00077922318485576839 0 0.0025661975667638881 -0.0010618204890836577 0 0.002964497590881032 -0.0010065312244068019 0 0.0027123301230173409 -0.00094910134720314681 0 0.0026791336287800686 -0.00065989898558409059 0 0.0015571070947902953 -0.0074846351695651058 0 0.0015399074607287309 -0.0074774193749209275 0 0.001543843330349003 -0.0074740306324492124 0 0.0015571070947902953 -0.0074846351695651058 0 0.001543843330349003 -0.0074740306324492124 0 0.0015392505173304318 -0.0074591815220043716 0 0.0015571070947902953 -0.0074846351695651058 0 0.0015409680133705445 -0.0074484375863732178 0 0.0015392505173304318 -0.0074591815220043716 0 0.0015399074607287309 -0.0074774193749209275 0 0.001543843330349003 -0.0074740306324492124 0 0.0015392505173304318 -0.0074591815220043716 0 0.0015399074607287309 -0.0074774193749209275 0 0.0015316054370185209 -0.0074427749747494731 0 0.0015392505173304318 -0.0074591815220043716 0 0.0026791336287800686 -0.00065989898558409059 0 0.0024358750504173731 -0.0005965432435175663 0 0.0025110969390281326 -0.00077922318485576839 0 0.0015399074607287309 -0.0074774193749209275 0 0.0015316054370185209 -0.0074427749747494731 0 0.0015147353316111681 -0.0074245443413512848 0 0.0017686270917452605 -0.0046155659306719565 0 0.0019701265294855071 -0.0040462464688867722 0 0.0024358750504173731 -0.0005965432435175663 0 0.0025110969390281326 -0.00077922318485576839 0 0.0023445603845978625 -0.00066126355279655402 0 0.0025110969390281326 -0.00077922318485576839 0 0.0023426101459062972 -0.00082903125551222047 0 0.0025661975667638881 -0.0010618204890836577 0 0.0025110969390281326 -0.00077922318485576839 0 0.0023426101459062972 -0.00082903125551222047 0 0.0023445603845978625 -0.00066126355279655402 0 0.0023426101459062972 -0.00082903125551222047 0 0.002214795761729465 -0.00054227207957774283 0 0.0022629047181635512 -0.00061321088553367893 0 0.0022382393717562117 -0.00065444982869169522 0 0.0022214294986921254 -0.00057143107356867606 0 0.0023426101459062972 -0.00082903125551222047 0 0.0023445603845978625 -0.00066126355279655402 0 0.0022629047181635512 -0.00061321088553367893 0 0.0024358750504173731 -0.0005965432435175663 0 0.0023445603845978625 -0.00066126355279655402 0 0.0022978332403061231 -0.00059753588125214206 0 0.002285422555436119 -0.00057804381002592837 0 0.0024358750504173731 -0.0005965432435175663 0 0.0022978332403061231 -0.00059753588125214206 0 0.0024504454303138487 -0.0026138452150362068 0 0.0019701265294855071 -0.0040462464688867722 0 0.0022959723149717035 -0.00060023678393255177 0 0.0022978332403061231 -0.00059753588125214206 0 0.0022930144661917539 -0.0006147574844942176 0 0.0022959723149717035 -0.00060023678393255177 0 0.0022970290953044921 -0.0006000621101985938 0 0.0022978332403061231 -0.00059753588125214206 0 0.0024504454303138487 -0.0026138452150362068 0 0.002211429075914091 -0.0019071873894368563 0 0.0023445603845978625 -0.00066126355279655402 0 0.0022978332403061231 -0.00059753588125214206 0 0.0022930144661917539 -0.0006147574844942176 0 0.0023445603845978625 -0.00066126355279655402 0 0.0022930144661917539 -0.0006147574844942176 0 0.0022629047181635512 -0.00061321088553367893 0 0.0022433198597249771 -0.00051296480595169371 0 0.002214795761729465 -0.00054227207957774283 0 0.0022629047181635512 -0.00061321088553367893 0 0.0022959723149717035 -0.00060023678393255177 0 0.0022930144661917539 -0.0006147574844942176 0 0.0022629047181635512 -0.00061321088553367893 0 0.0022829094470242632 -0.00042558466485870348 0 0.0022433198597249771 -0.00051296480595169371 0 0.0022629047181635512 -0.00061321088553367893 0 0.0024105356545903026 -0.0013596822420749478 0 0.0022580158597223731 -0.00029070528945970869 0 0.0022829094470242632 -0.00042558466485870348 0 0.0022433198597249771 -0.00051296480595169371 0 0.0022454781015791834 -0.00046218928548437643 0 0.0022150371835957462 -0.00041828564384488535 0 0.0022454781015791834 -0.00046218928548437643 0 0.0022236186040752561 -0.00046340681796683411 0 0.0022454781015791834 -0.00046218928548437643 0 0.0022236186040752561 -0.00046340681796683411 0 0.0022276279443218649 -0.00050285211533165062 0 0.0022433198597249771 -0.00051296480595169371 0 0.0022454781015791834 -0.00046218928548437643 0 0.0022276279443218649 -0.00050285211533165062 0 0.0022171158697571504 -0.00049011915529140518 0 0.0022236186040752561 -0.00046340681796683411 0 0.0022276279443218649 -0.00050285211533165062 0 0.0022433198597249771 -0.00051296480595169371 0 0.0022276279443218649 -0.00050285211533165062 0 0.002214795761729465 -0.00054227207957774283 0 0.0022171158697571504 -0.00049011915529140518 0 0.0022276279443218649 -0.00050285211533165062 0 0.002214795761729465 -0.00054227207957774283 0 0.0021279224610918322 -0.00049537132002371433 0 0.002214795761729465 -0.00054227207957774283 0 0.0021815276445886233 -0.00047897495970892232 0 0.0022171158697571504 -0.00049011915529140518 0 0.0022165575979533601 -0.00049786642021880227 0 0.002214795761729465 -0.00054227207957774283 0 0.0022165575979533601 -0.00049786642021880227 0 0.002214795761729465 -0.00054227207957774283 0 0.0022127065915555216 -0.00047502985492982113 0 0.002214795761729465 -0.00054227207957774283 0 0.0022127065915555216 -0.00047502985492982113 0 0.0021815276445886233 -0.00047897495970892232 0 0.0022127065915555216 -0.00047502985492982113 0 0.0021815276445886233 -0.00047897495970892232 0 0.0021953227094112576 -0.00044535822234989715 0 0.0021815276445886233 -0.00047897495970892232 0 0.0021953227094112576 -0.00044535822234989715 0 0.0021482229372123797 -0.00045468460196153906 0 0.0021953227094112576 -0.00044535822234989715 0 0.0021813818057063823 -0.00042135601994265745 0 0.0021482229372123797 -0.00045468460196153906 0 0.002223589805502699 -0.00040313969787354606 0 0.0021813818057063823 -0.00042135601994265745 0 0.0022223505507667448 -0.00038804852626322538 0 0.002223589805502699 -0.00040313969787354606 0 0.0021953227094112576 -0.00044535822234989715 0 0.0021813818057063823 -0.00042135601994265745 0 0.0021813818057063823 -0.00042135601994265745 0 0.0021073241724961903 -0.0004242824146588982 0 0.0021382534871300009 -0.00038716214157301978 0 0.0021813818057063823 -0.00042135601994265745 0 0.0021073241724961903 -0.0004242824146588982 0 0.0021482229372123797 -0.00045468460196153906 0 0.0021279224610918322 -0.00049537132002371433 0 0.0021815276445886233 -0.00047897495970892232 0 0.0021482229372123797 -0.00045468460196153906 0 0.0021279224610918322 -0.00049537132002371433 0 0.0021482229372123797 -0.00045468460196153906 0 0.0020700704357784162 -0.00046516830161063254 0 0.0022382393717562117 -0.00065444982869169522 0 0.0023526126469449998 -0.00079886768846222536 0 0.0021073241724961903 -0.0004242824146588982 0 0.0021482229372123797 -0.00045468460196153906 0 0.0020700704357784162 -0.00046516830161063254 0 0.0021073241724961903 -0.0004242824146588982 0 0.00206274048909164 -0.00042030758537761007 0 0.0020700704357784162 -0.00046516830161063254 0 0.0021073241724961903 -0.0004242824146588982 0 0.00206274048909164 -0.00042030758537761007 0 0.0020797234548774325 -0.00039330405372699391 0 0.0020450123264500338 -0.0004484820236411505 0 0.00206274048909164 -0.00042030758537761007 0 0.002051918772716761 -0.0004186103583951054 0 0.0020450123264500338 -0.0004484820236411505 0 0.00206274048909164 -0.00042030758537761007 0 0.0020700704357784162 -0.00046516830161063254 0 0.0023692096614168312 -0.00062084529646381733 0 0.0023526126469449998 -0.00079886768846222536 0 0.0028592346125482166 -0.0013007792157210651 0 0.0027123301230173409 -0.00094910134720314681 0 0.0025661975667638881 -0.0010618204890836577 0 0.0020576555764731108 -0.00038551124748691736 0 0.0020404169709638703 -0.00041816017213871566 0 0.0020662677937482127 -0.00042679159982557445 0 0.002051918772716761 -0.0004186103583951054 0 0.0020576555764731108 -0.00038551124748691736 0 0.0020662677937482127 -0.00042679159982557445 0 0.00206274048909164 -0.00042030758537761007 0 0.002051918772716761 -0.0004186103583951054 0 0.0020576555764731108 -0.00038551124748691736 0 0.00206274048909164 -0.00042030758537761007 0 0.0020797234548774325 -0.00039330405372699391 0 0.0020576555764731108 -0.00038551124748691736 0 0.0020797234548774325 -0.00039330405372699391 0 0.0020524418345293331 -0.00034343120165756635 0 0.0020576555764731108 -0.00038551124748691736 0 0.0020524418345293331 -0.00034343120165756635 0 0.0020576555764731108 -0.00038551124748691736 0 0.0020404169709638703 -0.00041816017213871566 0 0.0020789020194555904 -0.00043401610034293628 0 0.0018847591591044147 8.9223085713577232e-07 0 0.0020524418345293331 -0.00034343120165756635 0 0.0021125821696352906 -0.00017516518372531119 0 0.0019699537658523694 -0.00015647694506658292 0 0.0020524418345293331 -0.00034343120165756635 0 0.0021796957497809502 -0.00029527469631863203 0 0.0021125821696352906 -0.00017516518372531119 0 0.0021796957497809502 -0.00029527469631863203 0 0.0022422117311606026 -0.00015827746955422167 0 0.0021125821696352906 -0.00017516518372531119 0 0.0020524418345293331 -0.00034343120165756635 0 0.0021382534871300009 -0.00038716214157301978 0 0.0021796957497809502 -0.00029527469631863203 0 0.0020797234548774325 -0.00039330405372699391 0 0.0020524418345293331 -0.00034343120165756635 0 0.0021382534871300009 -0.00038716214157301978 0 0.0021073241724961903 -0.0004242824146588982 0 0.0020797234548774325 -0.00039330405372699391 0 0.0021382534871300009 -0.00038716214157301978 0 0.0022223505507667448 -0.00038804852626322538 0 0.0021796957497809502 -0.00029527469631863203 0 0.002316625303861751 -0.00024971691845144877 0 0.0021813818057063823 -0.00042135601994265745 0 0.0021382534871300009 -0.00038716214157301978 0 0.0022223505507667448 -0.00038804852626322538 0 0.0021382534871300009 -0.00038716214157301978 0 0.0022223505507667448 -0.00038804852626322538 0 0.0021796957497809502 -0.00029527469631863203 0 0.0021796957497809502 -0.00029527469631863203 0 0.0022422117311606026 -0.00015827746955422167 0 0.002316625303861751 -0.00024971691845144877 0 0.0022422117311606026 -0.00015827746955422167 0 0.0021711573238866865 -3.5792429587016654e-05 0 0.0023697028879011684 9.959274315014318e-06 0 0.0022668064782612272 0.0001106693868194304 0 0.0021711573238866865 -3.5792429587016654e-05 0 0.0023697028879011684 9.959274315014318e-06 0 0.0022668064782612272 0.0001106693868194304 0 0.0020789294556478074 5.8588247683840887e-05 0 0.0021711573238866865 -3.5792429587016654e-05 0 0.0025202864993811303 0.00014589603300893333 0 0.0025475451016211026 0.00029006329000523192 0 0.0020789294556478074 5.8588247683840887e-05 0 0.0021711573238866865 -3.5792429587016654e-05 0 0.0020302805217597016 -5.484083384340525e-05 0 0.0021711573238866865 -3.5792429587016654e-05 0 0.0021125821696352906 -0.00017516518372531119 0 0.0020302805217597016 -5.484083384340525e-05 0 0.0022422117311606026 -0.00015827746955422167 0 0.0021711573238866865 -3.5792429587016654e-05 0 0.0021125821696352906 -0.00017516518372531119 0 0.0021125821696352906 -0.00017516518372531119 0 0.0019699537658523694 -0.00015647694506658292 0 0.0020302805217597016 -5.484083384340525e-05 0 0.0019699537658523694 -0.00015647694506658292 0 0.0020302805217597016 -5.484083384340525e-05 0 0.0019277769732929711 -2.7170108507517383e-05 0 0.0018847591591044147 8.9223085713577232e-07 0 0.0021091721969410224 -0.0022394027198518545 0 0.0025475451016211026 0.00029006329000523192 0 0.0029630680245257561 -0.0031421854829867218 0 0.0030755885797012382 0.00019901998876801298 0 0.003477907202703549 0.00021493208453506475 0 0.0032732911515436077 -2.7044466956486682e-05 0 0.0020789294556478074 5.8588247683840887e-05 0 0.0020302805217597016 -5.484083384340525e-05 0 0.0019423899140297374 -1.1031752079856529e-05 0 0.0020789294556478074 5.8588247683840887e-05 0 0.0019423899140297374 -1.1031752079856529e-05 0 0.0019106891893289045 1.3951048944265206e-05 0 0.0019423899140297374 -1.1031752079856529e-05 0 0.0019291316023013548 -3.0350531439132507e-05 0 0.0019106891893289045 1.3951048944265206e-05 0 0.0021091721969410224 -0.0022394027198518545 0 0.0029630680245257561 -0.0031421854829867218 0 0.0020302805217597016 -5.484083384340525e-05 0 0.0019423899140297374 -1.1031752079856529e-05 0 0.0019277769732929711 -2.7170108507517383e-05 0 0.0022676208224069031 -0.0018906363801691945 0 0.0021091721969410224 -0.0022394027198518545 0 0.0026415257822579889 -0.0062297936040068393 0 0.0029562742742702056 -0.0061655786246898828 0 0.002805787544909124 -0.0063062751408738396 0 0.0027994608101110322 -0.0062341135963966945 0 0.0035571260552318975 -0.0061788091391012639 0 0.0031828881378115235 -0.0059811837712154155 0 0.0029898040126533827 -0.0062471224037139806 0 0.0029562742742702056 -0.0061655786246898828 0 0.002805787544909124 -0.0063062751408738396 0 0.0027754358267578242 -0.0065261570159488407 0 0.0029630680245257561 -0.0031421854829867218 0 0.0021091721969410224 -0.0022394027198518545 0 0.0024203200699284013 -0.0035907759795278721 0 0.0029898040126533827 -0.0062471224037139806 0 0.002805787544909124 -0.0063062751408738396 0 0.0027998503867081282 -0.0064923592245810183 0 0.0020404169709638703 -0.00041816017213871566 0 0.0020493410062475503 -0.00047304210631851754 0 0.0020662677937482127 -0.00042679159982557445 0 0.0023943803636928031 0.0032607519813037675 0 0.0026121902819789726 0.0015556618603204866 0 0.0024323100964191869 0.00077562789569438355 0 0.0022688064653610222 0.00075214155029419694 0 0.0023430079081946643 0.00089033655880828495 0 0.0023161778803549317 0.0054525927177557169 0 0.0023063315714053297 0.0055458055717411596 0 0.0024605823462624109 0.0054815135087018249 0 0.0023161778803549317 0.0054525927177557169 0 0.0021806524665198249 0.0054001389869645687 0 0.0022203152795476767 0.0055342551996581711 0 0.0023943803636928031 0.0032607519813037675 0 0.0025108460138270833 0.0026505367184312283 0 0.0023161778803549317 0.0054525927177557169 0 0.0023063315714053297 0.0055458055717411596 0 0.0022203152795476767 0.0055342551996581711 0 0.0023063315714053297 0.0055458055717411596 0 0.0022526594560478793 0.0056333887547164495 0 0.0022203152795476767 0.0055342551996581711 0 0.0023063315714053297 0.0055458055717411596 0 0.0022526594560478793 0.0056333887547164495 0 0.0023363965979938369 0.0056289588153845254 0 0.002404289388645071 0.0057216765775428289 0 0.0023363965979938369 0.0056289588153845254 0 0.0024605823462624109 0.0054815135087018249 0 0.0022769449143394743 0.0029061098048007911 0 0.0026121902819789726 0.0015556618603204866 0 0.0023063315714053297 0.0055458055717411596 0 0.0023363965979938369 0.0056289588153845254 0 0.0024605823462624109 0.0054815135087018249 0 0.0022479874358284583 -0.00038997329308904642 0 0.0022286137196407267 -0.00036485846746804146 0 0.0022587534938354873 -0.00033164891315850452 0 0.0022129905916794591 -0.00045182638693393331 0 0.0026121902819789726 0.0015556618603204866 0 0.0022863088515105465 -0.00036314734176239087 0 0.0022129905916794591 -0.00045182638693393331 0 0.0022223505507667448 -0.00038804852626322538 0 0.0024411050257315721 -0.00034102976642678517 0 0.002316625303861751 -0.00024971691845144877 0 0.002223589805502699 -0.00040313969787354606 0 0.0022223505507667448 -0.00038804852626322538 0 0.0022286137196407267 -0.00036485846746804146 0 0.0022422117311606026 -0.00015827746955422167 0 0.002316625303861751 -0.00024971691845144877 0 0.0024332677889969943 -0.00013004408548004161 0 0.0024411050257315721 -0.00034102976642678517 0 0.002316625303861751 -0.00024971691845144877 0 0.0024332677889969943 -0.00013004408548004161 0 0.0024411050257315721 -0.00034102976642678517 0 0.0024332677889969943 -0.00013004408548004161 0 0.0026454226940493303 -0.00026181133924683687 0 0.0024332677889969943 -0.00013004408548004161 0 0.0026454226940493303 -0.00026181133924683687 0 0.0026020088629501088 5.7422847400325637e-05 0 0.0026121902819789726 0.0015556618603204866 0 0.0024385328394859367 0.00019969933611380913 0 0.0024332677889969943 -0.00013004408548004161 0 0.0026020088629501088 5.7422847400325637e-05 0 0.0023697028879011684 9.959274315014318e-06 0 0.0022422117311606026 -0.00015827746955422167 0 0.0024332677889969943 -0.00013004408548004161 0 0.0023697028879011684 9.959274315014318e-06 0 0.0025202864993811303 0.00014589603300893333 0 0.0024918138929197519 0.00016857705413320193 0 0.0022668064782612272 0.0001106693868194304 0 0.0023697028879011684 9.959274315014318e-06 0 0.002487667123188137 0.00017258948397547901 0 0.0026020088629501088 5.7422847400325637e-05 0 0.0023697028879011684 9.959274315014318e-06 0 0.002487667123188137 0.00017258948397547901 0 0.0022885895063059075 0.0010052115528786829 0 0.0021566242711934819 0.00080276323602026145 0 0.0024450810830867523 0.00024384421396021866 0 0.0026020088629501088 5.7422847400325637e-05 0 0.002487667123188137 0.00017258948397547901 0 0.0024450810830867523 0.00024384421396021866 0 0.0024385328394859367 0.00019969933611380913 0 0.002445351995492426 0.00038793940780986331 0 0.0021566242711934819 0.00080276323602026145 0 0.0023892707149302606 0.00099496131490384859 0 0.0025019320883045868 0.0012310544938526811 0 0.0022680676581075653 0.000930106939204915 0 0.0023430079081946643 0.00089033655880828495 0 0.0023892707149302606 0.00099496131490384859 0 0.0021566242711934819 0.00080276323602026145 0 0.0022680676581075653 0.000930106939204915 0 0.0023892707149302606 0.00099496131490384859 0 0.0022885895063059075 0.0010052115528786829 0 0.0021566242711934819 0.00080276323602026145 0 0.0022680676581075653 0.000930106939204915 0 0.0022688064653610222 0.00075214155029419694 0 0.0022885895063059075 0.0010052115528786829 0 0.0023430079081946643 0.00089033655880828495 0 0.0022885895063059075 0.0010052115528786829 0 0.0022680676581075653 0.000930106939204915 0 0.0023430079081946643 0.00089033655880828495 0 0.0024323100964191869 0.00077562789569438355 0 0.0025368813420029563 0.00086085046175025384 0 0.002615203140089548 0.00082084566078238254 0 0.0023430079081946643 0.00089033655880828495 0 0.0025368813420029563 0.00086085046175025384 0 0.0023892707149302606 0.00099496131490384859 0 0.0024323100964191869 0.00077562789569438355 0 0.0023430079081946643 0.00089033655880828495 0 0.0025368813420029563 0.00086085046175025384 0 0.0025368813420029563 0.00086085046175025384 0 0.0025861915431888956 0.001025591875575018 0 0.0023892707149302606 0.00099496131490384859 0 0.0025861915431888956 0.001025591875575018 0 0.0023892707149302606 0.00099496131490384859 0 0.0025019320883045868 0.0012310544938526811 0 0.0025861915431888956 0.001025591875575018 0 0.0027188238179443247 0.0012183860699333559 0 0.0025019320883045868 0.0012310544938526811 0 0.0027188238179443247 0.0012183860699333559 0 0.0028399699270596052 0.00097828530361629331 0 0.0029407079654932512 0.0013330907574425951 0 0.0025861915431888956 0.001025591875575018 0 0.0027188238179443247 0.0012183860699333559 0 0.0028399699270596052 0.00097828530361629331 0 0.0032793221689708962 0.0011164385749420302 0 0.0028399699270596052 0.00097828530361629331 0 0.0029407079654932512 0.0013330907574425951 0 0.0032793221689708962 0.0011164385749420302 0 0.0029407079654932512 0.0013330907574425951 0 0.0032737944144925622 0.0014442037357439617 0 0.0032793221689708962 0.0011164385749420302 0 0.0031758242210489966 0.00079703442738395132 0 0.0035413875207412405 0.00094034972497533177 0 0.0032793221689708962 0.0011164385749420302 0 0.0031758242210489966 0.00079703442738395132 0 0.0028399699270596052 0.00097828530361629331 0 0.0026582373585859916 0.0035063252895320509 0 0.0024560322892235547 0.0034331581109893769 0 0.0026327400727190406 0.0037399037280095274 0 0.0028924498851970988 0.0021476502013510015 0 0.0025108460138270833 0.0026505367184312283 0 0.0031758242210489966 0.00079703442738395132 0 0.0027976918707906264 0.00067409598647168872 0 0.0028399699270596052 0.00097828530361629331 0 0.0029664255027884454 0.00092800270985621497 0 0.0025108460138270833 0.0026505367184312283 0 0.0025368813420029563 0.00086085046175025384 0 0.0027976918707906264 0.00067409598647168872 0 0.0028399699270596052 0.00097828530361629331 0 0.0025368813420029563 0.00086085046175025384 0 0.0025861915431888956 0.001025591875575018 0 0.0028399699270596052 0.00097828530361629331 0 0.0021722002948339797 0.0030042314738551964 0 0.0022076657604870164 0.0031688171032560075 0 0.0020036008621610148 0.0031393582141442384 0 0.0028398880195193402 0.0024511955549435132 0 0.0024159275969740318 0.0027775676891810862 0 0.0021722002948339797 0.0030042314738551964 0 0.0023998984107700999 0.0030936566909608616 0 0.0022847473332505042 0.00274333011531436 0 0.0027133832125142612 0.0038863010507978169 0 0.0028398880195193402 0.0024511955549435132 0 0.0021722002948339797 0.0030042314738551964 0 0.0022076657604870164 0.0031688171032560075 0 0.0023998984107700999 0.0030936566909608616 0 0.0028398880195193402 0.0024511955549435132 0 0.0030536106452565513 0.0018867974699975692 0 0.0032793221689708962 0.0011164385749420302 0 0.003668179493186562 0.0011540746536152118 0 0.0032737944144925622 0.0014442037357439617 0 0.0032793221689708962 0.0011164385749420302 0 0.003668179493186562 0.0011540746536152118 0 0.0035413875207412405 0.00094034972497533177 0 0.0028398880195193402 0.0024511955549435132 0 0.0028935776405959682 0.0032968169629573616 0 0.0027429953477669093 0.0033161408850292955 0 0.0027962934224340418 0.0032765312667489546 0 0.0028400830092625675 0.0033490770670891522 0 0.0028282665856798807 0.0050027024964227028 0 0.0026770089083111904 0.0050966049315375045 0 0.0027658479222652963 0.0052453231891187932 0 0.0028935776405959682 0.0032968169629573616 0 0.0023974935801558865 0.0053161966604053576 0 0.0028924498851970988 0.0021476502013510015 0 0.0028935776405959682 0.0032968169629573616 0 0.0027133832125142612 0.0038863010507978169 0 0.0027600048584104741 0.0049411615776994624 0 0.0026770089083111904 0.0050966049315375045 0 0.0026293292146863873 0.0052251061283320561 0 0.002439120197153069 0.0051169464166376097 0 0.0026593481767258165 0.0049443636349420462 0 0.0026770089083111904 0.0050966049315375045 0 0.002439120197153069 0.0051169464166376097 0 0.0026593481767258165 0.0049443636349420462 0 0.0028282665856798807 0.0050027024964227028 0 0.0026770089083111904 0.0050966049315375045 0 0.0027133832125142612 0.0038863010507978169 0 0.0028935776405959682 0.0032968169629573616 0 0.0026450410984908876 0.0053568794725491276 0 0.0027658479222652963 0.0052453231891187932 0 0.0027532277462629516 0.0054956963306231352 0 0.0026293292146863873 0.0052251061283320561 0 0.0026450410984908876 0.0053568794725491276 0 0.0024702259088157201 0.0053189611351197319 0 0.0026770089083111904 0.0050966049315375045 0 0.0026293292146863873 0.0052251061283320561 0 0.0027658479222652963 0.0052453231891187932 0 0.0026293292146863873 0.0052251061283320561 0 0.0026450410984908876 0.0053568794725491276 0 0.0027658479222652963 0.0052453231891187932 0 0.0028282665856798807 0.0050027024964227028 0 0.0027658479222652963 0.0052453231891187932 0 0.0030115976161440728 0.0053140413161325267 0 0.0027658479222652963 0.0052453231891187932 0 0.0027532277462629516 0.0054956963306231352 0 0.0030115976161440728 0.0053140413161325267 0 0.0025967625483583334 0.0056390372679134089 0 0.0023974935801558865 0.0053161966604053576 0 0.0023882161626310717 0.0057428984437990277 0 0.0022578774121450101 0.0058117681343327855 0 0.0022813763625730093 0.00573856003550421 0 0.0023882161626310717 0.0057428984437990277 0 0.0022813763625730093 0.00573856003550421 0 0.0022548129258287506 0.0056696142813505183 0 0.0027532277462629516 0.0054956963306231352 0 0.0024562748190557 0.0056773381102918205 0 0.0025237359509466257 0.0054789579653586233 0 0.0026450410984908876 0.0053568794725491276 0 0.0027532277462629516 0.0054956963306231352 0 0.0025237359509466257 0.0054789579653586233 0 0.0026450410984908876 0.0053568794725491276 0 0.0025237359509466257 0.0054789579653586233 0 0.0024702259088157201 0.0053189611351197319 0 0.0021806524665198249 0.0054001389869645687 0 0.0022203152795476767 0.0055342551996581711 0 0.0020453711395184123 0.0055039043500955658 0 0.0026582373585859916 0.0035063252895320509 0 0.0028613174039111787 0.0035759688123679582 0 0.0026327400727190406 0.0037399037280095274 0 0.0025108460138270833 0.0026505367184312283 0 0.0023974935801558865 0.0053161966604053576 0 0.0022578774121450101 0.0058117681343327855 0 0.0022813763625730093 0.00573856003550421 0 0.0021964993346646373 0.0057018860239315926 0 0.0023974935801558865 0.0053161966604053576 0 0.0021441730538114905 0.0058113658894686634 0 0.0020453711395184123 0.0055039043500955658 0 0.0022046925012984492 0.0056414373942844211 0 0.0021964993346646373 0.0057018860239315926 0 0.0022203152795476767 0.0055342551996581711 0 0.0020453711395184123 0.0055039043500955658 0 0.0022046925012984492 0.0056414373942844211 0 0.0022526594560478793 0.0056333887547164495 0 0.0022203152795476767 0.0055342551996581711 0 0.0022046925012984492 0.0056414373942844211 0 0.0022526594560478793 0.0056333887547164495 0 0.0022046925012984492 0.0056414373942844211 0 0.0021896702198808361 0.0057222799461641967 0 0.0021896702198808361 0.0057222799461641967 0 0.0021964993346646373 0.0057018860239315926 0 0.0022548129258287506 0.0056696142813505183 0 0.0021896702198808361 0.0057222799461641967 0 0.0021581364587987214 0.0058455002341690245 0 0.0021312043022721377 0.0058763722249819015 0 0.0022046925012984492 0.0056414373942844211 0 0.0021896702198808361 0.0057222799461641967 0 0.0021964993346646373 0.0057018860239315926 0 0.0022007791876654326 0.0057324615325567065 0 0.002203001857980745 0.0057701507033826142 0 0.0021896702198808361 0.0057222799461641967 0 0.0021581364587987214 0.0058455002341690245 0 0.0022057687738882815 0.0058278494705479578 0 0.0022057687738882815 0.0058278494705479578 0 0.0021643398347088224 0.0058899006387710022 0 0.0022022698788730353 0.0059060185701862592 0 0.0021643398347088224 0.0058899006387710022 0 0.0022022698788730353 0.0059060185701862592 0 0.0021355265212557564 0.0059629913420858405 0 0.0021581364587987214 0.0058455002341690245 0 0.0022057687738882815 0.0058278494705479578 0 0.0021643398347088224 0.0058899006387710022 0 0.0021366317092840225 0.0059087131315225597 0 0.0021307431401133611 0.0059736832312698059 0 0.0021355265212557564 0.0059629913420858405 0 0.0021643398347088224 0.0058899006387710022 0 0.0021366317092840225 0.0059087131315225597 0 0.0021355265212557564 0.0059629913420858405 0 0.0021581364587987214 0.0058455002341690245 0 0.0021643398347088224 0.0058899006387710022 0 0.0021366317092840225 0.0059087131315225597 0 0.0021366317092840225 0.0059087131315225597 0 0.0021312043022721377 0.0058763722249819015 0 0.0021304675059356038 0.0059336164675867411 0 0.0022813763625730093 0.00573856003550421 0 0.0021964993346646373 0.0057018860239315926 0 0.0022548129258287506 0.0056696142813505183 0 0.0021581364587987214 0.0058455002341690245 0 0.0021366317092840225 0.0059087131315225597 0 0.0021312043022721377 0.0058763722249819015 0 0.0023882161626310717 0.0057428984437990277 0 0.0022548129258287506 0.0056696142813505183 0 0.0024225249041840437 0.0056626990274605687 0 0.002203001857980745 0.0057701507033826142 0 0.0022762533385080378 0.0058037478029850766 0 0.0021312043022721377 0.0058763722249819015 0 0.002130840705377448 0.0059486411685536521 0 0.0021304675059356038 0.0059336164675867411 0 0.0023882161626310717 0.0057428984437990277 0 0.0024225249041840437 0.0056626990274605687 0 0.0024562748190557 0.0056773381102918205 0 0.0025967625483583334 0.0056390372679134089 0 0.0024569960529808293 0.005673194849651484 0 0.002130840705377448 0.0059486411685536521 0 0.0021301737290308443 0.0059733434213674408 0 0.0021252695771350289 0.0059730328519254595 0 0.0021301737290308443 0.0059733434213674408 0 0.0021258447226195206 0.0060062683804118916 0 0.0021252695771350289 0.0059730328519254595 0 0.002130840705377448 0.0059486411685536521 0 0.0021301737290308443 0.0059733434213674408 0 0.0021304675059356038 0.0059336164675867411 0 0.0021301737290308443 0.0059733434213674408 0 0.0021258447226195206 0.0060062683804118916 0 0.0021315348731669593 0.00602799337251119 0 0.0021366317092840225 0.0059087131315225597 0 0.0021304675059356038 0.0059336164675867411 0 0.0021307431401133611 0.0059736832312698059 0 0.0021301737290308443 0.0059733434213674408 0 0.0021304675059356038 0.0059336164675867411 0 0.0021307431401133611 0.0059736832312698059 0 0.0021301737290308443 0.0059733434213674408 0 0.0021307431401133611 0.0059736832312698059 0 0.0021315348731669593 0.00602799337251119 0 0.0021307431401133611 0.0059736832312698059 0 0.0021256582876091499 0.0060542678784529097 0 0.0021315348731669593 0.00602799337251119 0 0.0021307431401133611 0.0059736832312698059 0 0.0021256582876091499 0.0060542678784529097 0 0.0021355265212557564 0.0059629913420858405 0 0.0021258447226195206 0.0060062683804118916 0 0.0021315348731669593 0.00602799337251119 0 0.0021164616114608516 0.0060782616610446753 0 0.0021315348731669593 0.00602799337251119 0 0.0021330658713267087 0.0061100727805221897 0 0.0021164616114608516 0.0060782616610446753 0 0.0021256582876091499 0.0060542678784529097 0 0.0021315348731669593 0.00602799337251119 0 0.0021330658713267087 0.0061100727805221897 0 0.0021473122281644324 0.0061736319480699305 0 0.0021256582876091499 0.0060542678784529097 0 0.0021330658713267087 0.0061100727805221897 0 0.0021064721801584804 0.0061096604009163438 0 0.0021473122281644324 0.0061736319480699305 0 0.0021256582876091499 0.0060542678784529097 0 0.0021064721801584804 0.0061096604009163438 0 0.0021256582876091499 0.0060542678784529097 0 0.0021323994494959592 0.0060058544969467456 0 0.0020198782279205003 0.0060338021712773408 0 0.0021064721801584804 0.0061096604009163438 0 0.0021323994494959592 0.0060058544969467456 0 0.0022252134266002241 0.006257362006430147 0 0.0020486461103916892 0.0058557450712124733 0 0.0022388363511544303 0.0058898792059909645 0 0.0022154723681451676 0.0059349220338983533 0 0.0021323994494959592 0.0060058544969467456 0 0.0022154723681451676 0.0059349220338983533 0 0.0021323994494959592 0.0060058544969467456 0 0.0022022698788730353 0.0059060185701862592 0 0.0021323994494959592 0.0060058544969467456 0 0.0022022698788730353 0.0059060185701862592 0 0.0021355265212557564 0.0059629913420858405 0 0.0021256582876091499 0.0060542678784529097 0 0.0021323994494959592 0.0060058544969467456 0 0.0021355265212557564 0.0059629913420858405 0 0.0019403555611670449 0.006239759314182189 0 0.0020493590247545701 0.0060829445559267992 0 0.0018927911478933248 0.0060588893099935487 0 0.0019403555611670449 0.006239759314182189 0 0.0017586891445828098 0.006289695065074135 0 0.0018927911478933248 0.0060588893099935487 0 0.0017586891445828098 0.006289695065074135 0 0.0018927911478933248 0.0060588893099935487 0 0.0016900276103099657 0.0061099872346295197 0 0.0019403555611670449 0.006239759314182189 0 0.0017586891445828098 0.006289695065074135 0 0.0018156237304229926 0.006423416852202578 0 0.0017586891445828098 0.006289695065074135 0 0.0018156237304229926 0.006423416852202578 0 0.0016456519401980196 0.0065127993468866259 0 0.0019509157757097784 0.0063792815332872578 0 0.0019403555611670449 0.006239759314182189 0 0.0018156237304229926 0.006423416852202578 0 0.0019509157757097784 0.0063792815332872578 0 0.0019403555611670449 0.006239759314182189 0 0.0020857908537370239 0.0062214408825833215 0 0.0021330658713267087 0.0061100727805221897 0 0.0020857908537370239 0.0062214408825833215 0 0.0021164616114608516 0.0060782616610446753 0 0.0021473122281644324 0.0061736319480699305 0 0.0021330658713267087 0.0061100727805221897 0 0.0020857908537370239 0.0062214408825833215 0 0.0019403555611670449 0.006239759314182189 0 0.0020857908537370239 0.0062214408825833215 0 0.0020493590247545701 0.0060829445559267992 0 0.0021164616114608516 0.0060782616610446753 0 0.0020493590247545701 0.0060829445559267992 0 0.0021105265840034768 0.0060016067795284605 0 0.0020857908537370239 0.0062214408825833215 0 0.0021164616114608516 0.0060782616610446753 0 0.0020493590247545701 0.0060829445559267992 0 0.0020493590247545701 0.0060829445559267992 0 0.0021105265840034768 0.0060016067795284605 0 0.0020543936568726854 0.0058396607104121128 0 0.0021105265840034768 0.0060016067795284605 0 0.0021123969330746339 0.0059420942058463671 0 0.0020543936568726854 0.0058396607104121128 0 0.0021258447226195206 0.0060062683804118916 0 0.0021164616114608516 0.0060782616610446753 0 0.0021105265840034768 0.0060016067795284605 0 0.0021258447226195206 0.0060062683804118916 0 0.0021105265840034768 0.0060016067795284605 0 0.0021252695771350289 0.0059730328519254595 0 0.0021105265840034768 0.0060016067795284605 0 0.0021252695771350289 0.0059730328519254595 0 0.0021123969330746339 0.0059420942058463671 0 0.0022762533385080378 0.0058037478029850766 0 0.0022608110472906021 0.0058220806718708232 0 0.0024225249041840437 0.0056626990274605687 0 0.002444631450723273 0.0057023401994869445 0 0.0024562748190557 0.0056773381102918205 0 0.002130840705377448 0.0059486411685536521 0 0.0021252695771350289 0.0059730328519254595 0 0.0021123969330746339 0.0059420942058463671 0 0.002444631450723273 0.0057023401994869445 0 0.0024130589900707372 0.0055968546564027274 0 0.0024562748190557 0.0056773381102918205 0 0.0022608110472906021 0.0058220806718708232 0 0.0020595634229896042 0.0058392818752225264 0 0.002444631450723273 0.0057023401994869445 0 0.0022527423859734228 0.0056346003745689618 0 0.0020543936568726854 0.0058396607104121128 0 0.002444631450723273 0.0057023401994869445 0 0.0024130589900707372 0.0055968546564027274 0 0.0022527423859734228 0.0056346003745689618 0 0.0022527423859734228 0.0056346003745689618 0 0.0020543936568726854 0.0058396607104121128 0 0.0020334220691133956 0.0053736263242594902 0 0.0020543936568726854 0.0058396607104121128 0 0.0017396760785633959 0.0057527478943510879 0 0.0020334220691133956 0.0053736263242594902 0 0.0020493590247545701 0.0060829445559267992 0 0.0020543936568726854 0.0058396607104121128 0 0.0018927911478933248 0.0060588893099935487 0 0.0020543936568726854 0.0058396607104121128 0 0.0018927911478933248 0.0060588893099935487 0 0.0017396760785633959 0.0057527478943510879 0 0.0018927911478933248 0.0060588893099935487 0 0.0016900276103099657 0.0061099872346295197 0 0.0017396760785633959 0.0057527478943510879 0 0.0017396760785633959 0.0057527478943510879 0 0.0020334220691133956 0.0053736263242594902 0 0.0017134574299241254 0.0051472200711906177 0 0.0022527423859734228 0.0056346003745689618 0 0.0020334220691133956 0.0053736263242594902 0 0.0022182331096301908 0.0054279365380251361 0 0.0020334220691133956 0.0053736263242594902 0 0.0022182331096301908 0.0054279365380251361 0 0.0022356498573645627 0.0052760291975295515 0 0.0020613604186150432 0.0053612545130327129 0 0.0023828971479028863 0.0051427243054214099 0 0.0020334220691133956 0.0053736263242594902 0 0.0025429045007495216 0.0050191069980346573 0 0.0020181281606934751 0.0047811268505042097 0 0.0020334220691133956 0.0053736263242594902 0 0.0017134574299241254 0.0051472200711906177 0 0.0020181281606934751 0.0047811268505042097 0 0.0017134574299241254 0.0051472200711906177 0 0.0020181281606934751 0.0047811268505042097 0 0.0016436040131688244 0.0045605781849688302 0 0.0024130589900707372 0.0055968546564027274 0 0.0024562748190557 0.0056773381102918205 0 0.0025237359509466257 0.0054789579653586233 0 0.0024130589900707372 0.0055968546564027274 0 0.0025237359509466257 0.0054789579653586233 0 0.0023511247347741738 0.0054484621774135399 0 0.0025237359509466257 0.0054789579653586233 0 0.0023511247347741738 0.0054484621774135399 0 0.0024702259088157201 0.0053189611351197319 0 0.0024130589900707372 0.0055968546564027274 0 0.0022527423859734228 0.0056346003745689618 0 0.0023511247347741738 0.0054484621774135399 0 0.0022527423859734228 0.0056346003745689618 0 0.0023511247347741738 0.0054484621774135399 0 0.0022182331096301908 0.0054279365380251361 0 0.0023511247347741738 0.0054484621774135399 0 0.0022182331096301908 0.0054279365380251361 0 0.0022356498573645627 0.0052760291975295515 0 0.0023511247347741738 0.0054484621774135399 0 0.0022356498573645627 0.0052760291975295515 0 0.0024702259088157201 0.0053189611351197319 0 0.0023828971479028863 0.0051427243054214099 0 0.0027600048584104741 0.0049411615776994624 0 0.0026293292146863873 0.0052251061283320561 0 0.0024702259088157201 0.0053189611351197319 0 0.002439120197153069 0.0051169464166376097 0 0.0022356498573645627 0.0052760291975295515 0 0.0024702259088157201 0.0053189611351197319 0 0.002439120197153069 0.0051169464166376097 0 0.0035451037628246424 0.0042937928674418252 0 0.0030493598848619066 0.0046544270053095905 0 0.0030685130578326169 0.0043535660690145759 0 0.0030493598848619066 0.0046544270053095905 0 0.0030685130578326169 0.0043535660690145759 0 0.0027696910327120756 0.0044144850496118217 0 0.0025429045007495216 0.0050191069980346573 0 0.0027696910327120756 0.0044144850496118217 0 0.0023716870088714677 0.0043895093678420604 0 0.0025429045007495216 0.0050191069980346573 0 0.0030493598848619066 0.0046544270053095905 0 0.0027696910327120756 0.0044144850496118217 0 0.0024655456126030078 0.0036357824330500756 0 0.0021597679113516803 0.0037099307673326772 0 0.0027696910327120756 0.0044144850496118217 0 0.002903320476681404 0.0040517351284116076 0 0.0023716870088714677 0.0043895093678420604 0 0.002903320476681404 0.0040517351284116076 0 0.0023716870088714677 0.0043895093678420604 0 0.0021699014885427151 0.0037613867188353339 0 0.0022076657604870164 0.0031688171032560075 0 0.0020104043670900454 0.0032081187127842511 0 0.0020036008621610148 0.0031393582141442384 0 0.0027133832125142612 0.0038863010507978169 0 0.0024655456126030078 0.0036357824330500756 0 0.0035451037628246424 0.0042937928674418252 0 0.0030685130578326169 0.0043535660690145759 0 0.002903320476681404 0.0040517351284116076 0 0.0030685130578326169 0.0043535660690145759 0 0.0027696910327120756 0.0044144850496118217 0 0.002903320476681404 0.0040517351284116076 0 0.0020104043670900454 0.0032081187127842511 0 0.0020036008621610148 0.0031393582141442384 0 0.0021148373623071774 0.0034781732995764181 0 0.0020181281606934751 0.0047811268505042097 0 0.0018896115406831419 0.0041818480277375251 0 0.0016436040131688244 0.0045605781849688302 0 0.0020181281606934751 0.0047811268505042097 0 0.0023716870088714677 0.0043895093678420604 0 0.0018896115406831419 0.0041818480277375251 0 0.0025429045007495216 0.0050191069980346573 0 0.0020181281606934751 0.0047811268505042097 0 0.0023716870088714677 0.0043895093678420604 0 0.0023716870088714677 0.0043895093678420604 0 0.0018896115406831419 0.0041818480277375251 0 0.0021699014885427151 0.0037613867188353339 0 0.0018896115406831419 0.0041818480277375251 0 0.0015956168891542129 0.0040022856218437566 0 0.0016436040131688244 0.0045605781849688302 0 0.0018896115406831419 0.0041818480277375251 0 0.0018730465573899874 0.003655548941437881 0 0.0015956168891542129 0.0040022856218437566 0 0.0018896115406831419 0.0041818480277375251 0 0.0018730465573899874 0.003655548941437881 0 0.0021699014885427151 0.0037613867188353339 0 0.0018730465573899874 0.003655548941437881 0 0.0021699014885427151 0.0037613867188353339 0 0.0021253965583157195 0.0035444047793401056 0 0.0018730465573899874 0.003655548941437881 0 0.0019757280908239989 0.0033781568458924969 0 0.0021253965583157195 0.0035444047793401056 0 0.0018730465573899874 0.003655548941437881 0 0.0016526051790188719 0.0033989505064132772 0 0.0019757280908239989 0.0033781568458924969 0 0.0018730465573899874 0.003655548941437881 0 0.0016526051790188719 0.0033989505064132772 0 0.0014458618382823928 0.0037056730205299046 0 0.0016526051790188719 0.0033989505064132772 0 0.0018407422978508454 0.0031829335122411117 0 0.0019757280908239989 0.0033781568458924969 0 0.0016526051790188719 0.0033989505064132772 0 0.0018407422978508454 0.0031829335122411117 0 0.0016086677208782475 0.0030923083174830422 0 0.0019757280908239989 0.0033781568458924969 0 0.0020103922412843317 0.0031926748479451641 0 0.002213727593720417 0.0033049139731132922 0 0.0018407422978508454 0.0031829335122411117 0 0.0019757280908239989 0.0033781568458924969 0 0.0020103922412843317 0.0031926748479451641 0 0.001929495484560572 0.0030187641014988984 0 0.0018386990454455478 0.0028500073425535037 0 0.0021375977115897617 0.0028797814117832812 0 0.0018407422978508454 0.0031829335122411117 0 0.0020103922412843317 0.0031926748479451641 0 0.001929495484560572 0.0030187641014988984 0 0.0020103922412843317 0.0031926748479451641 0 0.001929495484560572 0.0030187641014988984 0 0.0020882860560852063 0.0030727937583498533 0 0.0019299745687954329 0.0028452884371098007 0 0.0007025051937951135 0.0004074813088887148 0 0.001929495484560572 0.0030187641014988984 0 0.0020882860560852063 0.0030727937583498533 0 0.0021442177167279594 0.0029099652932536514 0 0.001929495484560572 0.0030187641014988984 0 0.0017525938413786705 0.0029859834059596402 0 0.0018386990454455478 0.0028500073425535037 0 0.0017525938413786705 0.0029859834059596402 0 0.0016086677208782475 0.0030923083174830422 0 0.0015363375414602406 0.0027839589944176481 0 0.0018407422978508454 0.0031829335122411117 0 0.0017525938413786705 0.0029859834059596402 0 0.0016086677208782475 0.0030923083174830422 0 0.0018407422978508454 0.0031829335122411117 0 0.001929495484560572 0.0030187641014988984 0 0.0017525938413786705 0.0029859834059596402 0 0.0015275868379926762 0.00056266946750996164 0 0.0007025051937951135 0.0004074813088887148 0 0.0020148612084859067 0.0014224744877066819 0 0.0015652633609065699 0.0018351362870329083 0 0.0013903598154213056 0.0012937594087480118 0 0.0020882860560852063 0.0030727937583498533 0 0.002213727593720417 0.0033049139731132922 0 0.0021442177167279594 0.0029099652932536514 0 0.0020485070425049503 0.002946743228024093 0 0.0007025051937951135 0.0004074813088887148 0 0.0020103922412843317 0.0031926748479451641 0 0.0020882860560852063 0.0030727937583498533 0 0.002213727593720417 0.0033049139731132922 0 0.0020148612084859067 0.0014224744877066819 0 0.0015652633609065699 0.0018351362870329083 0 0.002048765047933557 0.0018258447891944551 0 0.0015652633609065699 0.0018351362870329083 0 0.0020093270106455903 0.0021631505917413113 0 0.002048765047933557 0.0018258447891944551 0 0.0020093270106455903 0.0021631505917413113 0 0.0017063865751060104 0.0023622747603536357 0 0.0020953039522475106 0.0026319258629282712 0 0.0015652633609065699 0.0018351362870329083 0 0.0020093270106455903 0.0021631505917413113 0 0.0017063865751060104 0.0023622747603536357 0 0.0019757280908239989 0.0033781568458924969 0 0.002213727593720417 0.0033049139731132922 0 0.0021253965583157195 0.0035444047793401056 0 0.0020485070425049503 0.002946743228024093 0 0.0018975867968483871 0.0028535347562324816 0 0.002213727593720417 0.0033049139731132922 0 0.0021290615527460584 0.0035382681240135323 0 0.0021253965583157195 0.0035444047793401056 0 0.0020104043670900454 0.0032081187127842511 0 0.0021699014885427151 0.0037613867188353339 0 0.0021148373623071774 0.0034781732995764181 0 0.0021290615527460584 0.0035382681240135323 0 0.0021253965583157195 0.0035444047793401056 0 0.0021148373623071774 0.0034781732995764181 0 0.0021699014885427151 0.0037613867188353339 0 0.0021253965583157195 0.0035444047793401056 0 0.0021148373623071774 0.0034781732995764181 0 0.0020031376163170246 0.0031623412966378652 0 0.0018975867968483871 0.0028535347562324816 0 0.0020036008621610148 0.0031393582141442384 0 0.0017063865751060104 0.0023622747603536357 0 0.0020953039522475106 0.0026319258629282712 0 0.0020036008621610148 0.0031393582141442384 0 0.0021290615527460584 0.0035382681240135323 0 0.0021148373623071774 0.0034781732995764181 0 0.0021722002948339797 0.0030042314738551964 0 0.0020036008621610148 0.0031393582141442384 0 0.0020953039522475106 0.0026319258629282712 0 0.0021722002948339797 0.0030042314738551964 0 0.0020953039522475106 0.0026319258629282712 0 0.0022847473332505042 0.00274333011531436 0 0.0024203909055315245 0.0029154850304467855 0 0.0022847473332505042 0.00274333011531436 0 0.0025081439974747851 0.0023670659883176562 0 0.0020953039522475106 0.0026319258629282712 0 0.0022847473332505042 0.00274333011531436 0 0.0022548646842925147 0.0023924275904587933 0 0.0022847473332505042 0.00274333011531436 0 0.0025081439974747851 0.0023670659883176562 0 0.0022548646842925147 0.0023924275904587933 0 0.0024203909055315245 0.0029154850304467855 0 0.0025081439974747851 0.0023670659883176562 0 0.0027729582127895328 0.0024603136877063142 0 0.0025081439974747851 0.0023670659883176562 0 0.0027820962920226499 0.0020992069899665273 0 0.0026131296980632648 0.0019599349600894528 0 0.0025081439974747851 0.0023670659883176562 0 0.0023245570944504905 0.0020672869690710961 0 0.0026131296980632648 0.0019599349600894528 0 0.0020093270106455903 0.0021631505917413113 0 0.0020953039522475106 0.0026319258629282712 0 0.0022548646842925147 0.0023924275904587933 0 0.0020093270106455903 0.0021631505917413113 0 0.0023245570944504905 0.0020672869690710961 0 0.0022548646842925147 0.0023924275904587933 0 0.0025081439974747851 0.0023670659883176562 0 0.0023245570944504905 0.0020672869690710961 0 0.0022548646842925147 0.0023924275904587933 0 0.0027035898323256144 0.0014979331125752724 0 0.0029407079654932512 0.0013330907574425951 0 0.0028175803011054796 0.0018636874707598837 0 0.0027035898323256144 0.0014979331125752724 0 0.0028175803011054796 0.0018636874707598837 0 0.0025381055574001149 0.0017680475405852289 0 0.0027188238179443247 0.0012183860699333559 0 0.0027035898323256144 0.0014979331125752724 0 0.0029407079654932512 0.0013330907574425951 0 0.0027729582127895328 0.0024603136877063142 0 0.0027820962920226499 0.0020992069899665273 0 0.0028175803011054796 0.0018636874707598837 0 0.0029407079654932512 0.0013330907574425951 0 0.0032737944144925622 0.0014442037357439617 0 0.0028175803011054796 0.0018636874707598837 0 0.0030536106452565513 0.0018867974699975692 0 0.0027971943149535084 0.0019359678096800539 0 0.0025081439974747851 0.0023670659883176562 0 0.0027729582127895328 0.0024603136877063142 0 0.0027820962920226499 0.0020992069899665273 0 0.0027820962920226499 0.0020992069899665273 0 0.0028880223883599159 0.0019898635274111769 0 0.0026131296980632648 0.0019599349600894528 0 0.0027820962920226499 0.0020992069899665273 0 0.0028175803011054796 0.0018636874707598837 0 0.0028880223883599159 0.0019898635274111769 0 0.0028175803011054796 0.0018636874707598837 0 0.0028880223883599159 0.0019898635274111769 0 0.0025381055574001149 0.0017680475405852289 0 0.0011281060789370683 -0.00026686179117591836 0 0.0015752624874082379 0.00016537226748156828 0 0.0015229026391690198 -0.00024269232087813789 0 0.0021402112264981331 0.0010243328333532432 0 0.0020429873817372005 0.00091755051332150829 0 0.0011281060789370683 -0.00026686179117591836 0 0.0012152652682666752 -0.00057584861494090018 0 0.0015229026391690198 -0.00024269232087813789 0 0.0011281060789370683 -0.00026686179117591836 0 0.0012152652682666752 -0.00057584861494090018 0 0.00069054115198459887 -0.00065472443451452633 0 0.0028880223883599159 0.0019898635274111769 0 0.0026131296980632648 0.0019599349600894528 0 0.0025686367824698801 0.0015657041566475847 0 0.0021402112264981331 0.0010243328333532432 0 0.0010609923260767784 -0.00037359747762547675 0 3.3016876843009317e-05 -0.0024210640853406496 0 -0.00025762118706272439 -0.0022905305620492047 0 -0.00014462986959062676 -0.0025561226849112289 0 0.00048650115768316923 -0.0015426859154018505 0 0.0010609923260767784 -0.00037359747762547675 0 3.3016876843009317e-05 -0.0024210640853406496 0 0.00015928339788755805 -0.002218394362435486 0 -0.00025762118706272439 -0.0022905305620492047 0 3.3016876843009317e-05 -0.0024210640853406496 0 0.00015928339788755805 -0.002218394362435486 0 0.00030763336088997668 -0.002408460300102281 0 0.0020093270106455903 0.0021631505917413113 0 0.0023245570944504905 0.0020672869690710961 0 0.002048765047933557 0.0018258447891944551 0 0.0023245570944504905 0.0020672869690710961 0 0.0023219192827681708 0.0017677382730156006 0 0.002048765047933557 0.0018258447891944551 0 0.0023245570944504905 0.0020672869690710961 0 0.0023219192827681708 0.0017677382730156006 0 0.0026131296980632648 0.0019599349600894528 0 0.0023219192827681708 0.0017677382730156006 0 0.0026131296980632648 0.0019599349600894528 0 0.0025686367824698801 0.0015657041566475847 0 -0.00025762118706272439 -0.0022905305620492047 0 -0.00048338440796617463 -0.0024845566964939521 0 -0.00014462986959062676 -0.0025561226849112289 0 0.0010609923260767784 -0.00037359747762547675 0 8.8575339634655982e-05 -0.0016152867260045536 0 0.0020148612084859067 0.0014224744877066819 0 0.0023219192827681708 0.0017677382730156006 0 0.0025686367824698801 0.0015657041566475847 0 0.00066204928295467754 -0.00053417501919850933 0 0.00096107643907261653 -0.00048506160959713737 0 0.0008094191900890758 -0.00061797662369274492 0 0.0020148612084859067 0.0014224744877066819 0 0.0023219192827681708 0.0017677382730156006 0 0.002048765047933557 0.0018258447891944551 0 0.0015275868379926762 0.00056266946750996164 0 0.0010609923260767784 -0.00037359747762547675 0 8.8575339634655982e-05 -0.0016152867260045536 0 -0.00027826909094637293 -0.0023425264636464235 0 -0.00048338440796617463 -0.0024845566964939521 0 -0.00046547577194489101 -0.0028109938721911682 0 -0.00070869830656632767 -0.0026798094324214715 0 0.00066204928295467754 -0.00053417501919850933 0 0.0008094191900890758 -0.00061797662369274492 0 0.00065740135259772343 -0.00074876755163638751 0 -0.00048338440796617463 -0.0024845566964939521 0 -0.00026943201615912228 -0.0027397804202730514 0 -0.00014462986959062676 -0.0025561226849112289 0 -0.00048338440796617463 -0.0024845566964939521 0 -0.00026943201615912228 -0.0027397804202730514 0 -0.00046547577194489101 -0.0028109938721911682 0 -0.00026943201615912228 -0.0027397804202730514 0 -0.00021187214358275042 -0.0029581470686526794 0 -0.00046547577194489101 -0.0028109938721911682 0 -0.00023256621644622127 -0.0029456054153441675 0 -0.000481589182775221 -0.0028015129273385236 0 -0.00021187214358275042 -0.0029581470686526794 0 -0.00045945400012235214 -0.0028461499219138461 0 -0.00044535053039862987 -0.0030711291678873058 0 -0.00065332907612976527 -0.0029001351924999811 0 -0.00045945400012235214 -0.0028461499219138461 0 -0.00044535053039862987 -0.0030711291678873058 0 -0.00065332907612976527 -0.0029001351924999811 0 -0.00068954248000320116 -0.0031297448106148425 0 -0.00044535053039862987 -0.0030711291678873058 0 -0.000481589182775221 -0.0028015129273385236 0 -0.00027826909094637293 -0.0023425264636464235 0 -0.00065332907612976527 -0.0029001351924999811 0 -0.00045945400012235214 -0.0028461499219138461 0 -0.00070019754410340616 -0.002706031643483642 0 3.3016876843009317e-05 -0.0024210640853406496 0 0.00030763336088997668 -0.002408460300102281 0 0.00015666931927465285 -0.0026268288071043884 0 0.00015666931927465285 -0.0026268288071043884 0 0.00027315363805377598 -0.0027942861358383158 0 0.00039943451167939758 -0.0026290252123139794 0 0.00030763336088997668 -0.002408460300102281 0 0.00015666931927465285 -0.0026268288071043884 0 0.00039943451167939758 -0.0026290252123139794 0 0.00015666931927465285 -0.0026268288071043884 0 -0.00014462986959062676 -0.0025561226849112289 0 1.4667845655051459e-05 -0.002825766744011879 0 3.3016876843009317e-05 -0.0024210640853406496 0 0.00015666931927465285 -0.0026268288071043884 0 -0.00014462986959062676 -0.0025561226849112289 0 -0.00026943201615912228 -0.0027397804202730514 0 -0.00014462986959062676 -0.0025561226849112289 0 1.4667845655051459e-05 -0.002825766744011879 0 -7.2801141226289247e-06 -0.0030059546170110598 0 1.4667845655051459e-05 -0.002825766744011879 0 0.00026272672747020156 -0.0030396287181628364 0 -0.00026943201615912228 -0.0027397804202730514 0 -0.00021187214358275042 -0.0029581470686526794 0 1.4667845655051459e-05 -0.002825766744011879 0 -0.00021187214358275042 -0.0029581470686526794 0 -7.2801141226289247e-06 -0.0030059546170110598 0 1.4667845655051459e-05 -0.002825766744011879 0 1.4667845655051459e-05 -0.002825766744011879 0 0.00027315363805377598 -0.0027942861358383158 0 0.00026272672747020156 -0.0030396287181628364 0 0.00015666931927465285 -0.0026268288071043884 0 1.4667845655051459e-05 -0.002825766744011879 0 0.00027315363805377598 -0.0027942861358383158 0 -0.00010800726447776472 -0.003512163031786072 0 -0.00019692097741343714 -0.0037410670897505766 0 -4.7316952136095165e-05 -0.0036603094601284241 0 -0.00010800726447776472 -0.003512163031786072 0 -0.00032245665247459566 -0.0035285656416003054 0 -0.00019692097741343714 -0.0037410670897505766 0 -7.2801141226289247e-06 -0.0030059546170110598 0 0.00026272672747020156 -0.0030396287181628364 0 -0.00010583964097268861 -0.003196542333854328 0 7.8998810880295383e-05 -0.0032769184248656602 0 -0.00023048799641561457 -0.0033626292134853702 0 -0.00021187214358275042 -0.0029581470686526794 0 -7.2801141226289247e-06 -0.0030059546170110598 0 -0.00010583964097268861 -0.003196542333854328 0 -0.00032245665247459566 -0.0035285656416003054 0 -0.00019692097741343714 -0.0037410670897505766 0 -0.00038287771001139305 -0.0037121244910605523 0 -0.00019692097741343714 -0.0037410670897505766 0 -4.7316952136095165e-05 -0.0036603094601284241 0 6.1957912135804736e-06 -0.0038055063110704326 0 -0.00019692097741343714 -0.0037410670897505766 0 6.1957912135804736e-06 -0.0038055063110704326 0 -7.5918447488512906e-05 -0.0039387259422168728 0 -0.00068954248000320116 -0.0031297448106148425 0 -0.00055064600587425216 -0.0034254627857750082 0 -0.0007715617679465226 -0.0033946827547459658 0 -0.00068954248000320116 -0.0031297448106148425 0 -0.00044535053039862987 -0.0030711291678873058 0 -0.00055064600587425216 -0.0034254627857750082 0 -0.00023048799641561457 -0.0033626292134853702 0 -0.00054119365947931429 -0.0034301634233233273 0 -0.00010583964097268861 -0.003196542333854328 0 -0.00044535053039862987 -0.0030711291678873058 0 -0.00055064600587425216 -0.0034254627857750082 0 -0.00021187214358275042 -0.0029581470686526794 0 -0.00010583964097268861 -0.003196542333854328 0 -0.00044535053039862987 -0.0030711291678873058 0 -0.00032245665247459566 -0.0035285656416003054 0 -0.00038287771001139305 -0.0037121244910605523 0 -0.00055064600587425216 -0.0034254627857750082 0 -0.00038287771001139305 -0.0037121244910605523 0 -0.00055064600587425216 -0.0034254627857750082 0 -0.00063676574142776854 -0.0036653934317549203 0 -0.00055064600587425216 -0.0034254627857750082 0 -0.0007715617679465226 -0.0033946827547459658 0 -0.00063676574142776854 -0.0036653934317549203 0 -0.00090850911081577469 -0.003592104303630939 0 -0.0007715617679465226 -0.0033946827547459658 0 -0.00063676574142776854 -0.0036653934317549203 0 -0.00090850911081577469 -0.003592104303630939 0 -0.00095509007993379821 -0.0033632086479636731 0 -0.0007715617679465226 -0.0033946827547459658 0 -0.00068954248000320116 -0.0031297448106148425 0 -0.0007715617679465226 -0.0033946827547459658 0 -0.00088327804165672747 -0.0031348646593727554 0 -0.00095509007993379821 -0.0033632086479636731 0 -0.0007715617679465226 -0.0033946827547459658 0 -0.00088327804165672747 -0.0031348646593727554 0 -0.00068954248000320116 -0.0031297448106148425 0 -0.00088327804165672747 -0.0031348646593727554 0 -0.0008094837436676323 -0.0029441352115160612 0 -0.00107514945769681 -0.0031565481703978385 0 -0.00115068247869927 -0.0033959395527987934 0 -0.0012474020289235091 -0.0030181337074670508 0 -0.00090174309158850532 -0.0030406864589725851 0 -0.0011369045080854405 -0.0019570914062160358 0 -0.00107514945769681 -0.0031565481703978385 0 -0.0012862165588321225 -0.0029846462721015831 0 -0.0010896470207381929 -0.0029246491912617353 0 -0.00088327804165672747 -0.0031348646593727554 0 -0.00107514945769681 -0.0031565481703978385 0 -0.00095948650283544511 -0.0029378871308733279 0 -0.00095509007993379821 -0.0033632086479636731 0 -0.00107514945769681 -0.0031565481703978385 0 -0.00115068247869927 -0.0033959395527987934 0 -0.00095509007993379821 -0.0033632086479636731 0 -0.00088327804165672747 -0.0031348646593727554 0 -0.00107514945769681 -0.0031565481703978385 0 -0.00090850911081577469 -0.003592104303630939 0 -0.00115068247869927 -0.0033959395527987934 0 -0.0012337412778293184 -0.0037803725239982894 0 -0.00090850911081577469 -0.003592104303630939 0 -0.00095509007993379821 -0.0033632086479636731 0 -0.00115068247869927 -0.0033959395527987934 0 -0.00115068247869927 -0.0033959395527987934 0 -0.001475561420396083 -0.0034541358839510479 0 -0.0012337412778293184 -0.0037803725239982894 0 0.0020322472650796783 0.0036214940131929526 0 0.0018351218356454659 0.0032493283033065571 0 0.0016113004024700924 0.0036202713565119502 0 0.0020322472650796783 0.0036214940131929526 0 0.00172942243665301 0.004008003486958788 0 0.0016113004024700924 0.0036202713565119502 0 0.00061759658976772715 0.00060729975151320697 0 0.00087316591170741699 0.0026341287362722258 0 0.00024221912550986789 0.00075221489665738459 0 0.0001657623591884545 0.00085339849298397949 0 0.0002329493992108727 0.00089214704026409841 0 0.0001657623591884545 0.00085339849298397949 0 0.0002329493992108727 0.00089214704026409841 0 8.8084120385500592e-05 0.00096684840939123551 0 0.00024221912550986789 0.00075221489665738459 0 0.0002329493992108727 0.00089214704026409841 0 0.00032023139240894673 0.00089533194866469527 0 -0.00115068247869927 -0.0033959395527987934 0 -0.001475561420396083 -0.0034541358839510479 0 -0.0012474020289235091 -0.0030181337074670508 0 0.00061759658976772715 0.00060729975151320697 0 -0.0011369045080854405 -0.0019570914062160358 0 -0.0011369045080854405 -0.0019570914062160358 0 -0.00051557921640585662 -0.00089938146504936521 0 0.0002329493992108727 0.00089214704026409841 0 0.00032023139240894673 0.00089533194866469527 0 0.00023132603816493103 0.00098918280318458667 0 -0.0011784957423632164 -0.0028015241905479031 0 -0.0012008402118251571 -0.0027102170688502892 0 -0.0012958473828690649 -0.0026732029951905428 0 -0.0012008402118251571 -0.0027102170688502892 0 -0.0012958473828690649 -0.0026732029951905428 0 -0.0012266991488163802 -0.0026414420992008814 0 -0.0012008402118251571 -0.0027102170688502892 0 -0.0011531309744677951 -0.0026503275872929604 0 -0.0011448289083945734 -0.0027614908248430577 0 -0.0011784957423632164 -0.0028015241905479031 0 -0.0012008402118251571 -0.0027102170688502892 0 -0.0011448289083945734 -0.0027614908248430577 0 0.00023132603816493103 0.00098918280318458667 0 0.00013252640273437083 0.0010900176186737023 0 8.8084120385500592e-05 0.00096684840939123551 0 0.0002329493992108727 0.00089214704026409841 0 0.00023132603816493103 0.00098918280318458667 0 8.8084120385500592e-05 0.00096684840939123551 0 0.0017525938413786705 0.0029859834059596402 0 0.0018386990454455478 0.0028500073425535037 0 0.0015363375414602406 0.0027839589944176481 0 0.00016983003030383322 0.0001139115976050407 0 0.00030703755335294037 0.0010072101379625293 0 -0.00051557921640585662 -0.00089938146504936521 0 0.00030703755335294037 0.0010072101379625293 0 -0.0012958473828690649 -0.0026732029951905428 0 -0.0012739800628610925 -0.0025469054315322456 0 -0.0013960894730710579 -0.0025421474603890496 0 0.00016983003030383322 0.0001139115976050407 0 0.0007025051937951135 0.0004074813088887148 0 -0.0012739800628610925 -0.0025469054315322456 0 -0.0011918084859500043 -0.0025892417206560066 0 -0.0010973869226428752 -0.0025093916417128367 0 -0.0012008402118251571 -0.0027102170688502892 0 -0.0012266991488163802 -0.0026414420992008814 0 -0.0011531309744677951 -0.0026503275872929604 0 -0.0012266991488163802 -0.0026414420992008814 0 -0.0011918084859500043 -0.0025892417206560066 0 -0.0011531309744677951 -0.0026503275872929604 0 -0.0012958473828690649 -0.0026732029951905428 0 -0.0012266991488163802 -0.0026414420992008814 0 -0.0012739800628610925 -0.0025469054315322456 0 -0.0012266991488163802 -0.0026414420992008814 0 -0.0012739800628610925 -0.0025469054315322456 0 -0.0011918084859500043 -0.0025892417206560066 0 0.0007025051937951135 0.0004074813088887148 0 -0.0011841609902381765 -0.0033695172742292398 0 -0.0011918084859500043 -0.0025892417206560066 0 -0.0010973869226428752 -0.0025093916417128367 0 -0.0011531309744677951 -0.0026503275872929604 0 -0.0010713649776673004 -0.0026712626746598104 0 -0.0011531309744677951 -0.0026503275872929604 0 -0.0011448289083945734 -0.0027614908248430577 0 -0.0011077040183208851 -0.0024541955446725507 0 -0.0010713649776673004 -0.0026712626746598104 0 -0.0011531309744677951 -0.0026503275872929604 0 -0.0011077040183208851 -0.0024541955446725507 0 -0.0010713649776673004 -0.0026712626746598104 0 -0.00092810609915893491 -0.002688951360170271 0 -0.0011077040183208851 -0.0024541955446725507 0 -0.00069939876701869568 -0.0026952169295468382 0 -0.00092810609915893491 -0.002688951360170271 0 0.00066204928295467754 -0.00053417501919850933 0 0.00036591135730473573 -0.0005821415075084632 0 0.00065740135259772343 -0.00074876755163638751 0 0.0007025051937951135 0.0004074813088887148 0 -0.00027826909094637293 -0.0023425264636464235 0 -0.00069939876701869568 -0.0026952169295468382 0 -0.00092810609915893491 -0.002688951360170271 0 -0.00076910148265252462 -0.0027622329251826981 0 -0.00027826909094637293 -0.0023425264636464235 0 -0.00059524199205767488 -0.0026144176953605117 0 -0.00089903760476408917 -0.0028111711190378585 0 -0.00076910148265252462 -0.0027622329251826981 0 -0.0008094837436676323 -0.0029441352115160612 0 -0.00092810609915893491 -0.002688951360170271 0 -0.00089903760476408917 -0.0028111711190378585 0 -0.00076910148265252462 -0.0027622329251826981 0 -0.00092810609915893491 -0.002688951360170271 0 -0.00089903760476408917 -0.0028111711190378585 0 -0.0010131429166794883 -0.0027934902423100839 0 -0.00065332907612976527 -0.0029001351924999811 0 -0.00076910148265252462 -0.0027622329251826981 0 -0.0008094837436676323 -0.0029441352115160612 0 -0.00065332907612976527 -0.0029001351924999811 0 -0.00070019754410340616 -0.002706031643483642 0 -0.00076910148265252462 -0.0027622329251826981 0 -0.00065332907612976527 -0.0029001351924999811 0 -0.00068954248000320116 -0.0031297448106148425 0 -0.0008094837436676323 -0.0029441352115160612 0 -0.00088327804165672747 -0.0031348646593727554 0 -0.0008094837436676323 -0.0029441352115160612 0 -0.00095948650283544511 -0.0029378871308733279 0 -0.00089903760476408917 -0.0028111711190378585 0 -0.0008094837436676323 -0.0029441352115160612 0 -0.00095948650283544511 -0.0029378871308733279 0 -0.00107514945769681 -0.0031565481703978385 0 -0.00095948650283544511 -0.0029378871308733279 0 -0.0010896470207381929 -0.0029246491912617353 0 -0.00095948650283544511 -0.0029378871308733279 0 -0.0010896470207381929 -0.0029246491912617353 0 -0.0010131429166794883 -0.0027934902423100839 0 -0.0011369045080854405 -0.0019570914062160358 0 -0.0013362803208724211 -0.0028432038676477179 0 -0.0012862165588321225 -0.0029846462721015831 0 -0.0010896470207381929 -0.0029246491912617353 0 -0.0011448289083945734 -0.0027614908248430577 0 -0.0010713649776673004 -0.0026712626746598104 0 -0.0011448289083945734 -0.0027614908248430577 0 -0.0010131429166794883 -0.0027934902423100839 0 -0.0010896470207381929 -0.0029246491912617353 0 -0.0011448289083945734 -0.0027614908248430577 0 -0.0010131429166794883 -0.0027934902423100839 0 -0.0010713649776673004 -0.0026712626746598104 0 -0.00092810609915893491 -0.002688951360170271 0 -0.0010131429166794883 -0.0027934902423100839 0 -0.00089903760476408917 -0.0028111711190378585 0 -0.00095948650283544511 -0.0029378871308733279 0 -0.0010131429166794883 -0.0027934902423100839 0 0.002934103894204408 -0.0031191229434301558 0 0.0029314717236433082 -0.0030627606835321891 0 0.0028732935297422981 -0.0031521278629569401 0 0.0032924830381992217 -0.0020465366890025701 0 0.002979215903319113 -0.0029158696871900273 0 0.0029737751702021099 -0.0031514870166761961 0 0.002934103894204408 -0.0031191229434301558 0 0.0028732935297422981 -0.0031521278629569401 0 0.0029636004072298751 -0.0030868151828845353 0 0.002934103894204408 -0.0031191229434301558 0 0.0029314717236433082 -0.0030627606835321891 0 0.0029636004072298751 -0.0030868151828845353 0 0.002934103894204408 -0.0031191229434301558 0 0.0029677213963228929 -0.0031177178327055806 0 0.0029737751702021099 -0.0031514870166761961 0 0.002934103894204408 -0.0031191229434301558 0 0.0029677213963228929 -0.0031177178327055806 0 0.0026341861434137689 -0.0020697902400950837 0 0.0035049042768112307 -0.0016658333248113113 0 0.0031377075374046364 -0.0025411797461315127 0 0.0026341861434137689 -0.0020697902400950837 0 0.0023075808864756408 -0.0026177913529858618 0 0.0031377075374046364 -0.0025411797461315127 0 0.0026341861434137689 -0.0020697902400950837 0 0.0035049042768112307 -0.0016658333248113113 0 0.0025382443102221811 -0.0012477124874372546 0 0.0035049042768112307 -0.0016658333248113113 0 0.0037015759873718413 -0.00076713740388383825 0 0.0025382443102221811 -0.0012477124874372546 0 0.0032924830381992217 -0.0020465366890025701 0 0.0032684735336251979 -0.0033687230429321302 0 0.0029845047700699438 -0.003048601408025571 0 0.0029314717236433082 -0.0030627606835321891 0 0.0029640864326010113 -0.0029950533804495335 0 0.0035049042768112307 -0.0016658333248113113 0 0.0037015759873718413 -0.00076713740388383825 0 0.003870739246680605 -0.00054327994944910205 0 0.0029845047700699438 -0.003048601408025571 0 0.0029636004072298751 -0.0030868151828845353 0 0.0029314717236433082 -0.0030627606835321891 0 0.0037015759873718413 -0.00076713740388383825 0 0.003870739246680605 -0.00054327994944910205 0 0.0034960668077447287 -0.00038192437290604498 0 0.003870739246680605 -0.00054327994944910205 0 0.0034960668077447287 -0.00038192437290604498 0 0.0036368479224397204 -0.00010333260089625018 0 0.0032684735336251979 -0.0033687230429321302 0 0.0034790520735565713 -0.0028671218052613227 0 0.0029962349493717249 -0.0057960740604349158 0 0.0031878498494656809 -0.005163180842276841 0 0.0033851116278263579 -0.0057076763395008607 0 0.0034960668077447287 -0.00038192437290604498 0 0.0036368479224397204 -0.00010333260089625018 0 0.0032732911515436077 -2.7044466956486682e-05 0 0.0029630680245257561 -0.0031421854829867218 0 0.0034790520735565713 -0.0028671218052613227 0 0.0035571260552318975 -0.0061788091391012639 0 0.0033851116278263579 -0.0057076763395008607 0 0.0031828881378115235 -0.0059811837712154155 0 0.0029962349493717249 -0.0057960740604349158 0 0.0033851116278263579 -0.0057076763395008607 0 0.0031828881378115235 -0.0059811837712154155 0 0.003477907202703549 0.00021493208453506475 0 0.0036368479224397204 -0.00010333260089625018 0 0.0032732911515436077 -2.7044466956486682e-05 0 0.0034960668077447287 -0.00038192437290604498 0 0.0032732911515436077 -2.7044466956486682e-05 0 0.0031978924983073766 -0.00025432588901635149 0 0.0037015759873718413 -0.00076713740388383825 0 0.0034960668077447287 -0.00038192437290604498 0 0.0031045008689524101 -0.00048136920667079202 0 0.0034960668077447287 -0.00038192437290604498 0 0.0031978924983073766 -0.00025432588901635149 0 0.0031045008689524101 -0.00048136920667079202 0 0.0036811442525573864 -0.00076062260742700905 0 0.0028661848102915569 -0.00086430649678555531 0 0.0029522000664320295 -0.00011584544466825025 0 0.0027573666135768159 -0.00036057511684656516 0 0.0031045008689524101 -0.00048136920667079202 0 0.0031978924983073766 -0.00025432588901635149 0 0.0029522000664320295 -0.00011584544466825025 0 0.0031045008689524101 -0.00048136920667079202 0 0.0032732911515436077 -2.7044466956486682e-05 0 0.0031978924983073766 -0.00025432588901635149 0 0.0029522000664320295 -0.00011584544466825025 0 0.0027534295616388127 0.00019842872596755753 0 0.0030755885797012382 0.00019901998876801298 0 0.0029522000664320295 -0.00011584544466825025 0 0.0030755885797012382 0.00019901998876801298 0 0.0032732911515436077 -2.7044466956486682e-05 0 0.0029522000664320295 -0.00011584544466825025 0 0.0027534295616388127 0.00019842872596755753 0 0.0029522000664320295 -0.00011584544466825025 0 0.0026447674578189764 1.1234061116015821e-05 0 0.0029522000664320295 -0.00011584544466825025 0 0.0027573666135768159 -0.00036057511684656516 0 0.0026447674578189764 1.1234061116015821e-05 0 0.0017046171741615201 -0.0016102292069071888 0 0.0025382443102221811 -0.0012477124874372546 0 0.0018955561686269413 -0.0022065812970646758 0 0.0022449729520009772 -0.00098613796822763153 0 0.0028661848102915569 -0.00086430649678555531 0 0.0026341861434137689 -0.0020697902400950837 0 0.0025382443102221811 -0.0012477124874372546 0 0.0018955561686269413 -0.0022065812970646758 0 0.0026341861434137689 -0.0020697902400950837 0 0.0018955561686269413 -0.0022065812970646758 0 0.0023075808864756408 -0.0026177913529858618 0 0.0017046171741615201 -0.0016102292069071888 0 0.0018955561686269413 -0.0022065812970646758 0 0.0012475629908726168 -0.0024042466063143573 0 0.0012475629908726168 -0.0024042466063143573 0 0.0010631137029084583 -0.0018834791521674201 0 0.00081193209305215161 -0.0023390542862367623 0 0.0022449729520009772 -0.00098613796822763153 0 0.0017194306862374107 -0.0011411413762026233 0 0.0017046171741615201 -0.0016102292069071888 0 0.0012475629908726168 -0.0024042466063143573 0 0.0010631137029084583 -0.0018834791521674201 0 0.0027573666135768159 -0.00036057511684656516 0 0.0023852007451507663 -0.00039344414742312835 0 0.002534048439909428 -0.00012030705034008506 0 0.002534048439909428 -0.00012030705034008506 0 0.0026447674578189764 1.1234061116015821e-05 0 0.0024450810830867523 0.00024384421396021866 0 0.0027573666135768159 -0.00036057511684656516 0 0.002534048439909428 -0.00012030705034008506 0 0.0026447674578189764 1.1234061116015821e-05 0 0.0027534295616388127 0.00019842872596755753 0 0.002487667123188137 0.00017258948397547901 0 0.0026447674578189764 1.1234061116015821e-05 0 0.002487667123188137 0.00017258948397547901 0 0.0026447674578189764 1.1234061116015821e-05 0 0.0024450810830867523 0.00024384421396021866 0 0.002534048439909428 -0.00012030705034008506 0 0.0024450810830867523 0.00024384421396021866 0 0.0020540367991868781 -8.2494123929411126e-05 0 0.0023852007451507663 -0.00039344414742312835 0 0.002534048439909428 -0.00012030705034008506 0 0.0020540367991868781 -8.2494123929411126e-05 0 0.0020540367991868781 -8.2494123929411126e-05 0 0.0020616347563546353 0.00027297378235002887 0 0.0015752624874082379 0.00016537226748156828 0 0.0024450810830867523 0.00024384421396021866 0 0.0020540367991868781 -8.2494123929411126e-05 0 0.0020616347563546353 0.00027297378235002887 0 0.0021754258890261256 0.0008676836711354383 0 0.0020429873817372005 0.00091755051332150829 0 0.0021566242711934819 0.00080276323602026145 0 0.0020616347563546353 0.00027297378235002887 0 0.0015752624874082379 0.00016537226748156828 0 0.0021566242711934819 0.00080276323602026145 0 0.0024450810830867523 0.00024384421396021866 0 0.0020616347563546353 0.00027297378235002887 0 0.0027035898323256144 0.0014979331125752724 0 0.0025019320883045868 0.0012310544938526811 0 0.0025381055574001149 0.0017680475405852289 0 0.0021566242711934819 0.00080276323602026145 0 0.0025019320883045868 0.0012310544938526811 0 0.0025381055574001149 0.0017680475405852289 0 0.0027188238179443247 0.0012183860699333559 0 0.0027035898323256144 0.0014979331125752724 0 0.0025019320883045868 0.0012310544938526811 0 0.0020540367991868781 -8.2494123929411126e-05 0 0.0015752624874082379 0.00016537226748156828 0 0.0015229026391690198 -0.00024269232087813789 0 0.0020540367991868781 -8.2494123929411126e-05 0 0.0018047318271079949 -0.00050348793871752629 0 0.0015229026391690198 -0.00024269232087813789 0 0.0012152652682666752 -0.00057584861494090018 0 0.0018047318271079949 -0.00050348793871752629 0 0.0015229026391690198 -0.00024269232087813789 0 0.0023852007451507663 -0.00039344414742312835 0 0.0020540367991868781 -8.2494123929411126e-05 0 0.0018047318271079949 -0.00050348793871752629 0 0.0017194306862374107 -0.0011411413762026233 0 0.0012408909043706718 -0.0012709371066041951 0 0.00057311598299984907 -0.0020917808871133261 0 0.00081193209305215161 -0.0023390542862367623 0 0.00053408827145667338 -0.002419436850517623 0 0.0010631137029084583 -0.0018834791521674201 0 0.00057311598299984907 -0.0020917808871133261 0 0.00081193209305215161 -0.0023390542862367623 0 0.00030763336088997668 -0.002408460300102281 0 0.00057311598299984907 -0.0020917808871133261 0 0.00053408827145667338 -0.002419436850517623 0 0.00015928339788755805 -0.002218394362435486 0 0.00030763336088997668 -0.002408460300102281 0 0.00057311598299984907 -0.0020917808871133261 0 0.00048650115768316923 -0.0015426859154018505 0 0.0012408909043706718 -0.0012709371066041951 0 0.00039943451167939758 -0.0026290252123139794 0 0.0005947137239210342 -0.0026252617608370802 0 0.00052239001715631518 -0.0028183367724626393 0 0.00030763336088997668 -0.002408460300102281 0 0.00053408827145667338 -0.002419436850517623 0 0.00039943451167939758 -0.0026290252123139794 0 0.00053408827145667338 -0.002419436850517623 0 0.00039943451167939758 -0.0026290252123139794 0 0.0005947137239210342 -0.0026252617608370802 0 0.00081193209305215161 -0.0023390542862367623 0 0.00080025825673170087 -0.0026790425631822538 0 0.0005947137239210342 -0.0026252617608370802 0 0.00081193209305215161 -0.0023390542862367623 0 0.00053408827145667338 -0.002419436850517623 0 0.0005947137239210342 -0.0026252617608370802 0 0.00080025825673170087 -0.0026790425631822538 0 0.0005947137239210342 -0.0026252617608370802 0 0.00052239001715631518 -0.0028183367724626393 0 0.00080025825673170087 -0.0026790425631822538 0 0.00063407543593341535 -0.0029549601083984985 0 0.00052239001715631518 -0.0028183367724626393 0 9.3704456428569916e-05 -0.0033357493372634995 0 0.00057383593989021456 -0.0038354429081360027 0 0.00089514786802382231 -0.0031066616234106895 0 0.00037461360653034471 -0.0031757461869919429 0 0.0010128969565735245 -0.002991590014721145 0 0.00080025825673170087 -0.0026790425631822538 0 0.00063407543593341535 -0.0029549601083984985 0 0.0010999977460822924 -0.0028848445528900576 0 7.8998810880295383e-05 -0.0032769184248656602 0 0.00037461360653034471 -0.0031757461869919429 0 0.00027315363805377598 -0.0027942861358383158 0 0.00039943451167939758 -0.0026290252123139794 0 0.00052239001715631518 -0.0028183367724626393 0 0.00027315363805377598 -0.0027942861358383158 0 0.00026272672747020156 -0.0030396287181628364 0 0.00052239001715631518 -0.0028183367724626393 0 0.00026272672747020156 -0.0030396287181628364 0 0.00062528324574831463 -0.0029265011499842375 0 0.00052239001715631518 -0.0028183367724626393 0 0.00037461360653034471 -0.0031757461869919429 0 0.00044521702784002768 -0.0029627986452776993 0 -0.00010800726447776472 -0.003512163031786072 0 0.00010588646520349444 -0.0036302315562065893 0 -4.7316952136095165e-05 -0.0036603094601284241 0 -0.00010800726447776472 -0.003512163031786072 0 0.00014248440114262591 -0.0034420462839227749 0 0.00010588646520349444 -0.0036302315562065893 0 0.00010588646520349444 -0.0036302315562065893 0 6.1957912135804736e-06 -0.0038055063110704326 0 0.00019886708351568482 -0.0038046414208255958 0 0.00010588646520349444 -0.0036302315562065893 0 -4.7316952136095165e-05 -0.0036603094601284241 0 6.1957912135804736e-06 -0.0038055063110704326 0 0.00010588646520349444 -0.0036302315562065893 0 0.00019886708351568482 -0.0038046414208255958 0 0.00031033469942501639 -0.0036100321611839273 0 0.00019886708351568482 -0.0038046414208255958 0 0.00031033469942501639 -0.0036100321611839273 0 0.00034205748666414875 -0.0038890795456183905 0 6.1957912135804736e-06 -0.0038055063110704326 0 0.00019886708351568482 -0.0038046414208255958 0 0.00010087513796535046 -0.0039505609811718015 0 0.00014248440114262591 -0.0034420462839227749 0 0.00010588646520349444 -0.0036302315562065893 0 0.00031033469942501639 -0.0036100321611839273 0 0.00037461360653034471 -0.0031757461869919429 0 0.00041268722975348123 -0.0037225969108423337 0 0.001010771323878416 -0.0037057165045393261 0 0.00057383593989021456 -0.0038354429081360027 0 0.0010553607597096519 -0.0043331541744012839 0 0.001010771323878416 -0.0037057165045393261 0 0.00057383593989021456 -0.0038354429081360027 0 0.00089514786802382231 -0.0031066616234106895 0 0.00031033469942501639 -0.0036100321611839273 0 0.00049904463455661486 -0.0037993702272438672 0 0.00034205748666414875 -0.0038890795456183905 0 0.00041268722975348123 -0.0037225969108423337 0 0.00086621032205444406 -0.0041026525320850436 0 0.0015728346703421776 -0.0041406188111580942 0 0.0012151932240820438 -0.0041897951765418719 0 0.0016023435691013307 -0.0045431512819820814 0 0.0015728346703421776 -0.0041406188111580942 0 0.0012151932240820438 -0.0041897951765418719 0 0.0015181807066906603 -0.0035421364817506858 0 0.001010771323878416 -0.0037057165045393261 0 0.0010553607597096519 -0.0043331541744012839 0 0.0015181807066906603 -0.0035421364817506858 0 0.00086621032205444406 -0.0041026525320850436 0 0.001572199752870107 -0.003614374203817208 0 0.001010771323878416 -0.0037057165045393261 0 0.0015181807066906603 -0.0035421364817506858 0 0.00089514786802382231 -0.0031066616234106895 0 0.0015181807066906603 -0.0035421364817506858 0 0.00089514786802382231 -0.0031066616234106895 0 0.0016854281190200283 -0.0028576249104684363 0 0.0010128969565735245 -0.002991590014721145 0 0.0016492381121336734 -0.0028570255553910223 0 0.0012475629908726168 -0.0024042466063143573 0 0.00080025825673170087 -0.0026790425631822538 0 0.0010999977460822924 -0.0028848445528900576 0 0.0012475629908726168 -0.0024042466063143573 0 0.00081193209305215161 -0.0023390542862367623 0 0.00080025825673170087 -0.0026790425631822538 0 0.0012475629908726168 -0.0024042466063143573 0 0.0010999977460822924 -0.0028848445528900576 0 0.0016854281190200283 -0.0028576249104684363 0 0.0018955561686269413 -0.0022065812970646758 0 0.0016854281190200283 -0.0028576249104684363 0 0.0023075808864756408 -0.0026177913529858618 0 0.0018955561686269413 -0.0022065812970646758 0 0.0012475629908726168 -0.0024042466063143573 0 0.0016854281190200283 -0.0028576249104684363 0 0.0016854281190200283 -0.0028576249104684363 0 0.0023075808864756408 -0.0026177913529858618 0 0.0021783721759125619 -0.0030498149550716486 0 0.0023075808864756408 -0.0026177913529858618 0 0.0021783721759125619 -0.0030498149550716486 0 0.0025363324613811309 -0.003023645646160214 0 0.0021783721759125619 -0.0030498149550716486 0 0.0025363324613811309 -0.003023645646160214 0 0.0023654868157676045 -0.0033572349271889521 0 0.0025363324613811309 -0.003023645646160214 0 0.0023654868157676045 -0.0033572349271889521 0 0.0025603847032555642 -0.0032889922384901895 0 0.0023654868157676045 -0.0033572349271889521 0 0.0024735827160501473 -0.0036461400047250866 0 0.0025877563079509825 -0.0034561449470454377 0 0.0023654868157676045 -0.0033572349271889521 0 0.0025877563079509825 -0.0034561449470454377 0 0.0025603847032555642 -0.0032889922384901895 0 0.0021783721759125619 -0.0030498149550716486 0 0.0023654868157676045 -0.0033572349271889521 0 0.0020085552816155434 -0.0033812661291373145 0 0.0023654868157676045 -0.0033572349271889521 0 0.0020085552816155434 -0.0033812661291373145 0 0.0022420745674484772 -0.0036223833090025773 0 0.0015181807066906603 -0.0035421364817506858 0 0.0016854281190200283 -0.0028576249104684363 0 0.0020085552816155434 -0.0033812661291373145 0 0.0016854281190200283 -0.0028576249104684363 0 0.0021783721759125619 -0.0030498149550716486 0 0.0020085552816155434 -0.0033812661291373145 0 0.0015181807066906603 -0.0035421364817506858 0 0.0020145946071584296 -0.0037622460850435303 0 0.0018326714707899672 -0.0040296020180337839 0 0.0015181807066906603 -0.0035421364817506858 0 0.0020085552816155434 -0.0033812661291373145 0 0.0020145946071584296 -0.0037622460850435303 0 0.0015728346703421776 -0.0041406188111580942 0 0.0015181807066906603 -0.0035421364817506858 0 0.0018326714707899672 -0.0040296020180337839 0 0.0020145946071584296 -0.0037622460850435303 0 0.0018326714707899672 -0.0040296020180337839 0 0.0021499056002074056 -0.0040514852800675105 0 0.0018326714707899672 -0.0040296020180337839 0 0.0020350299082340538 -0.0042657755064136327 0 0.0021499056002074056 -0.0040514852800675105 0 0.0018326714707899672 -0.0040296020180337839 0 0.0017894581131373143 -0.0042967182190205453 0 0.0020350299082340538 -0.0042657755064136327 0 0.0015728346703421776 -0.0041406188111580942 0 0.0018326714707899672 -0.0040296020180337839 0 0.0017894581131373143 -0.0042967182190205453 0 0.0022949559375130208 -0.0042610440521792612 0 0.0020350299082340538 -0.0042657755064136327 0 0.0021499056002074056 -0.0040514852800675105 0 0.0022949559375130208 -0.0042610440521792612 0 0.0021499056002074056 -0.0040514852800675105 0 0.0024412328807512087 -0.0040799481417307373 0 0.0021499056002074056 -0.0040514852800675105 0 0.0023402612479130687 -0.0038751941336197071 0 0.0024412328807512087 -0.0040799481417307373 0 0.0023402612479130687 -0.0038751941336197071 0 0.0024735827160501473 -0.0036461400047250866 0 0.0025565903092628971 -0.0038338460629576583 0 0.0020145946071584296 -0.0037622460850435303 0 0.0021499056002074056 -0.0040514852800675105 0 0.0023402612479130687 -0.0038751941336197071 0 0.0020145946071584296 -0.0037622460850435303 0 0.0023402612479130687 -0.0038751941336197071 0 0.0022420745674484772 -0.0036223833090025773 0 0.0020085552816155434 -0.0033812661291373145 0 0.0020145946071584296 -0.0037622460850435303 0 0.0022420745674484772 -0.0036223833090025773 0 0.0023654868157676045 -0.0033572349271889521 0 0.0022420745674484772 -0.0036223833090025773 0 0.0024735827160501473 -0.0036461400047250866 0 0.0023402612479130687 -0.0038751941336197071 0 0.0022420745674484772 -0.0036223833090025773 0 0.0024735827160501473 -0.0036461400047250866 0 0.0024735827160501473 -0.0036461400047250866 0 0.002682412936872661 -0.0036452049577609322 0 0.0025877563079509825 -0.0034561449470454377 0 0.0024735827160501473 -0.0036461400047250866 0 0.002682412936872661 -0.0036452049577609322 0 0.0025565903092628971 -0.0038338460629576583 0 0.002682412936872661 -0.0036452049577609322 0 0.0027206671135404817 -0.0038480889580807952 0 0.0025565903092628971 -0.0038338460629576583 0 0.002682412936872661 -0.0036452049577609322 0 0.0027206671135404817 -0.0038480889580807952 0 0.0028243291099778003 -0.0037605366072390365 0 0.0027206671135404817 -0.0038480889580807952 0 0.0025565903092628971 -0.0038338460629576583 0 0.0026555198245460407 -0.0040513711023410894 0 0.0027206671135404817 -0.0038480889580807952 0 0.0026555198245460407 -0.0040513711023410894 0 0.0028333122674058168 -0.0039628821581656889 0 0.0023402612479130687 -0.0038751941336197071 0 0.0025565903092628971 -0.0038338460629576583 0 0.0024412328807512087 -0.0040799481417307373 0 0.0024412328807512087 -0.0040799481417307373 0 0.0026555198245460407 -0.0040513711023410894 0 0.0025253286234673124 -0.0042694419996412341 0 0.0025565903092628971 -0.0038338460629576583 0 0.0024412328807512087 -0.0040799481417307373 0 0.0026555198245460407 -0.0040513711023410894 0 0.0026555198245460407 -0.0040513711023410894 0 0.0027155120184611777 -0.0042905416979278476 0 0.0025253286234673124 -0.0042694419996412341 0 0.0026555198245460407 -0.0040513711023410894 0 0.0027155120184611777 -0.0042905416979278476 0 0.0028170971875079837 -0.0041330162267284474 0 0.0022949559375130208 -0.0042610440521792612 0 0.0024412328807512087 -0.0040799481417307373 0 0.0025253286234673124 -0.0042694419996412341 0 0.0030800670983229341 -0.0043045642263783521 0 0.0028971598339938274 -0.0042899779545877278 0 0.0029817204064601726 -0.0041074891806541763 0 0.0028971598339938274 -0.0042899779545877278 0 0.0028170971875079837 -0.0041330162267284474 0 0.0029817204064601726 -0.0041074891806541763 0 0.0027155120184611777 -0.0042905416979278476 0 0.0028971598339938274 -0.0042899779545877278 0 0.0028170971875079837 -0.0041330162267284474 0 0.0026555198245460407 -0.0040513711023410894 0 0.0028170971875079837 -0.0041330162267284474 0 0.0028333122674058168 -0.0039628821581656889 0 0.0028170971875079837 -0.0041330162267284474 0 0.0029817204064601726 -0.0041074891806541763 0 0.0028333122674058168 -0.0039628821581656889 0 0.0029817204064601726 -0.0041074891806541763 0 0.0029736772830869264 -0.0039079944951474731 0 0.0028333122674058168 -0.0039628821581656889 0 0.0027206671135404817 -0.0038480889580807952 0 0.0028333122674058168 -0.0039628821581656889 0 0.0028243291099778003 -0.0037605366072390365 0 0.0029736772830869264 -0.0039079944951474731 0 0.0028333122674058168 -0.0039628821581656889 0 0.0028243291099778003 -0.0037605366072390365 0 0.0029736772830869264 -0.0039079944951474731 0 0.0028243291099778003 -0.0037605366072390365 0 0.0029726514652214445 -0.0037405275237077529 0 0.0031134076012615513 -0.0038183315951735137 0 0.003135270423676932 -0.0038117511803627047 0 0.0031189001552465157 -0.0038316604033226459 0 0.0030808206227331001 -0.0037125688168631746 0 0.0029599075127239734 -0.0035394104966790891 0 0.0030435890098634982 -0.0035920816013531301 0 0.0029726514652214445 -0.0037405275237077529 0 0.0028198223455894811 -0.0036084965356268793 0 0.0028243291099778003 -0.0037605366072390365 0 0.0029726514652214445 -0.0037405275237077529 0 0.0028198223455894811 -0.0036084965356268793 0 0.002682412936872661 -0.0036452049577609322 0 0.0031456117145201314 -0.0032535928539284909 0 0.0028032611289003132 -0.003300493232322 0 0.0027494400666054019 -0.0036121325115541464 0 0.0029599075127239734 -0.0035394104966790891 0 0.002682412936872661 -0.0036452049577609322 0 0.0028243291099778003 -0.0037605366072390365 0 0.0028198223455894811 -0.0036084965356268793 0 0.0027663938897603841 -0.0033166839406963684 0 0.0028032611289003132 -0.003300493232322 0 0.0028732935297422981 -0.0031521278629569401 0 0.002682412936872661 -0.0036452049577609322 0 0.0027663938897603841 -0.0033166839406963684 0 0.0028032611289003132 -0.003300493232322 0 0.002682412936872661 -0.0036452049577609322 0 0.0025877563079509825 -0.0034561449470454377 0 0.0027663938897603841 -0.0033166839406963684 0 0.0025877563079509825 -0.0034561449470454377 0 0.0027663938897603841 -0.0033166839406963684 0 0.0025603847032555642 -0.0032889922384901895 0 0.0025363324613811309 -0.003023645646160214 0 0.0027663938897603841 -0.0033166839406963684 0 0.0025603847032555642 -0.0032889922384901895 0 0.0029599075127239734 -0.0035394104966790891 0 0.002889169122982981 -0.0034066791656243551 0 0.0023075808864756408 -0.0026177913529858618 0 0.0025363324613811309 -0.003023645646160214 0 0.0031377075374046364 -0.0025411797461315127 0 0.0028059284654145481 -0.0032557394774958529 0 0.002979215903319113 -0.0029158696871900273 0 0.0025363324613811309 -0.003023645646160214 0 0.0027663938897603841 -0.0033166839406963684 0 0.0031377075374046364 -0.0025411797461315127 0 0.0028873495089461161 -0.0032881384893737237 0 0.0028032611289003132 -0.003300493232322 0 0.0028732935297422981 -0.0031521278629569401 0 0.0028873495089461161 -0.0032881384893737237 0 0.0028732935297422981 -0.0031521278629569401 0 0.0029722018898728866 -0.0032023881566120311 0 0.0029737751702021099 -0.0031514870166761961 0 0.0028732935297422981 -0.0031521278629569401 0 0.0029722018898728866 -0.0032023881566120311 0 0.0029599075127239734 -0.0035394104966790891 0 0.0030964046701552912 -0.0034718556043537622 0 0.00088881838175304442 -0.0047732403810447606 0 0.00072234318496084717 -0.0046936316351010388 0 0.00090051116944476995 -0.0047833238936868848 0 0.00075145859537425856 -0.0048661050260353474 0 0.00051206287578378401 -0.004597814348154928 0 0.0009299121519378555 -0.0048262188755196197 0 0.00090051116944476995 -0.0047833238936868848 0 0.00075145859537425856 -0.0048661050260353474 0 0.00075145859537425856 -0.0048661050260353474 0 0.00051206287578378401 -0.004597814348154928 0 0.00057335978204519169 -0.0049524945074842291 0 0.00039106924159944322 -0.0048031759170526862 0 0.00051206287578378401 -0.004597814348154928 0 0.00057335978204519169 -0.0049524945074842291 0 0.00039106924159944322 -0.0048031759170526862 0 0.00051206287578378401 -0.004597814348154928 0 0.00031132115661693766 -0.0046285231056834401 0 0.00092545309983153086 -0.0047748846704456088 0 0.00091787096865856817 -0.00477920682495004 0 0.0009321442112027765 -0.0047760728261441289 0 0.00090051116944476995 -0.0047833238936868848 0 0.00092545309983153086 -0.0047748846704456088 0 0.00091787096865856817 -0.00477920682495004 0 0.0031197875925253514 -0.0046951805754753637 0 0.002837258016142354 -0.0049596319596601785 0 0.0028867747239314945 -0.0046752176230598517 0 0.002837258016142354 -0.0049596319596601785 0 0.0028867747239314945 -0.0046752176230598517 0 0.002668907893475033 -0.0047133796227827813 0 0.0028867747239314945 -0.0046752176230598517 0 0.0027922306710628426 -0.0044846867699959297 0 0.0029818310201622715 -0.0044655410805758836 0 0.0028867747239314945 -0.0046752176230598517 0 0.0027922306710628426 -0.0044846867699959297 0 0.002668907893475033 -0.0047133796227827813 0 0.0027155120184611777 -0.0042905416979278476 0 0.0028971598339938274 -0.0042899779545877278 0 0.0027922306710628426 -0.0044846867699959297 0 0.0030800670983229341 -0.0043045642263783521 0 0.0028971598339938274 -0.0042899779545877278 0 0.0029818310201622715 -0.0044655410805758836 0 0.0028971598339938274 -0.0042899779545877278 0 0.0027922306710628426 -0.0044846867699959297 0 0.0029818310201622715 -0.0044655410805758836 0 0.0025253286234673124 -0.0042694419996412341 0 0.0025882207245491754 -0.0045135369129636936 0 0.0023860227045604779 -0.0044827804398046818 0 0.0022949559375130208 -0.0042610440521792612 0 0.0025253286234673124 -0.0042694419996412341 0 0.0023860227045604779 -0.0044827804398046818 0 0.0027155120184611777 -0.0042905416979278476 0 0.0027922306710628426 -0.0044846867699959297 0 0.0025882207245491754 -0.0045135369129636936 0 0.0027155120184611777 -0.0042905416979278476 0 0.0025253286234673124 -0.0042694419996412341 0 0.0025882207245491754 -0.0045135369129636936 0 0.0027922306710628426 -0.0044846867699959297 0 0.0025882207245491754 -0.0045135369129636936 0 0.002668907893475033 -0.0047133796227827813 0 0.0025882207245491754 -0.0045135369129636936 0 0.0024696651425490262 -0.0046815379149551519 0 0.0023860227045604779 -0.0044827804398046818 0 0.0024696651425490262 -0.0046815379149551519 0 0.002668907893475033 -0.0047133796227827813 0 0.0024374334406478603 -0.0049077884165764493 0 0.002837258016142354 -0.0049596319596601785 0 0.002668907893475033 -0.0047133796227827813 0 0.0024374334406478603 -0.0049077884165764493 0 0.0019583487366871483 -0.0047764930728670428 0 0.0017000626769041907 -0.0048516095189390226 0 0.0024696651425490262 -0.0046815379149551519 0 0.0024374334406478603 -0.0049077884165764493 0 0.0022512246716205183 -0.0046900605414126424 0 0.0025882207245491754 -0.0045135369129636936 0 0.0024696651425490262 -0.0046815379149551519 0 0.002668907893475033 -0.0047133796227827813 0 0.0017000626769041907 -0.0048516095189390226 0 0.0012682416807398638 -0.0047955956078786673 0 0.0024374334406478603 -0.0049077884165764493 0 0.0022512246716205183 -0.0046900605414126424 0 0.0019647036196804627 -0.0048536909716653193 0 0.0009321442112027765 -0.0047760728261441289 0 0.0009270030781277956 -0.004767299930953651 0 0.0009270522202621471 -0.0047638213081417167 0 0.0009270030781277956 -0.004767299930953651 0 0.00089675896853803818 -0.0047288872881788924 0 0.00092673451468763791 -0.0047815626673525739 0 0.0010070444824175876 -0.0046826037825027115 0 0.0012682416807398638 -0.0047955956078786673 0 0.0022512246716205183 -0.0046900605414126424 0 0.0020243847534961571 -0.0046428006695136727 0 0.0019647036196804627 -0.0048536909716653193 0 0.0022512246716205183 -0.0046900605414126424 0 0.0023860227045604779 -0.0044827804398046818 0 0.0021723511515079029 -0.0044705512155509726 0 0.0024696651425490262 -0.0046815379149551519 0 0.0022512246716205183 -0.0046900605414126424 0 0.0023860227045604779 -0.0044827804398046818 0 0.0021723511515079029 -0.0044705512155509726 0 0.0019473106485440241 -0.0044615205528839973 0 0.0020243847534961571 -0.0046428006695136727 0 0.0022512246716205183 -0.0046900605414126424 0 0.0021723511515079029 -0.0044705512155509726 0 0.0020243847534961571 -0.0046428006695136727 0 0.0022949559375130208 -0.0042610440521792612 0 0.0020350299082340538 -0.0042657755064136327 0 0.0021723511515079029 -0.0044705512155509726 0 0.0020350299082340538 -0.0042657755064136327 0 0.0021723511515079029 -0.0044705512155509726 0 0.0019473106485440241 -0.0044615205528839973 0 0.0022949559375130208 -0.0042610440521792612 0 0.0023860227045604779 -0.0044827804398046818 0 0.0021723511515079029 -0.0044705512155509726 0 0.0015728346703421776 -0.0041406188111580942 0 0.0017894581131373143 -0.0042967182190205453 0 0.0016023435691013307 -0.0045431512819820814 0 0.0019473106485440241 -0.0044615205528839973 0 0.0020243847534961571 -0.0046428006695136727 0 0.0016023435691013307 -0.0045431512819820814 0 0.0017894581131373143 -0.0042967182190205453 0 0.0019473106485440241 -0.0044615205528839973 0 0.0016023435691013307 -0.0045431512819820814 0 0.0017894581131373143 -0.0042967182190205453 0 0.0020350299082340538 -0.0042657755064136327 0 0.0019473106485440241 -0.0044615205528839973 0 0.001111045165336105 -0.0047490481431343677 0 0.00084974993772982089 -0.0046910960833821081 0 0.00088268938377462317 -0.0045189650651960758 0 0.00089675896853803818 -0.0047288872881788924 0 0.00085107182098232629 -0.0047370837008422727 0 0.00079518412096319128 -0.0046869422600945374 0 0.0012682416807398638 -0.0047955956078786673 0 0.00076921002278828546 -0.0046770727793787673 0 0.0020243847534961571 -0.0046428006695136727 0 0.0019647036196804627 -0.0048536909716653193 0 0.0016023435691013307 -0.0045431512819820814 0 0.00055631635158728875 -0.0046481102984749709 0 0.00040165395746629432 -0.0046482842514696983 0 0.00085107182098232629 -0.0047370837008422727 0 0.00092673451468763791 -0.0047815626673525739 0 0.00078208036997350278 -0.0047377937625968595 0 0.0012682416807398638 -0.0047955956078786673 0 0.0012910005079008549 -0.0045699180071064925 0 0.00089675896853803818 -0.0047288872881788924 0 0.00085107182098232629 -0.0047370837008422727 0 0.00092673451468763791 -0.0047815626673525739 0 8.7939434814447481e-05 -0.0045369608701056269 0 4.0772309502212591e-05 -0.0045346719707776446 0 2.4710215965852495e-06 -0.004513605591804179 0 8.7939434814447481e-05 -0.0045369608701056269 0 4.9525181358015463e-05 -0.0045605263520972087 0 4.0772309502212591e-05 -0.0045346719707776446 0 8.7939434814447481e-05 -0.0045369608701056269 0 0.00018740336720443501 -0.0045172696435932897 0 2.4710215965852495e-06 -0.004513605591804179 0 8.7939434814447481e-05 -0.0045369608701056269 0 0.00010125881255545414 -0.0045658675160500685 0 4.9525181358015463e-05 -0.0045605263520972087 0 4.9525181358015463e-05 -0.0045605263520972087 0 8.4049987464844019e-05 -0.0046243792457479 0 3.0366610976452581e-05 -0.0046255782162187772 0 0.00010125881255545414 -0.0045658675160500685 0 4.9525181358015463e-05 -0.0045605263520972087 0 8.4049987464844019e-05 -0.0046243792457479 0 8.4049987464844019e-05 -0.0046243792457479 0 0.00014748468597341438 -0.0045830894787084299 0 0.00015088616788600166 -0.0046784406737317707 0 0.00014748468597341438 -0.0045830894787084299 0 0.00019851785774826564 -0.00460121880765107 0 0.00015088616788600166 -0.0046784406737317707 0 0.00010125881255545414 -0.0045658675160500685 0 8.4049987464844019e-05 -0.0046243792457479 0 0.00014748468597341438 -0.0045830894787084299 0 0.00014748468597341438 -0.0045830894787084299 0 0.00013243757873825963 -0.0045481370246034138 0 0.00018740336720443501 -0.0045172696435932897 0 8.7939434814447481e-05 -0.0045369608701056269 0 0.00013243757873825963 -0.0045481370246034138 0 0.00018740336720443501 -0.0045172696435932897 0 8.7939434814447481e-05 -0.0045369608701056269 0 0.00010125881255545414 -0.0045658675160500685 0 0.00013243757873825963 -0.0045481370246034138 0 0.00010125881255545414 -0.0045658675160500685 0 0.00014748468597341438 -0.0045830894787084299 0 0.00013243757873825963 -0.0045481370246034138 0 0.00092545309983153086 -0.0047748846704456088 0 0.0009321442112027765 -0.0047760728261441289 0 0.00092673451468763791 -0.0047815626673525739 0 0.00051206287578378401 -0.004597814348154928 0 0.00018740336720443501 -0.0045172696435932897 0 0.00031132115661693766 -0.0046285231056834401 0 0.0009321442112027765 -0.0047760728261441289 0 0.0009270030781277956 -0.004767299930953651 0 0.00092673451468763791 -0.0047815626673525739 0 0.00072234318496084717 -0.0046936316351010388 0 0.00055631635158728875 -0.0046481102984749709 0 0.00018740336720443501 -0.0045172696435932897 0 0.00031132115661693766 -0.0046285231056834401 0 0.00019851785774826564 -0.00460121880765107 0 0.00031132115661693766 -0.0046285231056834401 0 0.00019851785774826564 -0.00460121880765107 0 0.00015088616788600166 -0.0046784406737317707 0 0.00014748468597341438 -0.0045830894787084299 0 0.00018740336720443501 -0.0045172696435932897 0 0.00019851785774826564 -0.00460121880765107 0 0.00031132115661693766 -0.0046285231056834401 0 0.0002178965167016883 -0.0048212085123601972 0 0.00015088616788600166 -0.0046784406737317707 0 0.00039106924159944322 -0.0048031759170526862 0 0.00031132115661693766 -0.0046285231056834401 0 0.0002178965167016883 -0.0048212085123601972 0 6.0210546638124348e-05 -0.0046887751894069303 0 0.00015088616788600166 -0.0046784406737317707 0 5.5980166246595221e-05 -0.004818193378768057 0 0.0002178965167016883 -0.0048212085123601972 0 0.00015088616788600166 -0.0046784406737317707 0 5.5980166246595221e-05 -0.004818193378768057 0 6.0210546638124348e-05 -0.0046887751894069303 0 1.3764209877323387e-07 -0.0047083079985937781 0 5.5980166246595221e-05 -0.004818193378768057 0 8.4049987464844019e-05 -0.0046243792457479 0 6.0210546638124348e-05 -0.0046887751894069303 0 3.0366610976452581e-05 -0.0046255782162187772 0 8.4049987464844019e-05 -0.0046243792457479 0 6.0210546638124348e-05 -0.0046887751894069303 0 0.00015088616788600166 -0.0046784406737317707 0 -3.943568961686721e-05 -0.0046604938601931467 0 1.3764209877323387e-07 -0.0047083079985937781 0 -1.3123689424279843e-05 -0.0046043846592632139 0 6.0210546638124348e-05 -0.0046887751894069303 0 1.3764209877323387e-07 -0.0047083079985937781 0 3.0366610976452581e-05 -0.0046255782162187772 0 1.3764209877323387e-07 -0.0047083079985937781 0 -1.3123689424279843e-05 -0.0046043846592632139 0 3.0366610976452581e-05 -0.0046255782162187772 0 1.3764209877323387e-07 -0.0047083079985937781 0 -5.5125684103717005e-05 -0.0047922315698530485 0 5.5980166246595221e-05 -0.004818193378768057 0 -3.943568961686721e-05 -0.0046604938601931467 0 1.3764209877323387e-07 -0.0047083079985937781 0 -5.5125684103717005e-05 -0.0047922315698530485 0 -3.943568961686721e-05 -0.0046604938601931467 0 -7.8339689198136356e-05 -0.00465927092021267 0 -5.5125684103717005e-05 -0.0047922315698530485 0 -3.943568961686721e-05 -0.0046604938601931467 0 -7.8339689198136356e-05 -0.00465927092021267 0 -2.5130705932967513e-05 -0.0045532140498793314 0 -2.5130705932967513e-05 -0.0045532140498793314 0 -1.7433117548558432e-05 -0.0045319999983935389 0 2.6018010698083492e-05 -0.0044675403468381605 0 -7.8339689198136356e-05 -0.00465927092021267 0 -2.5130705932967513e-05 -0.0045532140498793314 0 2.6018010698083492e-05 -0.0044675403468381605 0 -2.5130705932967513e-05 -0.0045532140498793314 0 -8.3292559537277282e-06 -0.0045383589038818671 0 -1.7433117548558432e-05 -0.0045319999983935389 0 -2.5130705932967513e-05 -0.0045532140498793314 0 -8.3292559537277282e-06 -0.0045383589038818671 0 -1.1078373474034076e-05 -0.0045637854763031054 0 -8.3292559537277282e-06 -0.0045383589038818671 0 -1.1078373474034076e-05 -0.0045637854763031054 0 9.9489058071685894e-06 -0.0045647272470451215 0 -2.5130705932967513e-05 -0.0045532140498793314 0 -1.1078373474034076e-05 -0.0045637854763031054 0 -1.3123689424279843e-05 -0.0046043846592632139 0 -3.943568961686721e-05 -0.0046604938601931467 0 -2.5130705932967513e-05 -0.0045532140498793314 0 -1.3123689424279843e-05 -0.0046043846592632139 0 -1.1078373474034076e-05 -0.0045637854763031054 0 -1.3123689424279843e-05 -0.0046043846592632139 0 9.9489058071685894e-06 -0.0045647272470451215 0 -1.3123689424279843e-05 -0.0046043846592632139 0 3.0366610976452581e-05 -0.0046255782162187772 0 9.9489058071685894e-06 -0.0045647272470451215 0 4.9525181358015463e-05 -0.0045605263520972087 0 3.0366610976452581e-05 -0.0046255782162187772 0 9.9489058071685894e-06 -0.0045647272470451215 0 4.9525181358015463e-05 -0.0045605263520972087 0 9.9489058071685894e-06 -0.0045647272470451215 0 1.6699821852803112e-05 -0.0045411962044539182 0 -8.3292559537277282e-06 -0.0045383589038818671 0 9.9489058071685894e-06 -0.0045647272470451215 0 1.6699821852803112e-05 -0.0045411962044539182 0 4.9525181358015463e-05 -0.0045605263520972087 0 1.6699821852803112e-05 -0.0045411962044539182 0 4.0772309502212591e-05 -0.0045346719707776446 0 0.00084974993772982089 -0.0046910960833821081 0 0.00074384941927298058 -0.004562671944860033 0 0.00059819234308829052 -0.004628654391713353 0 0.00085107182098232629 -0.0047370837008422727 0 0.00078208036997350278 -0.0047377937625968595 0 0.00079518412096319128 -0.0046869422600945374 0 1.6699821852803112e-05 -0.0045411962044539182 0 4.0772309502212591e-05 -0.0045346719707776446 0 2.4710215965852495e-06 -0.004513605591804179 0 0.00076921002278828546 -0.0046770727793787673 0 0.00064070938104913977 -0.0046418044138346473 0 0.00078208036997350278 -0.0047377937625968595 0 0.00079518412096319128 -0.0046869422600945374 0 0.00059819234308829052 -0.004628654391713353 0 -8.3292559537277282e-06 -0.0045383589038818671 0 1.6699821852803112e-05 -0.0045411962044539182 0 2.4710215965852495e-06 -0.004513605591804179 0 -8.3292559537277282e-06 -0.0045383589038818671 0 2.4710215965852495e-06 -0.004513605591804179 0 -1.7433117548558432e-05 -0.0045319999983935389 0 0.00066484534451255646 -0.0043038061671182657 0 0.00074384941927298058 -0.004562671944860033 0 0.00059819234308829052 -0.004628654391713353 0 0.00066484534451255646 -0.0043038061671182657 0 0.00088268938377462317 -0.0045189650651960758 0 0.00074384941927298058 -0.004562671944860033 0 0.00084974993772982089 -0.0046910960833821081 0 0.00088268938377462317 -0.0045189650651960758 0 0.00074384941927298058 -0.004562671944860033 0 0.00086621032205444406 -0.0041026525320850436 0 0.0012910005079008549 -0.0045699180071064925 0 0.00049904463455661486 -0.0037993702272438672 0 0.00034205748666414875 -0.0038890795456183905 0 0.0003397176093412468 -0.0040782772088385913 0 0.00066484534451255646 -0.0043038061671182657 0 0.00059819234308829052 -0.004628654391713353 0 0.0004971504040606915 -0.0046177393188246429 0 0.00086621032205444406 -0.0041026525320850436 0 0.00025787546679902074 -0.0043752246797947444 0 0.00034205748666414875 -0.0038890795456183905 0 0.0003397176093412468 -0.0040782772088385913 0 0.00025073108068110521 -0.0040418984594321602 0 0.00025787546679902074 -0.0043752246797947444 0 0.00022334704826704172 -0.0042379956454544751 0 2.4710215965852495e-06 -0.004513605591804179 0 -9.6167097593682477e-06 -0.0045452358552822338 0 -1.7433117548558432e-05 -0.0045319999983935389 0 0.00078208036997350278 -0.0047377937625968595 0 0.00059819234308829052 -0.004628654391713353 0 0.0004971504040606915 -0.0046177393188246429 0 0.00040165395746629432 -0.0046482842514696983 0 0.00025787546679902074 -0.0043752246797947444 0 -9.6167097593682477e-06 -0.0045452358552822338 0 -1.7433117548558432e-05 -0.0045319999983935389 0 2.6018010698083492e-05 -0.0044675403468381605 0 0.00036460028203062593 -0.0040893741664121156 0 8.6132387195975147e-05 -0.0042025612086060331 0 2.6018010698083492e-05 -0.0044675403468381605 0 8.6132387195975147e-05 -0.0042025612086060331 0 -5.0918304737418279e-05 -0.00429690648703367 0 2.6018010698083492e-05 -0.0044675403468381605 0 0.00025787546679902074 -0.0043752246797947444 0 2.8150514452812503e-05 -0.0044426360275014601 0 0.00036460028203062593 -0.0040893741664121156 0 8.6132387195975147e-05 -0.0042025612086060331 0 0.00025073108068110521 -0.0040418984594321602 0 8.6132387195975147e-05 -0.0042025612086060331 0 0.00025073108068110521 -0.0040418984594321602 0 0.00010087513796535046 -0.0039505609811718015 0 0.00025073108068110521 -0.0040418984594321602 0 0.00010087513796535046 -0.0039505609811718015 0 0.00022299266918807172 -0.0039212170055545831 0 0.00019886708351568482 -0.0038046414208255958 0 0.00010087513796535046 -0.0039505609811718015 0 0.00022299266918807172 -0.0039212170055545831 0 0.00034205748666414875 -0.0038890795456183905 0 0.00025073108068110521 -0.0040418984594321602 0 0.00022299266918807172 -0.0039212170055545831 0 0.00019886708351568482 -0.0038046414208255958 0 0.00034205748666414875 -0.0038890795456183905 0 0.00022299266918807172 -0.0039212170055545831 0 6.1957912135804736e-06 -0.0038055063110704326 0 0.00010087513796535046 -0.0039505609811718015 0 -7.5918447488512906e-05 -0.0039387259422168728 0 0.00010087513796535046 -0.0039505609811718015 0 -7.4395816121289545e-06 -0.0040960128833245121 0 -7.5918447488512906e-05 -0.0039387259422168728 0 -7.4395816121289545e-06 -0.0040960128833245121 0 -5.0918304737418279e-05 -0.00429690648703367 0 -0.00016112584322474112 -0.0040616594355611197 0 8.6132387195975147e-05 -0.0042025612086060331 0 0.00010087513796535046 -0.0039505609811718015 0 -7.4395816121289545e-06 -0.0040960128833245121 0 8.6132387195975147e-05 -0.0042025612086060331 0 -7.4395816121289545e-06 -0.0040960128833245121 0 -5.0918304737418279e-05 -0.00429690648703367 0 -5.0918304737418279e-05 -0.00429690648703367 0 -8.7030201790098491e-05 -0.0044791237678719004 0 -0.00013899578827782617 -0.0043260147629732119 0 -5.0918304737418279e-05 -0.00429690648703367 0 2.6018010698083492e-05 -0.0044675403468381605 0 -8.7030201790098491e-05 -0.0044791237678719004 0 -7.8339689198136356e-05 -0.00465927092021267 0 2.6018010698083492e-05 -0.0044675403468381605 0 -9.7336162643139968e-05 -0.0046186517656733126 0 2.6018010698083492e-05 -0.0044675403468381605 0 -8.7030201790098491e-05 -0.0044791237678719004 0 -9.7336162643139968e-05 -0.0046186517656733126 0 -8.7030201790098491e-05 -0.0044791237678719004 0 -9.7336162643139968e-05 -0.0046186517656733126 0 -0.00010744157870719771 -0.0045734545013279082 0 -9.7336162643139968e-05 -0.0046186517656733126 0 -0.00012194441816894595 -0.00463690692463816 0 -0.00010744157870719771 -0.0045734545013279082 0 -9.7336162643139968e-05 -0.0046186517656733126 0 -0.00015958473003275527 -0.0047590473901802655 0 -0.00012194441816894595 -0.00463690692463816 0 -7.8339689198136356e-05 -0.00465927092021267 0 -9.7336162643139968e-05 -0.0046186517656733126 0 -0.00015958473003275527 -0.0047590473901802655 0 -0.00015958473003275527 -0.0047590473901802655 0 -0.00012194441816894595 -0.00463690692463816 0 -0.00015249268816970287 -0.0045648138702867108 0 -0.00015958473003275527 -0.0047590473901802655 0 -0.00015249268816970287 -0.0045648138702867108 0 -0.00019175398696856806 -0.0049221025281080888 0 -0.00012194441816894595 -0.00463690692463816 0 -0.00015249268816970287 -0.0045648138702867108 0 -5.7096931193900123e-05 -0.0045394192327224024 0 -0.00015249268816970287 -0.0045648138702867108 0 -6.1820028856117431e-07 -0.0043665361940055563 0 -8.0349909093878775e-05 -0.0042760233302207165 0 -6.1820028856117431e-07 -0.0043665361940055563 0 -8.0349909093878775e-05 -0.0042760233302207165 0 5.5836051703965189e-07 -0.0035987525406192718 0 -0.00015249268816970287 -0.0045648138702867108 0 -6.1820028856117431e-07 -0.0043665361940055563 0 -9.1854194870596227e-05 -0.0046179067336147 0 -0.00014482218735022931 -0.0046270108154247945 0 -0.0001456929474697254 -0.0048439091610734709 0 -0.00015249268816970287 -0.0045648138702867108 0 -0.00022530153948685774 -0.0050294782095903368 0 -0.00019175398696856806 -0.0049221025281080888 0 -0.00022530153948685774 -0.0050294782095903368 0 -0.00015800829143892636 -0.0052155943417523457 0 -0.00019175398696856806 -0.0049221025281080888 0 -0.00022530153948685774 -0.0050294782095903368 0 -0.00017782497535994243 -0.0054852322929646443 0 -0.00015800829143892636 -0.0052155943417523457 0 -0.00015800829143892636 -0.0052155943417523457 0 -0.0001262314586370377 -0.0050720175096457456 0 -0.00019175398696856806 -0.0049221025281080888 0 -0.0001456929474697254 -0.0048439091610734709 0 -9.7997988032778874e-05 -0.0053004599141204351 0 -6.1820028856117431e-07 -0.0043665361940055563 0 -9.1854194870596227e-05 -0.0046179067336147 0 4.5721350405846124e-08 -0.0051368069387190754 0 -9.1854194870596227e-05 -0.0046179067336147 0 4.5721350405846124e-08 -0.0051368069387190754 0 2.8387513865888505e-05 -0.0051054567288257181 0 -9.7997988032778874e-05 -0.0053004599141204351 0 -4.3552002530392152e-08 -0.0059067114488190247 0 4.5721350405846124e-08 -0.0051368069387190754 0 2.8387513865888505e-05 -0.0051054567288257181 0 1.4747446528827123e-07 -0.0059065553298374126 0 -0.00017782497535994243 -0.0054852322929646443 0 -0.00015800829143892636 -0.0052155943417523457 0 -6.6617152159992494e-05 -0.0054617850339298175 0 -0.00015800829143892636 -0.0052155943417523457 0 -6.5300895910541597e-05 -0.0052041361178119918 0 -0.0001262314586370377 -0.0050720175096457456 0 -0.00015800829143892636 -0.0052155943417523457 0 -6.5300895910541597e-05 -0.0052041361178119918 0 -6.6617152159992494e-05 -0.0054617850339298175 0 -0.0001262314586370377 -0.0050720175096457456 0 -0.00012646601975325382 -0.0048713397503489771 0 -3.1617959284721529e-05 -0.005033832027297595 0 -6.5300895910541597e-05 -0.0052041361178119918 0 -0.0001262314586370377 -0.0050720175096457456 0 -3.1617959284721529e-05 -0.005033832027297595 0 -0.00015958473003275527 -0.0047590473901802655 0 -0.00019175398696856806 -0.0049221025281080888 0 -0.00012646601975325382 -0.0048713397503489771 0 -0.0001262314586370377 -0.0050720175096457456 0 -0.00019175398696856806 -0.0049221025281080888 0 -0.00012646601975325382 -0.0048713397503489771 0 -7.8339689198136356e-05 -0.00465927092021267 0 -0.00015958473003275527 -0.0047590473901802655 0 -0.00012646601975325382 -0.0048713397503489771 0 -7.8339689198136356e-05 -0.00465927092021267 0 -0.00012646601975325382 -0.0048713397503489771 0 -5.5125684103717005e-05 -0.0047922315698530485 0 -0.00012646601975325382 -0.0048713397503489771 0 -5.5125684103717005e-05 -0.0047922315698530485 0 -3.1617959284721529e-05 -0.005033832027297595 0 -5.5125684103717005e-05 -0.0047922315698530485 0 5.5980166246595221e-05 -0.004818193378768057 0 -3.1617959284721529e-05 -0.005033832027297595 0 0.00010635217352243687 -0.0050073631049742913 0 5.5980166246595221e-05 -0.004818193378768057 0 -3.1617959284721529e-05 -0.005033832027297595 0 0.0002178965167016883 -0.0048212085123601972 0 0.00010635217352243687 -0.0050073631049742913 0 5.5980166246595221e-05 -0.004818193378768057 0 0.00039106924159944322 -0.0048031759170526862 0 0.0002178965167016883 -0.0048212085123601972 0 0.0003025775207392319 -0.0051019161702373613 0 0.0002178965167016883 -0.0048212085123601972 0 0.00010635217352243687 -0.0050073631049742913 0 0.0003025775207392319 -0.0051019161702373613 0 0.00010635217352243687 -0.0050073631049742913 0 0.0003025775207392319 -0.0051019161702373613 0 2.4588728256622452e-05 -0.0053137444633470678 0 0.0003025775207392319 -0.0051019161702373613 0 2.4588728256622452e-05 -0.0053137444633470678 0 0.00026420287747981776 -0.0054413244574150936 0 0.00010635217352243687 -0.0050073631049742913 0 2.4588728256622452e-05 -0.0053137444633470678 0 -3.1617959284721529e-05 -0.005033832027297595 0 -6.5300895910541597e-05 -0.0052041361178119918 0 2.4588728256622452e-05 -0.0053137444633470678 0 -3.1617959284721529e-05 -0.005033832027297595 0 2.4588728256622452e-05 -0.0053137444633470678 0 -6.6617152159992494e-05 -0.0054617850339298175 0 1.5798816557950302e-05 -0.0058733103648939472 0 -6.5300895910541597e-05 -0.0052041361178119918 0 2.4588728256622452e-05 -0.0053137444633470678 0 -6.6617152159992494e-05 -0.0054617850339298175 0 -6.6617152159992494e-05 -0.0054617850339298175 0 -1.2621775210827001e-06 -0.0059080295071219724 0 1.5798816557950302e-05 -0.0058733103648939472 0 -0.00017782497535994243 -0.0054852322929646443 0 -6.6617152159992494e-05 -0.0054617850339298175 0 -1.2621775210827001e-06 -0.0059080295071219724 0 -1.2621775210827001e-06 -0.0059080295071219724 0 1.5798816557950302e-05 -0.0058733103648939472 0 1.8273022588513602e-06 -0.0067259422302467439 0 2.4588728256622452e-05 -0.0053137444633470678 0 1.5798816557950302e-05 -0.0058733103648939472 0 0.00026420287747981776 -0.0054413244574150936 0 0.00026420287747981776 -0.0054413244574150936 0 0.00064652968047033759 -0.0057073069874826682 0 0.00052475765081444426 -0.0053171335871337903 0 1.5798816557950302e-05 -0.0058733103648939472 0 0.00026420287747981776 -0.0054413244574150936 0 0.00064652968047033759 -0.0057073069874826682 0 7.9159064255636191e-05 -0.0071262216369990068 0 3.451537832702155e-05 -0.0069381550469131631 0 5.1026851957700981e-07 -0.0067290751277965886 0 1.5798816557950302e-05 -0.0058733103648939472 0 0.00064652968047033759 -0.0057073069874826682 0 1.8273022588513602e-06 -0.0067259422302467439 0 0.00033605098718049876 -0.0064127420425323387 0 1.2266799138738934e-07 -0.0067279690313546917 0 7.9159064255636191e-05 -0.0071262216369990068 0 3.451537832702155e-05 -0.0069381550469131631 0 5.1742527665858667e-05 -0.0071325168082224258 0 7.5561361959146185e-08 -0.007502037679953018 0 3.451537832702155e-05 -0.0069381550469131631 0 5.6386377398701725e-05 -0.0076380281171218754 0 3.451537832702155e-05 -0.0069381550469131631 0 5.6386377398701725e-05 -0.0076380281171218754 0 0.00018965640149378374 -0.0081778191125007824 0 7.2620955534938574e-05 -0.0070687763887337125 0 7.8702604697998454e-05 -0.0076300476466357441 0 7.5561361959146185e-08 -0.007502037679953018 0 3.451537832702155e-05 -0.0069381550469131631 0 5.1026851957700981e-07 -0.0067290751277965886 0 -7.2997144289447272e-06 -0.007988027758348816 0 5.6386377398701725e-05 -0.0076380281171218754 0 0.00018965640149378374 -0.0081778191125007824 0 7.9159064255636191e-05 -0.0071262216369990068 0 5.1742527665858667e-05 -0.0071325168082224258 0 6.8253091419978574e-05 -0.0071092982656623064 0 0.00081465968560507978 -0.0051948484543468546 0 0.00052475765081444426 -0.0053171335871337903 0 0.00057335978204519169 -0.0049524945074842291 0 0.00033605098718049876 -0.0064127420425323387 0 0.00045033823544484694 -0.0061639487517405177 0 0.00011024132961291543 -0.0071171157534610507 0 5.1742527665858667e-05 -0.0071325168082224258 0 6.8253091419978574e-05 -0.0071092982656623064 0 0.00064652968047033759 -0.0057073069874826682 0 0.00081465968560507978 -0.0051948484543468546 0 0.00052475765081444426 -0.0053171335871337903 0 0.0003025775207392319 -0.0051019161702373613 0 0.00026420287747981776 -0.0054413244574150936 0 0.00052475765081444426 -0.0053171335871337903 0 0.0003025775207392319 -0.0051019161702373613 0 0.00052475765081444426 -0.0053171335871337903 0 0.00057335978204519169 -0.0049524945074842291 0 0.00039106924159944322 -0.0048031759170526862 0 0.0003025775207392319 -0.0051019161702373613 0 0.00057335978204519169 -0.0049524945074842291 0 0.0004395072292953517 -0.0058798271395132792 0 0.00045033823544484694 -0.0061639487517405177 0 0.0009299121519378555 -0.0048262188755196197 0 0.00075145859537425856 -0.0048661050260353474 0 0.00081465968560507978 -0.0051948484543468546 0 0.00075145859537425856 -0.0048661050260353474 0 0.00081465968560507978 -0.0051948484543468546 0 0.00057335978204519169 -0.0049524945074842291 0 0.0019409370501292651 0.0023466552617660212 0 0.0017845118541779507 0.0024716381703878388 0 0.001974486957274126 0.00260035796837149 0 0.0021246851456463781 0.0023718038991360577 0 0.0019409370501292651 0.0023466552617660212 0 0.001974486957274126 0.00260035796837149 0 0.00071486869467667937 -0.00090041919234481993 0 0.00048583084508727379 -0.00073473972397791114 0 -0.00076261882576721986 -0.004347443013129215 0 -0.00099171330230568848 -0.0040809932857677278 0 -0.00070605662728538178 -0.0041191775637832899 0 0.0021246851456463781 0.0023718038991360577 0 0.0019409370501292651 0.0023466552617660212 0 0.0020303252567014881 0.0021918273294773034 0 0.0021246851456463781 0.0023718038991360577 0 0.0022605432261238833 0.0021484965673897755 0 0.0020303252567014881 0.0021918273294773034 0 0.0019409370501292651 0.0023466552617660212 0 0.0018004498660143865 0.002297343235028461 0 0.0018961244614012821 0.0021566200654115648 0 0.0018004498660143865 0.002297343235028461 0 0.0015783009148260811 0.0023603200288007543 0 0.0017845118541779507 0.0024716381703878388 0 0.0018004498660143865 0.002297343235028461 0 0.0015783009148260811 0.0023603200288007543 0 0.0018008242524504183 0.0021536903164908272 0 0.0019409370501292651 0.0023466552617660212 0 0.0018004498660143865 0.002297343235028461 0 0.0017845118541779507 0.0024716381703878388 0 0.0015783009148260811 0.0023603200288007543 0 0.0016091682323044595 0.0025954351556767429 0 0.0017845118541779507 0.0024716381703878388 0 0.0016091682323044595 0.0025954351556767429 0 0.0017845118541779507 0.0024716381703878388 0 0.0017252101034228096 0.0026903619465789689 0 0.0017845118541779507 0.0024716381703878388 0 0.0017252101034228096 0.0026903619465789689 0 0.001974486957274126 0.00260035796837149 0 0.0017252101034228096 0.0026903619465789689 0 0.0016390941545844312 0.0028299253636745601 0 0.0018174033569457633 0.0027913928882926427 0 0.0017252101034228096 0.0026903619465789689 0 0.0018174033569457633 0.0027913928882926427 0 0.001974486957274126 0.00260035796837149 0 0.0017252101034228096 0.0026903619465789689 0 0.0016390941545844312 0.0028299253636745601 0 0.0015661735434202174 0.0028052662258079984 0 0.0016091682323044595 0.0025954351556767429 0 0.0017252101034228096 0.0026903619465789689 0 0.0015661735434202174 0.0028052662258079984 0 0.001982665466234781 0.0035029714659601178 0 0.0015034869821974213 0.0026660084111413923 0 0.00061759658976772715 0.00060729975151320697 0 0.001982665466234781 0.0035029714659601178 0 0.0016966051340764814 0.002910162287851729 0 0.0016390941545844312 0.0028299253636745601 0 0.0018174033569457633 0.0027913928882926427 0 0.00061759658976772715 0.00060729975151320697 0 0.00027670272764462601 -0.00060706844478925306 0 -0.00090850911081577469 -0.003592104303630939 0 -0.0012337412778293184 -0.0037803725239982894 0 -0.00078114256328851498 -0.0038937015605863485 0 0.00027670272764462601 -0.00060706844478925306 0 0.00048583084508727379 -0.00073473972397791114 0 -0.0012337412778293184 -0.0037803725239982894 0 -0.00099171330230568848 -0.0040809932857677278 0 -0.00078114256328851498 -0.0038937015605863485 0 -0.00099171330230568848 -0.0040809932857677278 0 -0.00078114256328851498 -0.0038937015605863485 0 -0.00070605662728538178 -0.0041191775637832899 0 -0.00090850911081577469 -0.003592104303630939 0 -0.00078114256328851498 -0.0038937015605863485 0 -0.00063676574142776854 -0.0036653934317549203 0 -0.00078114256328851498 -0.0038937015605863485 0 -0.00063676574142776854 -0.0036653934317549203 0 -0.00050720712032452549 -0.0039789714835042709 0 -0.00038287771001139305 -0.0037121244910605523 0 -0.00063676574142776854 -0.0036653934317549203 0 -0.00050720712032452549 -0.0039789714835042709 0 -0.00038287771001139305 -0.0037121244910605523 0 -0.00050720712032452549 -0.0039789714835042709 0 -0.00030360413909931054 -0.003946791785046198 0 -0.00050720712032452549 -0.0039789714835042709 0 -0.00030360413909931054 -0.003946791785046198 0 -0.00027016514963974059 -0.004225675876095192 0 -0.00078114256328851498 -0.0038937015605863485 0 -0.00050720712032452549 -0.0039789714835042709 0 -0.00070605662728538178 -0.0041191775637832899 0 -0.00050720712032452549 -0.0039789714835042709 0 -0.00049813032938395322 -0.0042823615852505314 0 -0.00070605662728538178 -0.0041191775637832899 0 -7.4395816121289545e-06 -0.0040960128833245121 0 -7.5918447488512906e-05 -0.0039387259422168728 0 -0.00016112584322474112 -0.0040616594355611197 0 -0.00019692097741343714 -0.0037410670897505766 0 -7.5918447488512906e-05 -0.0039387259422168728 0 -0.00016112584322474112 -0.0040616594355611197 0 -0.00019692097741343714 -0.0037410670897505766 0 -0.00038287771001139305 -0.0037121244910605523 0 -0.00030360413909931054 -0.003946791785046198 0 -0.00019692097741343714 -0.0037410670897505766 0 -0.00030360413909931054 -0.003946791785046198 0 -0.00016112584322474112 -0.0040616594355611197 0 -0.00030360413909931054 -0.003946791785046198 0 -0.00016112584322474112 -0.0040616594355611197 0 -0.00027016514963974059 -0.004225675876095192 0 -0.00016112584322474112 -0.0040616594355611197 0 -0.00013899578827782617 -0.0043260147629732119 0 -0.00027016514963974059 -0.004225675876095192 0 -5.0918304737418279e-05 -0.00429690648703367 0 -0.00016112584322474112 -0.0040616594355611197 0 -0.00013899578827782617 -0.0043260147629732119 0 -0.00013899578827782617 -0.0043260147629732119 0 -0.00027016514963974059 -0.004225675876095192 0 -0.00014953242362019512 -0.0044722427101388795 0 -0.00014953242362019512 -0.0044722427101388795 0 -0.00024484056865234783 -0.0044503515881616374 0 -0.00012351764489545587 -0.0045245374184075798 0 -0.00027016514963974059 -0.004225675876095192 0 -0.00014953242362019512 -0.0044722427101388795 0 -0.00024484056865234783 -0.0044503515881616374 0 -8.7030201790098491e-05 -0.0044791237678719004 0 -0.00014953242362019512 -0.0044722427101388795 0 -0.00010744157870719771 -0.0045734545013279082 0 -8.7030201790098491e-05 -0.0044791237678719004 0 -0.00013899578827782617 -0.0043260147629732119 0 -0.00014953242362019512 -0.0044722427101388795 0 -0.00076261882576721986 -0.004347443013129215 0 -0.00049813032938395322 -0.0042823615852505314 0 -0.00070605662728538178 -0.0041191775637832899 0 -0.00027016514963974059 -0.004225675876095192 0 -0.00049813032938395322 -0.0042823615852505314 0 -0.00024484056865234783 -0.0044503515881616374 0 -0.00050720712032452549 -0.0039789714835042709 0 -0.00027016514963974059 -0.004225675876095192 0 -0.00049813032938395322 -0.0042823615852505314 0 -0.00049813032938395322 -0.0042823615852505314 0 -0.00024484056865234783 -0.0044503515881616374 0 -0.00054705863397959474 -0.0046053415192043781 0 -0.00071854148316476108 -0.0051395269739577358 0 0.00026338465497703124 -0.001990518562811512 0 0.00071486869467667937 -0.00090041919234481993 0 0.00026338465497703124 -0.001990518562811512 0 -0.00076261882576721986 -0.004347443013129215 0 -0.00049813032938395322 -0.0042823615852505314 0 -0.00054705863397959474 -0.0046053415192043781 0 -5.7299755996791747e-05 -0.0016864947553990068 0 -7.9376670384182256e-05 -0.0017684690146969049 0 -8.5526292100267145e-05 -0.0017242038511481358 0 0.00026338465497703124 -0.001990518562811512 0 0.0013302415809423238 0.0003623521804272269 0 -0.00018054341591852284 -0.0044768393355700872 0 -0.00016133207035499937 -0.0044933356128489168 0 -8.1203442199830018e-05 -0.0045026709849245259 0 -0.00024484056865234783 -0.0044503515881616374 0 -0.00018054341591852284 -0.0044768393355700872 0 -0.00016133207035499937 -0.0044933356128489168 0 0.00026338465497703124 -0.001990518562811512 0 -2.1503167210373356e-05 -0.003341553441528507 0 4.0408467371041991e-05 -0.0018464927716085548 0 -7.9376670384182256e-05 -0.0017684690146969049 0 -8.076669612759832e-05 -0.0020243935978337497 0 -5.7299755996791747e-05 -0.0016864947553990068 0 4.0408467371041991e-05 -0.0018464927716085548 0 -7.9376670384182256e-05 -0.0017684690146969049 0 -0.00010744157870719771 -0.0045734545013279082 0 -0.00012351764489545587 -0.0045245374184075798 0 -5.7096931193900123e-05 -0.0045394192327224024 0 -0.00014953242362019512 -0.0044722427101388795 0 -0.00010744157870719771 -0.0045734545013279082 0 -0.00012351764489545587 -0.0045245374184075798 0 -0.00016133207035499937 -0.0044933356128489168 0 -8.1203442199830018e-05 -0.0045026709849245259 0 -0.00012351764489545587 -0.0045245374184075798 0 -0.00024484056865234783 -0.0044503515881616374 0 -0.00016133207035499937 -0.0044933356128489168 0 -0.00012351764489545587 -0.0045245374184075798 0 -8.1203442199830018e-05 -0.0045026709849245259 0 -5.7096931193900123e-05 -0.0045394192327224024 0 0.00010568595281823985 -0.0043654638548150529 0 -8.1203442199830018e-05 -0.0045026709849245259 0 -0.00012351764489545587 -0.0045245374184075798 0 -5.7096931193900123e-05 -0.0045394192327224024 0 -0.00012194441816894595 -0.00463690692463816 0 -0.00010744157870719771 -0.0045734545013279082 0 -5.7096931193900123e-05 -0.0045394192327224024 0 -5.7096931193900123e-05 -0.0045394192327224024 0 -8.0349909093878775e-05 -0.0042760233302207165 0 0.00010568595281823985 -0.0043654638548150529 0 -0.00015249268816970287 -0.0045648138702867108 0 -5.7096931193900123e-05 -0.0045394192327224024 0 -8.0349909093878775e-05 -0.0042760233302207165 0 -2.1503167210373356e-05 -0.003341553441528507 0 6.6326803754749377e-05 -0.0033329731326042847 0 0.00015867958953671009 -0.0024373220987222678 0 7.8799824204946375e-07 -0.0035956579935551543 0 -2.0915435746497706e-07 -0.0027268198100368598 0 -8.0349909093878775e-05 -0.0042760233302207165 0 0.00010568595281823985 -0.0043654638548150529 0 5.5836051703965189e-07 -0.0035987525406192718 0 6.6326803754749377e-05 -0.0033329731326042847 0 -4.1432181159707253e-08 -0.0035966111780038209 0 -7.9376670384182256e-05 -0.0017684690146969049 0 -8.076669612759832e-05 -0.0020243935978337497 0 -8.495581493360114e-05 -0.0016273800553049356 0 -8.076669612759832e-05 -0.0020243935978337497 0 -5.6715622021068186e-05 -0.001604907835197712 0 -8.495581493360114e-05 -0.0016273800553049356 0 4.0408467371041991e-05 -0.0018464927716085548 0 0.00015867958953671009 -0.0024373220987222678 0 -8.076669612759832e-05 -0.0020243935978337497 0 0.00015867958953671009 -0.0024373220987222678 0 -8.076669612759832e-05 -0.0020243935978337497 0 -2.0915435746497706e-07 -0.0027268198100368598 0 -8.076669612759832e-05 -0.0020243935978337497 0 -2.0915435746497706e-07 -0.0027268198100368598 0 -1.882210525698068e-07 -0.0018570449118912812 0 -8.076669612759832e-05 -0.0020243935978337497 0 -1.882210525698068e-07 -0.0018570449118912812 0 -5.6715622021068186e-05 -0.001604907835197712 0 -1.882210525698068e-07 -0.0018570449118912812 0 -5.6715622021068186e-05 -0.001604907835197712 0 -7.7758954501786199e-09 -0.00098716339902997258 0 -5.6715622021068186e-05 -0.001604907835197712 0 -7.7758954501786199e-09 -0.00098716339902997258 0 -3.4562171109096807e-05 -0.0013445946715255331 0 -3.4562171109096807e-05 -0.0013445946715255331 0 -3.5335098005424637e-05 -0.001480777359519561 0 4.215157209830897e-05 -0.0010457266842805837 0 -7.7758954501786199e-09 -0.00098716339902997258 0 -3.4562171109096807e-05 -0.0013445946715255331 0 4.215157209830897e-05 -0.0010457266842805837 0 -5.6715622021068186e-05 -0.001604907835197712 0 -3.4562171109096807e-05 -0.0013445946715255331 0 -8.495581493360114e-05 -0.0016273800553049356 0 -7.9376670384182256e-05 -0.0017684690146969049 0 -8.495581493360114e-05 -0.0016273800553049356 0 -8.5526292100267145e-05 -0.0017242038511481358 0 -3.4562171109096807e-05 -0.0013445946715255331 0 -8.495581493360114e-05 -0.0016273800553049356 0 -3.5335098005424637e-05 -0.001480777359519561 0 -8.495581493360114e-05 -0.0016273800553049356 0 -2.2291135314239455e-06 -0.0016666543320952012 0 -8.5526292100267145e-05 -0.0017242038511481358 0 0.00083821707162946759 -0.00019246991528844705 0 0.0013302415809423238 0.0003623521804272269 0 6.3649280194768917e-05 -0.0014574859332706846 0 0.00083821707162946759 -0.00019246991528844705 0 0.0010280209793595005 0.00075667169389540283 0 0.0014447895354200561 0.00075217614907169077 0 0.00088107549810347431 0.0011478064744385058 0 0.00083821707162946759 -0.00019246991528844705 0 0.0014097175350753213 0.0022475376201830407 0 0.00083821707162946759 -0.00019246991528844705 0 0.00037612821695378419 -0.0003646083811725313 0 0.0010280209793595005 0.00075667169389540283 0 0.0014447895354200561 0.00075217614907169077 0 0.00086503079452191845 0.00035678079296195349 0 0.0019667724304093599 0.0019773694462716135 0 0.0018961244614012821 0.0021566200654115648 0 0.0017723921255459374 0.002130624156004254 0 0.0019667724304093599 0.0019773694462716135 0 0.0018961244614012821 0.0021566200654115648 0 0.0020303252567014881 0.0021918273294773034 0 0.0019409370501292651 0.0023466552617660212 0 0.0018961244614012821 0.0021566200654115648 0 0.0020303252567014881 0.0021918273294773034 0 0.0018929315961088457 0.0022293589634439855 0 0.0014097175350753213 0.0022475376201830407 0 0.0022605432261238833 0.0021484965673897755 0 0.0020303252567014881 0.0021918273294773034 0 0.002117055957249534 0.0020738000760236967 0 0.0019667724304093599 0.0019773694462716135 0 0.0020303252567014881 0.0021918273294773034 0 0.002117055957249534 0.0020738000760236967 0 0.0010152325453311444 0.0031939889338299357 0 0.00099070824642664068 0.0029698899269726092 0 0.0012557167216659616 0.0030114138432100436 0 0.00049079966656329424 0.0019375084142929772 0 0.0014097175350753213 0.0022475376201830407 0 0.0013047092558579453 0.0028280815674625779 0 0.0014097175350753213 0.0022475376201830407 0 0.0018004498660143865 0.002297343235028461 0 0.0018961244614012821 0.0021566200654115648 0 0.0018008242524504183 0.0021536903164908272 0 0.0010280209793595005 0.00075667169389540283 0 0.00088107549810347431 0.0011478064744385058 0 0.00052258057004571671 0.00074971108403640264 0 0.0010280209793595005 0.00075667169389540283 0 0.00052258057004571671 0.00074971108403640264 0 0.00086503079452191845 0.00035678079296195349 0 0.00013217304247273309 0.00094918384282396322 0 0.00052258057004571671 0.00074971108403640264 0 -4.0440879118379848e-06 0.00057432527475174077 0 0.00013217304247273309 0.00094918384282396322 0 0.00088107549810347431 0.0011478064744385058 0 0.00052258057004571671 0.00074971108403640264 0 0.00052258057004571671 0.00074971108403640264 0 0.00017407063868086543 -0.0001130372501860086 0 -4.0440879118379848e-06 0.00057432527475174077 0 0.00052258057004571671 0.00074971108403640264 0 0.00017407063868086543 -0.0001130372501860086 0 0.00086503079452191845 0.00035678079296195349 0 0.0002019844518775961 -0.00019799925191067122 0 0.00037612821695378419 -0.0003646083811725313 0 -7.7758954501786199e-09 -0.00098716339902997258 0 0.00017407063868086543 -0.0001130372501860086 0 4.215157209830897e-05 -0.0010457266842805837 0 -7.7758954501786199e-09 -0.00098716339902997258 0 0.00017407063868086543 -0.0001130372501860086 0 3.2685621571953245e-07 -0.00011736861780978774 0 0.00017407063868086543 -0.0001130372501860086 0 3.2685621571953245e-07 -0.00011736861780978774 0 -2.8378890490021523e-06 0.00032178636621483256 0 3.2685621571953245e-07 -0.00011736861780978774 0 -2.8378890490021523e-06 0.00032178636621483256 0 -2.2509057556412954e-07 0.00075253225847766439 0 -2.2509057556412954e-07 0.00075253225847766439 0 -6.8006058464045195e-05 0.00075389095680144266 0 -4.4013326422907035e-05 0.0012777843545194974 0 -2.8378890490021523e-06 0.00032178636621483256 0 -2.2509057556412954e-07 0.00075253225847766439 0 -6.8006058464045195e-05 0.00075389095680144266 0 -6.8006058464045195e-05 0.00075389095680144266 0 -4.4013326422907035e-05 0.0012777843545194974 0 -0.00013390738573859469 0.00097111179490866817 0 -2.8378890490021523e-06 0.00032178636621483256 0 -6.8006058464045195e-05 0.00075389095680144266 0 -4.0440879118379848e-06 0.00057432527475174077 0 0.00017407063868086543 -0.0001130372501860086 0 -2.8378890490021523e-06 0.00032178636621483256 0 -4.0440879118379848e-06 0.00057432527475174077 0 -6.8006058464045195e-05 0.00075389095680144266 0 -4.0440879118379848e-06 0.00057432527475174077 0 -0.00013390738573859469 0.00097111179490866817 0 1.1432116395101779e-07 0.0016224445111192346 0 -4.4013326422907035e-05 0.0012777843545194974 0 5.986504707535083e-05 0.0019462674289400716 0 -2.2509057556412954e-07 0.00075253225847766439 0 1.1432116395101779e-07 0.0016224445111192346 0 -4.4013326422907035e-05 0.0012777843545194974 0 -4.4013326422907035e-05 0.0012777843545194974 0 5.986504707535083e-05 0.0019462674289400716 0 7.339320254021071e-06 0.0015194304145528298 0 5.986504707535083e-05 0.0019462674289400716 0 7.339320254021071e-06 0.0015194304145528298 0 0.00013387697303793037 0.0026034743303831385 0 0.00053765232447299395 0.0028443670954609564 0 0.00040244191849644477 0.0031104573565056922 0 0.00013387697303793037 0.0026034743303831385 0 -4.4013326422907035e-05 0.0012777843545194974 0 7.339320254021071e-06 0.0015194304145528298 0 -0.00013390738573859469 0.00097111179490866817 0 0.0002167920622321898 0.0021979595154693137 0 0.0003167101211442917 0.0019698462202840383 0 0.00053765232447299395 0.0028443670954609564 0 0.00061075569916614245 0.0030455927043546078 0 0.00074883264448799927 0.0029356708384506301 0 0.00061075569916614245 0.0030455927043546078 0 0.00074763457656313453 0.0031544611550983364 0 0.0005171717478850438 0.0032242466759850172 0 0.00053765232447299395 0.0028443670954609564 0 0.00061075569916614245 0.0030455927043546078 0 0.00040244191849644477 0.0031104573565056922 0 0.00061075569916614245 0.0030455927043546078 0 0.00040244191849644477 0.0031104573565056922 0 0.0005171717478850438 0.0032242466759850172 0 0.00049079966656329424 0.0019375084142929772 0 0.0003167101211442917 0.0019698462202840383 0 0.00013217304247273309 0.00094918384282396322 0 -4.0440879118379848e-06 0.00057432527475174077 0 -0.00013390738573859469 0.00097111179490866817 0 0.00061075569916614245 0.0030455927043546078 0 0.00074883264448799927 0.0029356708384506301 0 0.00074763457656313453 0.0031544611550983364 0 0.00099070824642664068 0.0029698899269726092 0 0.00074883264448799927 0.0029356708384506301 0 0.00074763457656313453 0.0031544611550983364 0 0.0010152325453311444 0.0031939889338299357 0 0.00099070824642664068 0.0029698899269726092 0 0.00074763457656313453 0.0031544611550983364 0 0.0010152325453311444 0.0031939889338299357 0 0.00077410207575145452 0.0033663436546462456 0 0.00074763457656313453 0.0031544611550983364 0 0.0016091682323044595 0.0025954351556767429 0 0.0012265233820141093 0.0026102209664213326 0 0.0015661735434202174 0.0028052662258079984 0 0.0015783009148260811 0.0023603200288007543 0 0.0016091682323044595 0.0025954351556767429 0 0.0012265233820141093 0.0026102209664213326 0 0.0013047092558579453 0.0028280815674625779 0 0.0010006114579888799 0.0029803970371637479 0 0.00077410207575145452 0.0033663436546462456 0 0.00074763457656313453 0.0031544611550983364 0 0.00058334643304834663 0.0033398854348556653 0 0.00074763457656313453 0.0031544611550983364 0 0.0005171717478850438 0.0032242466759850172 0 0.00058334643304834663 0.0033398854348556653 0 0.00040244191849644477 0.0031104573565056922 0 0.0005171717478850438 0.0032242466759850172 0 0.0003409295581556877 0.0032523197740471428 0 0.0005171717478850438 0.0032242466759850172 0 0.00039362874788769408 0.0033661482430926625 0 0.0003409295581556877 0.0032523197740471428 0 0.0005171717478850438 0.0032242466759850172 0 0.00039362874788769408 0.0033661482430926625 0 0.00058334643304834663 0.0033398854348556653 0 0.00039362874788769408 0.0033661482430926625 0 0.00058334643304834663 0.0033398854348556653 0 0.00051468816588759925 0.0034978445391415204 0 0.00077410207575145452 0.0033663436546462456 0 0.00058334643304834663 0.0033398854348556653 0 0.00051468816588759925 0.0034978445391415204 0 0.0010006114579888799 0.0029803970371637479 0 0.00061455543221559787 0.0032830278050209952 0 0.00051468816588759925 0.0034978445391415204 0 0.00028072452143636711 0.003576310117586285 0 0.00025997153699308949 0.0034635398915670934 0 0.00039362874788769408 0.0033661482430926625 0 0.00051468816588759925 0.0034978445391415204 0 0.00025997153699308949 0.0034635398915670934 0 0.00061455543221559787 0.0032830278050209952 0 0.00030148733093337404 0.0035509341290590468 0 0.00070250428716110366 0.0030646331597868714 0 0.00061273362049248028 0.0035067331535423986 0 0.00028072452143636711 0.003576310117586285 0 0.00061273362049248028 0.0035067331535423986 0 0.00028072452143636711 0.003576310117586285 0 0.00043105313626898252 0.0036821510465644765 0 0.00070250428716110366 0.0030646331597868714 0 0.00089643372842513008 0.0034877125983622591 0 0.0011858267267841778 0.0030831886792794046 0 0.00070250428716110366 0.0030646331597868714 0 0.00061273362049248028 0.0035067331535423986 0 0.00089643372842513008 0.0034877125983622591 0 0.0014731362750261864 0.0032743395459929455 0 0.0011858267267841778 0.0030831886792794046 0 0.0012444541702350505 0.003567300494001216 0 0.00089643372842513008 0.0034877125983622591 0 0.0011858267267841778 0.0030831886792794046 0 0.0012444541702350505 0.003567300494001216 0 0.0018351218356454659 0.0032493283033065571 0 0.0014731362750261864 0.0032743395459929455 0 0.0015661735434202174 0.0028052662258079984 0 0.0014731362750261864 0.0032743395459929455 0 0.0012444541702350505 0.003567300494001216 0 0.0016113004024700924 0.0036202713565119502 0 0.0018351218356454659 0.0032493283033065571 0 0.0014731362750261864 0.0032743395459929455 0 0.0016113004024700924 0.0036202713565119502 0 0.0014731362750261864 0.0032743395459929455 0 0.0015661735434202174 0.0028052662258079984 0 0.0011858267267841778 0.0030831886792794046 0 0.0012265233820141093 0.0026102209664213326 0 0.0015661735434202174 0.0028052662258079984 0 0.0011858267267841778 0.0030831886792794046 0 0.0012265233820141093 0.0026102209664213326 0 0.00070250428716110366 0.0030646331597868714 0 0.0011858267267841778 0.0030831886792794046 0 0.00017436589902319923 0.0042166220526906537 0 0.00024275905392808734 0.0041407196781364482 0 0.00014850473230352231 0.0040846077239641877 0 3.4249442429838991e-05 0.0043093120636732039 0 0.00014850473230352231 0.0040846077239641877 0 2.2871147792892845e-05 0.0041080058185844282 0 9.0233692685243611e-05 0.0042366403399415132 0 0.00017436589902319923 0.0042166220526906537 0 0.00014850473230352231 0.0040846077239641877 0 6.1459853368770636e-05 0.0042695942284112333 0 0.00014997040313495836 0.004104988179114903 0 3.4249442429838991e-05 0.0043093120636732039 0 2.2871147792892845e-05 0.0041080058185844282 0 2.6506436545128578e-05 0.0042420344479536911 0 9.0233692685243611e-05 0.0042366403399415132 0 0.00015034186071459542 0.0042809790900547708 0 0.0001141115996224557 0.004360300167424328 0 9.0233692685243611e-05 0.0042366403399415132 0 0.00015034186071459542 0.0042809790900547708 0 0.00017436589902319923 0.0042166220526906537 0 0.00015034186071459542 0.0042809790900547708 0 0.00017436589902319923 0.0042166220526906537 0 0.00020184947822705386 0.0042809902871956459 0 0.00028180016435618759 0.0042499323197124506 0 0.00025141006754836391 0.0042340072783583413 0 0.00034717207253793413 0.0041670169674853626 0 0.00020184947822705386 0.0042809902871956459 0 0.00025141006754836391 0.0042340072783583413 0 0.00025536479349956944 0.0042916124396344367 0 0.00028180016435618759 0.0042499323197124506 0 0.00025141006754836391 0.0042340072783583413 0 0.00025536479349956944 0.0042916124396344367 0 0.00017436589902319923 0.0042166220526906537 0 0.00020184947822705386 0.0042809902871956459 0 0.00025141006754836391 0.0042340072783583413 0 0.00030025234111268967 0.0038109117248399218 0 0.00026693635841761629 0.003976842535946757 0 0.00028180016435618759 0.0042499323197124506 0 0.00034717207253793413 0.0041670169674853626 0 0.00028777410419542803 0.0042873801993574068 0 0.00028072452143636711 0.003576310117586285 0 0.00025997153699308949 0.0034635398915670934 0 0.00022135490274314794 0.0036498196269235221 0 0.00034717207253793413 0.0041670169674853626 0 0.00024275905392808734 0.0041407196781364482 0 0.0003613284424142894 0.0038436341134601591 0 0.00017436589902319923 0.0042166220526906537 0 0.00025141006754836391 0.0042340072783583413 0 0.00024275905392808734 0.0041407196781364482 0 0.00025141006754836391 0.0042340072783583413 0 0.00034717207253793413 0.0041670169674853626 0 0.00024275905392808734 0.0041407196781364482 0 0.0003613284424142894 0.0038436341134601591 0 8.2304913609977483e-05 0.0039060462601340461 0 0.00014850473230352231 0.0040846077239641877 0 0.00024275905392808734 0.0041407196781364482 0 0.0003613284424142894 0.0038436341134601591 0 0.00014850473230352231 0.0040846077239641877 0 0.00030025234111268967 0.0038109117248399218 0 0.00029315186774415888 0.0035735451417485378 0 0.00039362874788769408 0.0033661482430926625 0 0.00025997153699308949 0.0034635398915670934 0 0.00025486084374527974 0.003315345242377454 0 0.0003409295581556877 0.0032523197740471428 0 0.00025486084374527974 0.003315345242377454 0 0.00016825355426599735 0.0032485712765917144 0 0.00039362874788769408 0.0033661482430926625 0 0.0003409295581556877 0.0032523197740471428 0 0.00025486084374527974 0.003315345242377454 0 0.0003613284424142894 0.0038436341134601591 0 1.4804536601659936e-05 0.0036523752799749202 0 0.00016825355426599735 0.0032485712765917144 0 0.0003613284424142894 0.0038436341134601591 0 1.4804536601659936e-05 0.0036523752799749202 0 8.2304913609977483e-05 0.0039060462601340461 0 0.00029315186774415888 0.0035735451417485378 0 0.00019065882472198148 0.0032691411128858579 0 1.4804536601659936e-05 0.0036523752799749202 0 8.2304913609977483e-05 0.0039060462601340461 0 -7.4852513384276233e-05 0.0038334306532225165 0 8.2304913609977483e-05 0.0039060462601340461 0 2.2871147792892845e-05 0.0041080058185844282 0 -7.4852513384276233e-05 0.0038334306532225165 0 8.2304913609977483e-05 0.0039060462601340461 0 0.00014850473230352231 0.0040846077239641877 0 2.2871147792892845e-05 0.0041080058185844282 0 2.2871147792892845e-05 0.0041080058185844282 0 -7.4852513384276233e-05 0.0038334306532225165 0 -0.00022616709163644097 0.0038301843444171492 0 2.9540044710184653e-05 0.0041114242772307547 0 -7.6223195602180793e-05 0.0040593944058175003 0 2.2871147792892845e-05 0.0041080058185844282 0 4.3884666741550305e-05 0.0042804870912032059 0 2.6506436545128578e-05 0.0042420344479536911 0 -0.00015399392441241321 0.003698874694420741 0 -7.4852513384276233e-05 0.0038334306532225165 0 -0.00022616709163644097 0.0038301843444171492 0 1.4804536601659936e-05 0.0036523752799749202 0 -0.00015399392441241321 0.003698874694420741 0 -7.4852513384276233e-05 0.0038334306532225165 0 -0.00015399392441241321 0.003698874694420741 0 -6.0490753622416396e-05 0.0033805048720997304 0 -0.00015907982582363681 0.0036052588574124545 0 1.4804536601659936e-05 0.0036523752799749202 0 -0.00015399392441241321 0.003698874694420741 0 -6.0490753622416396e-05 0.0033805048720997304 0 1.4804536601659936e-05 0.0036523752799749202 0 -6.0490753622416396e-05 0.0033805048720997304 0 0.00016825355426599735 0.0032485712765917144 0 -6.0490753622416396e-05 0.0033805048720997304 0 2.3501853524994152e-05 0.0030722905399077666 0 -5.8962258395069422e-05 0.0031383857828784431 0 -6.0490753622416396e-05 0.0033805048720997304 0 -0.00015907982582363681 0.0036052588574124545 0 -5.8962258395069422e-05 0.0031383857828784431 0 0.00040244191849644477 0.0031104573565056922 0 0.0003409295581556877 0.0032523197740471428 0 0.00016825355426599735 0.0032485712765917144 0 -6.0490753622416396e-05 0.0033805048720997304 0 0.00016825355426599735 0.0032485712765917144 0 2.3501853524994152e-05 0.0030722905399077666 0 2.3501853524994152e-05 0.0030722905399077666 0 0.00013387697303793037 0.0026034743303831385 0 -5.8962258395069422e-05 0.0031383857828784431 0 0.00016825355426599735 0.0032485712765917144 0 2.3501853524994152e-05 0.0030722905399077666 0 0.00013387697303793037 0.0026034743303831385 0 0.0002167920622321898 0.0021979595154693137 0 9.5745986008144774e-05 0.0025094698177058989 0 0.00040244191849644477 0.0031104573565056922 0 0.00016825355426599735 0.0032485712765917144 0 0.00013387697303793037 0.0026034743303831385 0 5.986504707535083e-05 0.0019462674289400716 0 0.00013387697303793037 0.0026034743303831385 0 4.9378706266848228e-08 0.0024921316083605272 0 0.00013387697303793037 0.0026034743303831385 0 4.9378706266848228e-08 0.0024921316083605272 0 -5.8962258395069422e-05 0.0031383857828784431 0 1.1432116395101779e-07 0.0016224445111192346 0 5.986504707535083e-05 0.0019462674289400716 0 4.9378706266848228e-08 0.0024921316083605272 0 -0.00015907982582363681 0.0036052588574124545 0 -5.8962258395069422e-05 0.0031383857828784431 0 -0.00011735740968171825 0.0037852076493786135 0 4.9378706266848228e-08 0.0024921316083605272 0 -5.8962258395069422e-05 0.0031383857828784431 0 -2.1226037755625926e-07 0.0033619855325051962 0 -5.8962258395069422e-05 0.0031383857828784431 0 -2.1226037755625926e-07 0.0033619855325051962 0 -0.00011735740968171825 0.0037852076493786135 0 -2.1226037755625926e-07 0.0033619855325051962 0 -0.00011735740968171825 0.0037852076493786135 0 -1.6521676338179433e-07 0.0042315168669733059 0 -0.00011735740968171825 0.0037852076493786135 0 -5.0491524100790648e-05 0.0042720405787055188 0 -0.00013951694346418331 0.0038698524843445029 0 -0.00011735740968171825 0.0037852076493786135 0 -5.0491524100790648e-05 0.0042720405787055188 0 -1.6521676338179433e-07 0.0042315168669733059 0 -5.0491524100790648e-05 0.0042720405787055188 0 -1.6521676338179433e-07 0.0042315168669733059 0 -2.5381141541981247e-07 0.0051016950038518969 0 -5.0491524100790648e-05 0.0042720405787055188 0 -2.5381141541981247e-07 0.0051016950038518969 0 -6.8822759556804171e-05 0.0051529186295605723 0 -2.5381141541981247e-07 0.0051016950038518969 0 -6.8822759556804171e-05 0.0051529186295605723 0 7.8973763484214469e-07 0.005970036324792264 0 -5.0491524100790648e-05 0.0042720405787055188 0 -3.8810702209708441e-05 0.0040656579063457574 0 -2.6573379950797432e-05 0.0040401029526279898 0 -7.4568017713125666e-05 0.0043889286738075413 0 -0.00015709009196345215 0.0043844535915917322 0 -5.0491524100790648e-05 0.0042720405787055188 0 -2.6573379950797432e-05 0.0040401029526279898 0 -0.00013951694346418331 0.0038698524843445029 0 -3.8810702209708441e-05 0.0040656579063457574 0 -2.6573379950797432e-05 0.0040401029526279898 0 -0.00012663628586924417 0.0040957040184196889 0 -2.6573379950797432e-05 0.0040401029526279898 0 -5.5176081586542875e-05 0.0041043261951900977 0 -0.00012663628586924417 0.0040957040184196889 0 -2.6573379950797432e-05 0.0040401029526279898 0 -0.00013951694346418331 0.0038698524843445029 0 -0.00013398156199486542 0.0038536380115756848 0 -2.6573379950797432e-05 0.0040401029526279898 0 -5.5176081586542875e-05 0.0041043261951900977 0 -0.00013398156199486542 0.0038536380115756848 0 -0.00018608535081626569 0.0037785286698045761 0 -0.00013951694346418331 0.0038698524843445029 0 -0.00013398156199486542 0.0038536380115756848 0 -0.00015399392441241321 0.003698874694420741 0 -0.00015907982582363681 0.0036052588574124545 0 -0.00018608535081626569 0.0037785286698045761 0 -0.00015907982582363681 0.0036052588574124545 0 -0.00018608535081626569 0.0037785286698045761 0 -0.00013951694346418331 0.0038698524843445029 0 -0.00015907982582363681 0.0036052588574124545 0 -0.00011735740968171825 0.0037852076493786135 0 -0.00013951694346418331 0.0038698524843445029 0 -6.1755285245998731e-05 0.0076279075221646299 0 1.4260097836992062e-07 0.0068859025733990263 0 -7.0501418202949264e-07 0.0081176616356475485 0 -6.1755285245998731e-05 0.0076279075221646299 0 0.00029718653447733821 0.0076743845111501164 0 -0.00012285063540961566 0.0082898041221216804 0 -6.1755285245998731e-05 0.0076279075221646299 0 1.4260097836992062e-07 0.0068859025733990263 0 0.00029718653447733821 0.0076743845111501164 0 1.4260097836992062e-07 0.0068859025733990263 0 0.00029718653447733821 0.0076743845111501164 0 0.00025770643538661117 0.0071388659714077263 0 0.00047375676595855806 0.0077597073342561456 0 0.00053192056534263508 0.00609751289102418 0 0.00053192056534263508 0.00609751289102418 0 -1.0168421628333958e-07 0.0059719388091446319 0 1.4260097836992062e-07 0.0068859025733990263 0 0.00025770643538661117 0.0071388659714077263 0 8.2235553444504849e-07 0.0059729701512209223 0 -6.8822759556804171e-05 0.0051529186295605723 0 0.00047688197198769299 0.005240713673681556 0 7.8973763484214469e-07 0.005970036324792264 0 -0.00015709009196345215 0.0043844535915917322 0 0.00053192056534263508 0.00609751289102418 0 -3.8810702209708441e-05 0.0040656579063457574 0 -0.00018658109727445396 0.0040290325807729463 0 -0.00012663628586924417 0.0040957040184196889 0 -5.5176081586542875e-05 0.0041043261951900977 0 -0.00012663628586924417 0.0040957040184196889 0 -0.00022603319389783141 0.0042635467720741503 0 -0.00012663628586924417 0.0040957040184196889 0 -0.0003040494023670947 0.0041339665472799741 0 -0.00022603319389783141 0.0042635467720741503 0 -0.00018658109727445396 0.0040290325807729463 0 -0.00012663628586924417 0.0040957040184196889 0 -0.0003040494023670947 0.0041339665472799741 0 0.00053192056534263508 0.00609751289102418 0 0.00045685860989527196 0.0064951416197163575 0 0.00029718653447733821 0.0076743845111501164 0 0.0011132678903581059 0.0090714046899849857 0 0.00011203457586971128 0.0091640220184197024 0 0.00029718653447733821 0.0076743845111501164 0 0.0018082890005409018 0.0075063340932894768 0 0.0011132678903581059 0.0090714046899849857 0 0.0011132678903581059 0.0090714046899849857 0 0.00013225880162289161 0.010661737589484639 0 0.00029014690982542439 0.010769235093802084 0 0.00045685860989527196 0.0064951416197163575 0 -6.8856961268767649e-05 0.0077687460238761727 0 -0.0003040494023670947 0.0041339665472799741 0 -0.00044202245400321071 0.0043131175463103208 0 -0.00022603319389783141 0.0042635467720741503 0 0.0011132678903581059 0.0090714046899849857 0 0.00011203457586971128 0.0091640220184197024 0 0.00013225880162289161 0.010661737589484639 0 0.00017661917299521593 0.010677072175151714 0 -0.00013030012750994558 0.010275439120088556 0 0.00011203457586971128 0.0091640220184197024 0 0.00013225880162289161 0.010661737589484639 0 -0.00057279194374825989 0.0089451396480369968 0 0.00011203457586971128 0.0091640220184197024 0 -0.00012285063540961566 0.0082898041221216804 0 -0.00057279194374825989 0.0089451396480369968 0 0.00029718653447733821 0.0076743845111501164 0 0.00011203457586971128 0.0091640220184197024 0 -0.00012285063540961566 0.0082898041221216804 0 -0.00044202245400321071 0.0043131175463103208 0 -0.00046704710873351438 0.0045452114934673125 0 -0.00057829533091443164 0.0045448467572887785 0 -6.8856961268767649e-05 0.0077687460238761727 0 -0.00064271826695217274 0.00644637248151512 0 0.00013225880162289161 0.010661737589484639 0 0.00029014690982542439 0.010769235093802084 0 0.00017334094884917134 0.010859097751439672 0 -0.00044202245400321071 0.0043131175463103208 0 -0.00034416084973778853 0.0044602501210995052 0 -0.00022603319389783141 0.0042635467720741503 0 -0.00044202245400321071 0.0043131175463103208 0 -0.00034416084973778853 0.0044602501210995052 0 -0.00046704710873351438 0.0045452114934673125 0 -0.00022950054891891612 0.0044658726929512277 0 -0.00022603319389783141 0.0042635467720741503 0 -0.00013434099807524009 0.0043673043981602875 0 -0.00034416084973778853 0.0044602501210995052 0 -0.00022950054891891612 0.0044658726929512277 0 -0.00022603319389783141 0.0042635467720741503 0 -5.5176081586542875e-05 0.0041043261951900977 0 -0.00022603319389783141 0.0042635467720741503 0 -0.00013434099807524009 0.0043673043981602875 0 -0.00022950054891891612 0.0044658726929512277 0 -0.00013434099807524009 0.0043673043981602875 0 -0.00016517190192755256 0.0045211304498290628 0 -0.00013434099807524009 0.0043673043981602875 0 -0.00016517190192755256 0.0045211304498290628 0 -9.1668313216393852e-05 0.0044809822370706024 0 -0.00016517190192755256 0.0045211304498290628 0 -0.00014293499111641745 0.0045918010100149198 0 -9.1668313216393852e-05 0.0044809822370706024 0 -0.00014293499111641745 0.0045918010100149198 0 -8.9769992958888467e-05 0.0046038664065363383 0 -0.00018093864155356964 0.0047120484124694925 0 -0.00014293499111641745 0.0045918010100149198 0 -0.00022270158004770852 0.0046309656415205814 0 -0.00018093864155356964 0.0047120484124694925 0 -0.00016517190192755256 0.0045211304498290628 0 -0.00014293499111641745 0.0045918010100149198 0 -0.00022270158004770852 0.0046309656415205814 0 -0.00022270158004770852 0.0046309656415205814 0 -0.00025317792112330149 0.0047432579989586396 0 -0.00018093864155356964 0.0047120484124694925 0 -0.00022270158004770852 0.0046309656415205814 0 -0.00031871507083157407 0.0045925330547838938 0 -0.00032021942987273296 0.0047367465145252063 0 -0.00022270158004770852 0.0046309656415205814 0 -0.00025317792112330149 0.0047432579989586396 0 -0.00032021942987273296 0.0047367465145252063 0 -0.00022950054891891612 0.0044658726929512277 0 -0.00016517190192755256 0.0045211304498290628 0 -0.00022270158004770852 0.0046309656415205814 0 -0.00022950054891891612 0.0044658726929512277 0 -0.00022270158004770852 0.0046309656415205814 0 -0.00031871507083157407 0.0045925330547838938 0 -0.00034416084973778853 0.0044602501210995052 0 -0.00022950054891891612 0.0044658726929512277 0 -0.00031871507083157407 0.0045925330547838938 0 -0.00034416084973778853 0.0044602501210995052 0 -0.00040376253605532909 0.0046064606426050011 0 -0.00031871507083157407 0.0045925330547838938 0 -0.00034416084973778853 0.0044602501210995052 0 -0.00040376253605532909 0.0046064606426050011 0 -0.00046704710873351438 0.0045452114934673125 0 -0.00040376253605532909 0.0046064606426050011 0 -0.00031871507083157407 0.0045925330547838938 0 -0.00043468068909575827 0.0047267255375273622 0 -0.00031871507083157407 0.0045925330547838938 0 -0.00032021942987273296 0.0047367465145252063 0 -0.00043468068909575827 0.0047267255375273622 0 -0.00025317792112330149 0.0047432579989586396 0 -0.00032021942987273296 0.0047367465145252063 0 -0.00032744922618974407 0.0048399525590620222 0 -0.00032021942987273296 0.0047367465145252063 0 -0.00042160263570090493 0.0048638201836924289 0 -0.00032744922618974407 0.0048399525590620222 0 -0.00032021942987273296 0.0047367465145252063 0 -0.00042160263570090493 0.0048638201836924289 0 -0.00043468068909575827 0.0047267255375273622 0 -0.00042160263570090493 0.0048638201836924289 0 -0.00043468068909575827 0.0047267255375273622 0 -0.00053948231594705127 0.0048409285815385157 0 -0.00043468068909575827 0.0047267255375273622 0 -0.00053948231594705127 0.0048409285815385157 0 -0.00053445460007759684 0.0046695364879503652 0 -0.00042160263570090493 0.0048638201836924289 0 -0.00053253442350056511 0.0049692188573385466 0 -0.00053948231594705127 0.0048409285815385157 0 -0.00053253442350056511 0.0049692188573385466 0 -0.00053948231594705127 0.0048409285815385157 0 -0.00066166826909585771 0.0050578352308227985 0 -0.00053948231594705127 0.0048409285815385157 0 -0.00053445460007759684 0.0046695364879503652 0 -0.00074010515265354401 0.0047971555070522691 0 -0.00053445460007759684 0.0046695364879503652 0 -0.00061740381458884634 0.0045315770149617013 0 -0.00074010515265354401 0.0047971555070522691 0 -0.00040376253605532909 0.0046064606426050011 0 -0.00043468068909575827 0.0047267255375273622 0 -0.00053445460007759684 0.0046695364879503652 0 -0.00040376253605532909 0.0046064606426050011 0 -0.00053445460007759684 0.0046695364879503652 0 -0.00046704710873351438 0.0045452114934673125 0 -0.00053445460007759684 0.0046695364879503652 0 -0.00046704710873351438 0.0045452114934673125 0 -0.00061740381458884634 0.0045315770149617013 0 -0.00059002596873191477 0.0051008074942182728 0 -0.00064271826695217274 0.00644637248151512 0 4.3884666741550305e-05 0.0042804870912032059 0 3.5463922603793557e-05 0.0042554262159569829 0 1.3042121933514134e-05 0.0043728334527018808 0 4.3884666741550305e-05 0.0042804870912032059 0 2.8558971100485124e-05 0.0043185001795164246 0 2.6506436545128578e-05 0.0042420344479536911 0 -0.00015399392441241321 0.003698874694420741 0 -0.00018608535081626569 0.0037785286698045761 0 -0.00022616709163644097 0.0038301843444171492 0 -7.6223195602180793e-05 0.0040593944058175003 0 -6.2021921359283188e-05 0.0040570222116888847 0 -0.00018608535081626569 0.0037785286698045761 0 -0.00022616709163644097 0.0038301843444171492 0 -0.00013398156199486542 0.0038536380115756848 0 -6.6154808866868318e-05 0.0040878101646840241 0 -6.2021921359283188e-05 0.0040570222116888847 0 -5.5176081586542875e-05 0.0041043261951900977 0 3.5463922603793557e-05 0.0042554262159569829 0 -2.7768827473568458e-05 0.0043492409722155111 0 -5.5176081586542875e-05 0.0041043261951900977 0 -0.00013434099807524009 0.0043673043981602875 0 -2.7768827473568458e-05 0.0043492409722155111 0 -0.00013434099807524009 0.0043673043981602875 0 -2.7768827473568458e-05 0.0043492409722155111 0 -9.1668313216393852e-05 0.0044809822370706024 0 3.5463922603793557e-05 0.0042554262159569829 0 -2.7768827473568458e-05 0.0043492409722155111 0 1.3042121933514134e-05 0.0043728334527018808 0 -2.7768827473568458e-05 0.0043492409722155111 0 -4.0648748418526895e-05 0.0044786217055683454 0 1.3042121933514134e-05 0.0043728334527018808 0 -2.7768827473568458e-05 0.0043492409722155111 0 -9.1668313216393852e-05 0.0044809822370706024 0 -4.0648748418526895e-05 0.0044786217055683454 0 -0.00014293499111641745 0.0045918010100149198 0 -9.1668313216393852e-05 0.0044809822370706024 0 -8.9769992958888467e-05 0.0046038664065363383 0 -9.1668313216393852e-05 0.0044809822370706024 0 -8.9769992958888467e-05 0.0046038664065363383 0 -4.0648748418526895e-05 0.0044786217055683454 0 -2.0359170730038051e-05 0.0045225419680407514 0 -4.0648748418526895e-05 0.0044786217055683454 0 1.3042121933514134e-05 0.0043728334527018808 0 -8.9769992958888467e-05 0.0046038664065363383 0 -2.0359170730038051e-05 0.0045225419680407514 0 -4.0648748418526895e-05 0.0044786217055683454 0 -2.0359170730038051e-05 0.0045225419680407514 0 1.3042121933514134e-05 0.0043728334527018808 0 3.4126710131717418e-05 0.0044733354434930081 0 1.3042121933514134e-05 0.0043728334527018808 0 2.8558971100485124e-05 0.0043185001795164246 0 3.4126710131717418e-05 0.0044733354434930081 0 4.3884666741550305e-05 0.0042804870912032059 0 1.3042121933514134e-05 0.0043728334527018808 0 2.8558971100485124e-05 0.0043185001795164246 0 3.4249442429838991e-05 0.0043093120636732039 0 2.8558971100485124e-05 0.0043185001795164246 0 2.6506436545128578e-05 0.0042420344479536911 0 6.1459853368770636e-05 0.0042695942284112333 0 2.1809432572968497e-05 0.0044269079845460409 0 3.4249442429838991e-05 0.0043093120636732039 0 2.8558971100485124e-05 0.0043185001795164246 0 3.4126710131717418e-05 0.0044733354434930081 0 9.0233692685243611e-05 0.0042366403399415132 0 1.1708120306247254e-05 0.0043714540216193273 0 0.0001141115996224557 0.004360300167424328 0 5.6308781187757789e-05 0.0044376114250039714 0 1.1708120306247254e-05 0.0043714540216193273 0 0.0001141115996224557 0.004360300167424328 0 5.6308781187757789e-05 0.0044376114250039714 0 0.0001141115996224557 0.004360300167424328 0 0.00010190609105611829 0.0044293249032122377 0 0.0004445181699028216 0.0046217668415443631 0 0.00044306932447191655 0.0046107551385928024 0 0.00043491128932731841 0.0045596069113964721 0 5.6308781187757789e-05 0.0044376114250039714 0 4.547855374866819e-05 0.0045008989327554672 0 0.00010190609105611829 0.0044293249032122377 0 5.6308781187757789e-05 0.0044376114250039714 0 4.547855374866819e-05 0.0045008989327554672 0 1.1524104795521094e-06 0.0045085467220010705 0 0.0004445181699028216 0.0046217668415443631 0 0.00049796479808136016 0.004679667506741216 0 0.00049674389650179816 0.0046707825940916197 0 0.00026067002724259258 0.0045734515813403874 0 0.0001513398443687059 0.0045652949430996462 0 4.547855374866819e-05 0.0045008989327554672 0 1.1524104795521094e-06 0.0045085467220010705 0 -4.188171167266311e-05 0.0046164840106272184 0 0.0004445181699028216 0.0046217668415443631 0 0.00049674389650179816 0.0046707825940916197 0 0.00044306932447191655 0.0046107551385928024 0 5.6308781187757789e-05 0.0044376114250039714 0 1.1524104795521094e-06 0.0045085467220010705 0 1.1708120306247254e-05 0.0043714540216193273 0 2.1809432572968497e-05 0.0044269079845460409 0 -4.603563566339703e-05 0.0045764146805608507 0 1.1524104795521094e-06 0.0045085467220010705 0 1.1708120306247254e-05 0.0043714540216193273 0 -4.8349358501530166e-05 0.0045990576928990638 0 -2.0359170730038051e-05 0.0045225419680407514 0 3.4126710131717418e-05 0.0044733354434930081 0 -4.8349358501530166e-05 0.0045990576928990638 0 -2.0359170730038051e-05 0.0045225419680407514 0 -5.9519743472874489e-05 0.004599351467434773 0 -4.8349358501530166e-05 0.0045990576928990638 0 -8.9769992958888467e-05 0.0046038664065363383 0 -2.0359170730038051e-05 0.0045225419680407514 0 -5.9519743472874489e-05 0.004599351467434773 0 -8.9769992958888467e-05 0.0046038664065363383 0 -8.3535770921674187e-05 0.0046613976834294019 0 -0.00013532371828032245 0.0047171303887329303 0 -8.9769992958888467e-05 0.0046038664065363383 0 -5.9519743472874489e-05 0.004599351467434773 0 -8.3535770921674187e-05 0.0046613976834294019 0 -5.9519743472874489e-05 0.004599351467434773 0 -8.3535770921674187e-05 0.0046613976834294019 0 -4.8349358501530166e-05 0.0045990576928990638 0 0.00081157634242818677 0.0057746593753181382 0 0.00051751712912559737 0.0053960685556110003 0 0.00098659988155493246 0.0067733613899596213 0 0.0010185094785420548 0.0067568459851917997 0 0.0010717104879326104 0.0067631538756032115 0 0.0001513398443687059 0.0045652949430996462 0 0.00051751712912559737 0.0053960685556110003 0 -8.3535770921674187e-05 0.0046613976834294019 0 -4.188171167266311e-05 0.0046164840106272184 0 -0.00013145644367958259 0.0047777925927820278 0 0.00049796479808136016 0.004679667506741216 0 0.00049674389650179816 0.0046707825940916197 0 0.00056436793529054496 0.0047380904938989377 0 1.1524104795521094e-06 0.0045085467220010705 0 -4.8349358501530166e-05 0.0045990576928990638 0 -4.188171167266311e-05 0.0046164840106272184 0 -8.3535770921674187e-05 0.0046613976834294019 0 -4.8349358501530166e-05 0.0045990576928990638 0 -4.188171167266311e-05 0.0046164840106272184 0 0.00098659988155493246 0.0067733613899596213 0 0.00097084133924963051 0.0067528750953915456 0 0.00094551178794035262 0.0067525948373073196 0 0.00098659988155493246 0.0067733613899596213 0 0.00097084133924963051 0.0067528750953915456 0 0.00099327498857136923 0.006754977763796668 0 0.00098659988155493246 0.0067733613899596213 0 0.00099327498857136923 0.006754977763796668 0 0.0010185094785420548 0.0067568459851917997 0 0.00099327498857136923 0.006754977763796668 0 0.00099667309381960161 0.0067376533021866565 0 0.0010185094785420548 0.0067568459851917997 0 0.00097084133924963051 0.0067528750953915456 0 0.00099327498857136923 0.006754977763796668 0 0.00099667309381960161 0.0067376533021866565 0 0.00097084133924963051 0.0067528750953915456 0 0.00099667309381960161 0.0067376533021866565 0 0.00094598234011683947 0.006735505578017725 0 0.00099667309381960161 0.0067376533021866565 0 0.0010431362144873229 0.0067458282298456969 0 0.0010557126612867488 0.0067152621037142963 0 0.0010185094785420548 0.0067568459851917997 0 0.0010431362144873229 0.0067458282298456969 0 0.0010717104879326104 0.0067631538756032115 0 0.00099667309381960161 0.0067376533021866565 0 0.0010185094785420548 0.0067568459851917997 0 0.0010431362144873229 0.0067458282298456969 0 0.0011745765958997884 0.0068883004690348162 0 0.001013639323517542 0.0068060822269491684 0 0.001125787180374929 0.00678511656671943 0 0.0011150917960769597 0.0067990428947029046 0 0.0010027752858947597 0.0067553204020705587 0 0.00099667309381960161 0.0067376533021866565 0 0.0010557126612867488 0.0067152621037142963 0 0.00098145998853441368 0.0067024171076189593 0 0.00099667309381960161 0.0067376533021866565 0 0.00098145998853441368 0.0067024171076189593 0 0.00094598234011683947 0.006735505578017725 0 0.0010027752858947597 0.0067553204020705587 0 0.00092572106871931681 0.0067256336857807186 0 0.00098145998853441368 0.0067024171076189593 0 0.00091476655167442719 0.0067181631949651561 0 0.00094598234011683947 0.006735505578017725 0 0.00091476655167442719 0.0067181631949651561 0 0.00091258488160823512 0.0067310225672182079 0 0.00094598234011683947 0.006735505578017725 0 0.00091476655167442719 0.0067181631949651561 0 0.00087474557180266274 0.00667562038501109 0 0.00086676840861715473 0.0067053598812642258 0 0.00091476655167442719 0.0067181631949651561 0 0.00091258488160823512 0.0067310225672182079 0 0.00086676840861715473 0.0067053598812642258 0 0.00091258488160823512 0.0067310225672182079 0 0.00086526441535183477 0.0067255408300313981 0 0.00086676840861715473 0.0067053598812642258 0 0.00091258488160823512 0.0067310225672182079 0 0.00089840890932766629 0.0067569804343698362 0 0.00092578179331368512 0.0067450109272671798 0 0.00091258488160823512 0.0067310225672182079 0 0.00089840890932766629 0.0067569804343698362 0 0.00086526441535183477 0.0067255408300313981 0 0.00081157634242818677 0.0057746593753181382 0 0.00065139133095602081 0.0056741302625249908 0 0.00089840890932766629 0.0067569804343698362 0 0.00094551178794035262 0.0067525948373073196 0 0.00092578179331368512 0.0067450109272671798 0 0.00098659988155493246 0.0067733613899596213 0 0.00089840890932766629 0.0067569804343698362 0 0.00094551178794035262 0.0067525948373073196 0 0.00097084133924963051 0.0067528750953915456 0 0.00094551178794035262 0.0067525948373073196 0 0.00094598234011683947 0.006735505578017725 0 0.00094551178794035262 0.0067525948373073196 0 0.00094598234011683947 0.006735505578017725 0 0.00092578179331368512 0.0067450109272671798 0 0.00091258488160823512 0.0067310225672182079 0 0.00094598234011683947 0.006735505578017725 0 0.00092578179331368512 0.0067450109272671798 0 0.00096326616788369973 0.0066126727629550151 0 0.00094254942058225185 0.0067333773823778599 0 0.00084332190637688182 0.006681358080432462 0 0.00096326616788369973 0.0066126727629550151 0 0.0010147927127087143 0.0066893093472336993 0 0.00094254942058225185 0.0067333773823778599 0 -0.00047266488698137531 0.0051402276860752823 0 -0.00061151369185807284 0.0051946751217336615 0 -0.00056127034809023112 0.005242198907136621 0 -0.00061151369185807284 0.0051946751217336615 0 -0.000501562375583847 0.0050468461405314639 0 -0.00066024636834154213 0.0051704186536424314 0 -0.00047266488698137531 0.0051402276860752823 0 -0.00061151369185807284 0.0051946751217336615 0 -0.000501562375583847 0.0050468461405314639 0 -0.00053253442350056511 0.0049692188573385466 0 -0.000501562375583847 0.0050468461405314639 0 -0.00066024636834154213 0.0051704186536424314 0 -0.00042160263570090493 0.0048638201836924289 0 -0.00053253442350056511 0.0049692188573385466 0 -0.000501562375583847 0.0050468461405314639 0 -0.00042160263570090493 0.0048638201836924289 0 -0.000501562375583847 0.0050468461405314639 0 -0.00039860407189258471 0.0049485204133734228 0 -0.00043809353192214524 0.0050299438543708174 0 -0.000501562375583847 0.0050468461405314639 0 -0.00039860407189258471 0.0049485204133734228 0 -0.00047266488698137531 0.0051402276860752823 0 -0.00043809353192214524 0.0050299438543708174 0 -0.00039653602665377306 0.0049984621749412554 0 -0.00047266488698137531 0.0051402276860752823 0 -0.00043809353192214524 0.0050299438543708174 0 -0.000501562375583847 0.0050468461405314639 0 -0.00047266488698137531 0.0051402276860752823 0 -0.00039653602665377306 0.0049984621749412554 0 -0.00034938591791877009 0.0049721477324768054 0 -0.00039653602665377306 0.0049984621749412554 0 -0.00039860407189258471 0.0049485204133734228 0 -0.00032931282587703127 0.0049108690524150714 0 -0.00043809353192214524 0.0050299438543708174 0 -0.00039653602665377306 0.0049984621749412554 0 -0.00039860407189258471 0.0049485204133734228 0 -0.00042160263570090493 0.0048638201836924289 0 -0.00039860407189258471 0.0049485204133734228 0 -0.00032744922618974407 0.0048399525590620222 0 -0.00039860407189258471 0.0049485204133734228 0 -0.00032744922618974407 0.0048399525590620222 0 -0.00032931282587703127 0.0049108690524150714 0 -0.00032744922618974407 0.0048399525590620222 0 -0.00032931282587703127 0.0049108690524150714 0 -0.00026725407296564749 0.0048331647682316615 0 -0.00039653602665377306 0.0049984621749412554 0 -0.00032931282587703127 0.0049108690524150714 0 -0.00034938591791877009 0.0049721477324768054 0 -0.00032931282587703127 0.0049108690524150714 0 -0.00034938591791877009 0.0049721477324768054 0 -0.00028487295815369422 0.0049030883438963427 0 -0.00034938591791877009 0.0049721477324768054 0 -0.00034166194809635175 0.0049826778426170955 0 -0.00028487295815369422 0.0049030883438963427 0 -0.00047266488698137531 0.0051402276860752823 0 -0.00034166194809635175 0.0049826778426170955 0 -0.00026559802090210218 0.0049257142734829831 0 -0.00034166194809635175 0.0049826778426170955 0 -0.00026559802090210218 0.0049257142734829831 0 -0.00028487295815369422 0.0049030883438963427 0 -0.00042902763463093419 0.0051261166930182808 0 -0.00019625975652871349 0.0050526479152802495 0 0.00096326616788369973 0.0066126727629550151 0 0.0010147927127087143 0.0066893093472336993 0 0.001090096987081803 0.0067105312798777621 0 0.0010147927127087143 0.0066893093472336993 0 0.001090096987081803 0.0067105312798777621 0 0.0010372328914493032 0.0067293023263383803 0 0.00018230318210738937 0.0059232964613387916 0 0.00061389080648297629 0.0060769387011844738 0 -0.00047266488698137531 0.0051402276860752823 0 2.3615453781817659e-06 0.0053010709953041487 0 5.3130245839698602e-05 0.0052467951276435297 0 -0.00047266488698137531 0.0051402276860752823 0 -0.00056127034809023112 0.005242198907136621 0 2.3615453781817659e-06 0.0053010709953041487 0 -0.00047266488698137531 0.0051402276860752823 0 -0.00034938591791877009 0.0049721477324768054 0 -0.00034166194809635175 0.0049826778426170955 0 0.00061389080648297629 0.0060769387011844738 0 0.00051751712912559737 0.0053960685556110003 0 -0.00026559802090210218 0.0049257142734829831 0 -0.00020885966738875181 0.0048184594403701255 0 -0.00013145644367958259 0.0047777925927820278 0 2.3615453781817659e-06 0.0053010709953041487 0 5.3130245839698602e-05 0.0052467951276435297 0 0.00058894069061754106 0.0053534770995326744 0 -0.00019625975652871349 0.0050526479152802495 0 0.00051751712912559737 0.0053960685556110003 0 0.001090096987081803 0.0067105312798777621 0 0.0010717104879326104 0.0067631538756032115 0 0.0010861021585231992 0.00674446193290636 0 0.001090096987081803 0.0067105312798777621 0 0.0010861021585231992 0.00674446193290636 0 0.0010877424018824427 0.0067410059818620218 0 0.001090096987081803 0.0067105312798777621 0 0.0010877424018824427 0.0067410059818620218 0 0.0010782715854749092 0.0067396275439337312 0 -0.00026559802090210218 0.0049257142734829831 0 -0.00028487295815369422 0.0049030883438963427 0 -0.00020885966738875181 0.0048184594403701255 0 -0.00032931282587703127 0.0049108690524150714 0 -0.00028487295815369422 0.0049030883438963427 0 -0.00026725407296564749 0.0048331647682316615 0 -0.00028487295815369422 0.0049030883438963427 0 -0.00026725407296564749 0.0048331647682316615 0 -0.00020885966738875181 0.0048184594403701255 0 -0.00025317792112330149 0.0047432579989586396 0 -0.00032744922618974407 0.0048399525590620222 0 -0.00026725407296564749 0.0048331647682316615 0 -0.00025317792112330149 0.0047432579989586396 0 -0.00026725407296564749 0.0048331647682316615 0 -0.00018093864155356964 0.0047120484124694925 0 -0.00026725407296564749 0.0048331647682316615 0 -0.00020885966738875181 0.0048184594403701255 0 -0.00018093864155356964 0.0047120484124694925 0 -8.9769992958888467e-05 0.0046038664065363383 0 -0.00018093864155356964 0.0047120484124694925 0 -0.00013532371828032245 0.0047171303887329303 0 -0.00020885966738875181 0.0048184594403701255 0 -0.00018093864155356964 0.0047120484124694925 0 -0.00013532371828032245 0.0047171303887329303 0 -8.3535770921674187e-05 0.0046613976834294019 0 -0.00013532371828032245 0.0047171303887329303 0 -0.00013145644367958259 0.0047777925927820278 0 -0.00020885966738875181 0.0048184594403701255 0 -0.00013532371828032245 0.0047171303887329303 0 -0.00013145644367958259 0.0047777925927820278 0 0.0010431362144873229 0.0067458282298456969 0 0.0010717104879326104 0.0067631538756032115 0 0.0010787416807699979 0.0067459148922164834 0 0.0010717104879326104 0.0067631538756032115 0 0.0010787416807699979 0.0067459148922164834 0 0.0010861021585231992 0.00674446193290636 0 0.0010787416807699979 0.0067459148922164834 0 0.0010895620034398357 0.0067518045938609293 0 0.0010861021585231992 0.00674446193290636 0 0.0010431362144873229 0.0067458282298456969 0 0.0010557126612867488 0.0067152621037142963 0 0.0010787416807699979 0.0067459148922164834 0 0.0010557126612867488 0.0067152621037142963 0 0.0010787416807699979 0.0067459148922164834 0 0.0010984014669112635 0.0067617705774947181 0 0.0011745765958997884 0.0068883004690348162 0 0.0012399114824161988 0.0068848274546303078 0 0.0012563822295009392 0.0068962838094103491 0 0.0011150917960769597 0.0067990428947029046 0 0.0011559679487827704 0.006825669622444938 0 0.0012399114824161988 0.0068848274546303078 0 0.0010887760745983822 0.0069823008321823737 0 0.0011842357350054396 0.0069686680557029344 0 0.0012399114824161988 0.0068848274546303078 0 0.0011842357350054396 0.0069686680557029344 0 0.0012563822295009392 0.0068962838094103491 0 0.0010984014669112635 0.0067617705774947181 0 0.0010856630225829702 0.0067543859066645394 0 0.0010694648932711344 0.0067690848635705621 0 0.0010856630225829702 0.0067543859066645394 0 0.0010895620034398357 0.0067518045938609293 0 0.0010877424018824427 0.0067410059818620218 0 0.0010787416807699979 0.0067459148922164834 0 0.0010984014669112635 0.0067617705774947181 0 0.0010895620034398357 0.0067518045938609293 0 0.0010984014669112635 0.0067617705774947181 0 0.0010856630225829702 0.0067543859066645394 0 0.0010895620034398357 0.0067518045938609293 0 0.0010895620034398357 0.0067518045938609293 0 0.0010861021585231992 0.00674446193290636 0 0.0010877424018824427 0.0067410059818620218 0 0.0010856630225829702 0.0067543859066645394 0 0.0010877424018824427 0.0067410059818620218 0 0.0010782715854749092 0.0067396275439337312 0 0.0010372328914493032 0.0067293023263383803 0 0.0010694648932711344 0.0067690848635705621 0 0.0010503554531947482 0.0068531369548816444 0 0.0010782715854749092 0.0067396275439337312 0 0.0010372328914493032 0.0067293023263383803 0 0.0010694648932711344 0.0067690848635705621 0 0.0010856630225829702 0.0067543859066645394 0 0.0010782715854749092 0.0067396275439337312 0 0.0010694648932711344 0.0067690848635705621 0 0.001090096987081803 0.0067105312798777621 0 0.0010782715854749092 0.0067396275439337312 0 0.0010372328914493032 0.0067293023263383803 0 0.0010984014669112635 0.0067617705774947181 0 0.0010694648932711344 0.0067690848635705621 0 0.0010503554531947482 0.0068531369548816444 0 0.0011559679487827704 0.006825669622444938 0 0.0010554323932068345 0.0068442605650715447 0 0.0012399114824161988 0.0068848274546303078 0 0.0010503554531947482 0.0068531369548816444 0 0.0010887760745983822 0.0069823008321823737 0 0.0010503554531947482 0.0068531369548816444 0 0.00096747684575332587 0.0070510444310092407 0 0.0010887760745983822 0.0069823008321823737 0 0.0010503554531947482 0.0068531369548816444 0 0.00096747684575332587 0.0070510444310092407 0 0.00087577887605253598 0.006866620019038241 0 0.0010372328914493032 0.0067293023263383803 0 0.0010503554531947482 0.0068531369548816444 0 0.00094254942058225185 0.0067333773823778599 0 0.0010503554531947482 0.0068531369548816444 0 0.00094254942058225185 0.0067333773823778599 0 0.00087577887605253598 0.006866620019038241 0 0.0010147927127087143 0.0066893093472336993 0 0.0010372328914493032 0.0067293023263383803 0 0.00094254942058225185 0.0067333773823778599 0 0.00094127670500007948 0.0072118212432128849 0 0.00096747684575332587 0.0070510444310092407 0 0.0010328255293506042 0.0071222509782776127 0 0.00094127670500007948 0.0072118212432128849 0 0.0010328255293506042 0.0071222509782776127 0 0.0010445890013337916 0.0072293597307008387 0 0.0010887760745983822 0.0069823008321823737 0 0.0011124408535869959 0.0070666151617329448 0 0.0010328255293506042 0.0071222509782776127 0 0.00096747684575332587 0.0070510444310092407 0 0.0010887760745983822 0.0069823008321823737 0 0.0010328255293506042 0.0071222509782776127 0 0.0010887760745983822 0.0069823008321823737 0 0.0011124408535869959 0.0070666151617329448 0 0.0011842357350054396 0.0069686680557029344 0 0.0011124408535869959 0.0070666151617329448 0 0.0010328255293506042 0.0071222509782776127 0 0.0011201806518944006 0.0071805663015096265 0 0.0010328255293506042 0.0071222509782776127 0 0.0011201806518944006 0.0071805663015096265 0 0.0010445890013337916 0.0072293597307008387 0 0.0011201806518944006 0.0071805663015096265 0 0.0012359108300464578 0.0071914045806954789 0 0.0011820430429868248 0.0072724209062793917 0 0.0011124408535869959 0.0070666151617329448 0 0.0011201806518944006 0.0071805663015096265 0 0.0012141759961734131 0.0070642822394145462 0 0.0011201806518944006 0.0071805663015096265 0 0.0012359108300464578 0.0071914045806954789 0 0.0012141759961734131 0.0070642822394145462 0 0.0011124408535869959 0.0070666151617329448 0 0.0011842357350054396 0.0069686680557029344 0 0.0012141759961734131 0.0070642822394145462 0 0.0011842357350054396 0.0069686680557029344 0 0.0012141759961734131 0.0070642822394145462 0 0.0012563822295009392 0.0068962838094103491 0 0.0012563822295009392 0.0068962838094103491 0 0.0011694841289067448 0.006666986581618981 0 0.001125787180374929 0.00678511656671943 0 0.0012573004892579101 0.0068931765392721582 0 0.0012716497120605218 0.0069180455765781683 0 0.0011745765958997884 0.0068883004690348162 0 0.0012563822295009392 0.0068962838094103491 0 0.001125787180374929 0.00678511656671943 0 0.0012141759961734131 0.0070642822394145462 0 0.0012563822295009392 0.0068962838094103491 0 0.0013867331948813708 0.0071703094039460109 0 0.0012359108300464578 0.0071914045806954789 0 0.0013867331948813708 0.0071703094039460109 0 0.0012966407676128057 0.0072942394990347659 0 0.0012359108300464578 0.0071914045806954789 0 0.0012141759961734131 0.0070642822394145462 0 0.0013867331948813708 0.0071703094039460109 0 0.0012966407676128057 0.0072942394990347659 0 0.001320369827751068 0.0074209959340726358 0 0.0014268427496132393 0.0073728231489336785 0 0.0012966407676128057 0.0072942394990347659 0 0.001320369827751068 0.0074209959340726358 0 0.0012270729788161471 0.0073755122461210592 0 0.001320369827751068 0.0074209959340726358 0 0.0012611888255918031 0.0074604470886444766 0 0.0013156853111938179 0.0075061350188437622 0 0.001320369827751068 0.0074209959340726358 0 0.0012270729788161471 0.0073755122461210592 0 0.0012611888255918031 0.0074604470886444766 0 0.0012270729788161471 0.0073755122461210592 0 0.0012611888255918031 0.0074604470886444766 0 0.0011577424233207474 0.0074575098824157561 0 0.0012270729788161471 0.0073755122461210592 0 0.0011577424233207474 0.0074575098824157561 0 0.0011416964355855359 0.007346358321089666 0 0.0012270729788161471 0.0073755122461210592 0 0.0011820430429868248 0.0072724209062793917 0 0.0011416964355855359 0.007346358321089666 0 0.0012966407676128057 0.0072942394990347659 0 0.0012270729788161471 0.0073755122461210592 0 0.0011820430429868248 0.0072724209062793917 0 0.0012359108300464578 0.0071914045806954789 0 0.0012966407676128057 0.0072942394990347659 0 0.0011820430429868248 0.0072724209062793917 0 0.0011201806518944006 0.0071805663015096265 0 0.0011820430429868248 0.0072724209062793917 0 0.0010973801822864245 0.0072880717268120317 0 0.0011201806518944006 0.0071805663015096265 0 0.0010973801822864245 0.0072880717268120317 0 0.0010445890013337916 0.0072293597307008387 0 0.0010973801822864245 0.0072880717268120317 0 0.0010445890013337916 0.0072293597307008387 0 0.001057205142449747 0.0073424718621163424 0 0.0011558526385301901 0.0073504449500776167 0 0.0011351352953876536 0.0075518170463633287 0 0.0011820430429868248 0.0072724209062793917 0 0.0010973801822864245 0.0072880717268120317 0 0.0011416964355855359 0.007346358321089666 0 0.0010973801822864245 0.0072880717268120317 0 0.0010532472035854081 0.0073534821125702905 0 0.0011416964355855359 0.007346358321089666 0 0.0011362914042760941 0.0073947061752789329 0 0.0011351352953876536 0.0075518170463633287 0 0.0011577424233207474 0.0074575098824157561 0 0.0010532472035854081 0.0073534821125702905 0 0.0011416964355855359 0.007346358321089666 0 0.001004126821694159 0.0072074722740485047 0 0.0010097136526521142 0.0074129930374702488 0 0.00078828476982191248 0.0074998729553900972 0 0.0011803838073553821 0.0074070749449997482 0 0.001004126821694159 0.0072074722740485047 0 0.0010097136526521142 0.0074129930374702488 0 0.0011351352953876536 0.0075518170463633287 0 0.0010779856254661668 0.0076200482005665381 0 0.0015494697232467745 0.0079086522769278404 0 0.0011755123706340719 0.0079315008991273049 0 0.0012807820119799381 0.0082936876550133987 0 0.001220511910047764 0.0075542194429048413 0 0.0015494697232467745 0.0079086522769278404 0 0.0011755123706340719 0.0079315008991273049 0 0.0011057953018321421 0.0074049595298096762 0 0.0011351352953876536 0.0075518170463633287 0 0.00094127670500007948 0.0072118212432128849 0 0.0010445890013337916 0.0072293597307008387 0 0.001057205142449747 0.0073424718621163424 0 0.00091593899443900514 0.0066566864230709838 0 0.0010248699598564689 0.0066698673893770197 0 0.00093878712488693874 0.0065917635298390048 0 0.00091593899443900514 0.0066566864230709838 0 0.00093878712488693874 0.0065917635298390048 0 0.000875060615170031 0.0065860800402470811 0 0.00091593899443900514 0.0066566864230709838 0 0.000875060615170031 0.0065860800402470811 0 0.00085060009650641871 0.0066288414950135786 0 0.00091593899443900514 0.0066566864230709838 0 0.00087474557180266274 0.00667562038501109 0 0.00085060009650641871 0.0066288414950135786 0 0.00091476655167442719 0.0067181631949651561 0 0.00091593899443900514 0.0066566864230709838 0 0.00087474557180266274 0.00667562038501109 0 0.001013639323517542 0.0068060822269491684 0 0.00091476655167442719 0.0067181631949651561 0 0.00091593899443900514 0.0066566864230709838 0 0.001013639323517542 0.0068060822269491684 0 0.001125787180374929 0.00678511656671943 0 0.0010248699598564689 0.0066698673893770197 0 0.001013639323517542 0.0068060822269491684 0 0.00091593899443900514 0.0066566864230709838 0 0.0010248699598564689 0.0066698673893770197 0 0.0011694841289067448 0.006666986581618981 0 0.001125787180374929 0.00678511656671943 0 0.0010248699598564689 0.0066698673893770197 0 0.0011694841289067448 0.006666986581618981 0 0.0010248699598564689 0.0066698673893770197 0 0.0010713091686924403 0.0065464447569240844 0 0.0010248699598564689 0.0066698673893770197 0 0.00098432363658894849 0.0065429313101821414 0 0.00093878712488693874 0.0065917635298390048 0 0.0010248699598564689 0.0066698673893770197 0 0.00098432363658894849 0.0065429313101821414 0 0.0010713091686924403 0.0065464447569240844 0 0.0013867331948813708 0.0071703094039460109 0 0.0012966407676128057 0.0072942394990347659 0 0.0014268427496132393 0.0073728231489336785 0 0.0012716497120605218 0.0069180455765781683 0 0.0012477040684701407 0.0069579467880948589 0 0.001320369827751068 0.0074209959340726358 0 0.0014268427496132393 0.0073728231489336785 0 0.0013612509148711979 0.0075090842265211743 0 0.0014268427496132393 0.0073728231489336785 0 0.0014097131817292802 0.0074972987818282162 0 0.0013612509148711979 0.0075090842265211743 0 0.0012477040684701407 0.0069579467880948589 0 0.0011971713157135746 0.0069775288467444898 0 0.00098432363658894849 0.0065429313101821414 0 0.0010713091686924403 0.0065464447569240844 0 0.00098961597724441051 0.0064689449235499985 0 0.00098432363658894849 0.0065429313101821414 0 0.00091176906433033543 0.0065205489730427698 0 0.00098961597724441051 0.0064689449235499985 0 0.00098432363658894849 0.0065429313101821414 0 0.00093878712488693874 0.0065917635298390048 0 0.00091176906433033543 0.0065205489730427698 0 0.00093878712488693874 0.0065917635298390048 0 0.000875060615170031 0.0065860800402470811 0 0.00091176906433033543 0.0065205489730427698 0 0.000875060615170031 0.0065860800402470811 0 0.00091176906433033543 0.0065205489730427698 0 0.00084020070882316676 0.0065322925756381043 0 0.00091176906433033543 0.0065205489730427698 0 0.00087056517172173862 0.0064842272857257733 0 0.00090461490792795383 0.0064522531996070468 0 0.00091176906433033543 0.0065205489730427698 0 0.00087056517172173862 0.0064842272857257733 0 0.00084020070882316676 0.0065322925756381043 0 0.00087056517172173862 0.0064842272857257733 0 0.00080418753794063013 0.0064890837530586004 0 0.00084020070882316676 0.0065322925756381043 0 0.00080418753794063013 0.0064890837530586004 0 0.00078895310548751023 0.006533090729102963 0 0.00075351775339687461 0.0065114102934566423 0 0.00080418753794063013 0.0064890837530586004 0 0.00078895310548751023 0.006533090729102963 0 0.00084020070882316676 0.0065322925756381043 0 0.00078895310548751023 0.006533090729102963 0 0.00080878022744422008 0.0065826755973346909 0 0.0007643054828284329 0.0065642036280873835 0 0.00078895310548751023 0.006533090729102963 0 0.00084020070882316676 0.0065322925756381043 0 0.00080878022744422008 0.0065826755973346909 0 0.000875060615170031 0.0065860800402470811 0 0.00084020070882316676 0.0065322925756381043 0 0.00080878022744422008 0.0065826755973346909 0 0.000875060615170031 0.0065860800402470811 0 0.00085060009650641871 0.0066288414950135786 0 0.00080878022744422008 0.0065826755973346909 0 0.00085060009650641871 0.0066288414950135786 0 0.00080878022744422008 0.0065826755973346909 0 0.0007954396938943285 0.0066307856090702198 0 0.00080878022744422008 0.0065826755973346909 0 0.0007954396938943285 0.0066307856090702198 0 0.00076960270122287066 0.0066005206925555358 0 0.00080878022744422008 0.0065826755973346909 0 0.00076960270122287066 0.0066005206925555358 0 0.0007643054828284329 0.0065642036280873835 0 0.0007954396938943285 0.0066307856090702198 0 0.00083013948753589873 0.0066642232796310869 0 0.00078065546485105294 0.00665764952959779 0 0.00085060009650641871 0.0066288414950135786 0 0.0007954396938943285 0.0066307856090702198 0 0.00083013948753589873 0.0066642232796310869 0 0.00087474557180266274 0.00667562038501109 0 0.00085060009650641871 0.0066288414950135786 0 0.00083013948753589873 0.0066642232796310869 0 0.00071595476762355639 0.0065929545992107867 0 0.00074500015146652129 0.0066276404226219797 0 0.00070967506822363898 0.0066268859972529017 0 0.00071595476762355639 0.0065929545992107867 0 0.00068720085068387947 0.0065899831656502546 0 0.00070967506822363898 0.0066268859972529017 0 0.00071595476762355639 0.0065929545992107867 0 0.00070107768019675323 0.0065671797550717389 0 0.00068720085068387947 0.0065899831656502546 0 0.0007954396938943285 0.0066307856090702198 0 0.00074500015146652129 0.0066276404226219797 0 0.00078065546485105294 0.00665764952959779 0 0.0007954396938943285 0.0066307856090702198 0 0.00074500015146652129 0.0066276404226219797 0 0.00076960270122287066 0.0066005206925555358 0 0.00074500015146652129 0.0066276404226219797 0 0.00074319503882633699 0.0065969339113503321 0 0.00076960270122287066 0.0066005206925555358 0 0.00071595476762355639 0.0065929545992107867 0 0.00074500015146652129 0.0066276404226219797 0 0.00074319503882633699 0.0065969339113503321 0 0.00074319503882633699 0.0065969339113503321 0 0.0007643054828284329 0.0065642036280873835 0 0.00072725816789699518 0.0065526395183034096 0 0.00074319503882633699 0.0065969339113503321 0 0.00076960270122287066 0.0066005206925555358 0 0.0007643054828284329 0.0065642036280873835 0 0.00071595476762355639 0.0065929545992107867 0 0.00070107768019675323 0.0065671797550717389 0 0.00072725816789699518 0.0065526395183034096 0 0.00071595476762355639 0.0065929545992107867 0 0.00074319503882633699 0.0065969339113503321 0 0.00072725816789699518 0.0065526395183034096 0 0.00070107768019675323 0.0065671797550717389 0 0.00070650842474817511 0.0065475553998569289 0 0.00069527049424684332 0.0065504792575474015 0 0.00070107768019675323 0.0065671797550717389 0 0.00070650842474817511 0.0065475553998569289 0 0.00072725816789699518 0.0065526395183034096 0 0.00072725816789699518 0.0065526395183034096 0 0.00075351775339687461 0.0065114102934566423 0 0.00071215578217032548 0.006501471246252645 0 0.00070650842474817511 0.0065475553998569289 0 0.00071215578217032548 0.006501471246252645 0 0.00068617148646798456 0.0065439800316511379 0 0.00070650842474817511 0.0065475553998569289 0 0.00072725816789699518 0.0065526395183034096 0 0.00071215578217032548 0.006501471246252645 0 0.00048887022468979691 0.0052075919093928598 0 0.00038798753975122642 0.0048560304591839512 0 0.00078895310548751023 0.006533090729102963 0 0.0007643054828284329 0.0065642036280873835 0 0.00075351775339687461 0.0065114102934566423 0 0.0007643054828284329 0.0065642036280873835 0 0.00072725816789699518 0.0065526395183034096 0 0.00075351775339687461 0.0065114102934566423 0 0.00075351775339687461 0.0065114102934566423 0 0.00071215578217032548 0.006501471246252645 0 0.0007437285115649572 0.0064541940674421455 0 0.00080418753794063013 0.0064890837530586004 0 0.00075351775339687461 0.0065114102934566423 0 0.0007437285115649572 0.0064541940674421455 0 0.00048887022468979691 0.0052075919093928598 0 0.00033251288184918149 0.005372901087009007 0 0.00022498666775506342 0.0038874662777721924 0 0.00076131035734456796 0.0038545936882358862 0 0.00066952195623496216 0.0042384348349664746 0 0.00076131035734456796 0.0038545936882358862 0 0.0011202912266171695 0.0039560864791287481 0 0.00066952195623496216 0.0042384348349664746 0 0.00076131035734456796 0.0038545936882358862 0 0.0009115565986759814 0.0035992856143443937 0 0.0011202912266171695 0.0039560864791287481 0 0.00076131035734456796 0.0038545936882358862 0 0.0009115565986759814 0.0035992856143443937 0 0.00053199077261264062 0.0034922755564546918 0 0.00022498666775506342 0.0038874662777721924 0 0.00076131035734456796 0.0038545936882358862 0 0.00053199077261264062 0.0034922755564546918 0 0.00070650842474817511 0.0065475553998569289 0 0.00068617148646798456 0.0065439800316511379 0 0.00069527049424684332 0.0065504792575474015 0 0.0018730465573899874 0.003655548941437881 0 0.0015956168891542129 0.0040022856218437566 0 0.0014458618382823928 0.0037056730205299046 0 0.0015956168891542129 0.0040022856218437566 0 0.0011202912266171695 0.0039560864791287481 0 0.0014458618382823928 0.0037056730205299046 0 0.0009115565986759814 0.0035992856143443937 0 0.0011202912266171695 0.0039560864791287481 0 0.0012307224756341107 0.0034716961141628287 0 0.0011202912266171695 0.0039560864791287481 0 0.0012307224756341107 0.0034716961141628287 0 0.0014458618382823928 0.0037056730205299046 0 0.0016526051790188719 0.0033989505064132772 0 0.0012307224756341107 0.0034716961141628287 0 0.0014458618382823928 0.0037056730205299046 0 0.0016526051790188719 0.0033989505064132772 0 0.0016086677208782475 0.0030923083174830422 0 0.0014354295718993599 0.0032373741628540639 0 0.0016526051790188719 0.0033989505064132772 0 0.0012307224756341107 0.0034716961141628287 0 0.0014354295718993599 0.0032373741628540639 0 0.0012307224756341107 0.0034716961141628287 0 0.0014354295718993599 0.0032373741628540639 0 0.0012393732438940183 0.0029930497100056417 0 0.0012307224756341107 0.0034716961141628287 0 0.0012393732438940183 0.0029930497100056417 0 0.00089967512628236408 0.0032273939921909083 0 0.0010025534625438142 0.0035772784035670094 0 0.00062499309379014992 0.0035716966472962223 0 0.00073049961163106363 0.0037840077366540614 0 0.00026327833159154598 0.0039226897176202029 0 0.0006805609573272564 0.0033723903527462305 0 0.00036345808320315822 0.0055392012545748296 0 0.00072849059650933914 0.0040192628905245838 0 0.0010025534625438142 0.0035772784035670094 0 0.00030703755335294037 0.0010072101379625293 0 0.0016086677208782475 0.0030923083174830422 0 0.0012393732438940183 0.0029930497100056417 0 0.0015363375414602406 0.0027839589944176481 0 0.0016086677208782475 0.0030923083174830422 0 0.0014354295718993599 0.0032373741628540639 0 0.0012393732438940183 0.0029930497100056417 0 0.00038798753975122642 0.0048560304591839512 0 0.00036345808320315822 0.0055392012545748296 0 0.00070107768019675323 0.0065671797550717389 0 0.00068617148646798456 0.0065439800316511379 0 0.00068720085068387947 0.0065899831656502546 0 0.00038798753975122642 0.0048560304591839512 0 0.00062499309379014992 0.0035716966472962223 0 0.00068617148646798456 0.0065439800316511379 0 0.0006645450220269792 0.0065777943865944419 0 0.00068720085068387947 0.0065899831656502546 0 0.00070107768019675323 0.0065671797550717389 0 0.00068617148646798456 0.0065439800316511379 0 0.00069527049424684332 0.0065504792575474015 0 -0.0001432777287062597 0.0044639820975383949 0 0.00028931847601746557 0.0041269221706677749 0 0.00026327833159154598 0.0039226897176202029 0 0.0009115565986759814 0.0035992856143443937 0 0.0012307224756341107 0.0034716961141628287 0 0.00089967512628236408 0.0032273939921909083 0 0.0009115565986759814 0.0035992856143443937 0 0.00053199077261264062 0.0034922755564546918 0 0.00089967512628236408 0.0032273939921909083 0 0.00073049961163106363 0.0037840077366540614 0 0.00028931847601746557 0.0041269221706677749 0 0.00026327833159154598 0.0039226897176202029 0 0.0006645450220269792 0.0065777943865944419 0 0.00068720085068387947 0.0065899831656502546 0 0.00068001433303712918 0.0066218531168445111 0 0.00068720085068387947 0.0065899831656502546 0 0.00068001433303712918 0.0066218531168445111 0 0.00070967506822363898 0.0066268859972529017 0 0.00078580292930563055 0.0058243549529902218 0 0.00072849059650933914 0.0040192628905245838 0 0.0006645450220269792 0.0065777943865944419 0 0.00068001433303712918 0.0066218531168445111 0 0.00064988772099778007 0.006581853328835807 0 0.00075601104364100477 0.0045750885021231839 0 0.0011678785496880048 0.0046399356745929184 0 0.0010892748191459647 0.0043278830844080841 0 0.00061291730356349947 0.004351508934767526 0 0.0010670118669062769 0.0043340400102858173 0 0.00075601104364100477 0.0045750885021231839 0 0.00072049199887240024 0.0044113736474100888 0 0.0010892748191459647 0.0043278830844080841 0 0.00075601104364100477 0.0045750885021231839 0 0.00072049199887240024 0.0044113736474100888 0 0.00052548900807820561 0.0045514271751727854 0 0.00073049961163106363 0.0037840077366540614 0 0.0011698051114846987 0.0034348162376331487 0 0.0006805609573272564 0.0033723903527462305 0 0.00013252640273437083 0.0010900176186737023 0 8.5406812932855772e-06 0.0010911683687100751 0 8.8084120385500592e-05 0.00096684840939123551 0 0.00030703755335294037 0.0010072101379625293 0 0.00072849059650933914 0.0040192628905245838 0 0.00072849059650933914 0.0040192628905245838 0 0.00084554041547879545 0.0024870820906259267 0 0.0011678785496880048 0.0046399356745929184 0 0.0010892748191459647 0.0043278830844080841 0 0.0014291871290209709 0.0043680366633387282 0 0.00087316591170741699 0.0026341287362722258 0 0.00084554041547879545 0.0024870820906259267 0 0.00172942243665301 0.004008003486958788 0 0.0014291871290209709 0.0043680366633387282 0 0.0013543166126251064 0.0039656859775257661 0 0.0010892748191459647 0.0043278830844080841 0 0.0013543166126251064 0.0039656859775257661 0 0.0010230682174607673 0.0038682305262259056 0 0.0010892748191459647 0.0043278830844080841 0 0.0014291871290209709 0.0043680366633387282 0 0.0013543166126251064 0.0039656859775257661 0 0.0013543166126251064 0.0039656859775257661 0 0.0010230682174607673 0.0038682305262259056 0 0.0012444541702350505 0.003567300494001216 0 0.00089643372842513008 0.0034877125983622591 0 0.0010230682174607673 0.0038682305262259056 0 0.0012444541702350505 0.003567300494001216 0 0.00172942243665301 0.004008003486958788 0 0.0013543166126251064 0.0039656859775257661 0 0.0016113004024700924 0.0036202713565119502 0 0.0013543166126251064 0.0039656859775257661 0 0.0012444541702350505 0.003567300494001216 0 0.0016113004024700924 0.0036202713565119502 0 0.00055078177385484725 0.0040576604461268736 0 0.0007502089783740358 0.004066839467346867 0 0.00063349285208036507 0.0038022682381401024 0 0.00055078177385484725 0.0040576604461268736 0 0.00043188637034811961 0.0038924971922084258 0 0.00033258981578755177 0.0042592337283170901 0 0.00047639169842723955 0.0042867212776453098 0 0.00055078177385484725 0.0040576604461268736 0 0.00033258981578755177 0.0042592337283170901 0 0.00047639169842723955 0.0042867212776453098 0 0.00055078177385484725 0.0040576604461268736 0 0.0007502089783740358 0.004066839467346867 0 0.0010892748191459647 0.0043278830844080841 0 0.0010230682174607673 0.0038682305262259056 0 0.0007502089783740358 0.004066839467346867 0 0.00047639169842723955 0.0042867212776453098 0 0.0010892748191459647 0.0043278830844080841 0 0.0007502089783740358 0.004066839467346867 0 0.0010230682174607673 0.0038682305262259056 0 0.0007502089783740358 0.004066839467346867 0 0.00063349285208036507 0.0038022682381401024 0 0.00089643372842513008 0.0034877125983622591 0 0.0010230682174607673 0.0038682305262259056 0 0.00063349285208036507 0.0038022682381401024 0 0.00061273362049248028 0.0035067331535423986 0 0.00089643372842513008 0.0034877125983622591 0 0.00063349285208036507 0.0038022682381401024 0 0.00061273362049248028 0.0035067331535423986 0 0.00063349285208036507 0.0038022682381401024 0 0.00043105313626898252 0.0036821510465644765 0 0.00055078177385484725 0.0040576604461268736 0 0.00063349285208036507 0.0038022682381401024 0 0.00043188637034811961 0.0038924971922084258 0 0.00063349285208036507 0.0038022682381401024 0 0.00043188637034811961 0.0038924971922084258 0 0.00043105313626898252 0.0036821510465644765 0 0.00028777410419542803 0.0042873801993574068 0 0.00027903133922432507 0.0042886633223659003 0 0.00033258981578755177 0.0042592337283170901 0 0.00028072452143636711 0.003576310117586285 0 0.00043105313626898252 0.0036821510465644765 0 0.00022135490274314794 0.0036498196269235221 0 0.00026693635841761629 0.003976842535946757 0 0.0003219653134118078 0.0042428011281235084 0 0.00043188637034811961 0.0038924971922084258 0 0.00043105313626898252 0.0036821510465644765 0 0.00022135490274314794 0.0036498196269235221 0 0.00043188637034811961 0.0038924971922084258 0 0.00022135490274314794 0.0036498196269235221 0 0.00033258981578755177 0.0042592337283170901 0 0.00028777410419542803 0.0042873801993574068 0 0.00027903133922432507 0.0042886633223659003 0 0.00025536479349956944 0.0042916124396344367 0 0.00028180016435618759 0.0042499323197124506 0 0.00028777410419542803 0.0042873801993574068 0 0.00025536479349956944 0.0042916124396344367 0 0.00047639169842723955 0.0042867212776453098 0 0.00033258981578755177 0.0042592337283170901 0 0.00021912555397203296 0.0043417700777220944 0 0.00027903133922432507 0.0042886633223659003 0 0.00026846678293332665 0.0042968305558297127 0 0.00033258981578755177 0.0042592337283170901 0 0.00026846678293332665 0.0042968305558297127 0 0.00033258981578755177 0.0042592337283170901 0 0.00021912555397203296 0.0043417700777220944 0 0.00023044462734555799 0.0043261328513129454 0 0.00019479694762067037 0.0043659161916126737 0 0.00021912555397203296 0.0043417700777220944 0 0.00026846678293332665 0.0042968305558297127 0 0.00023044462734555799 0.0043261328513129454 0 0.00021912555397203296 0.0043417700777220944 0 0.00026846678293332665 0.0042968305558297127 0 0.00023044462734555799 0.0043261328513129454 0 0.00025594301185869205 0.0043030703520213539 0 0.00023044462734555799 0.0043261328513129454 0 0.00025594301185869205 0.0043030703520213539 0 0.00022391197939781998 0.0043242314475467371 0 0.00027903133922432507 0.0042886633223659003 0 0.00026846678293332665 0.0042968305558297127 0 0.00025594301185869205 0.0043030703520213539 0 0.00023044462734555799 0.0043261328513129454 0 0.00022391197939781998 0.0043242314475467371 0 0.00019479694762067037 0.0043659161916126737 0 0.00022391197939781998 0.0043242314475467371 0 0.00025536479349956944 0.0042916124396344367 0 0.00020936876070374897 0.0043170101101875375 0 0.00027903133922432507 0.0042886633223659003 0 0.00025594301185869205 0.0043030703520213539 0 0.00025536479349956944 0.0042916124396344367 0 0.00025594301185869205 0.0043030703520213539 0 0.00022391197939781998 0.0043242314475467371 0 0.00025536479349956944 0.0042916124396344367 0 0.00020184947822705386 0.0042809902871956459 0 0.00025536479349956944 0.0042916124396344367 0 0.00020936876070374897 0.0043170101101875375 0 0.00020184947822705386 0.0042809902871956459 0 0.00016854054922861662 0.0043265088032953206 0 0.00020936876070374897 0.0043170101101875375 0 0.00015034186071459542 0.0042809790900547708 0 0.00020184947822705386 0.0042809902871956459 0 0.00016854054922861662 0.0043265088032953206 0 0.00016854054922861662 0.0043265088032953206 0 0.00015779679174878869 0.0043672911813683133 0 0.00018811058198805675 0.0043488743584762313 0 0.00022391197939781998 0.0043242314475467371 0 0.00018811058198805675 0.0043488743584762313 0 0.00020936876070374897 0.0043170101101875375 0 0.00016854054922861662 0.0043265088032953206 0 0.00018811058198805675 0.0043488743584762313 0 0.00020936876070374897 0.0043170101101875375 0 0.00015034186071459542 0.0042809790900547708 0 0.00016854054922861662 0.0043265088032953206 0 0.0001141115996224557 0.004360300167424328 0 0.00016854054922861662 0.0043265088032953206 0 0.00015779679174878869 0.0043672911813683133 0 0.0001141115996224557 0.004360300167424328 0 0.00015779679174878869 0.0043672911813683133 0 0.0001141115996224557 0.004360300167424328 0 0.00013960148084267668 0.0044019342130125249 0 0.00026067002724259258 0.0045734515813403874 0 0.0002921040841319377 0.0044875813137362887 0 4.547855374866819e-05 0.0045008989327554672 0 0.00010190609105611829 0.0044293249032122377 0 0.00015835138453665899 0.0044193144865994766 0 0.0001141115996224557 0.004360300167424328 0 0.00010190609105611829 0.0044293249032122377 0 0.00013960148084267668 0.0044019342130125249 0 0.00013960148084267668 0.0044019342130125249 0 0.00015835138453665899 0.0044193144865994766 0 0.00016952312103894301 0.0043821198721421296 0 0.00010190609105611829 0.0044293249032122377 0 0.00013960148084267668 0.0044019342130125249 0 0.00015835138453665899 0.0044193144865994766 0 0.00015835138453665899 0.0044193144865994766 0 0.00019479694762067037 0.0043659161916126737 0 0.00021912555397203296 0.0043417700777220944 0 0.0002921040841319377 0.0044875813137362887 0 0.00036773959545053243 0.0044157545352813124 0 0.00022391197939781998 0.0043242314475467371 0 0.00018811058198805675 0.0043488743584762313 0 0.00019479694762067037 0.0043659161916126737 0 0.00018811058198805675 0.0043488743584762313 0 0.00016952312103894301 0.0043821198721421296 0 0.00019479694762067037 0.0043659161916126737 0 0.00015779679174878869 0.0043672911813683133 0 0.00018811058198805675 0.0043488743584762313 0 0.00016952312103894301 0.0043821198721421296 0 0.00015779679174878869 0.0043672911813683133 0 0.00013960148084267668 0.0044019342130125249 0 0.00016952312103894301 0.0043821198721421296 0 0.00015835138453665899 0.0044193144865994766 0 0.00016952312103894301 0.0043821198721421296 0 0.00019479694762067037 0.0043659161916126737 0 0.00081297188591319795 0.0067225232370910736 0 0.00078173047131502435 0.0066838240176228265 0 0.00073444874369471894 0.006672592229483033 0 0.00043491128932731841 0.0045596069113964721 0 0.00043696711715102832 0.004566421009505852 0 0.00051207631302231801 0.0044898308996026027 0 0.00089840890932766629 0.0067569804343698362 0 0.00081297188591319795 0.0067225232370910736 0 0.00086526441535183477 0.0067255408300313981 0 0.00081297188591319795 0.0067225232370910736 0 0.00086526441535183477 0.0067255408300313981 0 0.00084057789127517997 0.0067097049885236531 0 0.00065139133095602081 0.0056741302625249908 0 0.00063393789106740562 0.0056506356075075106 0 0.00044306932447191655 0.0046107551385928024 0 0.00043491128932731841 0.0045596069113964721 0 0.00043696711715102832 0.004566421009505852 0 0.00081297188591319795 0.0067225232370910736 0 0.00084057789127517997 0.0067097049885236531 0 0.00081593360519558865 0.0066862544037428612 0 0.00083013948753589873 0.0066642232796310869 0 0.00086676840861715473 0.0067053598812642258 0 0.00081593360519558865 0.0066862544037428612 0 0.00086676840861715473 0.0067053598812642258 0 0.00084057789127517997 0.0067097049885236531 0 0.00081593360519558865 0.0066862544037428612 0 0.00086526441535183477 0.0067255408300313981 0 0.00086676840861715473 0.0067053598812642258 0 0.00084057789127517997 0.0067097049885236531 0 0.00087474557180266274 0.00667562038501109 0 0.00083013948753589873 0.0066642232796310869 0 0.00086676840861715473 0.0067053598812642258 0 0.00083013948753589873 0.0066642232796310869 0 0.00081593360519558865 0.0066862544037428612 0 0.00078065546485105294 0.00665764952959779 0 0.00078173047131502435 0.0066838240176228265 0 0.00081593360519558865 0.0066862544037428612 0 0.00078065546485105294 0.00665764952959779 0 0.00081297188591319795 0.0067225232370910736 0 0.00078173047131502435 0.0066838240176228265 0 0.00081593360519558865 0.0066862544037428612 0 0.00078173047131502435 0.0066838240176228265 0 0.00075448937352759525 0.0066573349476474449 0 0.00073444874369471894 0.006672592229483033 0 0.00074500015146652129 0.0066276404226219797 0 0.00078065546485105294 0.00665764952959779 0 0.00075448937352759525 0.0066573349476474449 0 0.00078173047131502435 0.0066838240176228265 0 0.00078065546485105294 0.00665764952959779 0 0.00075448937352759525 0.0066573349476474449 0 0.00075448937352759525 0.0066573349476474449 0 0.00073569921150754708 0.006646019385208049 0 0.00073444874369471894 0.006672592229483033 0 0.00074500015146652129 0.0066276404226219797 0 0.00075448937352759525 0.0066573349476474449 0 0.00073569921150754708 0.006646019385208049 0 0.00074500015146652129 0.0066276404226219797 0 0.00073569921150754708 0.006646019385208049 0 0.00070967506822363898 0.0066268859972529017 0 0.00068001433303712918 0.0066218531168445111 0 0.00070967506822363898 0.0066268859972529017 0 0.00073444874369471894 0.006672592229483033 0 0.00073569921150754708 0.006646019385208049 0 0.00070967506822363898 0.0066268859972529017 0 0.00073444874369471894 0.006672592229483033 0 0.00078580292930563055 0.0058243549529902218 0 0.00061323764772135169 0.0055801563674006916 0 0.00061291730356349947 0.004351508934767526 0 0.00036773959545053243 0.0044157545352813124 0 0.00072049199887240024 0.0044113736474100888 0 0.00051207631302231801 0.0044898308996026027 0 0.00052548900807820561 0.0045514271751727854 0 0.00043696711715102832 0.004566421009505852 0 0.00051207631302231801 0.0044898308996026027 0 0.00052548900807820561 0.0045514271751727854 0 0.00063393789106740562 0.0056506356075075106 0 0.00061323764772135169 0.0055801563674006916 0 4.7649076086169602e-05 0.014929619541804901 0 0.00019105334748863582 0.014762970438165596 0 8.7420721797633287e-05 0.014773680426149153 0 1.9511378078342545e-09 0.014999394806720304 0 4.7649076086169602e-05 0.014929619541804901 0 8.7420721797633287e-05 0.014773680426149153 0 1.9511378078342545e-09 0.014999394806720304 0 4.7649076086169602e-05 0.014929619541804901 0 1.6897459019204917e-08 0.015000103485778224 0 0.00022666320436297462 0.014742450895743798 0 0.00013109033723791982 0.01473437776392683 0 4.7649076086169602e-05 0.014929619541804901 0 0.00019105334748863582 0.014762970438165596 0 6.968589019084421e-05 0.015014996974251646 0 9.2385619184896326e-05 0.014616878313384258 0 0.00019105334748863582 0.014762970438165596 0 0.00014480716352304927 0.014451811558886841 0 0.00019105334748863582 0.014762970438165596 0 0.00014480716352304927 0.014451811558886841 0 0.00037948273816024451 0.014402521158409582 0 9.2385619184896326e-05 0.014616878313384258 0 5.7290442522191127e-06 0.014462156575679752 0 0.00014480716352304927 0.014451811558886841 0 9.2385619184896326e-05 0.014616878313384258 0 0.00011518865747853214 0.01469660575407954 0 2.425967609567752e-05 0.014619450746291663 0 9.2385619184896326e-05 0.014616878313384258 0 0.00011518865747853214 0.01469660575407954 0 0.00019105334748863582 0.014762970438165596 0 0.00011518865747853214 0.01469660575407954 0 0.00019105334748863582 0.014762970438165596 0 0.00014138814886849717 0.014738155308056809 0 0.00011518865747853214 0.01469660575407954 0 9.1489558770550518e-05 0.014721857584899018 0 2.425967609567752e-05 0.014619450746291663 0 0.00011518865747853214 0.01469660575407954 0 0.00014138814886849717 0.014738155308056809 0 9.1489558770550518e-05 0.014721857584899018 0 -5.1979424614996177e-05 0.013820485421552006 0 -6.3266178960933407e-05 0.014225546787178477 0 -5.9750199386193512e-05 0.013881443825224484 0 1.0834120654176852e-05 0.014251952568760159 0 -9.2236844011084566e-06 0.014617728751444145 0 -5.1979424614996177e-05 0.013820485421552006 0 -6.3266178960933407e-05 0.014225546787178477 0 -5.9910058728602731e-05 0.014245148895681962 0 0.00014138814886849717 0.014738155308056809 0 9.1489558770550518e-05 0.014721857584899018 0 0.00013133450366736456 0.014732106691317136 0 3.8219692126035054e-05 0.014475734083197257 0 -9.2236844011084566e-06 0.014617728751444145 0 -5.641228938936346e-05 0.014296131076380749 0 -1.6744313254846209e-08 0.014999192752206942 0 -3.96036678733936e-05 0.014522401965169685 0 -9.2236844011084566e-06 0.014617728751444145 0 4.3285531200915662e-05 0.014919894807284928 0 2.9193800544802446e-06 0.014994259041610095 0 1.2619223690807024e-06 0.014999337718488659 0 8.4729790105061332e-07 0.014998500126500291 0 -6.3266178960933407e-05 0.014225546787178477 0 -5.641228938936346e-05 0.014296131076380749 0 -3.96036678733936e-05 0.014522401965169685 0 0.00019105334748863582 0.014762970438165596 0 0.00014138814886849717 0.014738155308056809 0 8.7420721797633287e-05 0.014773680426149153 0 0.00014138814886849717 0.014738155308056809 0 0.00013133450366736456 0.014732106691317136 0 8.7420721797633287e-05 0.014773680426149153 0 3.4315784927509605e-08 0.014999923313870527 0 4.3285531200915662e-05 0.014919894807284928 0 -2.4611717231387882e-10 0.015000000966063088 0 1.2619223690807024e-06 0.014999337718488659 0 9.5952807065891882e-10 0.014999998913217287 0 1.2619223690807024e-06 0.014999337718488659 0 9.5952807065891882e-10 0.014999998913217287 0 8.4729790105061332e-07 0.014998500126500291 0 9.5952807065891882e-10 0.014999998913217287 0 -8.3246780525844469e-10 0.014999994609100216 0 8.4729790105061332e-07 0.014998500126500291 0 -9.2236844011084566e-06 0.014617728751444145 0 -1.9601291596041652e-07 0.014999878672032842 0 2.9193800544802446e-06 0.014994259041610095 0 -8.3246780525844469e-10 0.014999994609100216 0 8.4729790105061332e-07 0.014998500126500291 0 -1.6744313254846209e-08 0.014999192752206942 0 -3.96036678733936e-05 0.014522401965169685 0 -2.3244407583809604e-08 0.014999560219047183 0 -2.2366928250804026e-07 0.014999426642527425 0 -4.5558461990859976e-05 0.013493377483714613 0 1.4111233348715151e-07 0.012012133094007881 0 -6.3266178960933407e-05 0.014225546787178477 0 -3.96036678733936e-05 0.014522401965169685 0 -6.9205687375733263e-05 0.014167371131156712 0 -3.96036678733936e-05 0.014522401965169685 0 -5.9299589912126759e-05 0.014400269166613563 0 -6.9205687375733263e-05 0.014167371131156712 0 -3.96036678733936e-05 0.014522401965169685 0 -5.9299589912126759e-05 0.014400269166613563 0 -2.3244407583809604e-08 0.014999560219047183 0 -5.2414640068318453e-05 0.014360536235710347 0 -2.7107972938636055e-08 0.014999769076621492 0 -4.6640506270474898e-05 0.014348002534456238 0 5.915529404091288e-08 0.014998778943521021 0 -2.2366928250804026e-07 0.014999426642527425 0 -4.6640506270474898e-05 0.014348002534456238 0 -2.2366928250804026e-07 0.014999426642527425 0 -4.5558461990859976e-05 0.013493377483714613 0 -4.6640506270474898e-05 0.014348002534456238 0 -4.5558461990859976e-05 0.013493377483714613 0 -5.3234074613183767e-05 0.01374651148311099 0 -5.3234074613183767e-05 0.01374651148311099 0 -5.9750199386193512e-05 0.013881443825224484 0 -5.2778468227754522e-06 0.013531174416571817 0 -4.5558461990859976e-05 0.013493377483714613 0 -5.3234074613183767e-05 0.01374651148311099 0 -5.2778468227754522e-06 0.013531174416571817 0 -5.9299589912126759e-05 0.014400269166613563 0 -5.3234074613183767e-05 0.01374651148311099 0 -6.9205687375733263e-05 0.014167371131156712 0 -5.2414640068318453e-05 0.014360536235710347 0 -4.8108676504862797e-05 0.013860635168536719 0 -6.3266178960933407e-05 0.014225546787178477 0 -6.9205687375733263e-05 0.014167371131156712 0 -5.9750199386193512e-05 0.013881443825224484 0 -5.1979424614996177e-05 0.013820485421552006 0 -5.9750199386193512e-05 0.013881443825224484 0 3.4500635942997432e-05 0.01354033486809067 0 -5.3234074613183767e-05 0.01374651148311099 0 -6.9205687375733263e-05 0.014167371131156712 0 -5.9750199386193512e-05 0.013881443825224484 0 -5.9750199386193512e-05 0.013881443825224484 0 3.4500635942997432e-05 0.01354033486809067 0 -5.2778468227754522e-06 0.013531174416571817 0 3.4500635942997432e-05 0.01354033486809067 0 6.5340179048905064e-05 0.013373656215416254 0 -5.2778468227754522e-06 0.013531174416571817 0 3.4500635942997432e-05 0.01354033486809067 0 6.5340179048905064e-05 0.013373656215416254 0 0.00023143325860975727 0.013245738594358122 0 3.4500635942997432e-05 0.01354033486809067 0 0.00023143325860975727 0.013245738594358122 0 0.00014757192195200504 0.013509329203025189 0 5.4620243677380522e-05 0.013191868744889786 0 6.7890345423134976e-05 0.01287903049474407 0 0.00059774751170645686 0.012896999984637036 0 6.5340179048905064e-05 0.013373656215416254 0 5.4620243677380522e-05 0.013191868744889786 0 0.00023143325860975727 0.013245738594358122 0 -4.5558461990859976e-05 0.013493377483714613 0 5.4620243677380522e-05 0.013191868744889786 0 -5.2778468227754522e-06 0.013531174416571817 0 6.5340179048905064e-05 0.013373656215416254 0 5.4620243677380522e-05 0.013191868744889786 0 -5.2778468227754522e-06 0.013531174416571817 0 -4.5558461990859976e-05 0.013493377483714613 0 5.4620243677380522e-05 0.013191868744889786 0 6.7890345423134976e-05 0.01287903049474407 0 -4.5558461990859976e-05 0.013493377483714613 0 6.7890345423134976e-05 0.01287903049474407 0 1.4111233348715151e-07 0.012012133094007881 0 6.7890345423134976e-05 0.01287903049474407 0 1.4111233348715151e-07 0.012012133094007881 0 2.5665763796287566e-05 0.011997851876893265 0 3.8354625864441028e-05 0.01277274798036987 0 0.00025107077216178416 0.012368640906172769 0 6.7890345423134976e-05 0.01287903049474407 0 0.00055668581570576965 0.012699628018338766 0 0.00059774751170645686 0.012896999984637036 0 1.4111233348715151e-07 0.012012133094007881 0 2.5665763796287566e-05 0.011997851876893265 0 2.4603232717664354e-05 0.011215388016357679 0 0.00025107077216178416 0.012368640906172769 0 0.00042779433119468111 0.011891172289625536 0 0.00055668581570576965 0.012699628018338766 0 0.00059774751170645686 0.012896999984637036 0 0.00090146631651784629 0.012557231696837366 0 0.00038228357457632296 0.012876358358492322 0 0.00052967207041860434 0.012850803142036888 0 0.00070249205937677236 0.012554110857834368 0 0.00038228357457632296 0.012876358358492322 0 0.00052967207041860434 0.012850803142036888 0 0.00039012541835998181 0.013044870545350045 0 0.00048575492234496399 0.012895109909139319 0 0.00084518935881647554 0.012612755664173053 0 7.633749643555446e-05 0.013143592614699922 0 0.00048575492234496399 0.012895109909139319 0 5.4620243677380522e-05 0.013191868744889786 0 0.00038228357457632296 0.012876358358492322 0 0.00023143325860975727 0.013245738594358122 0 0.00038228357457632296 0.012876358358492322 0 0.00023143325860975727 0.013245738594358122 0 0.00039012541835998181 0.013044870545350045 0 0.00023143325860975727 0.013245738594358122 0 0.00039012541835998181 0.013044870545350045 0 0.00033915748353580632 0.013211839610817197 0 0.00052967207041860434 0.012850803142036888 0 0.00039012541835998181 0.013044870545350045 0 0.00050227858680889411 0.013007804941038197 0 0.00039012541835998181 0.013044870545350045 0 0.00050227858680889411 0.013007804941038197 0 0.00033915748353580632 0.013211839610817197 0 0.00050227858680889411 0.013007804941038197 0 0.00043785909894082062 0.013241007867335586 0 0.00033915748353580632 0.013211839610817197 0 0.00050227858680889411 0.013007804941038197 0 0.00043785909894082062 0.013241007867335586 0 0.00063372418583148194 0.012951056805534373 0 -6.0735380927788187e-05 0.014555712924230444 0 -7.1033384751522697e-05 0.01446434148579958 0 -0.0001288771591327409 0.014476112013147692 0 -6.0735380927788187e-05 0.014555712924230444 0 6.2505941497358859e-06 0.014637515469916469 0 -1.8900904367945412e-05 0.014547666765843686 0 0.00023143325860975727 0.013245738594358122 0 0.00033915748353580632 0.013211839610817197 0 0.00014757192195200504 0.013509329203025189 0 0.00018354752848370542 0.013854471260523252 0 6.64927285595972e-05 0.014081688513635738 0 0.00043785909894082062 0.013241007867335586 0 0.00033915748353580632 0.013211839610817197 0 0.00014757192195200504 0.013509329203025189 0 9.1489558770550518e-05 0.014721857584899018 0 6.2505941497358859e-06 0.014637515469916469 0 2.425967609567752e-05 0.014619450746291663 0 -5.1979424614996177e-05 0.013820485421552006 0 3.4500635942997432e-05 0.01354033486809067 0 0.00014757192195200504 0.013509329203025189 0 1.0834120654176852e-05 0.014251952568760159 0 6.64927285595972e-05 0.014081688513635738 0 6.2505941497358859e-06 0.014637515469916469 0 2.425967609567752e-05 0.014619450746291663 0 -1.8900904367945412e-05 0.014547666765843686 0 2.425967609567752e-05 0.014619450746291663 0 7.9697556880864199e-06 0.014473002252687672 0 -1.8900904367945412e-05 0.014547666765843686 0 2.425967609567752e-05 0.014619450746291663 0 -0.00022346305024784687 0.014526487816818328 0 5.7290442522191127e-06 0.014462156575679752 0 9.2385619184896326e-05 0.014616878313384258 0 2.425967609567752e-05 0.014619450746291663 0 5.7290442522191127e-06 0.014462156575679752 0 4.0915303014400576e-05 0.014634657783622836 0 -0.00018142879129462707 0.014409851703992543 0 7.9697556880864199e-06 0.014473002252687672 0 -7.1033384751522697e-05 0.01446434148579958 0 -3.7583670406954373e-05 0.014359225742138425 0 -7.1033384751522697e-05 0.01446434148579958 0 -9.7164028116213357e-05 0.01435581022958392 0 -3.7583670406954373e-05 0.014359225742138425 0 -6.0735380927788187e-05 0.014555712924230444 0 -7.1033384751522697e-05 0.01446434148579958 0 -1.8900904367945412e-05 0.014547666765843686 0 7.9697556880864199e-06 0.014473002252687672 0 -7.1033384751522697e-05 0.01446434148579958 0 -1.8900904367945412e-05 0.014547666765843686 0 -0.00012579592669542745 0.014415119383762515 0 -0.00015199085613319145 0.014399245580019876 0 -0.0001288771591327409 0.014476112013147692 0 -7.1033384751522697e-05 0.01446434148579958 0 -0.00012579592669542745 0.014415119383762515 0 -0.0001288771591327409 0.014476112013147692 0 -7.1033384751522697e-05 0.01446434148579958 0 -0.00012579592669542745 0.014415119383762515 0 -9.7164028116213357e-05 0.01435581022958392 0 -0.00012579592669542745 0.014415119383762515 0 -0.00014461001907997798 0.014345269278460557 0 -9.7164028116213357e-05 0.01435581022958392 0 -0.00045361915165434354 0.0099387126457928729 0 -0.00046061608472127108 0.010098722713437414 0 -0.00012579592669542745 0.014415119383762515 0 -0.00015199085613319145 0.014399245580019876 0 -0.00014461001907997798 0.014345269278460557 0 -0.00055043609097661888 0.0058495130641672798 0 -0.00054929314099287641 0.005771590282629779 0 -0.00079336847465200208 0.0058988633273124765 0 -0.00055043609097661888 0.0058495130641672798 0 -0.00049054308589302357 0.005748191407727277 0 -0.00054929314099287641 0.005771590282629779 0 -0.00049054308589302357 0.005748191407727277 0 -0.00049600979288564413 0.0057719685947121395 0 -0.00054929314099287641 0.005771590282629779 0 -0.00049600979288564413 0.0057719685947121395 0 -0.00054929314099287641 0.005771590282629779 0 -0.00049166357398246674 0.0058130435834302325 0 -0.00045361915165434354 0.0099387126457928729 0 0.00072507664475439848 0.011275389868919638 0 0.00072507664475439848 0.011275389868919638 0 0.00026168146537129813 0.014065273082776905 0 -0.00015199085613319145 0.014399245580019876 0 -0.00015598264729365033 0.014410097578868295 0 -0.0001288771591327409 0.014476112013147692 0 0.0010795953821730298 0.012870164011582995 0 0.00097264900812155694 0.012724428552913345 0 0.00073596357493406624 0.01300868166280196 0 0.0018616061054676767 0.011068031632163564 0 0.0015891020181395556 0.011483290688033282 0 0.0010298873858944739 0.010947526511780185 0 0.00072507664475439848 0.011275389868919638 0 0.00019411987539142103 0.0080002959744392785 0 -0.00049600979288564413 0.0057719685947121395 0 -0.00049166357398246674 0.0058130435834302325 0 -0.00052087499667983789 0.0058207472853233043 0 0.00072507664475439848 0.011275389868919638 0 0.0013278141210948265 0.01204392680331961 0 0.0013278141210948265 0.01204392680331961 0 0.001278853151284419 0.012078953245071041 0 0.0010795953821730298 0.012870164011582995 0 0.0011897363686433236 0.012590896914221016 0 0.00097264900812155694 0.012724428552913345 0 0.0011897363686433236 0.012590896914221016 0 0.00097264900812155694 0.012724428552913345 0 0.0010652517565589534 0.01240798111769629 0 0.00097264900812155694 0.012724428552913345 0 0.00083543894993737115 0.012720461705179244 0 0.0010652517565589534 0.01240798111769629 0 0.00097264900812155694 0.012724428552913345 0 0.00073596357493406624 0.01300868166280196 0 0.00083543894993737115 0.012720461705179244 0 0.00073596357493406624 0.01300868166280196 0 0.00063372418583148194 0.012951056805534373 0 0.00083543894993737115 0.012720461705179244 0 0.00018354752848370542 0.013854471260523252 0 0.00026168146537129813 0.014065273082776905 0 0.00043785909894082062 0.013241007867335586 0 0.00073596357493406624 0.01300868166280196 0 0.00063372418583148194 0.012951056805534373 0 0.00050227858680889411 0.013007804941038197 0 0.00063372418583148194 0.012951056805534373 0 0.00067549153313402636 0.012763446541801261 0 1.4111233348715151e-07 0.012012133094007881 0 2.4603232717664354e-05 0.011215388016357679 0 1.8844797426958669e-07 0.0097763926522873492 0 0.00063372418583148194 0.012951056805534373 0 0.00067549153313402636 0.012763446541801261 0 0.00083543894993737115 0.012720461705179244 0 0.00052967207041860434 0.012850803142036888 0 0.00050227858680889411 0.013007804941038197 0 0.00067549153313402636 0.012763446541801261 0 0.00067549153313402636 0.012763446541801261 0 0.00087924707553724973 0.012553027065260451 0 0.00083543894993737115 0.012720461705179244 0 0.00084518935881647554 0.012612755664173053 0 0.0011077547163704507 0.012386109390577382 0 0.00087924707553724973 0.012553027065260451 0 0.00070249205937677236 0.012554110857834368 0 0.0010748077788637271 0.012300391020760913 0 0.00067549153313402636 0.012763446541801261 0 0.00087924707553724973 0.012553027065260451 0 0.00070249205937677236 0.012554110857834368 0 0.00052967207041860434 0.012850803142036888 0 0.00067549153313402636 0.012763446541801261 0 0.00070249205937677236 0.012554110857834368 0 0.00059774751170645686 0.012896999984637036 0 0.00097536107815496102 0.012668273059379927 0 0.00090146631651784629 0.012557231696837366 0 2.4603232717664354e-05 0.011215388016357679 0 1.602559893651925e-05 0.010465850184622059 0 1.8844797426958669e-07 0.0097763926522873492 0 0.00097536107815496102 0.012668273059379927 0 0.00090146631651784629 0.012557231696837366 0 0.0011094804235757757 0.012455769299682071 0 0.00097536107815496102 0.012668273059379927 0 0.0011094804235757757 0.012455769299682071 0 0.001163038334997076 0.012462583256128736 0 0.00042779433119468111 0.011891172289625536 0 0.00052908585340908157 0.011458172167777518 0 1.8844797426958669e-07 0.0097763926522873492 0 -1.0958217631146034e-06 0.0096996988586654023 0 -2.3713237317641722e-05 0.0089625561226737253 0 1.602559893651925e-05 0.010465850184622059 0 1.8844797426958669e-07 0.0097763926522873492 0 -1.0958217631146034e-06 0.0096996988586654023 0 0.00052908585340908157 0.011458172167777518 0 0.00052146039025555916 0.011128472232105701 0 0.0011094804235757757 0.012455769299682071 0 0.0011577725447282096 0.012412413636512592 0 0.001163038334997076 0.012462583256128736 0 0.0011577725447282096 0.012412413636512592 0 0.001163038334997076 0.012462583256128736 0 0.0010803696551224091 0.012251650137197503 0 0.0011077547163704507 0.012386109390577382 0 0.0010769847449757705 0.012270692876841151 0 0.0011658179509414866 0.012202248137523247 0 0.0010748077788637271 0.012300391020760913 0 0.0010652517565589534 0.01240798111769629 0 0.0011658179509414866 0.012202248137523247 0 0.0010748077788637271 0.012300391020760913 0 0.0010803696551224091 0.012251650137197503 0 0.00087924707553724973 0.012553027065260451 0 0.0010748077788637271 0.012300391020760913 0 0.0010652517565589534 0.01240798111769629 0 0.00087924707553724973 0.012553027065260451 0 0.00083543894993737115 0.012720461705179244 0 0.0010652517565589534 0.01240798111769629 0 0.0011658179509414866 0.012202248137523247 0 0.0010652517565589534 0.01240798111769629 0 0.0012527809862978609 0.012053220587516334 0 0.0011897363686433236 0.012590896914221016 0 0.0010652517565589534 0.01240798111769629 0 0.0012527809862978609 0.012053220587516334 0 0.0011658179509414866 0.012202248137523247 0 0.0012527809862978609 0.012053220587516334 0 0.00097590723806274165 0.012017188339206331 0 0.0012527809862978609 0.012053220587516334 0 0.00097590723806274165 0.012017188339206331 0 0.00093394335626789541 0.011521738379229691 0 0.00097590723806274165 0.012017188339206331 0 0.0005820479183478506 0.011547060911338409 0 0.00093394335626789541 0.011521738379229691 0 0.00097590723806274165 0.012017188339206331 0 0.00088955995442935277 0.012250249072502606 0 0.0005915798324669766 0.012164895641393794 0 0.00097590723806274165 0.012017188339206331 0 0.0005915798324669766 0.012164895641393794 0 0.0005820479183478506 0.011547060911338409 0 0.0011658179509414866 0.012202248137523247 0 0.00097590723806274165 0.012017188339206331 0 0.0010803696551224091 0.012251650137197503 0 0.00097590723806274165 0.012017188339206331 0 0.0010803696551224091 0.012251650137197503 0 0.00088955995442935277 0.012250249072502606 0 0.0011577725447282096 0.012412413636512592 0 0.0010803696551224091 0.012251650137197503 0 0.0010219305079373659 0.012345477020865525 0 0.00052146039025555916 0.011128472232105701 0 0.00046196910243098303 0.010009672564862352 0 -1.0958217631146034e-06 0.0096996988586654023 0 -2.3667507964119524e-05 0.0089213174174018316 0 -2.3713237317641722e-05 0.0089625561226737253 0 0.0011577725447282096 0.012412413636512592 0 0.0009602316984329215 0.012450706128948968 0 0.0010219305079373659 0.012345477020865525 0 1.8844797426958669e-07 0.0097763926522873492 0 -2.3713237317641722e-05 0.0089625561226737253 0 -7.0501418202949264e-07 0.0081176616356475485 0 0.00046196910243098303 0.010009672564862352 0 0.00032167510186570673 0.0098523282372846143 0 0.0009602316984329215 0.012450706128948968 0 0.0010219305079373659 0.012345477020865525 0 0.00088955995442935277 0.012250249072502606 0 0.0010803696551224091 0.012251650137197503 0 0.0010219305079373659 0.012345477020865525 0 0.00088955995442935277 0.012250249072502606 0 0.00046196910243098303 0.010009672564862352 0 0.00014899037813725534 0.010369995607802373 0 -6.8384801582569501e-05 0.0086876697327992764 0 -0.00017597954683751938 0.0083084950640829273 0 -0.00037565427994598789 0.0083520708944050653 0 0.0009602316984329215 0.012450706128948968 0 0.00088955995442935277 0.012250249072502606 0 0.0005915798324669766 0.012164895641393794 0 5.3362147947337922e-05 0.0086786571118715478 0 -6.8384801582569501e-05 0.0086876697327992764 0 -0.00037565427994598789 0.0083520708944050653 0 -3.322602427340052e-05 0.0088753869399706316 0 -6.8384801582569501e-05 0.0086876697327992764 0 -2.3713237317641722e-05 0.0089625561226737253 0 0.00046196910243098303 0.010009672564862352 0 0.00013371889452946562 0.0096919028044259847 0 -6.8384801582569501e-05 0.0086876697327992764 0 -2.3713237317641722e-05 0.0089625561226737253 0 -7.0501418202949264e-07 0.0081176616356475485 0 -6.1755285245998731e-05 0.0076279075221646299 0 -7.0501418202949264e-07 0.0081176616356475485 0 -0.00024091286425982031 0.0080687020334894426 0 -6.8384801582569501e-05 0.0086876697327992764 0 -7.0501418202949264e-07 0.0081176616356475485 0 -0.00017597954683751938 0.0083084950640829273 0 -7.0501418202949264e-07 0.0081176616356475485 0 -0.00017597954683751938 0.0083084950640829273 0 -0.00024091286425982031 0.0080687020334894426 0 -0.00017597954683751938 0.0083084950640829273 0 -0.00024091286425982031 0.0080687020334894426 0 -0.00037565427994598789 0.0083520708944050653 0 -6.1755285245998731e-05 0.0076279075221646299 0 -0.00012285063540961566 0.0082898041221216804 0 -0.00024091286425982031 0.0080687020334894426 0 -0.00012285063540961566 0.0082898041221216804 0 -0.00024091286425982031 0.0080687020334894426 0 -0.00057279194374825989 0.0089451396480369968 0 -0.00024091286425982031 0.0080687020334894426 0 -0.00037565427994598789 0.0083520708944050653 0 -0.00057279194374825989 0.0089451396480369968 0 0.00014899037813725534 0.010369995607802373 0 -0.00013030012750994558 0.010275439120088556 0 0.0005915798324669766 0.012164895641393794 0 0.0005820479183478506 0.011547060911338409 0 0.00019414406198800904 0.011532397306405377 0 0.0005820479183478506 0.011547060911338409 0 0.00019414406198800904 0.011532397306405377 0 0.00027117446039163779 0.011027697063332613 0 0.00013225880162289161 0.010661737589484639 0 0.00019414406198800904 0.011532397306405377 0 0.00027117446039163779 0.011027697063332613 0 0.00013225880162289161 0.010661737589484639 0 0.00017334094884917134 0.010859097751439672 0 0.00027117446039163779 0.011027697063332613 0 -0.00064271826695217274 0.00644637248151512 0 -4.4011542866356173e-05 0.0086280666813992532 0 0.00017334094884917134 0.010859097751439672 0 0.00027117446039163779 0.011027697063332613 0 0.00042287623151264964 0.010861577680021831 0 0.00027117446039163779 0.011027697063332613 0 0.00042287623151264964 0.010861577680021831 0 0.00061317189219953119 0.011195981212521171 0 0.0005820479183478506 0.011547060911338409 0 0.00027117446039163779 0.011027697063332613 0 0.00061317189219953119 0.011195981212521171 0 0.0005820479183478506 0.011547060911338409 0 0.00061317189219953119 0.011195981212521171 0 0.00093394335626789541 0.011521738379229691 0 0.00061317189219953119 0.011195981212521171 0 0.00093394335626789541 0.011521738379229691 0 0.0010298873858944739 0.010947526511780185 0 0.0015891020181395556 0.011483290688033282 0 0.0012527809862978609 0.012053220587516334 0 0.00093394335626789541 0.011521738379229691 0 0.0015891020181395556 0.011483290688033282 0 0.00093394335626789541 0.011521738379229691 0 0.0010298873858944739 0.010947526511780185 0 0.00042287623151264964 0.010861577680021831 0 0.00061317189219953119 0.011195981212521171 0 0.0010298873858944739 0.010947526511780185 0 -4.4011542866356173e-05 0.0086280666813992532 0 0.00019411987539142103 0.0080002959744392785 0 -0.00068264254219359461 0.0058272669858200942 0 -0.00052087499667983789 0.0058207472853233043 0 -0.00053962773949535947 0.0056894884636023617 0 -0.00068264254219359461 0.0058272669858200942 0 -0.00053962773949535947 0.0056894884636023617 0 -0.00068805521555749365 0.0056090372879736847 0 -0.00049600979288564413 0.0057719685947121395 0 -0.00052087499667983789 0.0058207472853233043 0 -0.00053962773949535947 0.0056894884636023617 0 -0.00049054308589302357 0.005748191407727277 0 -0.00053962773949535947 0.0056894884636023617 0 -0.00050968670280632363 0.0056491234003066661 0 -0.00049054308589302357 0.005748191407727277 0 -0.00049600979288564413 0.0057719685947121395 0 -0.00053962773949535947 0.0056894884636023617 0 -0.00053962773949535947 0.0056894884636023617 0 -0.00068805521555749365 0.0056090372879736847 0 -0.00062703676681603935 0.0054919507280272858 0 -0.00053962773949535947 0.0056894884636023617 0 -0.00062703676681603935 0.0054919507280272858 0 -0.00050968670280632363 0.0056491234003066661 0 -0.00068805521555749365 0.0056090372879736847 0 -0.00077590105801024836 0.0053032972189809872 0 -0.00062703676681603935 0.0054919507280272858 0 -0.00068805521555749365 0.0056090372879736847 0 -0.00090840002752381186 0.0056079354917681675 0 -0.00077590105801024836 0.0053032972189809872 0 -0.00073450867574134172 0.0050168341339999678 0 -0.00082082847881193174 0.0053324819884564842 0 -0.00066166826909585771 0.0050578352308227985 0 -0.00074010515265354401 0.0047971555070522691 0 -0.00077590105801024836 0.0053032972189809872 0 -0.00053948231594705127 0.0048409285815385157 0 -0.00066166826909585771 0.0050578352308227985 0 -0.00074010515265354401 0.0047971555070522691 0 -0.0010027826988466798 0.0058066433544874266 0 -0.00068264254219359461 0.0058272669858200942 0 -0.00090840002752381186 0.0056079354917681675 0 -0.00064271826695217274 0.00644637248151512 0 -0.00073450867574134172 0.0050168341339999678 0 -0.00068264254219359461 0.0058272669858200942 0 -0.00068805521555749365 0.0056090372879736847 0 -0.00090840002752381186 0.0056079354917681675 0 0.00070196549355120124 0.0065003033357461087 0 0.00034957437625666516 0.0064006706654699125 0 0.00068320344876118258 0.0067026489113451706 0 -2.4409828065685096e-05 0.0059099049649541675 0 -0.00012450772147252313 0.0059482961831547358 0 -0.00061151369185807284 0.0051946751217336615 0 -0.00056127034809023112 0.005242198907136621 0 -0.00074262912322325698 0.0053094841479846173 0 0.00096326616788369973 0.0066126727629550151 0 0.00070196549355120124 0.0065003033357461087 0 0.00084332190637688182 0.006681358080432462 0 0.00018230318210738937 0.0059232964613387916 0 -2.4409828065685096e-05 0.0059099049649541675 0 0.00070196549355120124 0.0065003033357461087 0 0.00068320344876118258 0.0067026489113451706 0 0.00084332190637688182 0.006681358080432462 0 -0.00074262912322325698 0.0053094841479846173 0 -0.00066024636834154213 0.0051704186536424314 0 -0.00077590105801024836 0.0053032972189809872 0 -0.00061151369185807284 0.0051946751217336615 0 -0.00074262912322325698 0.0053094841479846173 0 -0.00066024636834154213 0.0051704186536424314 0 -0.00053253442350056511 0.0049692188573385466 0 -0.00066166826909585771 0.0050578352308227985 0 -0.00066024636834154213 0.0051704186536424314 0 -0.00066166826909585771 0.0050578352308227985 0 -0.00066024636834154213 0.0051704186536424314 0 -0.00077590105801024836 0.0053032972189809872 0 -0.00074262912322325698 0.0053094841479846173 0 -0.00077590105801024836 0.0053032972189809872 0 -0.00062703676681603935 0.0054919507280272858 0 -0.00062703676681603935 0.0054919507280272858 0 -0.00050968670280632363 0.0056491234003066661 0 -0.00056553118973336745 0.0054900062489241794 0 -0.00074262912322325698 0.0053094841479846173 0 -0.00062703676681603935 0.0054919507280272858 0 -0.00056553118973336745 0.0054900062489241794 0 -0.00050968670280632363 0.0056491234003066661 0 -0.00056553118973336745 0.0054900062489241794 0 -0.00046719810493631343 0.0057729011880158828 0 -0.00012450772147252313 0.0059482961831547358 0 -0.00029408682538663517 0.0060297669755807895 0 0.00034957437625666516 0.0064006706654699125 0 0.0002294404188299552 0.006656475523376006 0 -5.9585328119517965e-05 0.0062871855440394782 0 0.00034957437625666516 0.0064006706654699125 0 0.00048922649261204897 0.0067962905500330816 0 0.00068320344876118258 0.0067026489113451706 0 0.00034957437625666516 0.0064006706654699125 0 0.00048922649261204897 0.0067962905500330816 0 0.0002294404188299552 0.006656475523376006 0 0.0002294404188299552 0.006656475523376006 0 0.00020040152043674734 0.0070677481216122754 0 -6.6694655254245674e-05 0.006737322859045527 0 0.00048922649261204897 0.0067962905500330816 0 0.0002294404188299552 0.006656475523376006 0 0.00020040152043674734 0.0070677481216122754 0 0.00048922649261204897 0.0067962905500330816 0 0.00020040152043674734 0.0070677481216122754 0 0.00053771730742007112 0.0071367479830914023 0 0.00048922649261204897 0.0067962905500330816 0 0.00069049276315012818 0.0069318115773148994 0 0.00053771730742007112 0.0071367479830914023 0 0.00048922649261204897 0.0067962905500330816 0 0.00069049276315012818 0.0069318115773148994 0 0.00068320344876118258 0.0067026489113451706 0 0.00068320344876118258 0.0067026489113451706 0 0.00084332190637688182 0.006681358080432462 0 0.00087577887605253598 0.006866620019038241 0 0.00094254942058225185 0.0067333773823778599 0 0.00084332190637688182 0.006681358080432462 0 0.00087577887605253598 0.006866620019038241 0 0.00069049276315012818 0.0069318115773148994 0 0.00087577887605253598 0.006866620019038241 0 0.00083976406995087875 0.007165518416480692 0 0.00069049276315012818 0.0069318115773148994 0 0.00068320344876118258 0.0067026489113451706 0 0.00087577887605253598 0.006866620019038241 0 0.00094127670500007948 0.0072118212432128849 0 0.00096747684575332587 0.0070510444310092407 0 0.00083976406995087875 0.007165518416480692 0 0.00096747684575332587 0.0070510444310092407 0 0.00087577887605253598 0.006866620019038241 0 0.00083976406995087875 0.007165518416480692 0 0.00069049276315012818 0.0069318115773148994 0 0.00083976406995087875 0.007165518416480692 0 0.00053771730742007112 0.0071367479830914023 0 0.00083976406995087875 0.007165518416480692 0 0.00053771730742007112 0.0071367479830914023 0 0.00068901784380034545 0.0075193626431386265 0 0.0011057953018321421 0.0074049595298096762 0 0.00084658170501153895 0.0071647896549115577 0 0.001220511910047764 0.0075542194429048413 0 0.00083976406995087875 0.007165518416480692 0 0.00068901784380034545 0.0075193626431386265 0 0.001220511910047764 0.0075542194429048413 0 0.00068901784380034545 0.0075193626431386265 0 0.00080460712840219636 0.0079075106502566224 0 0.001220511910047764 0.0075542194429048413 0 0.0011755123706340719 0.0079315008991273049 0 0.00080460712840219636 0.0079075106502566224 0 0.00068901784380034545 0.0075193626431386265 0 0.00080460712840219636 0.0079075106502566224 0 0.00044891786309365808 0.0079010252769890939 0 0.00080460712840219636 0.0079075106502566224 0 0.00044891786309365808 0.0079010252769890939 0 0.00057969151570156426 0.0083945434717371693 0 0.00080460712840219636 0.0079075106502566224 0 0.00095322662360803852 0.0082458994439873895 0 0.00057969151570156426 0.0083945434717371693 0 0.0011755123706340719 0.0079315008991273049 0 0.00080460712840219636 0.0079075106502566224 0 0.00095322662360803852 0.0082458994439873895 0 0.0011755123706340719 0.0079315008991273049 0 0.00095322662360803852 0.0082458994439873895 0 0.0012807820119799381 0.0082936876550133987 0 0.00017683420366056794 0.0081129457509751101 0 0.00044891786309365808 0.0079010252769890939 0 0.00057969151570156426 0.0083945434717371693 0 0.00068901784380034545 0.0075193626431386265 0 0.00044891786309365808 0.0079010252769890939 0 0.00033089747744722848 0.0074728064908236224 0 0.00044891786309365808 0.0079010252769890939 0 0.00013087767344768962 0.0077698286346244913 0 0.00033089747744722848 0.0074728064908236224 0 0.00017683420366056794 0.0081129457509751101 0 0.00013087767344768962 0.0077698286346244913 0 -0.00019989432806949003 0.0078651388672714342 0 0.00017683420366056794 0.0081129457509751101 0 0.00044891786309365808 0.0079010252769890939 0 0.00013087767344768962 0.0077698286346244913 0 0.00013087767344768962 0.0077698286346244913 0 0.00033089747744722848 0.0074728064908236224 0 -1.3556605966842278e-05 0.0074798673610220892 0 0.00053771730742007112 0.0071367479830914023 0 0.00068901784380034545 0.0075193626431386265 0 0.00033089747744722848 0.0074728064908236224 0 0.00020040152043674734 0.0070677481216122754 0 0.00053771730742007112 0.0071367479830914023 0 0.00033089747744722848 0.0074728064908236224 0 0.00020040152043674734 0.0070677481216122754 0 0.00033089747744722848 0.0074728064908236224 0 -1.3556605966842278e-05 0.0074798673610220892 0 0.00020040152043674734 0.0070677481216122754 0 -0.00023834185546052925 0.0071578040679685625 0 -1.3556605966842278e-05 0.0074798673610220892 0 -0.00023834185546052925 0.0071578040679685625 0 -0.00031783919000403642 0.0075050540836994264 0 -1.3556605966842278e-05 0.0074798673610220892 0 -0.00023834185546052925 0.0071578040679685625 0 -0.00054159518834504992 0.0073768352933461304 0 -0.00058364270783261023 0.0070844478363275582 0 -0.00023834185546052925 0.0071578040679685625 0 -0.00031783919000403642 0.0075050540836994264 0 -0.00054159518834504992 0.0073768352933461304 0 -0.00031783919000403642 0.0075050540836994264 0 -0.00057439008118428101 0.0076305551453232185 0 -0.00054159518834504992 0.0073768352933461304 0 -0.00031783919000403642 0.0075050540836994264 0 -0.00019989432806949003 0.0078651388672714342 0 -0.00057439008118428101 0.0076305551453232185 0 -0.00031783919000403642 0.0075050540836994264 0 -1.3556605966842278e-05 0.0074798673610220892 0 -0.00019989432806949003 0.0078651388672714342 0 0.00013087767344768962 0.0077698286346244913 0 -1.3556605966842278e-05 0.0074798673610220892 0 -0.00019989432806949003 0.0078651388672714342 0 0.0018035438050302559 0.012752983428632726 0 0.0017785845438790704 0.012849964558127463 0 0.0017862508582614698 0.012614111406883148 0 0.000779070284594427 0.010294124776809363 0 0.00070896527795295231 0.01015004569588396 0 0.0018035438050302559 0.012752983428632726 0 0.001787949707810357 0.012760233167390823 0 0.0017785845438790704 0.012849964558127463 0 0.00095356434331387934 0.010385143615071393 0 0.000779070284594427 0.010294124776809363 0 0.0017167997272366099 0.012669259642457135 0 0.0018035438050302559 0.012752983428632726 0 0.001787949707810357 0.012760233167390823 0 0.0014823592580752937 0.013019968476452743 0 0.0017785845438790704 0.012849964558127463 0 0.0015211071150568122 0.012773841459923396 0 0.0014823592580752937 0.013019968476452743 0 0.0017785845438790704 0.012849964558127463 0 0.0017533458884987703 0.013118819621429261 0 0.0016790105508134815 0.012708619416687585 0 0.0015659286448687535 0.012573796659516068 0 0.0017862508582614698 0.012614111406883148 0 0.0017785845438790704 0.012849964558127463 0 0.0016790105508134815 0.012708619416687585 0 0.0015211071150568122 0.012773841459923396 0 0.0017785845438790704 0.012849964558127463 0 0.0016790105508134815 0.012708619416687585 0 0.0017862508582614698 0.012614111406883148 0 0.0016790105508134815 0.012708619416687585 0 0.0015211071150568122 0.012773841459923396 0 0.0015659286448687535 0.012573796659516068 0 0.0015211071150568122 0.012773841459923396 0 0.0015659286448687535 0.012573796659516068 0 0.0012443056104529616 0.012579708867069902 0 0.0015659286448687535 0.012573796659516068 0 0.0017862508582614698 0.012614111406883148 0 0.001475207643098452 0.012255834954009597 0 0.0015659286448687535 0.012573796659516068 0 0.001475207643098452 0.012255834954009597 0 0.0012443056104529616 0.012579708867069902 0 0.00070896527795295231 0.01015004569588396 0 -0.00026686331416536131 0.0097991008990673985 0 -0.00057439008118428101 0.0076305551453232185 0 -0.00054159518834504992 0.0073768352933461304 0 -0.00087622235174954113 0.0074521378736445102 0 -0.00054159518834504992 0.0073768352933461304 0 -0.00085290909235697591 0.0072199713783401235 0 -0.0010948225866621094 0.007467826111297966 0 -0.00083082550018052708 0.006866337106286138 0 -0.00026686331416536131 0.0097991008990673985 0 -0.00054159518834504992 0.0073768352933461304 0 -0.00085290909235697591 0.0072199713783401235 0 -0.00058364270783261023 0.0070844478363275582 0 -0.00085290909235697591 0.0072199713783401235 0 -0.0010948225866621094 0.007467826111297966 0 -0.0010945446468831868 0.0071815917271653845 0 -0.0010948225866621094 0.007467826111297966 0 -0.0010945446468831868 0.0071815917271653845 0 -0.0013745356233634196 0.0073030620473781734 0 -0.0010945446468831868 0.0071815917271653845 0 -0.00092984056645004911 0.006984707431526768 0 -0.0012549989543674906 0.0070108951528199265 0 -0.00085290909235697591 0.0072199713783401235 0 -0.0010945446468831868 0.0071815917271653845 0 -0.00092984056645004911 0.006984707431526768 0 -0.00092984056645004911 0.006984707431526768 0 -0.0010762413887118437 0.0067001734674357266 0 -0.0012549989543674906 0.0070108951528199265 0 -0.0010762413887118437 0.0067001734674357266 0 -0.0011437349947411048 0.006356867322785292 0 -0.0013995514425117039 0.0067481574382605644 0 -0.00092984056645004911 0.006984707431526768 0 -0.0010762413887118437 0.0067001734674357266 0 -0.00078608433908905863 0.0067238468373720791 0 -0.0010762413887118437 0.0067001734674357266 0 -0.00078608433908905863 0.0067238468373720791 0 -0.00097246810428865712 0.006462772209015066 0 -0.00078608433908905863 0.0067238468373720791 0 -0.00097246810428865712 0.006462772209015066 0 -0.00067486779650631815 0.0064669426206847456 0 -0.00078608433908905863 0.0067238468373720791 0 -0.00046527574319636292 0.0067869007677287246 0 -0.00067486779650631815 0.0064669426206847456 0 -0.00092984056645004911 0.006984707431526768 0 -0.00078608433908905863 0.0067238468373720791 0 -0.00058364270783261023 0.0070844478363275582 0 -0.00085290909235697591 0.0072199713783401235 0 -0.00092984056645004911 0.006984707431526768 0 -0.00058364270783261023 0.0070844478363275582 0 -0.00078608433908905863 0.0067238468373720791 0 -0.00058364270783261023 0.0070844478363275582 0 -0.00046527574319636292 0.0067869007677287246 0 -0.00023834185546052925 0.0071578040679685625 0 -6.6694655254245674e-05 0.006737322859045527 0 -0.00046527574319636292 0.0067869007677287246 0 -0.00023834185546052925 0.0071578040679685625 0 -0.00058364270783261023 0.0070844478363275582 0 -0.00046527574319636292 0.0067869007677287246 0 0.00020040152043674734 0.0070677481216122754 0 -0.00023834185546052925 0.0071578040679685625 0 -6.6694655254245674e-05 0.006737322859045527 0 0.0002294404188299552 0.006656475523376006 0 -6.6694655254245674e-05 0.006737322859045527 0 -5.9585328119517965e-05 0.0062871855440394782 0 -6.6694655254245674e-05 0.006737322859045527 0 -0.00046527574319636292 0.0067869007677287246 0 -0.00035634389731170716 0.0064703384564949911 0 -0.00046527574319636292 0.0067869007677287246 0 -0.00035634389731170716 0.0064703384564949911 0 -0.00067486779650631815 0.0064669426206847456 0 -0.00035634389731170716 0.0064703384564949911 0 -0.00067486779650631815 0.0064669426206847456 0 -0.000589273210679682 0.0061043207222109021 0 -0.00029408682538663517 0.0060297669755807895 0 -0.00059216690261031167 0.0060864213179007767 0 -0.00035634389731170716 0.0064703384564949911 0 -5.9585328119517965e-05 0.0062871855440394782 0 -0.000589273210679682 0.0061043207222109021 0 -6.6694655254245674e-05 0.006737322859045527 0 -0.00035634389731170716 0.0064703384564949911 0 -5.9585328119517965e-05 0.0062871855440394782 0 -0.00049054308589302357 0.005748191407727277 0 -0.00050968670280632363 0.0056491234003066661 0 -0.00046719810493631343 0.0057729011880158828 0 -0.00055043609097661888 0.0058495130641672798 0 -0.00049054308589302357 0.005748191407727277 0 -0.00046719810493631343 0.0057729011880158828 0 -0.00055043609097661888 0.0058495130641672798 0 -0.00046719810493631343 0.0057729011880158828 0 -0.000589273210679682 0.0061043207222109021 0 -0.00055043609097661888 0.0058495130641672798 0 -0.00079336847465200208 0.0058988633273124765 0 -0.000589273210679682 0.0061043207222109021 0 -0.00079336847465200208 0.0058988633273124765 0 -0.000589273210679682 0.0061043207222109021 0 -0.00084675402832313292 0.0062191134795223039 0 -0.00079336847465200208 0.0058988633273124765 0 -0.0011489947337829246 0.0063159226250628841 0 -0.00084675402832313292 0.0062191134795223039 0 -0.00014461001907997798 0.014345269278460557 0 -9.7164028116213357e-05 0.01435581022958392 0 -0.0001087368876077968 0.0142502375754965 0 -0.00046061608472127108 0.010098722713437414 0 -0.00053957494540851528 0.010608121014457716 0 -0.0010762413887118437 0.0067001734674357266 0 -0.0011437349947411048 0.006356867322785292 0 -0.00097246810428865712 0.006462772209015066 0 -0.00053957494540851528 0.010608121014457716 0 -0.0019740707673768241 0.0071032089166980861 0 -0.0011489947337829246 0.0063159226250628841 0 -0.00097246810428865712 0.006462772209015066 0 -0.00084675402832313292 0.0062191134795223039 0 -0.00097246810428865712 0.006462772209015066 0 -0.00067486779650631815 0.0064669426206847456 0 -0.00084675402832313292 0.0062191134795223039 0 -0.00067486779650631815 0.0064669426206847456 0 -0.000589273210679682 0.0061043207222109021 0 -0.00084675402832313292 0.0062191134795223039 0 -0.00033004614263376105 0.014132748992514701 0 -0.00054885135057005741 0.014085294121365026 0 -0.00039676672029235593 0.013908829247353928 0 -0.00033004614263376105 0.014132748992514701 0 -0.00054885135057005741 0.014085294121365026 0 -0.0005013874040836776 0.014348379532802191 0 -0.00078744045284069662 0.014113459553502841 0 -0.00054885135057005741 0.014085294121365026 0 -0.00061720822564651325 0.013864672260902072 0 -0.00078744045284069662 0.014113459553502841 0 -0.00054885135057005741 0.014085294121365026 0 -0.0005013874040836776 0.014348379532802191 0 -0.00053957494540851528 0.010608121014457716 0 -5.6203555289630741e-05 0.014859019499290622 0 -9.7164028116213357e-05 0.01435581022958392 0 -0.0001087368876077968 0.0142502375754965 0 -3.7583670406954373e-05 0.014359225742138425 0 -0.00018142879129462707 0.014409851703992543 0 -5.6203555289630741e-05 0.014859019499290622 0 -0.00033004614263376105 0.014132748992514701 0 -0.0005013874040836776 0.014348379532802191 0 -0.00017720736896161666 0.014321437255122523 0 -0.00022346305024784687 0.014526487816818328 0 -0.0005013874040836776 0.014348379532802191 0 -0.00017720736896161666 0.014321437255122523 0 -0.00022346305024784687 0.014526487816818328 0 -0.00017720736896161666 0.014321437255122523 0 5.7290442522191127e-06 0.014462156575679752 0 -0.00017720736896161666 0.014321437255122523 0 5.7290442522191127e-06 0.014462156575679752 0 -1.9099246857838935e-07 0.014293226686033864 0 -0.00017720736896161666 0.014321437255122523 0 -1.9099246857838935e-07 0.014293226686033864 0 -0.00015433830649329443 0.014176928306944538 0 -1.9099246857838935e-07 0.014293226686033864 0 -4.1153007713978833e-05 0.014125620088540758 0 0.0001483656110692034 0.014212850886217137 0 -1.9099246857838935e-07 0.014293226686033864 0 -4.1153007713978833e-05 0.014125620088540758 0 -0.00015433830649329443 0.014176928306944538 0 -0.00033004614263376105 0.014132748992514701 0 -0.00017720736896161666 0.014321437255122523 0 -0.00015433830649329443 0.014176928306944538 0 -4.1153007713978833e-05 0.014125620088540758 0 -0.00015433830649329443 0.014176928306944538 0 -0.00020143637462128981 0.013993689286163595 0 -0.00033004614263376105 0.014132748992514701 0 -0.00015433830649329443 0.014176928306944538 0 -0.00020143637462128981 0.013993689286163595 0 -0.00033004614263376105 0.014132748992514701 0 -0.00020143637462128981 0.013993689286163595 0 -0.00039676672029235593 0.013908829247353928 0 0.00020627422328276597 0.013931697374060383 0 0.00013847663682671401 0.013329753399682559 0 -0.00020143637462128981 0.013993689286163595 0 -2.8534560074893718e-05 0.013927257366805548 0 -0.00023279712366568015 0.013760367463381037 0 -0.00020143637462128981 0.013993689286163595 0 -0.00023279712366568015 0.013760367463381037 0 -0.00039676672029235593 0.013908829247353928 0 9.736616689378574e-05 0.014789515621240317 0 9.5297040670396093e-05 0.01479006931876521 0 9.9549470061882354e-05 0.014794977454301802 0 -4.1153007713978833e-05 0.014125620088540758 0 -4.5956179241005283e-05 0.014022892043069954 0 0.0001483656110692034 0.014212850886217137 0 3.8395090036939941e-05 0.014087829918562582 0 0.00020627422328276597 0.013931697374060383 0 -4.1153007713978833e-05 0.014125620088540758 0 -0.00020143637462128981 0.013993689286163595 0 -2.8534560074893718e-05 0.013927257366805548 0 0.00020627422328276597 0.013931697374060383 0 0.0003318131770212512 0.013590550793089684 0 9.736616689378574e-05 0.014789515621240317 0 8.6940482406474756e-05 0.014780465722637699 0 9.5297040670396093e-05 0.01479006931876521 0 8.6940482406474756e-05 0.014780465722637699 0 9.5297040670396093e-05 0.01479006931876521 0 9.1529191041102816e-05 0.014781510647215966 0 0.00011083822494041095 0.0126358303735606 0 -0.00035597956251103436 0.012317899143288265 0 0.00012853866171242344 0.012092528371321505 0 0.00053962340377035182 0.012307260368072906 0 0.00011083822494041095 0.0126358303735606 0 0.00012853866171242344 0.012092528371321505 0 0.0005863242594117263 0.012951392941234409 0 0.00053962340377035182 0.012307260368072906 0 0.00011083822494041095 0.0126358303735606 0 -0.00023279712366568015 0.013760367463381037 0 -0.00044840211218273341 0.013596555376500178 0 -0.00039676672029235593 0.013908829247353928 0 0.00013847663682671401 0.013329753399682559 0 -0.00079217940787889045 0.010521062185028497 0 -0.00054885135057005741 0.014085294121365026 0 -0.00039676672029235593 0.013908829247353928 0 -0.00061720822564651325 0.013864672260902072 0 -0.00044840211218273341 0.013596555376500178 0 -0.00039676672029235593 0.013908829247353928 0 -0.00061720822564651325 0.013864672260902072 0 -0.00053957494540851528 0.010608121014457716 0 -0.0010539693636587378 0.010262115525534422 0 -0.0010762413887118437 0.0067001734674357266 0 -0.0013995514425117039 0.0067481574382605644 0 -0.0012549989543674906 0.0070108951528199265 0 -0.0016498203008293265 0.0071456378216845501 0 -0.0012549989543674906 0.0070108951528199265 0 -0.0013745356233634196 0.0073030620473781734 0 -0.00079217940787889045 0.010521062185028497 0 -0.0010539693636587378 0.010262115525534422 0 -0.0016498203008293265 0.0071456378216845501 0 -0.0013995514425117039 0.0067481574382605644 0 -0.0012549989543674906 0.0070108951528199265 0 -0.0010945446468831868 0.0071815917271653845 0 -0.0012549989543674906 0.0070108951528199265 0 -0.0013745356233634196 0.0073030620473781734 0 -0.0011545224102528669 0.011768155864373723 0 -0.00075627855331624404 0.012038809667541161 0 -0.00039094628854802291 0.011735449891043878 0 -0.00026686331416536131 0.0097991008990673985 0 0.00035046099116442704 0.012178701753576784 0 -0.00079217940787889045 0.010521062185028497 0 -0.0012542174286457044 0.0095659615115537364 0 -0.00026686331416536131 0.0097991008990673985 0 -0.0012542174286457044 0.0095659615115537364 0 -0.00039094628854802291 0.011735449891043878 0 -0.00010189540585726244 0.01191590388508797 0 0.00018588439860546801 0.011732601102136699 0 -0.00035597956251103436 0.012317899143288265 0 -0.00039094628854802291 0.011735449891043878 0 -0.00010189540585726244 0.01191590388508797 0 -0.00035597956251103436 0.012317899143288265 0 -0.00075627855331624404 0.012038809667541161 0 -0.00039094628854802291 0.011735449891043878 0 -0.00035597956251103436 0.012317899143288265 0 -0.00010189540585726244 0.01191590388508797 0 0.00012853866171242344 0.012092528371321505 0 0.00093670239829651521 0.012229430288852434 0 0.0012443056104529616 0.012579708867069902 0 0.00074688128465300713 0.012670733017054089 0 0.001475207643098452 0.012255834954009597 0 0.00093670239829651521 0.012229430288852434 0 0.0012443056104529616 0.012579708867069902 0 0.0015211071150568122 0.012773841459923396 0 0.0012443056104529616 0.012579708867069902 0 0.0010936928072286173 0.013002141312057652 0 0.00074688128465300713 0.012670733017054089 0 0.0010936928072286173 0.013002141312057652 0 0.00064298041148136333 0.013178154693885991 0 0.0012443056104529616 0.012579708867069902 0 0.00074688128465300713 0.012670733017054089 0 0.0010936928072286173 0.013002141312057652 0 0.0010936928072286173 0.013002141312057652 0 0.00064298041148136333 0.013178154693885991 0 0.00079060828176305716 0.013583558963504678 0 0.0014823592580752937 0.013019968476452743 0 0.0010936928072286173 0.013002141312057652 0 0.0012426710166847457 0.013499435320853327 0 0.0014823592580752937 0.013019968476452743 0 0.0015211071150568122 0.012773841459923396 0 0.0010936928072286173 0.013002141312057652 0 -2.120019158857239e-05 0.013772280152019072 0 0.00022507950689341154 0.013426999694233728 0 0.00026295920207431946 0.013784006288425099 0 0.00022882051209596627 0.013092647755405981 0 0.00025783818519146951 0.013775738587679715 0 0.00064298041148136333 0.013178154693885991 0 0.00026295920207431946 0.013784006288425099 0 0.00079060828176305716 0.013583558963504678 0 0.00064298041148136333 0.013178154693885991 0 0.0002049879606338741 0.012894862605839006 0 0.00026295920207431946 0.013784006288425099 0 0.00074688128465300713 0.012670733017054089 0 0.00064298041148136333 0.013178154693885991 0 0.0002049879606338741 0.012894862605839006 0 0.00074688128465300713 0.012670733017054089 0 0.0002049879606338741 0.012894862605839006 0 0.00028100792095419317 0.012244650392622994 0 -2.120019158857239e-05 0.013772280152019072 0 0.00022507950689341154 0.013426999694233728 0 -0.00016655847887488885 0.01331698056665947 0 0.00022507950689341154 0.013426999694233728 0 4.924981738431985e-06 0.013154483396347469 0 -0.00016655847887488885 0.01331698056665947 0 4.924981738431985e-06 0.013154483396347469 0 0.00018252401896314924 0.012889883711598518 0 -0.00019087895615316363 0.012984847540832727 0 5.5415379310912456e-05 0.01292822363499976 0 -8.6484003531154326e-05 0.013882048295206343 0 0.00022507950689341154 0.013426999694233728 0 4.924981738431985e-06 0.013154483396347469 0 0.00018252401896314924 0.012889883711598518 0 0.00022882051209596627 0.013092647755405981 0 5.5415379310912456e-05 0.01292822363499976 0 0.0002049879606338741 0.012894862605839006 0 0.00019448772288668597 0.012252027053445311 0 0.00028100792095419317 0.012244650392622994 0 5.5415379310912456e-05 0.01292822363499976 0 0.00028625231883161435 0.012340175178796138 0 -0.00039094628854802291 0.011735449891043878 0 0.00038758205468202793 0.011696252137292222 0 0.00018588439860546801 0.011732601102136699 0 0.00093670239829651521 0.012229430288852434 0 0.00074688128465300713 0.012670733017054089 0 0.00028100792095419317 0.012244650392622994 0 0.00035046099116442704 0.012178701753576784 0 0.00028625231883161435 0.012340175178796138 0 0.00028625231883161435 0.012340175178796138 0 0.00031909155389078764 0.012118878555929215 0 0.00053962340377035182 0.012307260368072906 0 0.00038802018030367373 0.011692968351571157 0 0.00012853866171242344 0.012092528371321505 0 -0.00010189540585726244 0.01191590388508797 0 0.00018588439860546801 0.011732601102136699 0 0.00012853866171242344 0.012092528371321505 0 0.00038802018030367373 0.011692968351571157 0 0.00018588439860546801 0.011732601102136699 0 0.00012853866171242344 0.012092528371321505 0 0.00053962340377035182 0.012307260368072906 0 0.00049007189282420434 0.011686765441971933 0 0.00038802018030367373 0.011692968351571157 0 8.6940482406474756e-05 0.014780465722637699 0 8.0437443624872124e-05 0.01476009505801849 0 9.1529191041102816e-05 0.014781510647215966 0 8.0437443624872124e-05 0.01476009505801849 0 9.1529191041102816e-05 0.014781510647215966 0 9.1115297592855521e-05 0.014766237125448906 0 0.0003318131770212512 0.013590550793089684 0 5.5415379310912456e-05 0.01292822363499976 0 9.1529191041102816e-05 0.014781510647215966 0 9.8697485107525676e-05 0.014799992405254331 0 9.7241101264510326e-05 0.014796108471147639 0 9.1529191041102816e-05 0.014781510647215966 0 9.8930566154355524e-05 0.014778833243761339 0 9.8697485107525676e-05 0.014799992405254331 0 9.1529191041102816e-05 0.014781510647215966 0 9.8930566154355524e-05 0.014778833243761339 0 9.1115297592855521e-05 0.014766237125448906 0 9.8697485107525676e-05 0.014799992405254331 0 0.00011100600393872023 0.014788237078831078 0 0.00010198071628343799 0.014835089452941643 0 0.00014305157488261623 0.014938016224054083 0 9.8241966675779473e-05 0.014812484174364706 0 9.8930566154355524e-05 0.014778833243761339 0 9.8697485107525676e-05 0.014799992405254331 0 0.00011100600393872023 0.014788237078831078 0 -3.7503626216266406e-05 0.014389606141916735 0 -2.2203090908868491e-05 0.015019731539188319 0 0.00013010244412452779 0.014935381447139406 0 0.00014551385387917711 0.015002790992183023 0 7.6062106434826316e-05 0.014947962634444836 0 0.00014305157488261623 0.014938016224054083 0 -3.7503626216266406e-05 0.014389606141916735 0 9.8930566154355524e-05 0.014778833243761339 0 0.00011100600393872023 0.014788237078831078 0 0.00010568000465276379 0.014764654147635536 0 -3.7503626216266406e-05 0.014389606141916735 0 -8.6484003531154326e-05 0.013882048295206343 0 -0.00055772479792717182 0.013065828041650782 0 -0.00019087895615316363 0.012984847540832727 0 -0.00016655847887488885 0.01331698056665947 0 9.8930566154355524e-05 0.014778833243761339 0 0.00010568000465276379 0.014764654147635536 0 9.1115297592855521e-05 0.014766237125448906 0 4.924981738431985e-06 0.013154483396347469 0 -0.00019087895615316363 0.012984847540832727 0 -0.00016655847887488885 0.01331698056665947 0 -0.00055772479792717182 0.013065828041650782 0 -0.00016655847887488885 0.01331698056665947 0 -0.00042403568962183578 0.01355460297623253 0 -3.7503626216266406e-05 0.014389606141916735 0 -0.00038830061553101305 0.014122429543279563 0 -0.00018603365616586939 0.015060573700358864 0 -0.00013753956265098884 0.014927340714692259 0 -6.5951382059758619e-05 0.015023290574162388 0 -0.00018603365616586939 0.015060573700358864 0 -0.00013753956265098884 0.014927340714692259 0 -0.00027218030095085041 0.014843375249188434 0 -0.00013753956265098884 0.014927340714692259 0 -0.00027218030095085041 0.014843375249188434 0 -0.0001817200597729943 0.014643393054981168 0 -0.00013753956265098884 0.014927340714692259 0 -0.00011368632233181063 0.014741942991774202 0 -0.0001817200597729943 0.014643393054981168 0 -2.120019158857239e-05 0.013772280152019072 0 -0.00042403568962183578 0.01355460297623253 0 -0.00023336774059202873 0.014344512520985675 0 -0.00038830061553101305 0.014122429543279563 0 -0.00022844178645364051 0.0143888467897299 0 -0.00027218030095085041 0.014843375249188434 0 -0.00023336774059202873 0.014344512520985675 0 -0.0001817200597729943 0.014643393054981168 0 -2.120019158857239e-05 0.013772280152019072 0 -0.00016655847887488885 0.01331698056665947 0 -0.00042403568962183578 0.01355460297623253 0 5.601454399570403e-10 0.015000059467009066 0 -3.4945442364863895e-05 0.014943847099853759 0 -2.6287735894208306e-05 0.014904672332621483 0 -3.4945442364863895e-05 0.014943847099853759 0 -0.00011368632233181063 0.014741942991774202 0 -2.6287735894208306e-05 0.014904672332621483 0 -0.00013753956265098884 0.014927340714692259 0 -3.4945442364863895e-05 0.014943847099853759 0 -0.00011368632233181063 0.014741942991774202 0 -0.00013753956265098884 0.014927340714692259 0 -3.4945442364863895e-05 0.014943847099853759 0 -6.5951382059758619e-05 0.015023290574162388 0 -3.4945442364863895e-05 0.014943847099853759 0 2.5938704570752713e-06 0.015005769109758279 0 -6.5951382059758619e-05 0.015023290574162388 0 5.601454399570403e-10 0.015000059467009066 0 -3.4945442364863895e-05 0.014943847099853759 0 2.5938704570752713e-06 0.015005769109758279 0 5.601454399570403e-10 0.015000059467009066 0 2.5938704570752713e-06 0.015005769109758279 0 -1.3031068162229249e-08 0.014999951571419898 0 2.5938704570752713e-06 0.015005769109758279 0 2.7166298392859314e-05 0.014983901766505478 0 -1.3031068162229249e-08 0.014999951571419898 0 2.7166298392859314e-05 0.014983901766505478 0 -1.3031068162229249e-08 0.014999951571419898 0 -3.1547568679266326e-06 0.014985919128063959 0 2.7166298392859314e-05 0.014983901766505478 0 6.360630332591762e-05 0.015018261594060873 0 7.6062106434826316e-05 0.014947962634444836 0 2.5938704570752713e-06 0.015005769109758279 0 2.7166298392859314e-05 0.014983901766505478 0 6.360630332591762e-05 0.015018261594060873 0 0.00014551385387917711 0.015002790992183023 0 6.360630332591762e-05 0.015018261594060873 0 7.6062106434826316e-05 0.014947962634444836 0 1.1393179176320762e-05 0.01500871659114344 0 -2.2203090908868491e-05 0.015019731539188319 0 0.00013010244412452779 0.014935381447139406 0 7.6062106434826316e-05 0.014947962634444836 0 0.00010198071628343799 0.014835089452941643 0 7.6062106434826316e-05 0.014947962634444836 0 4.8045718841687894e-05 0.014909383762043277 0 0.00010198071628343799 0.014835089452941643 0 2.7166298392859314e-05 0.014983901766505478 0 7.6062106434826316e-05 0.014947962634444836 0 4.8045718841687894e-05 0.014909383762043277 0 -1.3031068162229249e-08 0.014999951571419898 0 -3.1547568679266326e-06 0.014985919128063959 0 3.0511735373354663e-09 0.014999990072734587 0 4.8045718841687894e-05 0.014909383762043277 0 -3.1547568679266326e-06 0.014985919128063959 0 1.9325331148654903e-05 0.01483261461136942 0 -4.076761014363089e-06 0.014980088496023699 0 1.4206887054997128e-05 0.014913654134496251 0 2.7166298392859314e-05 0.014983901766505478 0 4.8045718841687894e-05 0.014909383762043277 0 -3.1547568679266326e-06 0.014985919128063959 0 -3.1547568679266326e-06 0.014985919128063959 0 3.0511735373354663e-09 0.014999990072734587 0 -9.5286059437504608e-07 0.015002060715338267 0 3.0511735373354663e-09 0.014999990072734587 0 -9.5286059437504608e-07 0.015002060715338267 0 4.0686357116323329e-06 0.015003696561313156 0 1.4206887054997128e-05 0.014913654134496251 0 2.8004904046237893e-05 0.014924656583036888 0 -9.5286059437504608e-07 0.015002060715338267 0 4.0686357116323329e-06 0.015003696561313156 0 1.723432479585802e-05 0.015008467654565656 0 4.0686357116323329e-06 0.015003696561313156 0 1.723432479585802e-05 0.015008467654565656 0 1.9080532576617391e-08 0.015000002598798474 0 3.0511735373354663e-09 0.014999990072734587 0 4.0686357116323329e-06 0.015003696561313156 0 1.9080532576617391e-08 0.015000002598798474 0 1.9325331148654903e-05 0.01483261461136942 0 5.9142364438990173e-05 0.014780791578688795 0 7.2223182834755544e-05 0.014808255001819809 0 5.9142364438990173e-05 0.014780791578688795 0 7.2223182834755544e-05 0.014808255001819809 0 8.2062483059548025e-05 0.014780093408065553 0 7.2223182834755544e-05 0.014808255001819809 0 6.1391315528966733e-05 0.01484517583191588 0 0.00010198071628343799 0.014835089452941643 0 1.9325331148654903e-05 0.01483261461136942 0 7.2223182834755544e-05 0.014808255001819809 0 6.1391315528966733e-05 0.01484517583191588 0 4.8045718841687894e-05 0.014909383762043277 0 1.9325331148654903e-05 0.01483261461136942 0 6.1391315528966733e-05 0.01484517583191588 0 4.8045718841687894e-05 0.014909383762043277 0 6.1391315528966733e-05 0.01484517583191588 0 0.00010198071628343799 0.014835089452941643 0 0.00010198071628343799 0.014835089452941643 0 9.9866630594353965e-05 0.014808351875876376 0 9.4432070993567531e-05 0.014798324525781425 0 7.2223182834755544e-05 0.014808255001819809 0 0.00010198071628343799 0.014835089452941643 0 9.4432070993567531e-05 0.014798324525781425 0 9.8697485107525676e-05 0.014799992405254331 0 0.00010198071628343799 0.014835089452941643 0 9.9866630594353965e-05 0.014808351875876376 0 9.5297040670396093e-05 0.01479006931876521 0 9.1529191041102816e-05 0.014781510647215966 0 9.7241101264510326e-05 0.014796108471147639 0 9.8697485107525676e-05 0.014799992405254331 0 9.9866630594353965e-05 0.014808351875876376 0 9.7241101264510326e-05 0.014796108471147639 0 9.9866630594353965e-05 0.014808351875876376 0 9.7241101264510326e-05 0.014796108471147639 0 9.9549470061882354e-05 0.014794977454301802 0 9.5297040670396093e-05 0.01479006931876521 0 9.7241101264510326e-05 0.014796108471147639 0 9.9549470061882354e-05 0.014794977454301802 0 9.9549470061882354e-05 0.014794977454301802 0 9.4432070993567531e-05 0.014798324525781425 0 0.00010107420190702695 0.014780777598901892 0 0.00020627422328276597 0.013931697374060383 0 0.00011775032600753839 0.014541050742116762 0 9.736616689378574e-05 0.014789515621240317 0 9.9549470061882354e-05 0.014794977454301802 0 0.00010107420190702695 0.014780777598901892 0 9.9866630594353965e-05 0.014808351875876376 0 9.9549470061882354e-05 0.014794977454301802 0 9.4432070993567531e-05 0.014798324525781425 0 9.4432070993567531e-05 0.014798324525781425 0 8.2062483059548025e-05 0.014780093408065553 0 0.00010107420190702695 0.014780777598901892 0 7.2223182834755544e-05 0.014808255001819809 0 9.4432070993567531e-05 0.014798324525781425 0 8.2062483059548025e-05 0.014780093408065553 0 0.00011775032600753839 0.014541050742116762 0 0.00013109033723791982 0.01473437776392683 0 8.2062483059548025e-05 0.014780093408065553 0 0.00010107420190702695 0.014780777598901892 0 7.3787281848608963e-05 0.014754538816490789 0 5.7290442522191127e-06 0.014462156575679752 0 -1.9099246857838935e-07 0.014293226686033864 0 0.00014480716352304927 0.014451811558886841 0 -1.9099246857838935e-07 0.014293226686033864 0 0.0001483656110692034 0.014212850886217137 0 0.00014480716352304927 0.014451811558886841 0 0.0001483656110692034 0.014212850886217137 0 0.00014480716352304927 0.014451811558886841 0 0.00037948273816024451 0.014402521158409582 0 0.00019105334748863582 0.014762970438165596 0 6.968589019084421e-05 0.015014996974251646 0 8.4853400498858411e-05 0.015024447006164426 0 4.7649076086169602e-05 0.014929619541804901 0 6.968589019084421e-05 0.015014996974251646 0 2.9816181981193997e-05 0.01499498986663284 0 0.00013678171304330657 0.014748460306400262 0 0.00013109033723791982 0.01473437776392683 0 6.968589019084421e-05 0.015014996974251646 0 4.1917427921936274e-05 0.015009744007520755 0 2.9816181981193997e-05 0.01499498986663284 0 6.968589019084421e-05 0.015014996974251646 0 6.6140109770722596e-05 0.015012767111918915 0 4.1917427921936274e-05 0.015009744007520755 0 4.7649076086169602e-05 0.014929619541804901 0 2.9816181981193997e-05 0.01499498986663284 0 1.6897459019204917e-08 0.015000103485778224 0 2.9816181981193997e-05 0.01499498986663284 0 1.6897459019204917e-08 0.015000103485778224 0 1.8210970554124072e-05 0.015006395106426259 0 4.1917427921936274e-05 0.015009744007520755 0 2.9816181981193997e-05 0.01499498986663284 0 1.8210970554124072e-05 0.015006395106426259 0 1.723432479585802e-05 0.015008467654565656 0 4.1917427921936274e-05 0.015009744007520755 0 1.8210970554124072e-05 0.015006395106426259 0 1.6897459019204917e-08 0.015000103485778224 0 1.8210970554124072e-05 0.015006395106426259 0 1.9080532576617391e-08 0.015000002598798474 0 1.723432479585802e-05 0.015008467654565656 0 1.8210970554124072e-05 0.015006395106426259 0 1.9080532576617391e-08 0.015000002598798474 0 1.723432479585802e-05 0.015008467654565656 0 6.6140109770722596e-05 0.015012767111918915 0 4.1917427921936274e-05 0.015009744007520755 0 5.9142364438990173e-05 0.014780791578688795 0 8.2062483059548025e-05 0.014780093408065553 0 7.3787281848608963e-05 0.014754538816490789 0 2.8004904046237893e-05 0.014924656583036888 0 0.00013109033723791982 0.01473437776392683 0 2.3255820743910518e-05 0.015004451374173536 0 8.0428746950649021e-06 0.014983438909151166 0 2.5339946706447471e-05 0.014967192579200114 0 2.3255820743910518e-05 0.015004451374173536 0 5.009209639479193e-05 0.014978187783456399 0 2.5339946706447471e-05 0.014967192579200114 0 6.1494476954820451e-05 0.014874941113868846 0 8.8882304067460305e-06 0.01499688096341689 0 -1.300965866118402e-05 0.015006731856021799 0 -1.4428102249213865e-05 0.015007226293998891 0 -4.8977163775968187e-06 0.015003517589431159 0 2.6157628163942507e-05 0.014894771575995561 0 6.1494476954820451e-05 0.014874941113868846 0 -4.8977163775968187e-06 0.015003517589431159 0 -2.2247043916207661e-08 0.015000029734845198 0 7.7873982737395419e-09 0.01499999357567755 0 -4.8977163775968187e-06 0.015003517589431159 0 -2.2247043916207661e-08 0.015000029734845198 0 -5.6339107915916595e-06 0.015002960538987163 0 -1.300965866118402e-05 0.015006731856021799 0 -4.8977163775968187e-06 0.015003517589431159 0 -5.6339107915916595e-06 0.015002960538987163 0 -2.2247043916207661e-08 0.015000029734845198 0 -5.0153424934427415e-06 0.014999106557164098 0 4.9464173608733275e-08 0.014999917368628771 0 -5.0153424934427415e-06 0.014999106557164098 0 -2.2127973108598838e-05 0.014983919816743895 0 4.9464173608733275e-08 0.014999917368628771 0 -1.300965866118402e-05 0.015006731856021799 0 -5.0153424934427415e-06 0.014999106557164098 0 -2.2127973108598838e-05 0.014983919816743895 0 -1.300965866118402e-05 0.015006731856021799 0 -5.6339107915916595e-06 0.015002960538987163 0 -5.0153424934427415e-06 0.014999106557164098 0 -2.2247043916207661e-08 0.015000029734845198 0 -5.6339107915916595e-06 0.015002960538987163 0 -5.0153424934427415e-06 0.014999106557164098 0 -1.300965866118402e-05 0.015006731856021799 0 -2.0348015951265989e-05 0.015008608625240503 0 -2.2127973108598838e-05 0.014983919816743895 0 -2.0348015951265989e-05 0.015008608625240503 0 -6.9290542765025032e-05 0.014976903173894074 0 -2.2127973108598838e-05 0.014983919816743895 0 0.00018350600912580954 0.014657807952557875 0 9.8654268632853776e-05 0.014656379190798529 0 9.8942997225688435e-05 0.014565488660357333 0 6.1494476954820451e-05 0.014874941113868846 0 1.6039520133296148e-05 0.01476425612222995 0 3.1150191028654814e-05 0.014585633975499094 0 9.8654268632853776e-05 0.014656379190798529 0 9.8942997225688435e-05 0.014565488660357333 0 3.1150191028654814e-05 0.014585633975499094 0 1.26737228964901e-05 0.014655605172622271 0 9.8654268632853776e-05 0.014656379190798529 0 0.00013142725810445885 0.014320236642116561 0 0.00013191437800093915 0.014557656628529687 0 0.00011145408486617218 0.014318198567082521 0 0.00013191437800093915 0.014557656628529687 0 0.00011874493991837787 0.014660648019568082 0 0.00011145408486617218 0.014318198567082521 0 0.00011874493991837787 0.014660648019568082 0 7.1847067389775623e-05 0.014518584587318275 0 0.00010942665614499426 0.014401571265878878 0 0.00016738335469212195 0.015011780955867332 0 0.0001248078043146215 0.014984607191500994 0 0.00014781118218792696 0.014944081035392121 0 0.00012887056373760115 0.014633737845664086 0 0.00011637050055448064 0.014381490960066811 0 0.00016738335469212195 0.015011780955867332 0 0.0001248078043146215 0.014984607191500994 0 8.3811404452698845e-05 0.015011781786339336 0 5.8226358860073481e-05 0.014563331164740692 0 0.00014440518245633147 0.014765299891321158 0 5.8226358860073481e-05 0.014563331164740692 0 0.00010576718326999372 0.014845463840175297 0 0.0001248078043146215 0.014984607191500994 0 8.8486389925210168e-05 0.014962136307259412 0 0.00014781118218792696 0.014944081035392121 0 6.1494476954820451e-05 0.014874941113868846 0 0.00010576718326999372 0.014845463840175297 0 2.3255820743910518e-05 0.015004451374173536 0 8.3811404452698845e-05 0.015011781786339336 0 5.009209639479193e-05 0.014978187783456399 0 0.0001248078043146215 0.014984607191500994 0 8.3811404452698845e-05 0.015011781786339336 0 8.8486389925210168e-05 0.014962136307259412 0 8.3811404452698845e-05 0.015011781786339336 0 8.8486389925210168e-05 0.014962136307259412 0 5.009209639479193e-05 0.014978187783456399 0 8.8486389925210168e-05 0.014962136307259412 0 5.009209639479193e-05 0.014978187783456399 0 5.2285922743215948e-05 0.014933495423030105 0 8.8486389925210168e-05 0.014962136307259412 0 5.2285922743215948e-05 0.014933495423030105 0 8.2316796118944412e-05 0.014907030685348115 0 5.2285922743215948e-05 0.014933495423030105 0 5.7625963957909932e-05 0.014891882774203233 0 3.2132224987168019e-05 0.01493395935809225 0 5.2285922743215948e-05 0.014933495423030105 0 8.2316796118944412e-05 0.014907030685348115 0 5.7625963957909932e-05 0.014891882774203233 0 0.00014440518245633147 0.014765299891321158 0 0.00011218724633477367 0.014783162905181457 0 0.00013191437800093915 0.014557656628529687 0 0.00011874493991837787 0.014660648019568082 0 0.0001050655572123052 0.01480840591334056 0 8.2316796118944412e-05 0.014907030685348115 0 0.00014781118218792696 0.014944081035392121 0 0.0001050655572123052 0.01480840591334056 0 0.00011874493991837787 0.014660648019568082 0 6.1509340958006928e-05 0.014627490583588977 0 7.1847067389775623e-05 0.014518584587318275 0 8.8486389925210168e-05 0.014962136307259412 0 8.2316796118944412e-05 0.014907030685348115 0 0.00014781118218792696 0.014944081035392121 0 0.00011874493991837787 0.014660648019568082 0 5.9895828165564387e-05 0.014716029535141376 0 6.1509340958006928e-05 0.014627490583588977 0 5.9895828165564387e-05 0.014716029535141376 0 0.0001050655572123052 0.01480840591334056 0 1.3762076032457058e-05 0.014758400569496117 0 0.00011874493991837787 0.014660648019568082 0 5.9895828165564387e-05 0.014716029535141376 0 0.0001050655572123052 0.01480840591334056 0 5.7625963957909932e-05 0.014891882774203233 0 5.9118212656072831e-05 0.014893882285867771 0 3.2132224987168019e-05 0.01493395935809225 0 0.0001050655572123052 0.01480840591334056 0 5.7625963957909932e-05 0.014891882774203233 0 5.9118212656072831e-05 0.014893882285867771 0 8.2316796118944412e-05 0.014907030685348115 0 0.0001050655572123052 0.01480840591334056 0 5.7625963957909932e-05 0.014891882774203233 0 3.2132224987168019e-05 0.01493395935809225 0 1.387317085757523e-05 0.014970706903862005 0 3.0638807567474596e-05 0.014948255448404595 0 5.9118212656072831e-05 0.014893882285867771 0 3.2132224987168019e-05 0.01493395935809225 0 3.0638807567474596e-05 0.014948255448404595 0 3.2132224987168019e-05 0.01493395935809225 0 1.336285005353013e-05 0.014971952118607645 0 1.387317085757523e-05 0.014970706903862005 0 3.2132224987168019e-05 0.01493395935809225 0 2.5339946706447471e-05 0.014967192579200114 0 1.336285005353013e-05 0.014971952118607645 0 5.2285922743215948e-05 0.014933495423030105 0 3.2132224987168019e-05 0.01493395935809225 0 2.5339946706447471e-05 0.014967192579200114 0 5.009209639479193e-05 0.014978187783456399 0 5.2285922743215948e-05 0.014933495423030105 0 2.5339946706447471e-05 0.014967192579200114 0 8.8882304067460305e-06 0.01499688096341689 0 -5.6157806719219985e-09 0.014999988303779575 0 8.0428746950649021e-06 0.014983438909151166 0 2.5339946706447471e-05 0.014967192579200114 0 1.336285005353013e-05 0.014971952118607645 0 8.0428746950649021e-06 0.014983438909151166 0 1.1661008227072007e-08 0.014999927656971715 0 1.336285005353013e-05 0.014971952118607645 0 1.1661008227072007e-08 0.014999927656971715 0 1.336285005353013e-05 0.014971952118607645 0 1.387317085757523e-05 0.014970706903862005 0 1.1661008227072007e-08 0.014999927656971715 0 1.3297129168722016e-08 0.014999939453356847 0 1.387317085757523e-05 0.014970706903862005 0 1.3297129168722016e-08 0.014999939453356847 0 1.387317085757523e-05 0.014970706903862005 0 3.0638807567474596e-05 0.014948255448404595 0 1.3297129168722016e-08 0.014999939453356847 0 3.0638807567474596e-05 0.014948255448404595 0 2.9743137023335712e-08 0.014999944670417304 0 3.0638807567474596e-05 0.014948255448404595 0 2.1649551579054355e-05 0.014966895875370376 0 5.7321874630785442e-05 0.014908391194600941 0 3.0638807567474596e-05 0.014948255448404595 0 2.9743137023335712e-08 0.014999944670417304 0 2.1649551579054355e-05 0.014966895875370376 0 2.9743137023335712e-08 0.014999944670417304 0 2.1649551579054355e-05 0.014966895875370376 0 -9.474401692486108e-09 0.014999992895694063 0 -0.00011828415735566435 0.014620293760838758 0 -2.6287735894208306e-05 0.014904672332621483 0 4.1533842618648667e-08 0.01499924630631312 0 -5.6060288385465067e-05 0.014801046136362701 0 -2.7974877989347973e-08 0.014999909419256125 0 -0.00011828415735566435 0.014620293760838758 0 -0.00011368632233181063 0.014741942991774202 0 -2.6287735894208306e-05 0.014904672332621483 0 5.601454399570403e-10 0.015000059467009066 0 -2.6287735894208306e-05 0.014904672332621483 0 4.1533842618648667e-08 0.01499924630631312 0 -0.00023336774059202873 0.014344512520985675 0 -0.0001817200597729943 0.014643393054981168 0 -0.00020190439881726999 0.014514532520275233 0 -0.00011368632233181063 0.014741942991774202 0 -0.0001817200597729943 0.014643393054981168 0 -0.00020190439881726999 0.014514532520275233 0 -0.00011828415735566435 0.014620293760838758 0 -0.00011368632233181063 0.014741942991774202 0 -0.00020190439881726999 0.014514532520275233 0 -0.00023336774059202873 0.014344512520985675 0 -0.00020190439881726999 0.014514532520275233 0 -0.00010298483466402022 0.014449193459131131 0 -0.00020190439881726999 0.014514532520275233 0 -0.00010298483466402022 0.014449193459131131 0 -8.2166065258634067e-05 0.014592856838990614 0 -0.00023336774059202873 0.014344512520985675 0 -0.00010298483466402022 0.014449193459131131 0 1.6697535358749024e-05 0.014190085647648697 0 -0.00020190439881726999 0.014514532520275233 0 -8.2166065258634067e-05 0.014592856838990614 0 -0.00017845446873719281 0.014618222647943368 0 -0.00011828415735566435 0.014620293760838758 0 -0.00020190439881726999 0.014514532520275233 0 -0.00017845446873719281 0.014618222647943368 0 -5.6060288385465067e-05 0.014801046136362701 0 -5.0426995368978946e-05 0.014764497563313128 0 5.9118212656072831e-05 0.014893882285867771 0 3.0638807567474596e-05 0.014948255448404595 0 5.7321874630785442e-05 0.014908391194600941 0 0.0001050655572123052 0.01480840591334056 0 5.9118212656072831e-05 0.014893882285867771 0 5.7321874630785442e-05 0.014908391194600941 0 0.0001050655572123052 0.01480840591334056 0 5.7321874630785442e-05 0.014908391194600941 0 1.3762076032457058e-05 0.014758400569496117 0 -8.2166065258634067e-05 0.014592856838990614 0 -0.00017845446873719281 0.014618222647943368 0 1.3762076032457058e-05 0.014758400569496117 0 -5.0426995368978946e-05 0.014764497563313128 0 8.0232026440518879e-06 0.014765618822009515 0 -8.2166065258634067e-05 0.014592856838990614 0 2.7143580004110862e-05 0.014681174433554147 0 1.3762076032457058e-05 0.014758400569496117 0 2.7143580004110862e-05 0.014681174433554147 0 1.9317738189263637e-05 0.014732610799435549 0 1.3762076032457058e-05 0.014758400569496117 0 2.7143580004110862e-05 0.014681174433554147 0 1.9317738189263637e-05 0.014732610799435549 0 7.2053579106788818e-05 0.014662024177805887 0 2.7143580004110862e-05 0.014681174433554147 0 7.2053579106788818e-05 0.014662024177805887 0 8.3834245047414771e-05 0.014541422864682298 0 0.0005937941329859027 0.014610709295787812 0 0.0003100487737942458 0.014242236886628732 0 0.0006370730521018242 0.014269221864580368 0 0.00037424240873931816 0.014710536662438645 0 0.00017002460833578313 0.014367780986391174 0 -8.2166065258634067e-05 0.014592856838990614 0 2.7143580004110862e-05 0.014681174433554147 0 8.3834245047414771e-05 0.014541422864682298 0 -0.00010298483466402022 0.014449193459131131 0 8.3834245047414771e-05 0.014541422864682298 0 1.6697535358749024e-05 0.014190085647648697 0 -0.00010298483466402022 0.014449193459131131 0 -8.2166065258634067e-05 0.014592856838990614 0 8.3834245047414771e-05 0.014541422864682298 0 0.0003100487737942458 0.014242236886628732 0 0.00029056372931013477 0.014068518454183899 0 1.6697535358749024e-05 0.014190085647648697 0 0.00017002460833578313 0.014367780986391174 0 2.5784328340654398e-05 0.014189664260147939 0 0.0003100487737942458 0.014242236886628732 0 0.00057940747043527623 0.013999130082435052 0 0.0006370730521018242 0.014269221864580368 0 0.0003100487737942458 0.014242236886628732 0 0.00057940747043527623 0.013999130082435052 0 0.00029056372931013477 0.014068518454183899 0 0.00057940747043527623 0.013999130082435052 0 0.00026295920207431946 0.013784006288425099 0 0.00079060828176305716 0.013583558963504678 0 0.00057940747043527623 0.013999130082435052 0 0.00029056372931013477 0.014068518454183899 0 0.00026295920207431946 0.013784006288425099 0 -2.120019158857239e-05 0.013772280152019072 0 0.00026295920207431946 0.013784006288425099 0 1.6697535358749024e-05 0.014190085647648697 0 -2.120019158857239e-05 0.013772280152019072 0 -0.00023336774059202873 0.014344512520985675 0 1.6697535358749024e-05 0.014190085647648697 0 0.00029056372931013477 0.014068518454183899 0 0.00026295920207431946 0.013784006288425099 0 1.6697535358749024e-05 0.014190085647648697 0 0.0010936928072286173 0.013002141312057652 0 0.0012426710166847457 0.013499435320853327 0 0.00079060828176305716 0.013583558963504678 0 0.0012426710166847457 0.013499435320853327 0 0.00079060828176305716 0.013583558963504678 0 0.00093478426641608117 0.014015030466489088 0 0.00057940747043527623 0.013999130082435052 0 0.00079060828176305716 0.013583558963504678 0 0.00093478426641608117 0.014015030466489088 0 0.00057940747043527623 0.013999130082435052 0 0.00093478426641608117 0.014015030466489088 0 0.0006370730521018242 0.014269221864580368 0 0.0012426710166847457 0.013499435320853327 0 0.00093478426641608117 0.014015030466489088 0 0.001294269830865838 0.014210291894644712 0 0.0012426710166847457 0.013499435320853327 0 0.001294269830865838 0.014210291894644712 0 0.0017173184262654546 0.013988018961592803 0 0.001294269830865838 0.014210291894644712 0 0.0010648637620958945 0.014554046776240403 0 0.0016266459059807669 0.014583049656990038 0 0.00093478426641608117 0.014015030466489088 0 0.001294269830865838 0.014210291894644712 0 0.0010648637620958945 0.014554046776240403 0 0.00093478426641608117 0.014015030466489088 0 0.0010648637620958945 0.014554046776240403 0 0.0006370730521018242 0.014269221864580368 0 0.0005937941329859027 0.014610709295787812 0 0.0010648637620958945 0.014554046776240403 0 0.0006370730521018242 0.014269221864580368 0 0.0005937941329859027 0.014610709295787812 0 0.0010648637620958945 0.014554046776240403 0 0.0009129403679163005 0.015041102390316202 0 0.00037424240873931816 0.014710536662438645 0 0.00046105656886416833 0.014411296574460424 0 1.9317738189263637e-05 0.014732610799435549 0 7.2053579106788818e-05 0.014662024177805887 0 0.00011596178526694414 0.014745391083080119 0 0.0010648637620958945 0.014554046776240403 0 0.0012545870575807799 0.01487471911829067 0 0.0009129403679163005 0.015041102390316202 0 0.0010648637620958945 0.014554046776240403 0 0.0012545870575807799 0.01487471911829067 0 0.0016266459059807669 0.014583049656990038 0 0.0012545870575807799 0.01487471911829067 0 0.0013200554525368106 0.015101777104143304 0 0.0009129403679163005 0.015041102390316202 0 0.00078352030721661381 0.013475453731370142 0 0.00077487366594870734 0.013519074677720408 0 0.00073026508382391679 0.013445291255382852 0 0.00077487366594870734 0.013519074677720408 0 0.00071452009536850385 0.013437348300653794 0 0.00073026508382391679 0.013445291255382852 0 0.0012545870575807799 0.01487471911829067 0 0.0013200554525368106 0.015101777104143304 0 0.0015629967070886763 0.015101854022407806 0 0.00077780000109869041 0.013437893691556114 0 0.00078352030721661381 0.013475453731370142 0 0.00073026508382391679 0.013445291255382852 0 0.0001268410227842876 0.013987456006568916 0 0.00046105656886416833 0.014411296574460424 0 0.00077780000109869041 0.013437893691556114 0 0.00078352030721661381 0.013475453731370142 0 0.00081970107252990097 0.013430888100090252 0 0.0010163255356072163 0.013882400265243325 0 0.00046105656886416833 0.014411296574460424 0 0.0010163255356072163 0.013882400265243325 0 0.0006984528776519727 0.013572124605214238 0 0.00077519711474713468 0.013449895036594842 0 0.00071452009536850385 0.013437348300653794 0 0.00073026508382391679 0.013445291255382852 0 -0.00039016433825113779 0.014516641787795518 0 -0.00015209017004134858 0.014522207931419605 0 -0.00034677492099266153 0.014288240905616261 0 -0.00039016433825113779 0.014516641787795518 0 -0.00015209017004134858 0.014522207931419605 0 -0.00016789029570039973 0.014752000535839051 0 0.00078352030721661381 0.013475453731370142 0 0.00077487366594870734 0.013519074677720408 0 0.00082948611275949255 0.013558470898300092 0 -0.00015209017004134858 0.014522207931419605 0 -7.3252282562252997e-05 0.014659222824360321 0 -1.6928145625468293e-05 0.014625166333602642 0 -0.00012356622100816463 0.014702642674940706 0 0.00046105656886416833 0.014411296574460424 0 1.9317738189263637e-05 0.014732610799435549 0 -7.3252282562252997e-05 0.014659222824360321 0 -0.00016789029570039973 0.014752000535839051 0 -0.00015209017004134858 0.014522207931419605 0 -7.3252282562252997e-05 0.014659222824360321 0 -0.00016789029570039973 0.014752000535839051 0 1.9317738189263637e-05 0.014732610799435549 0 -7.3252282562252997e-05 0.014659222824360321 0 -1.6928145625468293e-05 0.014625166333602642 0 1.9317738189263637e-05 0.014732610799435549 0 2.3032828815469814e-05 0.01468143934791206 0 -1.6928145625468293e-05 0.014625166333602642 0 1.9317738189263637e-05 0.014732610799435549 0 1.3762076032457058e-05 0.014758400569496117 0 2.3032828815469814e-05 0.01468143934791206 0 5.9895828165564387e-05 0.014716029535141376 0 1.3762076032457058e-05 0.014758400569496117 0 2.3032828815469814e-05 0.01468143934791206 0 5.9895828165564387e-05 0.014716029535141376 0 2.3032828815469814e-05 0.01468143934791206 0 6.1509340958006928e-05 0.014627490583588977 0 2.3032828815469814e-05 0.01468143934791206 0 6.1509340958006928e-05 0.014627490583588977 0 2.7300396659436081e-05 0.014551726419017507 0 6.1509340958006928e-05 0.014627490583588977 0 2.7300396659436081e-05 0.014551726419017507 0 7.1847067389775623e-05 0.014518584587318275 0 -0.00015209017004134858 0.014522207931419605 0 -1.6928145625468293e-05 0.014625166333602642 0 -3.9304196139259628e-05 0.014454272739045065 0 2.3032828815469814e-05 0.01468143934791206 0 2.7300396659436081e-05 0.014551726419017507 0 -1.6928145625468293e-05 0.014625166333602642 0 2.7300396659436081e-05 0.014551726419017507 0 -1.6928145625468293e-05 0.014625166333602642 0 -3.9304196139259628e-05 0.014454272739045065 0 -3.9304196139259628e-05 0.014454272739045065 0 -1.2913450579789518e-05 0.014348605810122676 0 -0.00014778458166148897 0.014186144532674711 0 2.7300396659436081e-05 0.014551726419017507 0 -3.9304196139259628e-05 0.014454272739045065 0 -1.2913450579789518e-05 0.014348605810122676 0 3.1210179874040488e-05 0.01419698041317434 0 0.00011637050055448064 0.014381490960066811 0 2.7300396659436081e-05 0.014551726419017507 0 -1.2913450579789518e-05 0.014348605810122676 0 7.1847067389775623e-05 0.014518584587318275 0 -1.2913450579789518e-05 0.014348605810122676 0 7.1847067389775623e-05 0.014518584587318275 0 0.00010942665614499426 0.014401571265878878 0 5.8226358860073481e-05 0.014563331164740692 0 0.00011637050055448064 0.014381490960066811 0 -2.8734674493515812e-05 0.014483019967475726 0 -3.0425921650939901e-05 0.014483005503366791 0 -4.2768849813410283e-05 0.014469821039567133 0 5.8226358860073481e-05 0.014563331164740692 0 -4.4284458209775683e-05 0.014505021749624633 0 0.00011637050055448064 0.014381490960066811 0 3.0548009111057774e-05 0.014146064485765903 0 8.4893229450319722e-05 0.01405952889769866 0 0.00023524973283531826 0.014051607941625093 0 0.00012417391604431749 0.013855202455594259 0 -2.8734674493515812e-05 0.014483019967475726 0 -4.2768849813410283e-05 0.014469821039567133 0 -4.2257130470096307e-05 0.014467142951270915 0 3.1150191028654814e-05 0.014585633975499094 0 1.26737228964901e-05 0.014655605172622271 0 -2.8424940748634586e-05 0.014545622171505294 0 8.4893229450319722e-05 0.01405952889769866 0 1.5758521776830656e-05 0.013897709567768129 0 0.00012417391604431749 0.013855202455594259 0 8.4893229450319722e-05 0.01405952889769866 0 1.5758521776830656e-05 0.013897709567768129 0 -0.00014778458166148897 0.014186144532674711 0 1.5758521776830656e-05 0.013897709567768129 0 -0.00014778458166148897 0.014186144532674711 0 -8.9628515578647609e-05 0.013763797880263762 0 -0.00021592204433854665 0.013751757864287943 0 -7.0338002879379057e-05 0.013723063435986831 0 -0.00042092877169185646 0.013999350084015141 0 -0.00014778458166148897 0.014186144532674711 0 -8.9628515578647609e-05 0.013763797880263762 0 -0.00042092877169185646 0.013999350084015141 0 -0.00034677492099266153 0.014288240905616261 0 -0.00014778458166148897 0.014186144532674711 0 -0.00015209017004134858 0.014522207931419605 0 -3.9304196139259628e-05 0.014454272739045065 0 -0.00014778458166148897 0.014186144532674711 0 -0.00015209017004134858 0.014522207931419605 0 -0.00034677492099266153 0.014288240905616261 0 -0.00014778458166148897 0.014186144532674711 0 3.1210179874040488e-05 0.01419698041317434 0 -0.00015497489293487239 0.014192311656995662 0 0.00096347325298312746 0.013576589501072676 0 0.00091018058966860097 0.013699082196499712 0 0.0011497610495197915 0.013577588542383893 0 0.00034319470659760465 0.013678006243672691 0 0.00098951940532099672 0.013142479496269635 0 0.00036688657703026946 0.013238641347703422 0 0.00059234725963948267 0.01325979789547117 0 0.00068935700730536045 0.012818659804593369 0 0.00029751585067628596 0.013144979639717363 0 0.00036688657703026946 0.013238641347703422 0 0.00068935700730536045 0.012818659804593369 0 0.0001268410227842876 0.013987456006568916 0 0.00034319470659760465 0.013678006243672691 0 -0.00042092877169185646 0.013999350084015141 0 -0.00034677492099266153 0.014288240905616261 0 -0.00065986101623234498 0.01417216330463484 0 0.00077487366594870734 0.013519074677720408 0 0.00091018058966860097 0.013699082196499712 0 0.00082948611275949255 0.013558470898300092 0 -0.00039016433825113779 0.014516641787795518 0 -0.00034677492099266153 0.014288240905616261 0 -0.00065986101623234498 0.01417216330463484 0 0.00096347325298312746 0.013576589501072676 0 0.00091018058966860097 0.013699082196499712 0 0.00082948611275949255 0.013558470898300092 0 0.00031727686977972141 0.013179397719258966 0 0.00036688657703026946 0.013238641347703422 0 0.00026042254598321237 0.013436122715944758 0 9.9829135753741929e-05 0.013432132284574388 0 0.00026042254598321237 0.013436122715944758 0 0.00014362292443784264 0.013694690196510506 0 0.00034319470659760465 0.013678006243672691 0 0.00025126811707940685 0.013430250630021238 0 -0.00021592204433854665 0.013751757864287943 0 0.00034319470659760465 0.013678006243672691 0 9.9829135753741929e-05 0.013432132284574388 0 0.00031727686977972141 0.013179397719258966 0 0.00026042254598321237 0.013436122715944758 0 0.00036688657703026946 0.013238641347703422 0 0.00026042254598321237 0.013436122715944758 0 0.00040915831266982787 0.013360662109773169 0 0.00026042254598321237 0.013436122715944758 0 0.00040915831266982787 0.013360662109773169 0 0.00043093915771215782 0.013503490528519315 0 0.00040915831266982787 0.013360662109773169 0 0.00059234725963948267 0.01325979789547117 0 0.00043093915771215782 0.013503490528519315 0 0.00059234725963948267 0.01325979789547117 0 0.00071222135231891305 0.013469859937689231 0 0.00043093915771215782 0.013503490528519315 0 0.00036688657703026946 0.013238641347703422 0 0.00040915831266982787 0.013360662109773169 0 0.00059234725963948267 0.01325979789547117 0 0.000941603471953343 0.013129091840443759 0 0.00096680627323799751 0.013440409745303274 0 0.00071222135231891305 0.013469859937689231 0 0.00059234725963948267 0.01325979789547117 0 0.000941603471953343 0.013129091840443759 0 0.00071222135231891305 0.013469859937689231 0 0.000941603471953343 0.013129091840443759 0 0.0013388986198853358 0.013368302157756829 0 0.00096680627323799751 0.013440409745303274 0 0.000941603471953343 0.013129091840443759 0 0.0013565424507310394 0.013012096205971874 0 0.0013388986198853358 0.013368302157756829 0 0.000941603471953343 0.013129091840443759 0 0.0010958607017679952 0.01252293351286822 0 0.0013565424507310394 0.013012096205971874 0 0.00059234725963948267 0.01325979789547117 0 0.000941603471953343 0.013129091840443759 0 0.00068935700730536045 0.012818659804593369 0 0.000941603471953343 0.013129091840443759 0 0.00068935700730536045 0.012818659804593369 0 0.0010958607017679952 0.01252293351286822 0 0.0011497610495197915 0.013577588542383893 0 0.0012522673541674207 0.013421408814614528 0 0.0011115556901240429 0.0134462585395919 0 0.0012522673541674207 0.013421408814614528 0 0.0014491847599804695 0.013350584952010865 0 0.0012055777642745477 0.013382294619441838 0 0.00098951940532099672 0.013142479496269635 0 0.0012202811996481393 0.013003568758072475 0 0.0011497610495197915 0.013577588542383893 0 0.0012522673541674207 0.013421408814614528 0 0.0014087795865322487 0.013408581479662236 0 0.0012055777642745477 0.013382294619441838 0 0.0011134768048567775 0.013387767144566139 0 0.0011115556901240429 0.0134462585395919 0 0.0012522673541674207 0.013421408814614528 0 0.0012055777642745477 0.013382294619441838 0 0.0011115556901240429 0.0134462585395919 0 0.0012522673541674207 0.013421408814614528 0 0.0014087795865322487 0.013408581479662236 0 0.0014491847599804695 0.013350584952010865 0 0.0013972081142325863 0.013266848405474011 0 0.0014491847599804695 0.013350584952010865 0 0.0012390457228305277 0.013299632945966458 0 0.0013972081142325863 0.013266848405474011 0 0.0014491847599804695 0.013350584952010865 0 0.0016354656287462465 0.013246280275724911 0 0.0013972081142325863 0.013266848405474011 0 0.0012390457228305277 0.013299632945966458 0 0.0012192453349091968 0.013263464128894085 0 0.0014552229557679628 0.01335739191386651 0 0.0011502321318542085 0.013282587736204566 0 0.0014491847599804695 0.013350584952010865 0 0.0012055777642745477 0.013382294619441838 0 0.001134949201039075 0.013323136783209892 0 0.0015581112547509194 0.012858076131292334 0 0.0015924939633572659 0.012792833798930705 0 0.0012055777642745477 0.013382294619441838 0 0.001134949201039075 0.013323136783209892 0 0.0011134768048567775 0.013387767144566139 0 0.001134949201039075 0.013323136783209892 0 0.0010364676505158544 0.013389769705402477 0 0.00084354146418845618 0.013274815997658536 0 0.0012390457228305277 0.013299632945966458 0 0.0012192453349091968 0.013263464128894085 0 0.0010650416045203473 0.013262447684288152 0 0.0011502321318542085 0.013282587736204566 0 0.0011185263320210564 0.013462792642696167 0 0.0018101725617071117 0.012437016395198482 0 0.0019413277409435952 0.012448612993658769 0 0.0018738583950651774 0.012501636673548784 0 0.0015924939633572659 0.012792833798930705 0 0.0011185263320210564 0.013462792642696167 0 0.001134949201039075 0.013323136783209892 0 0.0010364676505158544 0.013389769705402477 0 0.0011134768048567775 0.013387767144566139 0 0.0010364676505158544 0.013389769705402477 0 0.0011115556901240429 0.0134462585395919 0 0.001021808113899389 0.013485782611491316 0 0.00096347325298312746 0.013576589501072676 0 0.0011497610495197915 0.013577588542383893 0 0.001021808113899389 0.013485782611491316 0 0.0010364676505158544 0.013389769705402477 0 0.0011134768048567775 0.013387767144566139 0 0.0011115556901240429 0.0134462585395919 0 0.0010364676505158544 0.013389769705402477 0 0.00096626018483613417 0.013426627839927837 0 0.001021808113899389 0.013485782611491316 0 0.00096626018483613417 0.013426627839927837 0 0.001021808113899389 0.013485782611491316 0 0.00091462325429457004 0.013500433869450492 0 0.00096347325298312746 0.013576589501072676 0 0.001021808113899389 0.013485782611491316 0 0.00091462325429457004 0.013500433869450492 0 0.0011497610495197915 0.013577588542383893 0 0.0011115556901240429 0.0134462585395919 0 0.001021808113899389 0.013485782611491316 0 0.00076895985809919591 0.013506853497194406 0 0.0011185263320210564 0.013462792642696167 0 0.00082948611275949255 0.013558470898300092 0 0.00091462325429457004 0.013500433869450492 0 0.00084354146418845618 0.013274815997658536 0 0.00096347325298312746 0.013576589501072676 0 0.00082948611275949255 0.013558470898300092 0 0.00091462325429457004 0.013500433869450492 0 0.0010364676505158544 0.013389769705402477 0 0.00096626018483613417 0.013426627839927837 0 0.00084354146418845618 0.013274815997658536 0 0.00096626018483613417 0.013426627839927837 0 0.00091462325429457004 0.013500433869450492 0 0.00084354146418845618 0.013274815997658536 0 0.00078352030721661381 0.013475453731370142 0 0.00082948611275949255 0.013558470898300092 0 0.00081970107252990097 0.013430888100090252 0 0.0010163255356072163 0.013882400265243325 0 0.0011185263320210564 0.013462792642696167 0 0.0012545870575807799 0.01487471911829067 0 0.0015629967070886763 0.015101854022407806 0 0.0016266459059807669 0.014583049656990038 0 0.0011185263320210564 0.013462792642696167 0 0.0018166397756131315 0.013630793996772202 0 0.0019413277409435952 0.012448612993658769 0 0.0018738583950651774 0.012501636673548784 0 0.0019440096459609698 0.012572161230822719 0 0.0018738583950651774 0.012501636673548784 0 0.0017942244646502697 0.012574815170708733 0 0.0019440096459609698 0.012572161230822719 0 0.0018101725617071117 0.012437016395198482 0 0.0018738583950651774 0.012501636673548784 0 0.0017942244646502697 0.012574815170708733 0 0.0017942244646502697 0.012574815170708733 0 0.0019440096459609698 0.012572161230822719 0 0.001926008433904841 0.012762415702209757 0 0.0018166397756131315 0.013630793996772202 0 0.0018059686824458616 0.013352553684138296 0 0.001294269830865838 0.014210291894644712 0 0.0016266459059807669 0.014583049656990038 0 0.0017173184262654546 0.013988018961592803 0 0.0017942244646502697 0.012574815170708733 0 0.0017764490380709386 0.012872178842477591 0 0.001764526696995455 0.012727433440944765 0 0.0017942244646502697 0.012574815170708733 0 0.001926008433904841 0.012762415702209757 0 0.0017764490380709386 0.012872178842477591 0 0.001787949707810357 0.012760233167390823 0 0.0017785845438790704 0.012849964558127463 0 0.0017764490380709386 0.012872178842477591 0 0.0017785845438790704 0.012849964558127463 0 0.0017764490380709386 0.012872178842477591 0 0.0017533458884987703 0.013118819621429261 0 0.0018059686824458616 0.013352553684138296 0 0.0017770471129271955 0.01314054898500785 0 0.0012426710166847457 0.013499435320853327 0 0.0017173184262654546 0.013988018961592803 0 0.0017533458884987703 0.013118819621429261 0 0.001926008433904841 0.012762415702209757 0 0.0017764490380709386 0.012872178842477591 0 0.0017533458884987703 0.013118819621429261 0 0.0014823592580752937 0.013019968476452743 0 0.0012426710166847457 0.013499435320853327 0 0.0017533458884987703 0.013118819621429261 0 0.0017167997272366099 0.012669259642457135 0 0.001787949707810357 0.012760233167390823 0 0.0017444996417534913 0.012622424436853262 0 0.001787949707810357 0.012760233167390823 0 0.0017764490380709386 0.012872178842477591 0 0.001764526696995455 0.012727433440944765 0 0.001787949707810357 0.012760233167390823 0 0.001764526696995455 0.012727433440944765 0 0.0017444996417534913 0.012622424436853262 0 0.0017942244646502697 0.012574815170708733 0 0.001764526696995455 0.012727433440944765 0 0.0017427199110829263 0.012580540315768411 0 0.0017444996417534913 0.012622424436853262 0 0.0017427199110829263 0.012580540315768411 0 0.0017196786535963297 0.012478014538611101 0 0.001764526696995455 0.012727433440944765 0 0.0017444996417534913 0.012622424436853262 0 0.0017427199110829263 0.012580540315768411 0 0.0017427199110829263 0.012580540315768411 0 0.0017370809371918172 0.012486599983736486 0 0.0017196786535963297 0.012478014538611101 0 0.0017370809371918172 0.012486599983736486 0 0.0017006515587242919 0.01239172450837374 0 0.0017196786535963297 0.012478014538611101 0 0.0017942244646502697 0.012574815170708733 0 0.0017427199110829263 0.012580540315768411 0 0.0017370809371918172 0.012486599983736486 0 0.0018101725617071117 0.012437016395198482 0 0.0017942244646502697 0.012574815170708733 0 0.0017370809371918172 0.012486599983736486 0 0.0017281908726868402 0.012408978998124105 0 0.0018101725617071117 0.012437016395198482 0 0.0017370809371918172 0.012486599983736486 0 0.0017281908726868402 0.012408978998124105 0 0.0017370809371918172 0.012486599983736486 0 0.0017006515587242919 0.01239172450837374 0 0.0017006515587242919 0.01239172450837374 0 0.0016933753312045742 0.012308667538560518 0 0.0016953969755628354 0.01236172485132293 0 0.0017281908726868402 0.012408978998124105 0 0.0017006515587242919 0.01239172450837374 0 0.0016953969755628354 0.01236172485132293 0 0.0017006515587242919 0.01239172450837374 0 0.0016933753312045742 0.012308667538560518 0 0.0016956112770076688 0.012309375501200703 0 0.0016933753312045742 0.012308667538560518 0 0.0016956112770076688 0.012309375501200703 0 0.0017361467840756768 0.012232419285705648 0 0.0017006515587242919 0.01239172450837374 0 0.0016956112770076688 0.012309375501200703 0 0.0017196786535963297 0.012478014538611101 0 0.0016956112770076688 0.012309375501200703 0 0.0017196786535963297 0.012478014538611101 0 0.0017071386334919553 0.01249802301575632 0 0.0017444996417534913 0.012622424436853262 0 0.0017196786535963297 0.012478014538611101 0 0.0017071386334919553 0.01249802301575632 0 0.0016956112770076688 0.012309375501200703 0 0.0017071386334919553 0.01249802301575632 0 0.0016776855388797103 0.012359999476553668 0 0.0017071386334919553 0.01249802301575632 0 0.0016511880401537881 0.01252636483518095 0 0.0016776855388797103 0.012359999476553668 0 0.00095356434331387934 0.010385143615071393 0 0.0011189453433604567 0.010528415558806598 0 0.0017167997272366099 0.012669259642457135 0 0.0017071386334919553 0.01249802301575632 0 0.0016511880401537881 0.01252636483518095 0 0.0017167997272366099 0.012669259642457135 0 0.0017444996417534913 0.012622424436853262 0 0.0017071386334919553 0.01249802301575632 0 0.00095322662360803852 0.0082458994439873895 0 0.00057969151570156426 0.0083945434717371693 0 0.0010145545728222035 0.008683817833904834 0 0.0013368937918048758 0.01006919346691167 0 0.0010779856254661668 0.0076200482005665381 0 0.00095322662360803852 0.0082458994439873895 0 0.0010145545728222035 0.008683817833904834 0 0.0012807820119799381 0.0082936876550133987 0 0.0011189453433604567 0.010528415558806598 0 0.0013368937918048758 0.01006919346691167 0 0.0016511880401537881 0.01252636483518095 0 0.0016776855388797103 0.012359999476553668 0 0.0014727965766956268 0.012375519568453753 0 0.0016776855388797103 0.012359999476553668 0 0.0014727965766956268 0.012375519568453753 0 0.0017048163914398693 0.012126228806330219 0 0.0020152022458320117 0.011592493562251317 0 0.0020661892673065983 0.011872296662612762 0 0.0017048163914398693 0.012126228806330219 0 0.0013368937918048758 0.01006919346691167 0 0.0015964402710857263 0.012689154782189477 0 0.0020661892673065983 0.011872296662612762 0 0.0017048163914398693 0.012126228806330219 0 0.0019172831143459876 0.012070340539695711 0 0.0020661892673065983 0.011872296662612762 0 0.0019172831143459876 0.012070340539695711 0 0.0022563358317899598 0.011832103088716839 0 0.0016956112770076688 0.012309375501200703 0 0.0016776855388797103 0.012359999476553668 0 0.0017048163914398693 0.012126228806330219 0 0.0016956112770076688 0.012309375501200703 0 0.0017048163914398693 0.012126228806330219 0 0.0017361467840756768 0.012232419285705648 0 0.0017361467840756768 0.012232419285705648 0 0.0019710964177875024 0.012236103043755433 0 0.0017949784309268741 0.012338693745038418 0 0.0017048163914398693 0.012126228806330219 0 0.0017361467840756768 0.012232419285705648 0 0.0019172831143459876 0.012070340539695711 0 0.0016933753312045742 0.012308667538560518 0 0.0017361467840756768 0.012232419285705648 0 0.0017949784309268741 0.012338693745038418 0 0.0017361467840756768 0.012232419285705648 0 0.0019172831143459876 0.012070340539695711 0 0.0019710964177875024 0.012236103043755433 0 0.0019172831143459876 0.012070340539695711 0 0.0019710964177875024 0.012236103043755433 0 0.0022563358317899598 0.011832103088716839 0 0.0019710964177875024 0.012236103043755433 0 0.0019320635974135821 0.012404970095370898 0 0.0022363559384913651 0.012332362158679611 0 0.0019710964177875024 0.012236103043755433 0 0.0019320635974135821 0.012404970095370898 0 0.0017949784309268741 0.012338693745038418 0 0.0019846785661247835 0.012523453910757419 0 0.0018106518968101979 0.012565306076785051 0 0.0019796201259471729 0.012633765851206997 0 0.0019320635974135821 0.012404970095370898 0 0.0019846785661247835 0.012523453910757419 0 0.0018106518968101979 0.012565306076785051 0 0.0018106518968101979 0.012565306076785051 0 0.0017949784309268741 0.012338693745038418 0 0.001670460660956635 0.012462386007804447 0 0.0019320635974135821 0.012404970095370898 0 0.0018106518968101979 0.012565306076785051 0 0.0017949784309268741 0.012338693745038418 0 0.0016933753312045742 0.012308667538560518 0 0.0017949784309268741 0.012338693745038418 0 0.0016137703459884174 0.012366096985152772 0 0.0017949784309268741 0.012338693745038418 0 0.001483787650286113 0.012305789879649446 0 0.001670460660956635 0.012462386007804447 0 0.0017523952069462799 0.012266355673074653 0 0.0016113044834717017 0.01261383984012749 0 0.0017389981225678422 0.0123148861454172 0 0.0016113044834717017 0.01261383984012749 0 0.0015581112547509194 0.012858076131292334 0 0.0016113044834717017 0.01261383984012749 0 0.0012202811996481393 0.013003568758072475 0 0.0016113044834717017 0.01261383984012749 0 0.0014087795865322487 0.013408581479662236 0 0.0014491847599804695 0.013350584952010865 0 0.0016354656287462465 0.013246280275724911 0 0.0010958607017679952 0.01252293351286822 0 0.0015591451735188289 0.012626247130229008 0 0.0013565424507310394 0.013012096205971874 0 0.0010958607017679952 0.01252293351286822 0 0.001483787650286113 0.012305789879649446 0 0.0015591451735188289 0.012626247130229008 0 0.001483787650286113 0.012305789879649446 0 0.001670460660956635 0.012462386007804447 0 0.0015591451735188289 0.012626247130229008 0 0.0018106518968101979 0.012565306076785051 0 0.001670460660956635 0.012462386007804447 0 0.0015591451735188289 0.012626247130229008 0 0.0018106518968101979 0.012565306076785051 0 0.0015591451735188289 0.012626247130229008 0 0.0016861448047239048 0.01271811681829764 0 0.0015620975009887985 0.012630230273679559 0 0.0016844550649272366 0.012895392317408128 0 0.0015591451735188289 0.012626247130229008 0 0.0016514086454632486 0.013058646468533048 0 0.0013565424507310394 0.013012096205971874 0 0.0013565424507310394 0.013012096205971874 0 0.0015307546809323401 0.013280868051795847 0 0.0013388986198853358 0.013368302157756829 0 0.0016514086454632486 0.013058646468533048 0 0.0013565424507310394 0.013012096205971874 0 0.0015307546809323401 0.013280868051795847 0 0.0016844550649272366 0.012895392317408128 0 0.0014611765572101142 0.013029500126602792 0 0.0016514086454632486 0.013058646468533048 0 0.0015307546809323401 0.013280868051795847 0 0.0016817948340138653 0.013352725627704086 0 0.0016861448047239048 0.01271811681829764 0 0.0018397484315432356 0.012772873667035538 0 0.0017788047854877997 0.012809999463317533 0 0.0016861448047239048 0.01271811681829764 0 0.0018668962053913938 0.012705835856685856 0 0.0018397484315432356 0.012772873667035538 0 0.0018668962053913938 0.012705835856685856 0 0.0019179879227134047 0.012775447112975371 0 0.0019936149066226289 0.01271969626437992 0 0.0018668962053913938 0.012705835856685856 0 0.0019796201259471729 0.012633765851206997 0 0.0019936149066226289 0.01271969626437992 0 0.0018668962053913938 0.012705835856685856 0 0.0018397484315432356 0.012772873667035538 0 0.0019179879227134047 0.012775447112975371 0 0.0019179879227134047 0.012775447112975371 0 0.0019936149066226289 0.01271969626437992 0 0.002015229792832644 0.012790830942558281 0 0.0018106518968101979 0.012565306076785051 0 0.0018668962053913938 0.012705835856685856 0 0.0019796201259471729 0.012633765851206997 0 0.0018106518968101979 0.012565306076785051 0 0.0016861448047239048 0.01271811681829764 0 0.0018668962053913938 0.012705835856685856 0 0.0018343961562556925 0.012904938460223947 0 0.0018770942648499054 0.012878426250584128 0 0.0018639227377145987 0.012824739498985001 0 0.0012007037297919289 0.011583500179634134 0 0.0014611765572101142 0.013029500126602792 0 0.0012007037297919289 0.011583500179634134 0 0.0015989073971416556 0.012304873356252041 0 0.0015989073971416556 0.012304873356252041 0 0.0020178123316941378 0.012875769299608741 0 0.0019255730148020308 0.012853413543512677 0 0.0019213726867584023 0.012835798382194098 0 0.0020270179139442839 0.012828162593447358 0 0.0012174963027856037 0.010887958749968367 0 0.0012245646153749015 0.010886706802311991 0 0.0012247895117435998 0.010887259679500723 0 0.0010106806111555289 0.010022932870117886 0 0.0015989073971416556 0.012304873356252041 0 0.0015989073971416556 0.012304873356252041 0 0.0019264453076892236 0.013021680235415245 0 0.0019073248301934762 0.012924365964385065 0 0.0019502092072975171 0.012826876626332064 0 0.0020270179139442839 0.012828162593447358 0 0.0019073248301934762 0.012924365964385065 0 0.0018639227377145987 0.012824739498985001 0 0.0019502092072975171 0.012826876626332064 0 0.0019179879227134047 0.012775447112975371 0 0.0019502092072975171 0.012826876626332064 0 0.002015229792832644 0.012790830942558281 0 0.0018397484315432356 0.012772873667035538 0 0.0019179879227134047 0.012775447112975371 0 0.0018639227377145987 0.012824739498985001 0 0.0019179879227134047 0.012775447112975371 0 0.0018639227377145987 0.012824739498985001 0 0.0019502092072975171 0.012826876626332064 0 0.0018397484315432356 0.012772873667035538 0 0.0018639227377145987 0.012824739498985001 0 0.0018219545098088848 0.012818269423853218 0 0.0018343961562556925 0.012904938460223947 0 0.0018639227377145987 0.012824739498985001 0 0.0018219545098088848 0.012818269423853218 0 0.0018343961562556925 0.012904938460223947 0 0.0018219545098088848 0.012818269423853218 0 0.0017788047854877997 0.012809999463317533 0 0.0018397484315432356 0.012772873667035538 0 0.0018219545098088848 0.012818269423853218 0 0.0017788047854877997 0.012809999463317533 0 0.0014611765572101142 0.013029500126602792 0 0.0013954416437883927 0.013021961782863559 0 0.0015307546809323401 0.013280868051795847 0 0.0016817948340138653 0.013352725627704086 0 0.0014561182337716055 0.013551960143276609 0 0.0015307546809323401 0.013280868051795847 0 0.0013388986198853358 0.013368302157756829 0 0.0014561182337716055 0.013551960143276609 0 0.0013227259061874368 0.013499001652695493 0 0.0014561182337716055 0.013551960143276609 0 0.0012868131681909875 0.013568465730193928 0 0.0013388986198853358 0.013368302157756829 0 0.0013227259061874368 0.013499001652695493 0 0.0014561182337716055 0.013551960143276609 0 0.00077040995974987105 0.011982103729058344 0 0.00098778972998974117 0.012572857224142066 0 0.0013255556734152547 0.012073262788451982 0 0.00074933395750520363 0.0096232722896079023 0 0.00073325881400412981 0.0095880946076420375 0 0.00066719314776906495 0.0096657477626482195 0 0.00077040995974987105 0.011982103729058344 0 0.0013255556734152547 0.012073262788451982 0 0.0012315110182644238 0.011682361600131442 0 0.0014561182337716055 0.013551960143276609 0 0.0013250107736740026 0.013641103071614506 0 0.0012868131681909875 0.013568465730193928 0 0.0013954416437883927 0.013021961782863559 0 0.00098200899811405119 0.01127497226494132 0 0.00088321810338033149 0.01019021241916131 0 0.00098200899811405119 0.01127497226494132 0 0.0013255556734152547 0.012073262788451982 0 0.0012315110182644238 0.011682361600131442 0 0.0016543625931418329 0.011577602916292781 0 0.00071359057568420295 0.009629168109651913 0 0.0007655405841671452 0.009600180664882059 0 0.00076152304327261439 0.0095786092680583256 0 0.00074933395750520363 0.0096232722896079023 0 0.00076152304327261439 0.0095786092680583256 0 0.00075074655321969959 0.0095867218596431304 0 0.00088321810338033149 0.01019021241916131 0 0.00077367238414063877 0.0094774494739811622 0 0.00075421762572596134 0.0095690251023219444 0 0.00076152304327261439 0.0095786092680583256 0 0.00075074655321969959 0.0095867218596431304 0 0.00075421762572596134 0.0095690251023219444 0 0.00076152304327261439 0.0095786092680583256 0 0.00075748563013600947 0.0095582745408725953 0 0.00074933395750520363 0.0096232722896079023 0 0.00073325881400412981 0.0095880946076420375 0 0.00075074655321969959 0.0095867218596431304 0 0.00073325881400412981 0.0095880946076420375 0 0.00075074655321969959 0.0095867218596431304 0 0.0007408104236840458 0.0095696413332306603 0 0.00075421762572596134 0.0095690251023219444 0 0.00075074655321969959 0.0095867218596431304 0 0.0007408104236840458 0.0095696413332306603 0 0.00073325881400412981 0.0095880946076420375 0 0.0007408104236840458 0.0095696413332306603 0 0.00072014697936648761 0.0095751036077227122 0 0.00072014697936648761 0.0095751036077227122 0 0.00069105450561108271 0.0095703556211596905 0 0.00070703608062354958 0.0096013192197616625 0 0.00072014697936648761 0.0095751036077227122 0 0.00069105450561108271 0.0095703556211596905 0 0.00072695850671259234 0.0095499767148606446 0 0.00069105450561108271 0.0095703556211596905 0 0.00070703608062354958 0.0096013192197616625 0 0.00067877934746197197 0.0095999436049015729 0 0.00070703608062354958 0.0096013192197616625 0 0.0006917324042887273 0.0096170444454747126 0 0.00067877934746197197 0.0095999436049015729 0 0.00073325881400412981 0.0095880946076420375 0 0.00072014697936648761 0.0095751036077227122 0 0.00070703608062354958 0.0096013192197616625 0 0.0012007037297919289 0.011583500179634134 0 0.00088321810338033149 0.01019021241916131 0 0.00067840634430937669 0.0096980593493575552 0 0.00074933395750520363 0.0096232722896079023 0 0.00066719314776906495 0.0096657477626482195 0 0.00070565429617532006 0.0095220070449282355 0 0.0008581779733781048 0.0099528355441640334 0 0.00073325881400412981 0.0095880946076420375 0 0.00070703608062354958 0.0096013192197616625 0 0.00069232121179287683 0.0096423732795170893 0 0.0006917324042887273 0.0096170444454747126 0 0.00068656264154303163 0.0096310982790840851 0 0.00067877934746197197 0.0095999436049015729 0 0.00070703608062354958 0.0096013192197616625 0 0.0006917324042887273 0.0096170444454747126 0 0.00069232121179287683 0.0096423732795170893 0 0.0006917324042887273 0.0096170444454747126 0 0.00068656264154303163 0.0096310982790840851 0 0.00069232121179287683 0.0096423732795170893 0 0.0012174963027856037 0.010887958749968367 0 0.0012245646153749015 0.010886706802311991 0 0.0012173283195493875 0.010887493228407834 0 0.00079055770762910603 0.0097926861626655304 0 0.0008581779733781048 0.0099528355441640334 0 0.0012007037297919289 0.011583500179634134 0 0.0008581779733781048 0.0099528355441640334 0 0.00021446244121181693 0.0080429776537604015 0 0.0002668423946742773 0.0083167021488761046 0 0.0003684510443421003 0.0081303736185545251 0 0.00066243951111370227 0.0096726107809378629 0 0.00068656264154303163 0.0096310982790840851 0 0.00063153009209753527 0.0095977623830231819 0 0.0010106806111555289 0.010022932870117886 0 0.00034007257967487485 0.0087029843233448149 0 0.0010106806111555289 0.010022932870117886 0 0.0008581779733781048 0.0099528355441640334 0 0.00066243951111370227 0.0096726107809378629 0 0.00068656264154303163 0.0096310982790840851 0 0.00069190957075584785 0.0096445122862895399 0 0.00068656264154303163 0.0096310982790840851 0 0.00063153009209753527 0.0095977623830231819 0 0.00067877934746197197 0.0095999436049015729 0 0.00069105450561108271 0.0095703556211596905 0 0.00063153009209753527 0.0095977623830231819 0 0.0006724224397918556 0.0095239357580236186 0 0.00069105450561108271 0.0095703556211596905 0 0.00063153009209753527 0.0095977623830231819 0 0.00067877934746197197 0.0095999436049015729 0 0.00063153009209753527 0.0095977623830231819 0 0.0006724224397918556 0.0095239357580236186 0 0.00058598686700497686 0.0095197741338426782 0 0.00069105450561108271 0.0095703556211596905 0 0.0006724224397918556 0.0095239357580236186 0 0.00072695850671259234 0.0095499767148606446 0 0.0006724224397918556 0.0095239357580236186 0 0.00072695850671259234 0.0095499767148606446 0 0.0007374334029838233 0.0095104574364853894 0 0.0006724224397918556 0.0095239357580236186 0 0.00071346410945289523 0.0094632878778706624 0 0.0007374334029838233 0.0095104574364853894 0 0.00071346410945289523 0.0094632878778706624 0 0.00075089839147856371 0.0094865740952257433 0 0.0007374334029838233 0.0095104574364853894 0 0.0006724224397918556 0.0095239357580236186 0 0.00071346410945289523 0.0094632878778706624 0 0.00065182464606787548 0.0094112667105439307 0 0.0006724224397918556 0.0095239357580236186 0 0.00065182464606787548 0.0094112667105439307 0 0.00058598686700497686 0.0095197741338426782 0 0.00065182464606787548 0.0094112667105439307 0 0.00072564727449688892 0.0094282750835996288 0 0.0006558612673094518 0.0093013331686261757 0 0.00071346410945289523 0.0094632878778706624 0 0.00065182464606787548 0.0094112667105439307 0 0.00072564727449688892 0.0094282750835996288 0 0.00072564727449688892 0.0094282750835996288 0 0.00077271407602854812 0.0094785435923199872 0 0.00075089839147856371 0.0094865740952257433 0 0.00071346410945289523 0.0094632878778706624 0 0.00072564727449688892 0.0094282750835996288 0 0.00075089839147856371 0.0094865740952257433 0 0.00072564727449688892 0.0094282750835996288 0 0.00077271407602854812 0.0094785435923199872 0 0.0006558612673094518 0.0093013331686261757 0 0.00077271407602854812 0.0094785435923199872 0 0.0006558612673094518 0.0093013331686261757 0 0.00076098447794043227 0.009477610593220798 0 0.0007490858950422026 0.0095610625259474578 0 0.00073885027193871698 0.0095919561832144874 0 0.00075835603186049782 0.0095728913448097936 0 0.00075670989319761325 0.0095254920013851194 0 0.0007490858950422026 0.0095610625259474578 0 0.00075835603186049782 0.0095728913448097936 0 0.00075670989319761325 0.0095254920013851194 0 0.0007490858950422026 0.0095610625259474578 0 0.00074661714620867048 0.009551586306506623 0 0.00077271407602854812 0.0094785435923199872 0 0.00075670989319761325 0.0095254920013851194 0 0.00075089839147856371 0.0094865740952257433 0 0.00077271407602854812 0.0094785435923199872 0 0.00075670989319761325 0.0095254920013851194 0 0.00075835603186049782 0.0095728913448097936 0 0.00075670989319761325 0.0095254920013851194 0 0.00075089839147856371 0.0094865740952257433 0 0.00075325703133843013 0.0095311697880296128 0 0.00075670989319761325 0.0095254920013851194 0 0.00075325703133843013 0.0095311697880296128 0 0.00074661714620867048 0.009551586306506623 0 0.00075325703133843013 0.0095311697880296128 0 0.00074620628609761176 0.0095511971439743732 0 0.00074661714620867048 0.009551586306506623 0 0.00075325703133843013 0.0095311697880296128 0 0.0007553466744575928 0.0095476463116006272 0 0.0007519584155518637 0.0095260502611672973 0 0.00075325703133843013 0.0095311697880296128 0 0.0007553466744575928 0.0095476463116006272 0 0.00074620628609761176 0.0095511971439743732 0 0.00075089839147856371 0.0094865740952257433 0 0.00075325703133843013 0.0095311697880296128 0 0.0007519584155518637 0.0095260502611672973 0 0.00075089839147856371 0.0094865740952257433 0 0.0007519584155518637 0.0095260502611672973 0 0.0007374334029838233 0.0095104574364853894 0 0.0007519584155518637 0.0095260502611672973 0 0.0007374334029838233 0.0095104574364853894 0 0.00075174249031479746 0.0095516637888490956 0 0.00072695850671259234 0.0095499767148606446 0 0.0007374334029838233 0.0095104574364853894 0 0.00075174249031479746 0.0095516637888490956 0 0.0007408104236840458 0.0095696413332306603 0 0.00072695850671259234 0.0095499767148606446 0 0.00075174249031479746 0.0095516637888490956 0 0.00075421762572596134 0.0095690251023219444 0 0.0007408104236840458 0.0095696413332306603 0 0.00075174249031479746 0.0095516637888490956 0 0.0007408104236840458 0.0095696413332306603 0 0.00072014697936648761 0.0095751036077227122 0 0.00072695850671259234 0.0095499767148606446 0 0.0007553466744575928 0.0095476463116006272 0 0.00075174249031479746 0.0095516637888490956 0 0.00075748563013600947 0.0095582745408725953 0 0.0007553466744575928 0.0095476463116006272 0 0.0007519584155518637 0.0095260502611672973 0 0.00075174249031479746 0.0095516637888490956 0 0.00075421762572596134 0.0095690251023219444 0 0.00075174249031479746 0.0095516637888490956 0 0.00075748563013600947 0.0095582745408725953 0 0.0007553466744575928 0.0095476463116006272 0 0.00075792551163250926 0.0095519462584213732 0 0.00074197106350227789 0.0095614814636725189 0 0.00075792551163250926 0.0095519462584213732 0 0.00071093284370539152 0.0095793488399106182 0 0.00074197106350227789 0.0095614814636725189 0 0.0007553466744575928 0.0095476463116006272 0 0.00075748563013600947 0.0095582745408725953 0 0.00075792551163250926 0.0095519462584213732 0 0.00050984436635583951 0.0098178665506073928 0 0.00067397618247356508 0.0097706813115164114 0 0.00071093284370539152 0.0095793488399106182 0 0.00067397618247356508 0.0097706813115164114 0 0.00078233665223659385 0.0096104033513629335 0 0.00071688719199900787 0.0099914679741246858 0 0.00037660286168881418 0.010159967715226034 0 0.0007625429805200309 0.012062331393136092 0 0.00068332541224988021 0.0094913545752742037 0 0.00066825101257234087 0.0096545502056755075 0 0.00050984436635583951 0.0098178665506073928 0 0.00067397618247356508 0.0097706813115164114 0 0.00060603583313681235 0.0098935732808813053 0 0.00067397618247356508 0.0097706813115164114 0 0.00071093284370539152 0.0095793488399106182 0 0.00078233665223659385 0.0096104033513629335 0 0.00071093284370539152 0.0095793488399106182 0 0.00073409273568957858 0.0095778865659306919 0 0.00078233665223659385 0.0096104033513629335 0 0.00071093284370539152 0.0095793488399106182 0 0.00073409273568957858 0.0095778865659306919 0 0.00073012069238089698 0.0095667091423143249 0 0.00071093284370539152 0.0095793488399106182 0 0.00074197106350227789 0.0095614814636725189 0 0.00073012069238089698 0.0095667091423143249 0 0.0007553466744575928 0.0095476463116006272 0 0.00074197106350227789 0.0095614814636725189 0 0.00074620628609761176 0.0095511971439743732 0 0.00074197106350227789 0.0095614814636725189 0 0.00074620628609761176 0.0095511971439743732 0 0.00073012069238089698 0.0095667091423143249 0 0.00074661714620867048 0.009551586306506623 0 0.00073012069238089698 0.0095667091423143249 0 0.00073358401602423426 0.0095761836598208805 0 0.00074620628609761176 0.0095511971439743732 0 0.00074661714620867048 0.009551586306506623 0 0.00073012069238089698 0.0095667091423143249 0 0.00072656609949887322 0.0095743652473100713 0 0.00073358401602423426 0.0095761836598208805 0 0.0007155548429317618 0.0095950893638956525 0 0.00073012069238089698 0.0095667091423143249 0 0.00072656609949887322 0.0095743652473100713 0 0.00073358401602423426 0.0095761836598208805 0 0.00073409273568957858 0.0095778865659306919 0 0.00072656609949887322 0.0095743652473100713 0 0.00071705401575413298 0.0095767630290372035 0 0.00073409273568957858 0.0095778865659306919 0 0.00073012069238089698 0.0095667091423143249 0 0.00072656609949887322 0.0095743652473100713 0 0.00072656609949887322 0.0095743652473100713 0 0.0007155548429317618 0.0095950893638956525 0 0.00071705401575413298 0.0095767630290372035 0 0.00072356556296311462 0.009607490461135116 0 0.00073358401602423426 0.0095761836598208805 0 0.0007155548429317618 0.0095950893638956525 0 0.00072356556296311462 0.009607490461135116 0 0.00070404583214903234 0.0096294160050119215 0 0.0007155548429317618 0.0095950893638956525 0 0.0007490858950422026 0.0095610625259474578 0 0.00074661714620867048 0.009551586306506623 0 0.00073358401602423426 0.0095761836598208805 0 0.00072356556296311462 0.009607490461135116 0 0.00073885027193871698 0.0095919561832144874 0 0.00073358401602423426 0.0095761836598208805 0 0.0007490858950422026 0.0095610625259474578 0 0.00073885027193871698 0.0095919561832144874 0 0.00073358401602423426 0.0095761836598208805 0 0.0006331191467127315 0.010085334449320521 0 0.0007618439434970381 0.0097806224632320526 0 0.00066574371676966565 0.0097087480895206631 0 0.00052305577472316184 0.0099999932735829571 0 0.00065304274648314271 0.0097000207677061575 0 0.0007618439434970381 0.0097806224632320526 0 0.00078097860419871969 0.010240816306908422 0 0.00099943676981465606 0.010245136476055541 0 0.0006331191467127315 0.010085334449320521 0 0.0007618439434970381 0.0097806224632320526 0 0.00078097860419871969 0.010240816306908422 0 0.0006331191467127315 0.010085334449320521 0 0.00034401879782321372 0.010319415939332105 0 0.00066574371676966565 0.0097087480895206631 0 0.00069282282293918896 0.0096343209934959678 0 0.00069168319367763677 0.0095718524510438521 0 0.00066574371676966565 0.0097087480895206631 0 0.00069282282293918896 0.0096343209934959678 0 0.00070404583214903234 0.0096294160050119215 0 0.00067918681522798475 0.0096638968785476669 0 0.00069282282293918896 0.0096343209934959678 0 0.00070404583214903234 0.0096294160050119215 0 0.0007155548429317618 0.0095950893638956525 0 0.00069282282293918896 0.0096343209934959678 0 0.0007155548429317618 0.0095950893638956525 0 0.00069168319367763677 0.0095718524510438521 0 0.00034401879782321372 0.010319415939332105 0 0.0004907086570890884 0.010708224306030516 0 0.00035516182124915266 0.01090337357277203 0 0.0007155548429317618 0.0095950893638956525 0 0.00069168319367763677 0.0095718524510438521 0 0.00071705401575413298 0.0095767630290372035 0 0.00073409273568957858 0.0095778865659306919 0 0.00069168319367763677 0.0095718524510438521 0 0.00071705401575413298 0.0095767630290372035 0 0.00034401879782321372 0.010319415939332105 0 0.00065290107116919988 0.010433265724316722 0 0.0004907086570890884 0.010708224306030516 0 0.00065290107116919988 0.010433265724316722 0 0.00064947791176694501 0.010719535668893637 0 0.0004907086570890884 0.010708224306030516 0 0.0006331191467127315 0.010085334449320521 0 0.00034401879782321372 0.010319415939332105 0 0.00065290107116919988 0.010433265724316722 0 0.00078097860419871969 0.010240816306908422 0 0.00086306913443792938 0.010658121091221842 0 0.00099943676981465606 0.010245136476055541 0 0.0006331191467127315 0.010085334449320521 0 0.00065290107116919988 0.010433265724316722 0 0.00078097860419871969 0.010240816306908422 0 0.00065290107116919988 0.010433265724316722 0 0.00078097860419871969 0.010240816306908422 0 0.00086306913443792938 0.010658121091221842 0 0.00061024164879806104 0.010553331698228682 0 0.0007095829749020206 0.011040328516016084 0 0.00065290107116919988 0.010433265724316722 0 0.00092475858499037832 0.010704059371906379 0 0.00064947791176694501 0.010719535668893637 0 0.0007095829749020206 0.011040328516016084 0 0.00066312909858443319 0.011509430445811394 0 0.00092475858499037832 0.010704059371906379 0 0.00064947791176694501 0.010719535668893637 0 0.00052830022562038164 0.0110343117754402 0 0.00092475858499037832 0.010704059371906379 0 0.00060484392105479893 0.01115786769961933 0 0.00060683461139870423 0.011571149726757301 0 0.00076909669738053964 0.011231223086891107 0 0.00073196084390338124 0.011438799034840706 0 0.00078537082813390073 0.011372288889830372 0 0.0004907086570890884 0.010708224306030516 0 0.00052830022562038164 0.0110343117754402 0 0.00035516182124915266 0.01090337357277203 0 0.00064947791176694501 0.010719535668893637 0 0.0004907086570890884 0.010708224306030516 0 0.00052830022562038164 0.0110343117754402 0 0.00092475858499037832 0.010704059371906379 0 0.00052830022562038164 0.0110343117754402 0 0.00060484392105479893 0.01115786769961933 0 0.00073409273568957858 0.0095778865659306919 0 0.00069168319367763677 0.0095718524510438521 0 0.00078233665223659385 0.0096104033513629335 0 0.00034401879782321372 0.010319415939332105 0 0.00035516182124915266 0.01090337357277203 0 4.3014139369361651e-05 0.011133793891974327 0 0.00052305577472316184 0.0099999932735829571 0 0.00037660286168881418 0.010159967715226034 0 0.00035516182124915266 0.01090337357277203 0 4.3014139369361651e-05 0.011133793891974327 0 0.00037093365668829103 0.011318552917239469 0 0.00052830022562038164 0.0110343117754402 0 0.00035516182124915266 0.01090337357277203 0 0.00037093365668829103 0.011318552917239469 0 4.3014139369361651e-05 0.011133793891974327 0 0.00032329507699246077 0.011765705663241095 0 -0.00022070159214797512 0.011895813973420264 0 4.3014139369361651e-05 0.011133793891974327 0 0.00037093365668829103 0.011318552917239469 0 0.00032329507699246077 0.011765705663241095 0 0.00037093365668829103 0.011318552917239469 0 0.00060683461139870423 0.011571149726757301 0 0.00032329507699246077 0.011765705663241095 0 0.00076909669738053964 0.011231223086891107 0 0.00073196084390338124 0.011438799034840706 0 0.00060683461139870423 0.011571149726757301 0 0.00073196084390338124 0.011438799034840706 0 0.00074405749339929127 0.011533401246114162 0 0.00079543519337380269 0.011464022283878971 0 0.00037093365668829103 0.011318552917239469 0 0.00060484392105479893 0.01115786769961933 0 0.00060683461139870423 0.011571149726757301 0 0.00052830022562038164 0.0110343117754402 0 0.00037093365668829103 0.011318552917239469 0 0.00060484392105479893 0.01115786769961933 0 0.00073196084390338124 0.011438799034840706 0 0.00060683461139870423 0.011571149726757301 0 0.00074405749339929127 0.011533401246114162 0 0.00060683461139870423 0.011571149726757301 0 0.00074405749339929127 0.011533401246114162 0 0.00076569823954897255 0.011635318931312906 0 0.00058075361396076421 0.013445191405761428 0 0.00066840246205777552 0.013396583676659463 0 0.0002118758055213336 0.014150743748919684 0 0.00022818627266427984 0.014151398145471462 0 0.00020726706136330286 0.014132459235376284 0 0.00021335159805315265 0.0140954694219163 0 0.00020705172132977004 0.014017926869100635 0 0.00047654780195777126 0.014035141279088486 0 0.00066840246205777552 0.013396583676659463 0 0.00067472823094176266 0.012726844275907192 0 0.00022818627266427984 0.014151398145471462 0 0.00021335159805315265 0.0140954694219163 0 0.00020726706136330286 0.014132459235376284 0 0.00022818627266427984 0.014151398145471462 0 0.00021335159805315265 0.0140954694219163 0 0.00047654780195777126 0.014035141279088486 0 0.00066840246205777552 0.013396583676659463 0 0.00074921007471976753 0.013917122355294293 0 0.00060683461139870423 0.011571149726757301 0 0.00076569823954897255 0.011635318931312906 0 0.00032329507699246077 0.011765705663241095 0 0.00025445166603220817 0.013920876469910068 0 0.00047654780195777126 0.014035141279088486 0 0.0003935691711203183 0.0138524252329391 0 0.00020705172132977004 0.014017926869100635 0 0.00025445166603220817 0.013920876469910068 0 0.00047654780195777126 0.014035141279088486 0 0.00047654780195777126 0.014035141279088486 0 0.0003935691711203183 0.0138524252329391 0 0.00057525215925737243 0.013825139972980124 0 0.00067472823094176266 0.012726844275907192 0 0.0007625429805200309 0.012062331393136092 0 0.0010891775953841515 0.013601386317852626 0 0.0010647359597063242 0.013684751883215943 0 0.0011402839395168276 0.013621856322964461 0 0.0010647359597063242 0.013684751883215943 0 0.0011715376844997974 0.013661600103278167 0 0.0011402839395168276 0.013621856322964461 0 0.00095444845905931399 0.013704214450481951 0 0.0010891775953841515 0.013601386317852626 0 0.0010647359597063242 0.013684751883215943 0 0.00067397618247356508 0.0097706813115164114 0 0.00060603583313681235 0.0098935732808813053 0 0.00071688719199900787 0.0099914679741246858 0 0.0007625429805200309 0.012062331393136092 0 0.0007490361904508257 0.013501678862724449 0 0.0011715376844997974 0.013661600103278167 0 0.0011402839395168276 0.013621856322964461 0 0.0011923459593498025 0.013620808313621679 0 0.0007655405841671452 0.009600180664882059 0 0.00076152304327261439 0.0095786092680583256 0 0.00075792551163250926 0.0095519462584213732 0 0.00098200899811405119 0.01127497226494132 0 0.0007625429805200309 0.012062331393136092 0 0.0013250107736740026 0.013641103071614506 0 0.0011723103701661668 0.013659606426221011 0 0.0011923459593498025 0.013620808313621679 0 0.00098200899811405119 0.01127497226494132 0 0.00068332541224988021 0.0094913545752742037 0 0.00032305032875469384 0.010108273331117157 0 0.00060603583313681235 0.0098935732808813053 0 0.00071688719199900787 0.0099914679741246858 0 0.00032305032875469384 0.010108273331117157 0 0.00050984436635583951 0.0098178665506073928 0 0.00060603583313681235 0.0098935732808813053 0 0.00076152304327261439 0.0095786092680583256 0 0.00075748563013600947 0.0095582745408725953 0 0.00075792551163250926 0.0095519462584213732 0 0.0012868131681909875 0.013568465730193928 0 0.0011923459593498025 0.013620808313621679 0 0.0012158591779640984 0.013506266826117379 0 0.0013250107736740026 0.013641103071614506 0 0.0012868131681909875 0.013568465730193928 0 0.0011923459593498025 0.013620808313621679 0 0.00074921007471976753 0.013917122355294293 0 0.0010626649204368303 0.013621966017438966 0 0.0010891775953841515 0.013601386317852626 0 0.0011402839395168276 0.013621856322964461 0 0.0012158591779640984 0.013506266826117379 0 0.0011402839395168276 0.013621856322964461 0 0.0011923459593498025 0.013620808313621679 0 0.0012158591779640984 0.013506266826117379 0 0.00047654780195777126 0.014035141279088486 0 0.00088046310100960807 0.013799502309758295 0 0.00057525215925737243 0.013825139972980124 0 0.00088046310100960807 0.013799502309758295 0 0.00052114705275790819 0.013633579439029287 0 0.00057525215925737243 0.013825139972980124 0 0.0013227259061874368 0.013499001652695493 0 0.0012868131681909875 0.013568465730193928 0 0.0012158591779640984 0.013506266826117379 0 0.0013388986198853358 0.013368302157756829 0 0.0013227259061874368 0.013499001652695493 0 0.0012158591779640984 0.013506266826117379 0 0.0013388986198853358 0.013368302157756829 0 0.00088046310100960807 0.013799502309758295 0 0.00096680627323799751 0.013440409745303274 0 0.0013206005736195107 0.013392537116272326 0 0.0010626649204368303 0.013621966017438966 0 0.00088046310100960807 0.013799502309758295 0 0.00071222135231891305 0.013469859937689231 0 0.00052114705275790819 0.013633579439029287 0 0.00088046310100960807 0.013799502309758295 0 0.00096680627323799751 0.013440409745303274 0 0.00071222135231891305 0.013469859937689231 0 0.00071222135231891305 0.013469859937689231 0 0.00052114705275790819 0.013633579439029287 0 0.00043093915771215782 0.013503490528519315 0 0.00052114705275790819 0.013633579439029287 0 0.00043093915771215782 0.013503490528519315 0 0.00034614095507675579 0.013712842426093514 0 0.00026042254598321237 0.013436122715944758 0 0.00043093915771215782 0.013503490528519315 0 0.00029549338789960146 0.013589011714462699 0 0.00026042254598321237 0.013436122715944758 0 0.00029549338789960146 0.013589011714462699 0 0.00014362292443784264 0.013694690196510506 0 0.00029549338789960146 0.013589011714462699 0 0.00034614095507675579 0.013712842426093514 0 0.00014362292443784264 0.013694690196510506 0 0.00043093915771215782 0.013503490528519315 0 0.00029549338789960146 0.013589011714462699 0 0.00034614095507675579 0.013712842426093514 0 0.00034614095507675579 0.013712842426093514 0 0.00024527496781826278 0.013817757472406152 0 0.0003935691711203183 0.0138524252329391 0 0.00034614095507675579 0.013712842426093514 0 0.00024527496781826278 0.013817757472406152 0 0.00014362292443784264 0.013694690196510506 0 0.00025445166603220817 0.013920876469910068 0 0.00024527496781826278 0.013817757472406152 0 0.00012027226364825933 0.013849459063897639 0 0.00025445166603220817 0.013920876469910068 0 0.00024527496781826278 0.013817757472406152 0 0.0003935691711203183 0.0138524252329391 0 0.00052114705275790819 0.013633579439029287 0 0.0003935691711203183 0.0138524252329391 0 0.00057525215925737243 0.013825139972980124 0 0.00052114705275790819 0.013633579439029287 0 0.00034614095507675579 0.013712842426093514 0 0.0003935691711203183 0.0138524252329391 0 2.1075033739696178e-05 0.013867849587631527 0 -1.3691704838389368e-05 0.013798294332826868 0 -1.9193982545800835e-05 0.013820149129833195 0 9.7247978472523074e-06 0.013793809138266697 0 2.1075033739696178e-05 0.013867849587631527 0 -1.3691704838389368e-05 0.013798294332826868 0 9.7247978472523074e-06 0.013793809138266697 0 0.00012027226364825933 0.013849459063897639 0 0.00014362292443784264 0.013694690196510506 0 9.7247978472523074e-06 0.013793809138266697 0 2.1075033739696178e-05 0.013867849587631527 0 0.00012027226364825933 0.013849459063897639 0 0.00024527496781826278 0.013817757472406152 0 0.00012027226364825933 0.013849459063897639 0 0.00014362292443784264 0.013694690196510506 0 9.7247978472523074e-06 0.013793809138266697 0 0.00014362292443784264 0.013694690196510506 0 -8.9628515578647609e-05 0.013763797880263762 0 9.9829135753741929e-05 0.013432132284574388 0 0.00014362292443784264 0.013694690196510506 0 -8.9628515578647609e-05 0.013763797880263762 0 1.5758521776830656e-05 0.013897709567768129 0 -8.9628515578647609e-05 0.013763797880263762 0 -1.3691704838389368e-05 0.013798294332826868 0 9.7247978472523074e-06 0.013793809138266697 0 -8.9628515578647609e-05 0.013763797880263762 0 -1.3691704838389368e-05 0.013798294332826868 0 -1.3691704838389368e-05 0.013798294332826868 0 0.00012417391604431749 0.013855202455594259 0 -1.9193982545800835e-05 0.013820149129833195 0 3.0548009111057774e-05 0.014146064485765903 0 -2.8985815278879998e-05 0.014151719371726513 0 1.5758521776830656e-05 0.013897709567768129 0 -1.3691704838389368e-05 0.013798294332826868 0 0.00012417391604431749 0.013855202455594259 0 -4.2768849813410283e-05 0.014469821039567133 0 -4.2257130470096307e-05 0.014467142951270915 0 -5.8934331435760166e-05 0.014452752983943029 0 3.1150191028654814e-05 0.014585633975499094 0 -2.8424940748634586e-05 0.014545622171505294 0 1.2432277822145938e-05 0.014474040344181274 0 -4.4284458209775683e-05 0.014505021749624633 0 -5.4758671995703698e-05 0.014447331099886137 0 -2.8424940748634586e-05 0.014545622171505294 0 -5.854193356975188e-05 0.014442083194507406 0 1.2432277822145938e-05 0.014474040344181274 0 -4.2257130470096307e-05 0.014467142951270915 0 -5.8934331435760166e-05 0.014452752983943029 0 -5.854193356975188e-05 0.014442083194507406 0 -2.8985815278879998e-05 0.014151719371726513 0 -6.0145888756331463e-05 0.014175458345780776 0 2.1075033739696178e-05 0.013867849587631527 0 -1.9193982545800835e-05 0.013820149129833195 0 -2.1843043182303884e-05 0.013981535399709465 0 -5.8934331435760166e-05 0.014452752983943029 0 -5.854193356975188e-05 0.014442083194507406 0 -8.263100500814085e-05 0.014409197079840209 0 -5.854193356975188e-05 0.014442083194507406 0 -8.263100500814085e-05 0.014409197079840209 0 -5.9158836508674359e-05 0.014406883470036165 0 -0.00014874182740330958 0.014669157453141712 0 -5.2835457506227548e-05 0.014691977332298314 0 -5.854193356975188e-05 0.014442083194507406 0 -5.9158836508674359e-05 0.014406883470036165 0 1.2432277822145938e-05 0.014474040344181274 0 -0.00018410705578194843 0.014852850353965882 0 -0.00010879728473874218 0.014862230224778148 0 -0.00012518573337479824 0.014918786921563414 0 -0.00018410705578194843 0.014852850353965882 0 -0.00012659137123395743 0.014800095392461294 0 -0.00016631712517385739 0.014781509035521887 0 -0.00018410705578194843 0.014852850353965882 0 -0.00012659137123395743 0.014800095392461294 0 -0.00010879728473874218 0.014862230224778148 0 -0.00014874182740330958 0.014669157453141712 0 3.6942801424801989e-05 0.01431247917007762 0 -8.263100500814085e-05 0.014409197079840209 0 -5.9158836508674359e-05 0.014406883470036165 0 -0.00010209547115766881 0.014364632599141875 0 -6.0145888756331463e-05 0.014175458345780776 0 3.6942801424801989e-05 0.01431247917007762 0 -2.1843043182303884e-05 0.013981535399709465 0 6.5248501002060011e-05 0.013995701932673655 0 3.7107181424266746e-05 0.014105700502875448 0 2.1075033739696178e-05 0.013867849587631527 0 -2.1843043182303884e-05 0.013981535399709465 0 6.5248501002060011e-05 0.013995701932673655 0 2.1075033739696178e-05 0.013867849587631527 0 6.5248501002060011e-05 0.013995701932673655 0 0.0001267636093409903 0.013938323076595378 0 0.00020705172132977004 0.014017926869100635 0 6.5248501002060011e-05 0.013995701932673655 0 0.0001267636093409903 0.013938323076595378 0 0.00025445166603220817 0.013920876469910068 0 0.00012027226364825933 0.013849459063897639 0 0.0001267636093409903 0.013938323076595378 0 2.1075033739696178e-05 0.013867849587631527 0 0.00012027226364825933 0.013849459063897639 0 0.0001267636093409903 0.013938323076595378 0 0.00020705172132977004 0.014017926869100635 0 0.00025445166603220817 0.013920876469910068 0 0.0001267636093409903 0.013938323076595378 0 6.5248501002060011e-05 0.013995701932673655 0 0.00015628440722820252 0.014079533428911505 0 0.00014316250383441845 0.014141995436964393 0 3.7716423822768483e-06 0.014256137527065647 0 0.00032884322723162387 0.013626580398053962 0 0.00021335159805315265 0.0140954694219163 0 0.00020705172132977004 0.014017926869100635 0 0.00015628440722820252 0.014079533428911505 0 6.5248501002060011e-05 0.013995701932673655 0 0.00014316250383441845 0.014141995436964393 0 0.00010036829999607094 0.014268374187517249 0 0.00020705172132977004 0.014017926869100635 0 6.5248501002060011e-05 0.013995701932673655 0 0.00015628440722820252 0.014079533428911505 0 0.00015628440722820252 0.014079533428911505 0 0.00017823006862196359 0.014131367351580429 0 0.00014316250383441845 0.014141995436964393 0 0.00021335159805315265 0.0140954694219163 0 0.00015628440722820252 0.014079533428911505 0 0.00017823006862196359 0.014131367351580429 0 0.00021335159805315265 0.0140954694219163 0 0.00017823006862196359 0.014131367351580429 0 0.00020726706136330286 0.014132459235376284 0 0.0002118758055213336 0.014150743748919684 0 0.00017823006862196359 0.014131367351580429 0 0.00020726706136330286 0.014132459235376284 0 0.0002118758055213336 0.014150743748919684 0 0.00017823006862196359 0.014131367351580429 0 0.00018701599095725631 0.014167239066945191 0 0.00018701599095725631 0.014167239066945191 0 0.00014316250383441845 0.014141995436964393 0 0.00015946192289863865 0.014210796891049921 0 0.0002118758055213336 0.014150743748919684 0 0.00022503835982428972 0.014148508388965125 0 0.00018701599095725631 0.014167239066945191 0 0.00066840246205777552 0.013396583676659463 0 0.00048795491510277125 0.013238855950147644 0 0.00022503835982428972 0.014148508388965125 0 0.00018701599095725631 0.014167239066945191 0 0.00016571188025663451 0.014191803329242528 0 0.00074405749339929127 0.011533401246114162 0 0.00076569823954897255 0.011635318931312906 0 0.00085503666896229343 0.011511943337143686 0 0.00017360447773843987 0.013837923321129677 0 0.00048795491510277125 0.013238855950147644 0 0.00017823006862196359 0.014131367351580429 0 0.00018701599095725631 0.014167239066945191 0 0.00014316250383441845 0.014141995436964393 0 0.00014316250383441845 0.014141995436964393 0 0.00010036829999607094 0.014268374187517249 0 0.00015946192289863865 0.014210796891049921 0 0.00032884322723162387 0.013626580398053962 0 0.00048795491510277125 0.013238855950147644 0 0.00036828271384118039 0.013416280811243254 0 0.00057285043706606332 0.013229384052741716 0 0.00041415589907944927 0.01346349064784102 0 0.00084934736492644136 0.011429323252790675 0 0.00085503666896229343 0.011511943337143686 0 0.00091828958895626991 0.011412876450374785 0 0.00048795491510277125 0.013238855950147644 0 0.00042396923711194413 0.012803038594463721 0 0.00032884322723162387 0.013626580398053962 0 0.00042396923711194413 0.012803038594463721 0 0.00074405749339929127 0.011533401246114162 0 0.00079543519337380269 0.011464022283878971 0 0.00085503666896229343 0.011511943337143686 0 0.00073196084390338124 0.011438799034840706 0 0.00079543519337380269 0.011464022283878971 0 0.00078537082813390073 0.011372288889830372 0 0.00084934736492644136 0.011429323252790675 0 0.00079543519337380269 0.011464022283878971 0 0.00078537082813390073 0.011372288889830372 0 0.00084934736492644136 0.011429323252790675 0 0.00079543519337380269 0.011464022283878971 0 0.00085503666896229343 0.011511943337143686 0 6.5248501002060011e-05 0.013995701932673655 0 7.8195825896420866e-05 0.014146001386639233 0 3.7107181424266746e-05 0.014105700502875448 0 4.8516928555368569e-05 0.013845223283212865 0 0.00027830294860493686 0.01408682600161373 0 0.00013486107466117891 0.013765647061278792 0 -0.00024743675334774678 0.014776649672856183 0 -0.00023326734757078468 0.01474859509794388 0 -0.00026546442258338233 0.014732935421879987 0 0.00032884322723162387 0.013626580398053962 0 3.6942801424801989e-05 0.01431247917007762 0 3.6942801424801989e-05 0.01431247917007762 0 0.00025643022726472216 0.01369925541145799 0 -0.00024743675334774678 0.014776649672856183 0 -0.00023326734757078468 0.01474859509794388 0 -0.00020454898955826468 0.014762885972358405 0 0.00019465895509634894 0.014037932883485604 0 7.4927065810047051e-05 0.014150666230459309 0 2.3879489314462646e-05 0.014045544986021678 0 -0.00023326734757078468 0.01474859509794388 0 -0.00025918482828815229 0.014727416798083967 0 -0.00017969137102758696 0.014730149734199413 0 0.00033923922373237493 0.012960709110042884 0 0.00042930579100951055 0.012905280158718306 0 0.00042518027947872298 0.012550441322139245 0 0.00041776367908807167 0.012532627020581633 0 0.00045385423514130607 0.012505959647994874 0 0.00039603825620926092 0.013279602915814917 0 0.00043992631374344696 0.013301563822881522 0 0.00027306095512801291 0.013554846989509801 0 0.00015981832245629926 0.01368420262322056 0 0.00016676083306819343 0.01376285310366596 0 0.00015981832245629926 0.01368420262322056 0 -9.7654461039545188e-05 0.014513163203853454 0 0.00039603825620926092 0.013279602915814917 0 0.00027306095512801291 0.013554846989509801 0 0.0001899421116360351 0.013471816841269753 0 -0.00023326734757078468 0.01474859509794388 0 -0.00025918482828815229 0.014727416798083967 0 -0.00026546442258338233 0.014732935421879987 0 0.00020763691514201415 0.01351984846954167 0 0.00042468480012237112 0.013320119057157482 0 0.00051255805934139246 0.013513416577409227 0 0.00015981832245629926 0.01368420262322056 0 0.00029449523421819159 0.013303125210781272 0 0.00025643022726472216 0.01369925541145799 0 0.00029449523421819159 0.013303125210781272 0 0.00019149799645889353 0.013195518984701664 0 0.00024681587511473534 0.013316906710157837 0 0.00033289247307125236 0.013189247877429269 0 0.00015981832245629926 0.01368420262322056 0 0.00025643022726472216 0.01369925541145799 0 0.00039603825620926092 0.013279602915814917 0 0.00042931333673414742 0.013278629825541909 0 0.00043992631374344696 0.013301563822881522 0 0.00084934736492644136 0.011429323252790675 0 0.00078537082813390073 0.011372288889830372 0 0.00088786347423061931 0.011379303812401162 0 0.00082113910892224289 0.011863594128894667 0 0.00057543925810591941 0.012307190002213707 0 0.00076909669738053964 0.011231223086891107 0 0.00078537082813390073 0.011372288889830372 0 0.00088774516876413191 0.011373870190418325 0 0.00084934736492644136 0.011429323252790675 0 0.00088786347423061931 0.011379303812401162 0 0.00091828958895626991 0.011412876450374785 0 0.00045248516063693217 0.012882378384553236 0 0.0005920278823204506 0.012772514698286224 0 0.00039907497078222671 0.012346471104209326 0 0.00073239655826820202 0.012153518590152224 0 0.00090136483225629642 0.012150850189447443 0 0.00085603058367499628 0.011684353008234435 0 0.00057543925810591941 0.012307190002213707 0 0.00042396923711194413 0.012803038594463721 0 0.00053052286016795885 0.012525542620585976 0 0.00052944606893335884 0.012525078563287636 0 0.00052912602309163536 0.012525994806519955 0 0.00057543925810591941 0.012307190002213707 0 0.00046281079603950652 0.01275305498271841 0 0.00032884322723162387 0.013626580398053962 0 0.00025643022726472216 0.01369925541145799 0 0.00041990318627599664 0.01298523204974812 0 0.00019149799645889353 0.013195518984701664 0 0.00033289247307125236 0.013189247877429269 0 0.00041990318627599664 0.01298523204974812 0 0.00033289247307125236 0.013189247877429269 0 0.00053817097986937133 0.01310727259892807 0 0.00033289247307125236 0.013189247877429269 0 0.00053817097986937133 0.01310727259892807 0 0.00048431114704580215 0.013311481462300602 0 0.00042396923711194413 0.012803038594463721 0 0.00046281079603950652 0.01275305498271841 0 0.00024681587511473534 0.013316906710157837 0 0.00033289247307125236 0.013189247877429269 0 0.00048431114704580215 0.013311481462300602 0 0.00029449523421819159 0.013303125210781272 0 0.00046281079603950652 0.01275305498271841 0 0.00046281079603950652 0.01275305498271841 0 0.00033923922373237493 0.012960709110042884 0 0.00014107177949109064 0.01300383733524775 0 0.00037058863504357863 0.012998662878358002 0 0.00019981595319591334 0.013133002643856764 0 0.00029449523421819159 0.013303125210781272 0 0.00033923922373237493 0.012960709110042884 0 0.00046281079603950652 0.01275305498271841 0 0.00052883132091648176 0.012207420927606839 0 0.00033923922373237493 0.012960709110042884 0 0.00052883132091648176 0.012207420927606839 0 0.0007095829749020206 0.011040328516016084 0 0.00057543925810591941 0.012307190002213707 0 0.00019838387633378806 0.011594249316002947 0 0.00073239655826820202 0.012153518590152224 0 0.00085603058367499628 0.011684353008234435 0 0.00052883132091648176 0.012207420927606839 0 0.00061799320066064441 0.010567763647380534 0 0.00071771094443514108 0.012095542172847145 0 0.00034899217568638602 0.011281517612092415 0 0.00064388387075522361 0.011359657038114286 0 0.0007095829749020206 0.011040328516016084 0 0.00061799320066064441 0.010567763647380534 0 0.00019838387633378806 0.011594249316002947 0 0.00085603058367499628 0.011684353008234435 0 0.00046276564025755055 0.010810036838588794 0 0.00052883132091648176 0.012207420927606839 0 0.000552443280198672 0.012076907474323424 0 0.0004151888924928268 0.012494711563547029 0 0.00045385423514130607 0.012505959647994874 0 0.00044737492996784649 0.012470195236286024 0 0.00041776367908807167 0.012532627020581633 0 0.0004151888924928268 0.012494711563547029 0 0.00045385423514130607 0.012505959647994874 0 0.00044737492996784649 0.012470195236286024 0 0.00041250566589377498 0.012457028126954687 0 0.00045707723299906949 0.012435932365664851 0 0.00066976747350674514 0.00969841238494208 0 0.00061799320066064441 0.010567763647380534 0 0.00061649675032713019 0.0097361423995175698 0 0.00063423636338243963 0.0098042756898215119 0 0.00064774333700299842 0.0097518996400555204 0 0.0004151888924928268 0.012494711563547029 0 0.00044737492996784649 0.012470195236286024 0 0.00041250566589377498 0.012457028126954687 0 0.00061799320066064441 0.010567763647380534 0 0.0006108026894851605 0.010600118297620694 0 0.00034899217568638602 0.011281517612092415 0 0.00064388387075522361 0.011359657038114286 0 0.00056900810598400312 0.010624517274983604 0 0.000552443280198672 0.012076907474323424 0 0.0006108026894851605 0.010600118297620694 0 8.3894085638384486e-06 0.014279496310443994 0 -8.9716735735033328e-05 0.014865631424437115 0 9.0284885348768817e-05 0.014505760914099391 0 -8.44736263643848e-05 0.014548184743888018 0 -0.00013365138951007403 0.014715165392847054 0 -1.1010742180248978e-05 0.014773316327758138 0 -1.6956094870212389e-05 0.014815263043812376 0 -7.3797251361293228e-05 0.01484575606059443 0 -1.1010742180248978e-05 0.014773316327758138 0 -1.6956094870212389e-05 0.014815263043812376 0 1.8205343355724948e-05 0.014809561741268152 0 0.00045385423514130607 0.012505959647994874 0 0.00044737492996784649 0.012470195236286024 0 0.00048011208568547156 0.012470815462288422 0 0.00042930579100951055 0.012905280158718306 0 0.00013952024263032674 0.013787948427168526 0 0.00027306095512801291 0.013554846989509801 0 -2.0549590806186013e-05 0.013668873551478358 0 0.00010177783810500441 0.01381449996374319 0 8.3894085638384486e-06 0.014279496310443994 0 0.00013952024263032674 0.013787948427168526 0 8.3894085638384486e-06 0.014279496310443994 0 0.00016676083306819343 0.01376285310366596 0 0.00027306095512801291 0.013554846989509801 0 -2.0549590806186013e-05 0.013668873551478358 0 0.0001899421116360351 0.013471816841269753 0 -4.4023707908038661e-05 0.014262318955698558 0 7.4927065810047051e-05 0.014150666230459309 0 -9.5543815551461301e-05 0.014201207160415532 0 9.0284885348768817e-05 0.014505760914099391 0 1.6652146951027758e-05 0.01441724822994688 0 -8.44736263643848e-05 0.014548184743888018 0 8.3894085638384486e-06 0.014279496310443994 0 1.0918423887852579e-06 0.014443514706091412 0 1.0918423887852579e-06 0.014443514706091412 0 -6.2632371487051359e-05 0.014642388065786497 0 -5.2509641040344195e-05 0.01451601327996619 0 -5.2135376814808761e-05 0.0145771409864426 0 -3.5420047971163599e-06 0.014576774820804675 0 -5.2509641040344195e-05 0.01451601327996619 0 -5.2135376814808761e-05 0.0145771409864426 0 -0.00010076171703314657 0.014577656306393169 0 -0.00010364614664494135 0.014657588799617656 0 -9.7654461039545188e-05 0.014513163203853454 0 1.0918423887852579e-06 0.014443514706091412 0 -9.7654461039545188e-05 0.014513163203853454 0 7.4927065810047051e-05 0.014150666230459309 0 -9.5543815551461301e-05 0.014201207160415532 0 2.3879489314462646e-05 0.014045544986021678 0 -0.00018410705578194843 0.014852850353965882 0 -0.00020454898955826468 0.014762885972358405 0 -0.00016631712517385739 0.014781509035521887 0 -0.00018410705578194843 0.014852850353965882 0 -0.00024743675334774678 0.014776649672856183 0 -0.00020454898955826468 0.014762885972358405 0 -0.00023326734757078468 0.01474859509794388 0 -0.00017969137102758696 0.014730149734199413 0 -0.00020454898955826468 0.014762885972358405 0 -9.7654461039545188e-05 0.014513163203853454 0 -0.00023542202652680462 0.014760673014791907 0 -0.00018684487039234869 0.014742371007973928 0 -0.00020454898955826468 0.014762885972358405 0 -0.00016631712517385739 0.014781509035521887 0 -0.00013908856936069845 0.01474324278949977 0 -0.00012659137123395743 0.014800095392461294 0 -0.00016631712517385739 0.014781509035521887 0 -0.00013908856936069845 0.01474324278949977 0 -0.00018684487039234869 0.014742371007973928 0 -0.00016631712517385739 0.014781509035521887 0 -0.00013908856936069845 0.01474324278949977 0 -0.00012659137123395743 0.014800095392461294 0 -0.00010277061375224292 0.01476574748276856 0 -0.00012307978688107582 0.014792720967179722 0 -3.6946407077567871e-05 0.014801991845407654 0 -0.00010277061375224292 0.01476574748276856 0 -2.892948325937075e-05 0.014771315063154532 0 -7.8230572749131015e-05 0.014749801048723298 0 -0.00012659137123395743 0.014800095392461294 0 -4.987546796931369e-05 0.014783906617969416 0 -8.6618643731738897e-05 0.014824625559666248 0 -0.00012659137123395743 0.014800095392461294 0 -0.00010277061375224292 0.01476574748276856 0 -2.892948325937075e-05 0.014771315063154532 0 -5.2163077087484164e-05 0.01480558084201943 0 -3.4337942586200796e-05 0.014829285593328681 0 -5.801670976353738e-05 0.014851965040890024 0 -3.6946407077567871e-05 0.014801991845407654 0 -5.9353800653695618e-05 0.014845478626411524 0 -5.6627463867291548e-05 0.014688607948639364 0 -3.8027448519866111e-05 0.014687539895760972 0 -4.5282423221831832e-05 0.014706288747142535 0 -3.6538894121670727e-05 0.014769241449626901 0 -4.0640838779648437e-05 0.014689138233215672 0 -2.6195993560892104e-05 0.014740807200576758 0 -7.8230572749131015e-05 0.014749801048723298 0 -8.4812113243057605e-05 0.014741772741620076 0 -3.6946407077567871e-05 0.014801991845407654 0 -3.6538894121670727e-05 0.014769241449626901 0 -2.892948325937075e-05 0.014771315063154532 0 -2.6195993560892104e-05 0.014740807200576758 0 -7.8230572749131015e-05 0.014749801048723298 0 1.0918423887852579e-06 0.014443514706091412 0 -4.0640838779648437e-05 0.014689138233215672 0 -0.00013908856936069845 0.01474324278949977 0 -0.00010277061375224292 0.01476574748276856 0 -8.4937944691661124e-05 0.014741999292369318 0 -0.00010364614664494135 0.014657588799617656 0 -4.0640838779648437e-05 0.014689138233215672 0 -0.00010277061375224292 0.01476574748276856 0 -7.8230572749131015e-05 0.014749801048723298 0 -8.4937944691661124e-05 0.014741999292369318 0 -4.1452705703471844e-05 0.01469701329388178 0 -4.0640838779648437e-05 0.014689138233215672 0 -1.9509669448293301e-05 0.014708169897104885 0 -3.8027448519866111e-05 0.014687539895760972 0 -3.4371384593777628e-05 0.014709369563240761 0 -3.8027448519866111e-05 0.014687539895760972 0 -3.4371384593777628e-05 0.014709369563240761 0 -4.5282423221831832e-05 0.014706288747142535 0 -1.9509669448293301e-05 0.014708169897104885 0 -3.4371384593777628e-05 0.014709369563240761 0 -2.9992598796942684e-05 0.014722914463317395 0 -3.4371384593777628e-05 0.014709369563240761 0 -4.5282423221831832e-05 0.014706288747142535 0 -4.4381442213048143e-05 0.014720526050811486 0 -5.6627463867291548e-05 0.014688607948639364 0 -4.5282423221831832e-05 0.014706288747142535 0 -5.9794941151031807e-05 0.014720833098426299 0 -3.6538894121670727e-05 0.014769241449626901 0 -3.8684559314603121e-05 0.014870524660365321 0 -4.5282423221831832e-05 0.014706288747142535 0 -4.4381442213048143e-05 0.014720526050811486 0 -5.9794941151031807e-05 0.014720833098426299 0 -3.0891783759678197e-05 0.015023106044087445 0 -2.8116223520978253e-05 0.015024974592045678 0 -2.5131411006925861e-05 0.014995445075306809 0 -5.7822488485889362e-05 0.014884095286307903 0 -7.9655928235161094e-05 0.014779631769850086 0 -3.4107154610731197e-05 0.014932375174785338 0 -2.7315311041850545e-05 0.015021432181361316 0 -5.7822488485889362e-05 0.014884095286307903 0 -6.2146218083357848e-05 0.014934855232366293 0 -4.4381442213048143e-05 0.014720526050811486 0 -5.84882848871758e-05 0.01472538995068899 0 -4.0783400227260153e-05 0.014737414079858365 0 -4.4381442213048143e-05 0.014720526050811486 0 -5.9794941151031807e-05 0.014720833098426299 0 -5.84882848871758e-05 0.01472538995068899 0 -3.8684559314603121e-05 0.014870524660365321 0 -3.4107154610731197e-05 0.014932375174785338 0 -3.8684559314603121e-05 0.014870524660365321 0 -5.7822488485889362e-05 0.014884095286307903 0 -3.6980580103368684e-05 0.014888711800556448 0 -2.8861269809050749e-05 0.014916649163860074 0 -3.8971197851592474e-05 0.014909620479200034 0 -5.7822488485889362e-05 0.014884095286307903 0 -3.4107154610731197e-05 0.014932375174785338 0 -4.4381442213048143e-05 0.014720526050811486 0 -2.9992598796942684e-05 0.014722914463317395 0 -4.0783400227260153e-05 0.014737414079858365 0 -8.44736263643848e-05 0.014548184743888018 0 -0.00013365138951007403 0.014715165392847054 0 -0.00018544573041084838 0.014679484093200133 0 -6.2632371487051359e-05 0.014642388065786497 0 -7.9655928235161094e-05 0.014779631769850086 0 -3.4371384593777628e-05 0.014709369563240761 0 -4.4381442213048143e-05 0.014720526050811486 0 -2.9992598796942684e-05 0.014722914463317395 0 -3.9789450701633284e-09 0.015000001861489356 0 -9.4013334832233292e-06 0.014999404616555639 0 -6.6419663112307737e-06 0.015003821129149041 0 -2.4729538609179728e-05 0.014979125973780184 0 -2.4487579772446836e-05 0.014976300890757431 0 -1.0178305460234745e-05 0.014986966308278719 0 -1.8639739989905749e-05 0.015003090260195367 0 -9.4013334832233292e-06 0.014999404616555639 0 -6.6419663112307737e-06 0.015003821129149041 0 -1.8639739989905749e-05 0.015003090260195367 0 -1.6478832039860588e-05 0.014998722464441875 0 -2.5131411006925861e-05 0.014995445075306809 0 -1.8639739989905749e-05 0.015003090260195367 0 -9.4013334832233292e-06 0.014999404616555639 0 -1.6478832039860588e-05 0.014998722464441875 0 -3.4107154610731197e-05 0.014932375174785338 0 -3.8021434499859505e-06 0.015000664105280741 0 -2.4729538609179728e-05 0.014979125973780184 0 -1.0178305460234745e-05 0.014986966308278719 0 -1.0527120031378453e-05 0.01499645426685416 0 -2.4729538609179728e-05 0.014979125973780184 0 -1.0527120031378453e-05 0.01499645426685416 0 -1.6700046846783772e-05 0.015003636221657965 0 -3.8684559314603121e-05 0.014870524660365321 0 -1.7618740563289531e-05 0.014919159080135788 0 -1.0178305460234745e-05 0.014986966308278719 0 -2.9065381486500868e-10 0.014999982326061678 0 -4.5176026495846589e-06 0.014998266032854835 0 -3.8021434499859505e-06 0.015000664105280741 0 -1.0398067652319907e-08 0.014999993161822173 0 -1.0178305460234745e-05 0.014986966308278719 0 -4.5176026495846589e-06 0.014998266032854835 0 -1.0527120031378453e-05 0.01499645426685416 0 -3.9789450701633284e-09 0.015000001861489356 0 -6.6419663112307737e-06 0.015003821129149041 0 -2.5939180107180036e-09 0.015000009315717077 0 -4.5176026495846589e-06 0.014998266032854835 0 -2.6255061624737222e-10 0.015000014835269396 0 -3.9640225325193596e-06 0.015002911769188105 0 -2.9065381486500868e-10 0.014999982326061678 0 -4.5176026495846589e-06 0.014998266032854835 0 -2.6255061624737222e-10 0.015000014835269396 0 -7.1452380336027148e-06 0.014977022824394396 0 -1.7618740563289531e-05 0.014919159080135788 0 -4.5176026495846589e-06 0.014998266032854835 0 -3.9640225325193596e-06 0.015002911769188105 0 -1.0527120031378453e-05 0.01499645426685416 0 -7.1452380336027148e-06 0.014977022824394396 0 -2.2864464261075245e-05 0.014900782607983712 0 -1.4016771113541499e-10 0.014999998685472075 0 -1.0340582853503301e-07 0.014999666608258529 0 -1.017982426919695e-07 0.014999681545235385 0 -9.0980419909433252e-09 0.014999975780060217 0 -7.1452380336027148e-06 0.014977022824394396 0 -1.1731250111284695e-05 0.01493814603428166 0 -1.9054078935475443e-05 0.014939948246640286 0 -1.97632353507046e-05 0.014937565715001964 0 -3.2607019812452556e-05 0.014848066872935434 0 -3.4418396348729507e-05 0.014865944427308824 0 -3.9368056536565278e-05 0.014848448663227085 0 -3.9640225325193596e-06 0.015002911769188105 0 -1.0527120031378453e-05 0.01499645426685416 0 -1.6700046846783772e-05 0.015003636221657965 0 -2.2864464261075245e-05 0.014900782607983712 0 -1.7618740563289531e-05 0.014919159080135788 0 -2.1703102514547339e-05 0.01484345238297478 0 -2.4672872378966775e-05 0.014842676319483349 0 -2.4313834345818454e-05 0.01484385374130215 0 -2.152791151455852e-05 0.014841306649499791 0 -2.1703102514547339e-05 0.01484345238297478 0 -2.4672872378966775e-05 0.014842676319483349 0 -3.6538894121670727e-05 0.014769241449626901 0 -1.7618740563289531e-05 0.014919159080135788 0 -2.3241134318042172e-05 0.014796140433297918 0 -3.4337942586200796e-05 0.014829285593328681 0 -5.5274795185479529e-06 0.014853645420359194 0 -2.2864464261075245e-05 0.014900782607983712 0 -1.8203770379339572e-06 0.014926512545646345 0 -5.2163077087484164e-05 0.01480558084201943 0 -2.3241134318042172e-05 0.014796140433297918 0 -3.4337942586200796e-05 0.014829285593328681 0 -3.6946407077567871e-05 0.014801991845407654 0 -2.2864464261075245e-05 0.014900782607983712 0 -4.4458604475824461e-07 0.014999033602185095 0 -1.017982426919695e-07 0.014999681545235385 0 -1.7558655177870297e-07 0.01499962298556785 0 -1.4016771113541499e-10 0.014999998685472075 0 -1.017982426919695e-07 0.014999681545235385 0 -1.5821649215208632e-10 0.014999999211677434 0 -1.0340582853503301e-07 0.014999666608258529 0 -4.4458604475824461e-07 0.014999033602185095 0 -1.017982426919695e-07 0.014999681545235385 0 -1.017982426919695e-07 0.014999681545235385 0 -1.5821649215208632e-10 0.014999999211677434 0 -1.7558655177870297e-07 0.01499962298556785 0 -1.5821649215208632e-10 0.014999999211677434 0 -1.7558655177870297e-07 0.01499962298556785 0 -2.4143496204245691e-11 0.014999999586931271 0 -1.8203770379339572e-06 0.014926512545646345 0 2.1750620891309129e-06 0.014961560580865858 0 -1.7558655177870297e-07 0.01499962298556785 0 -2.4143496204245691e-11 0.014999999586931271 0 -3.9798294540771891e-08 0.01499989121476639 0 -5.5274795185479529e-06 0.014853645420359194 0 -5.2348665181610295e-05 0.014911956049650897 0 7.0761869886027808e-06 0.01492518785216549 0 -5.5274795185479529e-06 0.014853645420359194 0 -5.801670976353738e-05 0.014851965040890024 0 -5.2348665181610295e-05 0.014911956049650897 0 -3.4337942586200796e-05 0.014829285593328681 0 -5.5274795185479529e-06 0.014853645420359194 0 -5.801670976353738e-05 0.014851965040890024 0 -4.987546796931369e-05 0.014783906617969416 0 -5.801670976353738e-05 0.014851965040890024 0 -8.6618643731738897e-05 0.014824625559666248 0 -0.00012659137123395743 0.014800095392461294 0 -8.6618643731738897e-05 0.014824625559666248 0 -0.00010879728473874218 0.014862230224778148 0 -5.801670976353738e-05 0.014851965040890024 0 -8.6618643731738897e-05 0.014824625559666248 0 -0.00010879728473874218 0.014862230224778148 0 -0.00010879728473874218 0.014862230224778148 0 -5.2348665181610295e-05 0.014911956049650897 0 -0.00012518573337479824 0.014918786921563414 0 -5.801670976353738e-05 0.014851965040890024 0 -0.00010879728473874218 0.014862230224778148 0 -5.2348665181610295e-05 0.014911956049650897 0 -5.2348665181610295e-05 0.014911956049650897 0 -0.00012518573337479824 0.014918786921563414 0 -6.9290542765025032e-05 0.014976903173894074 0 -5.2835457506227548e-05 0.014691977332298314 0 1.6039520133296148e-05 0.01476425612222995 0 3.1150191028654814e-05 0.014585633975499094 0 1.2432277822145938e-05 0.014474040344181274 0 9.8942997225688435e-05 0.014565488660357333 0 -5.2348665181610295e-05 0.014911956049650897 0 -6.9290542765025032e-05 0.014976903173894074 0 -2.2127973108598838e-05 0.014983919816743895 0 -2.2127973108598838e-05 0.014983919816743895 0 4.9464173608733275e-08 0.014999917368628771 0 7.0761869886027808e-06 0.01492518785216549 0 3.3975667688379746e-11 0.014999999981357086 0 -2.4143496204245691e-11 0.014999999586931271 0 -3.9798294540771891e-08 0.01499989121476639 0 2.325230509519039e-09 0.01499998701647479 0 2.1750620891309129e-06 0.014961560580865858 0 -5.2348665181610295e-05 0.014911956049650897 0 -2.2127973108598838e-05 0.014983919816743895 0 7.0761869886027808e-06 0.01492518785216549 0 0.00059449221538130292 0.0062715255889582927 0 0.00062950173065130669 0.0062515819701512657 0 0.00063100220898765018 0.0062364095154233638 0 0.00061317479426145117 0.006373600725991942 0 0.00072998723752339177 0.0067997850187291545 0 0.00059449221538130292 0.0062715255889582927 0 0.00070701303726445014 0.0062602042388108002 0 0.0007509764937711585 0.0064118047848164793 0 0.00059449221538130292 0.0062715255889582927 0 0.00070701303726445014 0.0062602042388108002 0 0.00065924857281670062 0.0062185178134422153 0 0.00070701303726445014 0.0062602042388108002 0 0.00065924857281670062 0.0062185178134422153 0 0.00081060645343112366 0.0061793016515882095 0 0.00070701303726445014 0.0062602042388108002 0 0.0007509764937711585 0.0064118047848164793 0 0.00081060645343112366 0.0061793016515882095 0 0.00018104783642458781 0.0058063239199948481 0 0.00081060645343112366 0.0061793016515882095 0 0.00052095727709223745 0.0054561737272190948 0 0.0004554952662474613 0.0060254632202555169 0 0.00076985309180403261 0.0061752077624243921 0 0.00059449221538130292 0.0062715255889582927 0 0.00065924857281670062 0.0062185178134422153 0 0.00062950173065130669 0.0062515819701512657 0 0.00065924857281670062 0.0062185178134422153 0 0.00062950173065130669 0.0062515819701512657 0 0.00063472221246934539 0.0062737925979693123 0 0.0004554952662474613 0.0060254632202555169 0 8.6400943488785633e-05 0.0058126742538532868 0 0.00062950173065130669 0.0062515819701512657 0 0.00068680571136541045 0.0062740651953795473 0 0.00063472221246934539 0.0062737925979693123 0 0.00062950173065130669 0.0062515819701512657 0 0.00067424415444174905 0.0062330259308775587 0 0.00068680571136541045 0.0062740651953795473 0 0.00073729077660817754 0.0062466499736674444 0 0.00067424415444174905 0.0062330259308775587 0 0.00068680571136541045 0.0062740651953795473 0 0.0010730459402414328 0.0071442697440461042 0 0.00088877533204546237 0.0067853120548981138 0 0.0011255829523411228 0.0073477326885612714 0 0.0011548173567722045 0.0073724440694983703 0 0.0011641330473948139 0.0074005536925710758 0 0.0010730459402414328 0.0071442697440461042 0 0.0012168044099046117 0.0075181060614332414 0 0.0012299718364624035 0.0074379831347483978 0 0.0011641330473948139 0.0074005536925710758 0 0.0012010605700936159 0.0074057305387351261 0 0.0012247157973928845 0.0074955906868625624 0 0.0012299718364624035 0.0074379831347483978 0 0.0011641330473948139 0.0074005536925710758 0 0.00062950173065130669 0.0062515819701512657 0 0.00067424415444174905 0.0062330259308775587 0 0.00063100220898765018 0.0062364095154233638 0 0.00088877533204546237 0.0067853120548981138 0 0.00072998723752339177 0.0067997850187291545 0 0.0011548173567722045 0.0073724440694983703 0 0.0011551625406009034 0.007399335070751363 0 0.0011641330473948139 0.0074005536925710758 0 0.00080006886094527452 0.0069864721795187389 0 0.00080452270428977581 0.0070846292674296872 0 0.00065955366310876983 0.0070197827331895902 0 0.00080452270428977581 0.0070846292674296872 0 0.00065955366310876983 0.0070197827331895902 0 0.00078075530094719539 0.0072950542380211284 0 0.0011551625406009034 0.007399335070751363 0 0.0011641330473948139 0.0074005536925710758 0 0.0011745650599417304 0.007397427168139915 0 0.00072998723752339177 0.0067997850187291545 0 0.001006262149819684 0.0071696922634827687 0 0.00065955366310876983 0.0070197827331895902 0 0.00078075530094719539 0.0072950542380211284 0 0.00046893809153822406 0.0071069818065674084 0 0.0012299718364624035 0.0074379831347483978 0 0.0012010605700936159 0.0074057305387351261 0 0.0012274029717838243 0.0073788439279874416 0 0.0012010605700936159 0.0074057305387351261 0 0.0011745650599417304 0.007397427168139915 0 0.0012274029717838243 0.0073788439279874416 0 0.0011641330473948139 0.0074005536925710758 0 0.0012010605700936159 0.0074057305387351261 0 0.0011745650599417304 0.007397427168139915 0 0.001006262149819684 0.0071696922634827687 0 0.0004641524154313645 0.0077916388696057859 0 0.00080636118733007757 0.0071847552340950699 0 0.0004641524154313645 0.0077916388696057859 0 0.00078075530094719539 0.0072950542380211284 0 0.00078915296932123861 0.0075573665747369016 0 0.00078701501805137112 0.0076031276822416229 0 0.00080452270428977581 0.0070846292674296872 0 0.00078075530094719539 0.0072950542380211284 0 0.0008321910045900996 0.0070755466304518099 0 0.00078075530094719539 0.0072950542380211284 0 0.0008321910045900996 0.0070755466304518099 0 0.00083830906831521999 0.0071225508605847702 0 0.0008321910045900996 0.0070755466304518099 0 0.00079021177078621369 0.0068691854099761519 0 0.00083830906831521999 0.0071225508605847702 0 0.0008321910045900996 0.0070755466304518099 0 0.00083868907159835224 0.0070597680700159038 0 0.00079021177078621369 0.0068691854099761519 0 0.00080452270428977581 0.0070846292674296872 0 0.0008321910045900996 0.0070755466304518099 0 0.00083868907159835224 0.0070597680700159038 0 0.00067345855690364835 0.0067893839549023147 0 0.00078939952415413425 0.00688296013921217 0 0.00059449221538130292 0.0062715255889582927 0 0.00053258728300918667 0.0065702268415230745 0 0.0007509764937711585 0.0064118047848164793 0 0.00059449221538130292 0.0062715255889582927 0 0.00034662685930356981 0.0063750465411416225 0 0.00053258728300918667 0.0065702268415230745 0 0.00072998723752339177 0.0067997850187291545 0 0.00067345855690364835 0.0067893839549023147 0 0.00080006886094527452 0.0069864721795187389 0 0.00080452270428977581 0.0070846292674296872 0 0.00083868907159835224 0.0070597680700159038 0 0.00053258728300918667 0.0065702268415230745 0 0.0007509764937711585 0.0064118047848164793 0 0.00079021177078621369 0.0068691854099761519 0 0.0007509764937711585 0.0064118047848164793 0 0.00079021177078621369 0.0068691854099761519 0 0.00093653592902670697 0.0065806215173872485 0 0.00079021177078621369 0.0068691854099761519 0 0.00094630699718602999 0.0068333804420459268 0 0.00093653592902670697 0.0065806215173872485 0 0.00079021177078621369 0.0068691854099761519 0 0.0008883371816657005 0.0069933925851309534 0 0.00083830906831521999 0.0071225508605847702 0 0.00079021177078621369 0.0068691854099761519 0 0.00094630699718602999 0.0068333804420459268 0 0.0008883371816657005 0.0069933925851309534 0 0.00094630699718602999 0.0068333804420459268 0 0.0011236691392325535 0.0067285620443259435 0 0.0010149245795306359 0.0069904497162129094 0 0.00094630699718602999 0.0068333804420459268 0 0.0011236691392325535 0.0067285620443259435 0 0.00093653592902670697 0.0065806215173872485 0 0.0011236691392325535 0.0067285620443259435 0 0.0012728167064974536 0.0066004161269158272 0 0.0011162430452136361 0.0064536480752954697 0 0.0011236691392325535 0.0067285620443259435 0 0.0012728167064974536 0.0066004161269158272 0 0.0012953352761751755 0.006761713838374153 0 0.0011162430452136361 0.0064536480752954697 0 0.0013500524451264815 0.0064028173984760515 0 0.0011750221939175074 0.0061333171224637172 0 0.0012728167064974536 0.0066004161269158272 0 0.0011162430452136361 0.0064536480752954697 0 0.0013500524451264815 0.0064028173984760515 0 0.0011236691392325535 0.0067285620443259435 0 0.0011162430452136361 0.0064536480752954697 0 0.00093653592902670697 0.0065806215173872485 0 0.0007509764937711585 0.0064118047848164793 0 0.00093653592902670697 0.0065806215173872485 0 0.00081060645343112366 0.0061793016515882095 0 0.0011162430452136361 0.0064536480752954697 0 0.00093653592902670697 0.0065806215173872485 0 0.00081060645343112366 0.0061793016515882095 0 0.0016456519401980196 0.0065127993468866259 0 0.0014645786521941158 0.0066237545562746547 0 0.0015709463521367329 0.0063454520950362338 0 0.0017586891445828098 0.006289695065074135 0 0.0016456519401980196 0.0065127993468866259 0 0.0015709463521367329 0.0063454520950362338 0 0.0012728167064974536 0.0066004161269158272 0 0.0014645786521941158 0.0066237545562746547 0 0.0013500524451264815 0.0064028173984760515 0 0.0014645786521941158 0.0066237545562746547 0 0.0013500524451264815 0.0064028173984760515 0 0.0015709463521367329 0.0063454520950362338 0 0.0012728167064974536 0.0066004161269158272 0 0.0014645786521941158 0.0066237545562746547 0 0.0012953352761751755 0.006761713838374153 0 0.0013500524451264815 0.0064028173984760515 0 0.0015709463521367329 0.0063454520950362338 0 0.0014830912938002554 0.0060681749885345198 0 0.0016900276103099657 0.0061099872346295197 0 0.0015709463521367329 0.0063454520950362338 0 0.0014830912938002554 0.0060681749885345198 0 0.0017586891445828098 0.006289695065074135 0 0.0016900276103099657 0.0061099872346295197 0 0.0015709463521367329 0.0063454520950362338 0 0.0016900276103099657 0.0061099872346295197 0 0.0017396760785633959 0.0057527478943510879 0 0.0014830912938002554 0.0060681749885345198 0 0.0014830912938002554 0.0060681749885345198 0 0.0012876102677793868 0.0057435287965589389 0 0.0011750221939175074 0.0061333171224637172 0 0.0013500524451264815 0.0064028173984760515 0 0.0014830912938002554 0.0060681749885345198 0 0.0011750221939175074 0.0061333171224637172 0 0.0017396760785633959 0.0057527478943510879 0 0.0014830912938002554 0.0060681749885345198 0 0.0012876102677793868 0.0057435287965589389 0 0.0017396760785633959 0.0057527478943510879 0 0.0012876102677793868 0.0057435287965589389 0 0.0014629513486366995 0.0053959625535988497 0 0.00081060645343112366 0.0061793016515882095 0 0.0011750221939175074 0.0061333171224637172 0 0.00096342390828060636 0.0056581365681081562 0 0.0011162430452136361 0.0064536480752954697 0 0.00081060645343112366 0.0061793016515882095 0 0.0011750221939175074 0.0061333171224637172 0 0.0012876102677793868 0.0057435287965589389 0 0.0011750221939175074 0.0061333171224637172 0 0.00096342390828060636 0.0056581365681081562 0 0.00081060645343112366 0.0061793016515882095 0 0.00096342390828060636 0.0056581365681081562 0 0.00052095727709223745 0.0054561737272190948 0 0.00096342390828060636 0.0056581365681081562 0 0.00052095727709223745 0.0054561737272190948 0 0.0007739272829847772 0.005144293723447416 0 0.0012876102677793868 0.0057435287965589389 0 0.00096342390828060636 0.0056581365681081562 0 0.0011519824541417691 0.0052923023069405828 0 0.00096342390828060636 0.0056581365681081562 0 0.0007739272829847772 0.005144293723447416 0 0.0011519824541417691 0.0052923023069405828 0 0.0007739272829847772 0.005144293723447416 0 0.0011519824541417691 0.0052923023069405828 0 0.001016382238489992 0.0048437196573314009 0 0.0007739272829847772 0.005144293723447416 0 0.00066554027936092941 0.0047095539257706069 0 0.001016382238489992 0.0048437196573314009 0 0.0007739272829847772 0.005144293723447416 0 0.00066554027936092941 0.0047095539257706069 0 0.0003836442082707516 0.0050029810971975452 0 0.00052095727709223745 0.0054561737272190948 0 0.0007739272829847772 0.005144293723447416 0 0.0003836442082707516 0.0050029810971975452 0 0.0017396760785633959 0.0057527478943510879 0 0.0017134574299241254 0.0051472200711906177 0 0.0014629513486366995 0.0053959625535988497 0 0.0012876102677793868 0.0057435287965589389 0 0.0014629513486366995 0.0053959625535988497 0 0.0011519824541417691 0.0052923023069405828 0 0.0011519824541417691 0.0052923023069405828 0 0.00138417139111191 0.0049310484854793828 0 0.001016382238489992 0.0048437196573314009 0 0.0014629513486366995 0.0053959625535988497 0 0.0011519824541417691 0.0052923023069405828 0 0.00138417139111191 0.0049310484854793828 0 0.0017134574299241254 0.0051472200711906177 0 0.0014629513486366995 0.0053959625535988497 0 0.00138417139111191 0.0049310484854793828 0 0.0017134574299241254 0.0051472200711906177 0 0.00138417139111191 0.0049310484854793828 0 0.0016436040131688244 0.0045605781849688302 0 0.00138417139111191 0.0049310484854793828 0 0.0016436040131688244 0.0045605781849688302 0 0.0012819074085850147 0.0044563579108148508 0 0.0012819074085850147 0.0044563579108148508 0 0.001016382238489992 0.0048437196573314009 0 0.00095238650473324353 0.0044724352833674097 0 0.00138417139111191 0.0049310484854793828 0 0.0012819074085850147 0.0044563579108148508 0 0.001016382238489992 0.0048437196573314009 0 0.0015956168891542129 0.0040022856218437566 0 0.0011202912266171695 0.0039560864791287481 0 0.0012819074085850147 0.0044563579108148508 0 0.0011202912266171695 0.0039560864791287481 0 0.0012819074085850147 0.0044563579108148508 0 0.00095238650473324353 0.0044724352833674097 0 0.0015956168891542129 0.0040022856218437566 0 0.0016436040131688244 0.0045605781849688302 0 0.0012819074085850147 0.0044563579108148508 0 0.00066554027936092941 0.0047095539257706069 0 0.00030120979320072785 0.0045040626786413962 0 0.0003836442082707516 0.0050029810971975452 0 0.00066554027936092941 0.0047095539257706069 0 0.001016382238489992 0.0048437196573314009 0 0.00095238650473324353 0.0044724352833674097 0 0.0011202912266171695 0.0039560864791287481 0 0.00095238650473324353 0.0044724352833674097 0 0.00066952195623496216 0.0042384348349664746 0 0.00066554027936092941 0.0047095539257706069 0 0.00095238650473324353 0.0044724352833674097 0 0.00066952195623496216 0.0042384348349664746 0 0.00022498666775506342 0.0038874662777721924 0 0.00066952195623496216 0.0042384348349664746 0 0.00030120979320072785 0.0045040626786413962 0 0.00066554027936092941 0.0047095539257706069 0 0.00066952195623496216 0.0042384348349664746 0 0.00030120979320072785 0.0045040626786413962 0 0.00022498666775506342 0.0038874662777721924 0 -8.600967118735813e-05 0.0042973304731291342 0 0.00030120979320072785 0.0045040626786413962 0 0.00033251288184918149 0.005372901087009007 0 0.0001454548252122609 0.0055522192912925159 0 -8.600967118735813e-05 0.0042973304731291342 0 -1.3783089752620724e-05 0.0048074398389852937 0 -0.00040644199652980443 0.0047137681520181291 0 -1.3783089752620724e-05 0.0048074398389852937 0 -0.00036861181072114004 0.0050832062233036532 0 -0.00040644199652980443 0.0047137681520181291 0 -8.600967118735813e-05 0.0042973304731291342 0 -1.3783089752620724e-05 0.0048074398389852937 0 0.00030120979320072785 0.0045040626786413962 0 -1.3783089752620724e-05 0.0048074398389852937 0 0.00030120979320072785 0.0045040626786413962 0 0.0003836442082707516 0.0050029810971975452 0 -1.3783089752620724e-05 0.0048074398389852937 0 0.0003836442082707516 0.0050029810971975452 0 9.5181301201964123e-05 0.0053486504133312112 0 -1.3783089752620724e-05 0.0048074398389852937 0 9.5181301201964123e-05 0.0053486504133312112 0 -0.00036861181072114004 0.0050832062233036532 0 0.00018104783642458781 0.0058063239199948481 0 9.5181301201964123e-05 0.0053486504133312112 0 -0.00028999061685617417 0.0054519642122483761 0 9.5181301201964123e-05 0.0053486504133312112 0 -0.00028999061685617417 0.0054519642122483761 0 -0.00036861181072114004 0.0050832062233036532 0 0.00052095727709223745 0.0054561737272190948 0 0.0003836442082707516 0.0050029810971975452 0 9.5181301201964123e-05 0.0053486504133312112 0 0.00018104783642458781 0.0058063239199948481 0 0.00052095727709223745 0.0054561737272190948 0 9.5181301201964123e-05 0.0053486504133312112 0 0.00074806779008893486 0.0063185165550635955 0 0.00068680571136541045 0.0062740651953795473 0 0.00071397444558073781 0.0063473534582083229 0 0.00073729077660817754 0.0062466499736674444 0 0.00074806779008893486 0.0063185165550635955 0 0.00068680571136541045 0.0062740651953795473 0 8.6400943488785633e-05 0.0058126742538532868 0 0.00043927915851277619 0.0059337551374940593 0 0.00068680571136541045 0.0062740651953795473 0 0.00063472221246934539 0.0062737925979693123 0 0.00071397444558073781 0.0063473534582083229 0 -0.00028999061685617417 0.0054519642122483761 0 -0.00036861181072114004 0.0050832062233036532 0 -0.00072806409493069953 0.0051322257458420815 0 0.00043927915851277619 0.0059337551374940593 0 0.0001454548252122609 0.0055522192912925159 0 -0.00036861181072114004 0.0050832062233036532 0 -0.00072806409493069953 0.0051322257458420815 0 -0.00040644199652980443 0.0047137681520181291 0 0.00081860911578563193 0.006357673172878304 0 0.00083367729257804643 0.006407283189088067 0 0.00087475570788308977 0.006410261466608458 0 0.00074806779008893486 0.0063185165550635955 0 0.00072279286414112735 0.0063524812771395293 0 0.00083769643642988959 0.0063245931559625336 0 0.00056247342193207442 0.0061923410790900597 0 0.00043927915851277619 0.0059337551374940593 0 0.00081860911578563193 0.006357673172878304 0 0.00083367729257804643 0.006407283189088067 0 0.00077975247707360391 0.006405489005831628 0 0.00083367729257804643 0.006407283189088067 0 0.00083652752071268347 0.0064495975896049652 0 0.00086371322771802879 0.0064389225766546621 0 0.00083367729257804643 0.006407283189088067 0 0.00077975247707360391 0.006405489005831628 0 0.00079639247143950119 0.0064446120814404895 0 0.0007437285115649572 0.0064541940674421455 0 0.00077975247707360391 0.006405489005831628 0 0.00079639247143950119 0.0064446120814404895 0 0.00080418753794063013 0.0064890837530586004 0 0.0007437285115649572 0.0064541940674421455 0 0.00079639247143950119 0.0064446120814404895 0 0.00087056517172173862 0.0064842272857257733 0 0.00080418753794063013 0.0064890837530586004 0 0.00083652752071268347 0.0064495975896049652 0 0.00083367729257804643 0.006407283189088067 0 0.00079639247143950119 0.0064446120814404895 0 0.00083652752071268347 0.0064495975896049652 0 0.00080418753794063013 0.0064890837530586004 0 0.00079639247143950119 0.0064446120814404895 0 0.00083652752071268347 0.0064495975896049652 0 0.00087056517172173862 0.0064842272857257733 0 0.00083652752071268347 0.0064495975896049652 0 0.00086371322771802879 0.0064389225766546621 0 0.00087056517172173862 0.0064842272857257733 0 0.00090461490792795383 0.0064522531996070468 0 0.00086371322771802879 0.0064389225766546621 0 0.00090461490792795383 0.0064522531996070468 0 0.00086371322771802879 0.0064389225766546621 0 0.00087475570788308977 0.006410261466608458 0 0.00083367729257804643 0.006407283189088067 0 0.00086371322771802879 0.0064389225766546621 0 0.00087475570788308977 0.006410261466608458 0 0.00090461490792795383 0.0064522531996070468 0 0.00087475570788308977 0.006410261466608458 0 0.00092561547452397976 0.0064094121434749964 0 0.0013569998237123076 0.0075460892081491123 0 0.001373619642917708 0.0075355140102761776 0 0.0013585613764186847 0.0075443052133736073 0 0.00090461490792795383 0.0064522531996070468 0 0.00092561547452397976 0.0064094121434749964 0 0.00098961597724441051 0.0064689449235499985 0 0.00114656611352733 0.006987580246475251 0 0.0011971713157135746 0.0069775288467444898 0 0.00091176906433033543 0.0065205489730427698 0 0.00090461490792795383 0.0064522531996070468 0 0.00098961597724441051 0.0064689449235499985 0 0.0014097131817292802 0.0074972987818282162 0 0.0013612509148711979 0.0075090842265211743 0 0.0013651803246799883 0.0075442033747001461 0 0.0013612509148711979 0.0075090842265211743 0 0.0013481209911298483 0.007550950505967143 0 0.0013651803246799883 0.0075442033747001461 0 0.0013612509148711979 0.0075090842265211743 0 0.0013481209911298483 0.007550950505967143 0 0.0013295789374166607 0.0075461989357456629 0 0.0013481209911298483 0.007550950505967143 0 0.0013651803246799883 0.0075442033747001461 0 0.0013568200894585405 0.0075508023380899871 0 0.0014097131817292802 0.0074972987818282162 0 0.001373619642917708 0.0075355140102761776 0 0.0013651803246799883 0.0075442033747001461 0 0.0013569998237123076 0.0075460892081491123 0 0.0014097131817292802 0.0074972987818282162 0 0.001373619642917708 0.0075355140102761776 0 0.001373619642917708 0.0075355140102761776 0 0.0013651803246799883 0.0075442033747001461 0 0.0013585613764186847 0.0075443052133736073 0 0.0013585613764186847 0.0075443052133736073 0 0.0013570199736465316 0.0075460075869990852 0 0.0013466399535781331 0.007541395413180595 0 0.0013651803246799883 0.0075442033747001461 0 0.0013585613764186847 0.0075443052133736073 0 0.0013570199736465316 0.0075460075869990852 0 0.0013570199736465316 0.0075460075869990852 0 0.0013568200894585405 0.0075508023380899871 0 0.001350311470663536 0.0075393440330304437 0 0.0013570199736465316 0.0075460075869990852 0 0.0013466399535781331 0.007541395413180595 0 0.001350311470663536 0.0075393440330304437 0 0.0013466399535781331 0.007541395413180595 0 0.001350311470663536 0.0075393440330304437 0 0.0013381983154503233 0.0075343841716059099 0 0.0013651803246799883 0.0075442033747001461 0 0.0013570199736465316 0.0075460075869990852 0 0.0013568200894585405 0.0075508023380899871 0 0.0013563108930565975 0.007538231957300209 0 0.0013493999708024641 0.0075266021164621206 0 0.0013652889983594805 0.0075135014264230979 0 0.0013563108930565975 0.007538231957300209 0 0.0013607272728431328 0.0075480422822902489 0 0.0013652889983594805 0.0075135014264230979 0 0.0015405946548017898 0.0078052564136591026 0 0.0010244908966655787 0.0089740715622901816 0 0.0013568200894585405 0.0075508023380899871 0 0.0013563108930565975 0.007538231957300209 0 0.0013607272728431328 0.0075480422822902489 0 0.0013568200894585405 0.0075508023380899871 0 0.0013563108930565975 0.007538231957300209 0 0.001350311470663536 0.0075393440330304437 0 0.001350311470663536 0.0075393440330304437 0 0.0013390286380839927 0.0075257932053832237 0 0.0013381983154503233 0.0075343841716059099 0 0.0013563108930565975 0.007538231957300209 0 0.001350311470663536 0.0075393440330304437 0 0.0013493999708024641 0.0075266021164621206 0 0.001350311470663536 0.0075393440330304437 0 0.0013493999708024641 0.0075266021164621206 0 0.0013390286380839927 0.0075257932053832237 0 0.0013493999708024641 0.0075266021164621206 0 0.0013390286380839927 0.0075257932053832237 0 0.0013422778076017873 0.007513467830762806 0 0.0013390286380839927 0.0075257932053832237 0 0.0013221922733582896 0.0075253431826692654 0 0.0013278843919051705 0.0075112615850495487 0 0.0013221922733582896 0.0075253431826692654 0 0.0013070503907445736 0.0075097041770691682 0 0.0013278843919051705 0.0075112615850495487 0 0.0013221922733582896 0.0075253431826692654 0 0.0013381983154503233 0.0075343841716059099 0 0.0013331231037001449 0.0075375611709874351 0 0.0013390286380839927 0.0075257932053832237 0 0.0013221922733582896 0.0075253431826692654 0 0.0013381983154503233 0.0075343841716059099 0 0.0013221922733582896 0.0075253431826692654 0 0.0013181140931172732 0.0075357187268728617 0 0.0012974969490911308 0.0075234029474640909 0 0.0013221922733582896 0.0075253431826692654 0 0.0013181140931172732 0.0075357187268728617 0 0.0013331231037001449 0.0075375611709874351 0 0.0013221922733582896 0.0075253431826692654 0 0.0012974969490911308 0.0075234029474640909 0 0.0013070503907445736 0.0075097041770691682 0 0.0010730459402414328 0.0071442697440461042 0 0.0010387891599133157 0.0068726897092269753 0 0.00073729077660817754 0.0062466499736674444 0 0.00074806779008893486 0.0063185165550635955 0 0.00083769643642988959 0.0063245931559625336 0 0.0012284129851043149 0.0074620159508991335 0 0.0012974969490911308 0.0075234029474640909 0 0.0012910294252062205 0.0075404964328535003 0 0.0010730459402414328 0.0071442697440461042 0 0.0013737592262454761 0.0076285774689257993 0 0.0013181140931172732 0.0075357187268728617 0 0.0012974969490911308 0.0075234029474640909 0 0.0012910294252062205 0.0075404964328535003 0 0.00072279286414112735 0.0063524812771395293 0 0.00087475570788308977 0.006410261466608458 0 0.00083769643642988959 0.0063245931559625336 0 0.00043927915851277619 0.0059337551374940593 0 0.0010244812451346108 0.0065674978411524925 0 0.00087475570788308977 0.006410261466608458 0 0.00092561547452397976 0.0064094121434749964 0 0.00083769643642988959 0.0063245931559625336 0 0.00114656611352733 0.006987580246475251 0 0.0010387891599133157 0.0068726897092269753 0 0.0013569998237123076 0.0075460892081491123 0 0.0012910294252062205 0.0075404964328535003 0 0.0013364591807222817 0.0075416118668292943 0 0.0013569998237123076 0.0075460892081491123 0 0.0013585613764186847 0.0075443052133736073 0 0.0013364591807222817 0.0075416118668292943 0 0.0013585613764186847 0.0075443052133736073 0 0.0013466399535781331 0.007541395413180595 0 0.0013364591807222817 0.0075416118668292943 0 0.0013466399535781331 0.007541395413180595 0 0.0013364591807222817 0.0075416118668292943 0 0.0013331231037001449 0.0075375611709874351 0 0.0013466399535781331 0.007541395413180595 0 0.0013381983154503233 0.0075343841716059099 0 0.0013331231037001449 0.0075375611709874351 0 0.0013181140931172732 0.0075357187268728617 0 0.0012910294252062205 0.0075404964328535003 0 0.0013364591807222817 0.0075416118668292943 0 0.0013181140931172732 0.0075357187268728617 0 0.0013364591807222817 0.0075416118668292943 0 0.0013331231037001449 0.0075375611709874351 0 0.0013368937918048758 0.01006919346691167 0 0.0015196886602683931 0.0098675590358878011 0 0.00056972846550706403 0.0078197300624861833 0 0.00081628306476055727 0.0077969032907118617 0 0.00078828476982191248 0.0074998729553900972 0 0.00056972846550706403 0.0078197300624861833 0 0.00081628306476055727 0.0077969032907118617 0 0.0008738764896293658 0.0080130842328101307 0 0.00081628306476055727 0.0077969032907118617 0 0.001032593224228379 0.0078864245155051485 0 0.0008738764896293658 0.0080130842328101307 0 0.00081628306476055727 0.0077969032907118617 0 0.00078828476982191248 0.0074998729553900972 0 0.00098694540690581691 0.0077104842629558941 0 0.0010097136526521142 0.0074129930374702488 0 0.00078828476982191248 0.0074998729553900972 0 0.0010992527117343815 0.0075488186155181613 0 0.00078828476982191248 0.0074998729553900972 0 0.0010992527117343815 0.0075488186155181613 0 0.00098694540690581691 0.0077104842629558941 0 0.0011803838073553821 0.0074070749449997482 0 0.0010097136526521142 0.0074129930374702488 0 0.0010992527117343815 0.0075488186155181613 0 0.0010992527117343815 0.0075488186155181613 0 0.0011252627443902043 0.0077044846650477766 0 0.00098694540690581691 0.0077104842629558941 0 0.0011252627443902043 0.0077044846650477766 0 0.00098694540690581691 0.0077104842629558941 0 0.001032593224228379 0.0078864245155051485 0 0.00081628306476055727 0.0077969032907118617 0 0.00098694540690581691 0.0077104842629558941 0 0.001032593224228379 0.0078864245155051485 0 0.0011252627443902043 0.0077044846650477766 0 0.001032593224228379 0.0078864245155051485 0 0.0012172311643108527 0.0078743383234854292 0 0.0012172311643108527 0.0078743383234854292 0 0.0012594575611898045 0.007573447764553356 0 0.0014898624914111999 0.0079613186921422552 0 0.0012711430796811007 0.0075727183632457824 0 0.0014082559786662765 0.0077812217764203174 0 0.0011252627443902043 0.0077044846650477766 0 0.0012172311643108527 0.0078743383234854292 0 0.0012594575611898045 0.007573447764553356 0 0.0012594575611898045 0.007573447764553356 0 0.0012862424696346358 0.0075501076175837458 0 0.0013320455217081559 0.0075637969682476151 0 0.0010992527117343815 0.0075488186155181613 0 0.0011252627443902043 0.0077044846650477766 0 0.0012594575611898045 0.007573447764553356 0 0.0011362914042760941 0.0073947061752789329 0 0.001280441172692061 0.00754697461929805 0 0.0011803838073553821 0.0074070749449997482 0 0.0012594575611898045 0.007573447764553356 0 0.0012862424696346358 0.0075501076175837458 0 0.0011803838073553821 0.0074070749449997482 0 0.0010992527117343815 0.0075488186155181613 0 0.0012594575611898045 0.007573447764553356 0 0.0012611888255918031 0.0074604470886444766 0 0.0011577424233207474 0.0074575098824157561 0 0.0012862424696346358 0.0075501076175837458 0 0.001320369827751068 0.0074209959340726358 0 0.0013612509148711979 0.0075090842265211743 0 0.0013156853111938179 0.0075061350188437622 0 0.0012862424696346358 0.0075501076175837458 0 0.0013156853111938179 0.0075061350188437622 0 0.0013295789374166607 0.0075461989357456629 0 0.0012611888255918031 0.0074604470886444766 0 0.0012862424696346358 0.0075501076175837458 0 0.0013156853111938179 0.0075061350188437622 0 0.0013612509148711979 0.0075090842265211743 0 0.0013156853111938179 0.0075061350188437622 0 0.0013295789374166607 0.0075461989357456629 0 0.0012862424696346358 0.0075501076175837458 0 0.0013295789374166607 0.0075461989357456629 0 0.0013320455217081559 0.0075637969682476151 0 0.0013481209911298483 0.007550950505967143 0 0.0013295789374166607 0.0075461989357456629 0 0.0013320455217081559 0.0075637969682476151 0 0.0014082559786662765 0.0077812217764203174 0 0.0015405946548017898 0.0078052564136591026 0 0.0013481209911298483 0.007550950505967143 0 0.0013568200894585405 0.0075508023380899871 0 0.0013320455217081559 0.0075637969682476151 0 0.0013568200894585405 0.0075508023380899871 0 0.0013320455217081559 0.0075637969682476151 0 0.0013607272728431328 0.0075480422822902489 0 0.0014898624914111999 0.0079613186921422552 0 0.0014537283628286938 0.0082183597875537806 0 0.0016778418407782619 0.0083253165710001509 0 0.0016778418407782619 0.0083253165710001509 0 0.0015350618072888734 0.0084605474669920411 0 0.0018528739883463324 0.0086728957685121202 0 0.0014537283628286938 0.0082183597875537806 0 0.0016778418407782619 0.0083253165710001509 0 0.0015350618072888734 0.0084605474669920411 0 0.001033810551322013 0.010803240085636538 0 0.0016198479976225969 0.010818840100503144 0 0.0017024252377109853 0.011445577135103413 0 0.0013371567902776098 0.0097018383500298584 0 0.0014543952265528637 0.0098366010976068449 0 0.0014537283628286938 0.0082183597875537806 0 0.0015350618072888734 0.0084605474669920411 0 0.0011935828860100547 0.008238754417357684 0 0.0012172311643108527 0.0078743383234854292 0 0.0014898624914111999 0.0079613186921422552 0 0.0011935828860100547 0.008238754417357684 0 0.0014898624914111999 0.0079613186921422552 0 0.0014537283628286938 0.0082183597875537806 0 0.0011935828860100547 0.008238754417357684 0 0.0017024252377109853 0.011445577135103413 0 0.0020718070789157313 0.011390216647902515 0 0.0022392044088560882 0.01184239445839266 0 0.001032593224228379 0.0078864245155051485 0 0.0012172311643108527 0.0078743383234854292 0 0.0011935828860100547 0.008238754417357684 0 0.001032593224228379 0.0078864245155051485 0 0.0011935828860100547 0.008238754417357684 0 0.0008738764896293658 0.0080130842328101307 0 0.0014543952265528637 0.0098366010976068449 0 0.0015196886602683931 0.0098675590358878011 0 0.0016198479976225969 0.010818840100503144 0 0.0017024252377109853 0.011445577135103413 0 0.0020718070789157313 0.011390216647902515 0 0.0016198479976225969 0.010818840100503144 0 0.0020718070789157313 0.011390216647902515 0 0.00238012949577449 0.010684059457144216 0 0.0019710964177875024 0.012236103043755433 0 0.0022563358317899598 0.011832103088716839 0 0.0022363559384913651 0.012332362158679611 0 0.0022760488146373616 0.011780537180897038 0 0.0022596432817603841 0.011443793397207165 0 0.0020718070789157313 0.011390216647902515 0 0.0022563358317899598 0.011832103088716839 0 0.00238012949577449 0.010684059457144216 0 0.0020661892673065983 0.011872296662612762 0 0.0022563358317899598 0.011832103088716839 0 0.0022392044088560882 0.01184239445839266 0 0.0020718070789157313 0.011390216647902515 0 0.0022563358317899598 0.011832103088716839 0 0.0022392044088560882 0.01184239445839266 0 0.0020152022458320117 0.011592493562251317 0 0.0020661892673065983 0.011872296662612762 0 0.0022392044088560882 0.01184239445839266 0 0.0019846785661247835 0.012523453910757419 0 0.0022363559384913651 0.012332362158679611 0 0.0021008133577388849 0.012565938019874859 0 0.0019320635974135821 0.012404970095370898 0 0.0019846785661247835 0.012523453910757419 0 0.0022363559384913651 0.012332362158679611 0 0.0016198479976225969 0.010818840100503144 0 0.00238012949577449 0.010684059457144216 0 0.0016481809300777531 0.010115189378995955 0 0.0022596432817603841 0.011443793397207165 0 0.0022688578533051162 0.011246639325679708 0 0.0022363559384913651 0.012332362158679611 0 0.0022132770672524896 0.012522352526013121 0 0.0021008133577388849 0.012565938019874859 0 0.00238012949577449 0.010684059457144216 0 0.0021181446672863345 0.0096059449411253113 0 0.0016481809300777531 0.010115189378995955 0 0.0021181446672863345 0.0096059449411253113 0 0.001539027364289624 0.0095637836425981875 0 0.0016481809300777531 0.010115189378995955 0 0.001539027364289624 0.0095637836425981875 0 0.0012310537681255306 0.0097977679085567686 0 0.0012320340216468793 0.0093105594125555934 0 0.0016481809300777531 0.010115189378995955 0 0.0012782798574027662 0.010310525933148096 0 0.0012310537681255306 0.0097977679085567686 0 0.001539027364289624 0.0095637836425981875 0 0.0016481809300777531 0.010115189378995955 0 0.0012310537681255306 0.0097977679085567686 0 0.0016198479976225969 0.010818840100503144 0 0.0016481809300777531 0.010115189378995955 0 0.0012782798574027662 0.010310525933148096 0 0.001033810551322013 0.010803240085636538 0 0.0016198479976225969 0.010818840100503144 0 0.0012782798574027662 0.010310525933148096 0 0.001033810551322013 0.010803240085636538 0 0.00088437257109456066 0.010017847602645569 0 0.00040720932028286507 0.010193343737552167 0 0.001033810551322013 0.010803240085636538 0 0.0012782798574027662 0.010310525933148096 0 0.00088437257109456066 0.010017847602645569 0 0.0013371567902776098 0.0097018383500298584 0 0.0010244908966655787 0.0089740715622901816 0 0.00088437257109456066 0.010017847602645569 0 0.0012310537681255306 0.0097977679085567686 0 0.0009589682675662808 0.0094561304329049255 0 0.0012782798574027662 0.010310525933148096 0 0.00088437257109456066 0.010017847602645569 0 0.0012310537681255306 0.0097977679085567686 0 0.0012310537681255306 0.0097977679085567686 0 0.0009589682675662808 0.0094561304329049255 0 0.0012320340216468793 0.0093105594125555934 0 0.00088437257109456066 0.010017847602645569 0 0.0009589682675662808 0.0094561304329049255 0 0.00060173451443166907 0.0095590407942537075 0 0.0009589682675662808 0.0094561304329049255 0 0.0012320340216468793 0.0093105594125555934 0 0.00093325089977562006 0.0090352903581103761 0 0.0009589682675662808 0.0094561304329049255 0 0.00093325089977562006 0.0090352903581103761 0 0.0007503224270221404 0.0092631419819227592 0 0.0012320340216468793 0.0093105594125555934 0 0.0012103925774744409 0.008941239979996506 0 0.00093325089977562006 0.0090352903581103761 0 0.00093325089977562006 0.0090352903581103761 0 0.00094521154067287436 0.008536500130636707 0 0.00064344737329857348 0.0089483148227782403 0 0.0012103925774744409 0.008941239979996506 0 0.00093325089977562006 0.0090352903581103761 0 0.00094521154067287436 0.008536500130636707 0 0.00094521154067287436 0.008536500130636707 0 0.0013612517353016362 0.0084668238341393861 0 0.0010668374603166051 0.0082678063297501343 0 0.00094521154067287436 0.008536500130636707 0 0.0013074076379576039 0.0087081124609600536 0 0.0013612517353016362 0.0084668238341393861 0 0.0012103925774744409 0.008941239979996506 0 0.00094521154067287436 0.008536500130636707 0 0.0013074076379576039 0.0087081124609600536 0 0.0013074076379576039 0.0087081124609600536 0 0.0016203002823121531 0.0087406322619152429 0 0.0014113884402692648 0.0088888495559113316 0 0.00074533216733426084 0.0076262816587383117 0 0.00067141126515542053 0.0077747522759060465 0 0.0008242494896628671 0.0077891878695214873 0 0.0013612517353016362 0.0084668238341393861 0 0.0016813979907349876 0.0086671879789976987 0 0.001288298875787762 0.0081907464356412597 0 0.0013074076379576039 0.0087081124609600536 0 0.0013612517353016362 0.0084668238341393861 0 0.0016203002823121531 0.0087406322619152429 0 0.0013611799588259445 0.0098624838024900328 0 0.0009537148662839629 0.0077160383311362405 0 0.0013612517353016362 0.0084668238341393861 0 0.0016813979907349876 0.0086671879789976987 0 0.0016203002823121531 0.0087406322619152429 0 0.0013611799588259445 0.0098624838024900328 0 0.0015379164091839372 0.0096225556809934627 0 0.0021181446672863345 0.0096059449411253113 0 0.0017132994511348625 0.0086566144893335216 0 0.0016203002823121531 0.0087406322619152429 0 0.0021181446672863345 0.0096059449411253113 0 0.0016203002823121531 0.0087406322619152429 0 0.0015212722457202087 0.0091638567244224454 0 0.0016203002823121531 0.0087406322619152429 0 0.0014113884402692648 0.0088888495559113316 0 0.0015212722457202087 0.0091638567244224454 0 0.0012103925774744409 0.008941239979996506 0 0.0014113884402692648 0.0088888495559113316 0 0.0015212722457202087 0.0091638567244224454 0 0.0012103925774744409 0.008941239979996506 0 0.0013074076379576039 0.0087081124609600536 0 0.0014113884402692648 0.0088888495559113316 0 0.001539027364289624 0.0095637836425981875 0 0.0012320340216468793 0.0093105594125555934 0 0.0015212722457202087 0.0091638567244224454 0 0.0012320340216468793 0.0093105594125555934 0 0.0012103925774744409 0.008941239979996506 0 0.0015212722457202087 0.0091638567244224454 0 0.0021181446672863345 0.0096059449411253113 0 0.001539027364289624 0.0095637836425981875 0 0.0015212722457202087 0.0091638567244224454 0 0.0022132770672524896 0.012522352526013121 0 0.0021452049555285078 0.012683195220202299 0 0.0020897017471193276 0.012653766477868776 0 0.0022132770672524896 0.012522352526013121 0 0.0022498849632230714 0.01266829268037066 0 0.0021452049555285078 0.012683195220202299 0 0.0022688578533051162 0.011246639325679708 0 0.0013611799588259445 0.0098624838024900328 0 0.0022498849632230714 0.01266829268037066 0 0.0021452049555285078 0.012683195220202299 0 0.0020738785780000397 0.012819455790665924 0 0.0013611799588259445 0.0098624838024900328 0 0.0012893596545504077 0.010431815126802753 0 0.0021452049555285078 0.012683195220202299 0 0.002068658641210482 0.012735670876387667 0 0.0020738785780000397 0.012819455790665924 0 0.0021452049555285078 0.012683195220202299 0 0.002068658641210482 0.012735670876387667 0 0.0020897017471193276 0.012653766477868776 0 0.002068658641210482 0.012735670876387667 0 0.0019936149066226289 0.01271969626437992 0 0.002015229792832644 0.012790830942558281 0 0.002068658641210482 0.012735670876387667 0 0.0019936149066226289 0.01271969626437992 0 0.0020897017471193276 0.012653766477868776 0 0.0019796201259471729 0.012633765851206997 0 0.0019936149066226289 0.01271969626437992 0 0.0020897017471193276 0.012653766477868776 0 0.0022132770672524896 0.012522352526013121 0 0.0020897017471193276 0.012653766477868776 0 0.0021008133577388849 0.012565938019874859 0 0.0019796201259471729 0.012633765851206997 0 0.0020897017471193276 0.012653766477868776 0 0.0021008133577388849 0.012565938019874859 0 0.0019846785661247835 0.012523453910757419 0 0.0019796201259471729 0.012633765851206997 0 0.0021008133577388849 0.012565938019874859 0 0.0012855772633164841 0.0074583403794388952 0 0.0013133323973587368 0.0074830755719602071 0 0.0013379319445681155 0.0074719472490466145 0 0.0012855772633164841 0.0074583403794388952 0 0.0013379319445681155 0.0074719472490466145 0 0.0012890110363604878 0.0074232832238669963 0 3.9649711731541121e-05 0.0094121089444676679 0 -6.4464815135179798e-05 0.0090992802164884586 0 -0.00045860623959149792 0.0091186975586147433 0 0.00065034679871360654 0.0084010164255102562 0 0.00039352702902140346 0.0082823806946431006 0 0.0012299718364624035 0.0074379831347483978 0 0.0012855772633164841 0.0074583403794388952 0 0.0012826418232020609 0.0074897064976365757 0 0.0012299718364624035 0.0074379831347483978 0 0.0012855772633164841 0.0074583403794388952 0 0.0012890110363604878 0.0074232832238669963 0 0.0012247157973928845 0.0074955906868625624 0 0.0012299718364624035 0.0074379831347483978 0 0.0012826418232020609 0.0074897064976365757 0 0.0012974969490911308 0.0075234029474640909 0 0.0012826418232020609 0.0074897064976365757 0 0.0013070503907445736 0.0075097041770691682 0 0.0012247157973928845 0.0074955906868625624 0 0.0012974969490911308 0.0075234029474640909 0 0.0012826418232020609 0.0074897064976365757 0 0.0012826418232020609 0.0074897064976365757 0 0.0013070503907445736 0.0075097041770691682 0 0.0013110718157242868 0.0074995753050595077 0 0.0012855772633164841 0.0074583403794388952 0 0.0012826418232020609 0.0074897064976365757 0 0.0013133323973587368 0.0074830755719602071 0 0.0012826418232020609 0.0074897064976365757 0 0.0013110718157242868 0.0074995753050595077 0 0.0013133323973587368 0.0074830755719602071 0 0.0013110718157242868 0.0074995753050595077 0 0.0013133323973587368 0.0074830755719602071 0 0.0013363654632570548 0.0074961861013162299 0 0.0013110718157242868 0.0074995753050595077 0 0.0013278843919051705 0.0075112615850495487 0 0.0013363654632570548 0.0074961861013162299 0 0.0013070503907445736 0.0075097041770691682 0 0.0013110718157242868 0.0074995753050595077 0 0.0013278843919051705 0.0075112615850495487 0 0.0010244908966655787 0.0089740715622901816 0 0.00065034679871360654 0.0084010164255102562 0 0.0013390286380839927 0.0075257932053832237 0 0.0013278843919051705 0.0075112615850495487 0 0.0013422778076017873 0.007513467830762806 0 0.0013363654632570548 0.0074961861013162299 0 0.0013652889983594805 0.0075135014264230979 0 0.0013379319445681155 0.0074719472490466145 0 0.0013278843919051705 0.0075112615850495487 0 0.0013422778076017873 0.007513467830762806 0 0.0013363654632570548 0.0074961861013162299 0 0.0013422778076017873 0.007513467830762806 0 0.0013363654632570548 0.0074961861013162299 0 0.0013652889983594805 0.0075135014264230979 0 0.0013493999708024641 0.0075266021164621206 0 0.0013422778076017873 0.007513467830762806 0 0.0013652889983594805 0.0075135014264230979 0 0.0013133323973587368 0.0074830755719602071 0 0.0013363654632570548 0.0074961861013162299 0 0.0013379319445681155 0.0074719472490466145 0 0.00088437257109456066 0.010017847602645569 0 0.00040720932028286507 0.010193343737552167 0 0.00060173451443166907 0.0095590407942537075 0 0.0010244908966655787 0.0089740715622901816 0 0.00022778339125035024 0.0094762446809138166 0 0.00040720932028286507 0.010193343737552167 0 0.00060173451443166907 0.0095590407942537075 0 0.00017675100702359324 0.009476962104355488 0 0.00060173451443166907 0.0095590407942537075 0 0.00017675100702359324 0.009476962104355488 0 0.00047181690482351853 0.0092616249522921822 0 0.00060173451443166907 0.0095590407942537075 0 0.0007503224270221404 0.0092631419819227592 0 0.00047181690482351853 0.0092616249522921822 0 0.0009589682675662808 0.0094561304329049255 0 0.00060173451443166907 0.0095590407942537075 0 0.0007503224270221404 0.0092631419819227592 0 0.0004979307223398527 0.0096828331260169053 0 3.9649711731541121e-05 0.0094121089444676679 0 0.00023543225312316966 0.0092393781312174513 0 3.9649711731541121e-05 0.0094121089444676679 0 0.00023543225312316966 0.0092393781312174513 0 -6.4464815135179798e-05 0.0090992802164884586 0 0.00023543225312316966 0.0092393781312174513 0 -6.4464815135179798e-05 0.0090992802164884586 0 -1.7207126373082984e-05 0.0087760955288960427 0 0.00022778339125035024 0.0094762446809138166 0 -2.3287046539587823e-05 0.0088089668810280679 0 0.00017675100702359324 0.009476962104355488 0 0.00035267989462244476 0.0090127795233759835 0 -1.7207126373082984e-05 0.0087760955288960427 0 0.00017675100702359324 0.009476962104355488 0 0.00035267989462244476 0.0090127795233759835 0 0.00047181690482351853 0.0092616249522921822 0 0.00035267989462244476 0.0090127795233759835 0 -1.7207126373082984e-05 0.0087760955288960427 0 0.00051777634454232876 0.0086245213890178644 0 0.00093325089977562006 0.0090352903581103761 0 0.0007503224270221404 0.0092631419819227592 0 0.00064344737329857348 0.0089483148227782403 0 0.0007503224270221404 0.0092631419819227592 0 0.00047181690482351853 0.0092616249522921822 0 0.00064344737329857348 0.0089483148227782403 0 0.00035267989462244476 0.0090127795233759835 0 0.00047181690482351853 0.0092616249522921822 0 0.00064344737329857348 0.0089483148227782403 0 0.00035267989462244476 0.0090127795233759835 0 0.00064344737329857348 0.0089483148227782403 0 0.00051777634454232876 0.0086245213890178644 0 0.00094521154067287436 0.008536500130636707 0 0.00051777634454232876 0.0086245213890178644 0 0.00053916303435439287 0.0081072000320480606 0 0.00094521154067287436 0.008536500130636707 0 0.00053916303435439287 0.0081072000320480606 0 0.00084436529238113148 0.0080660405266568397 0 0.00094521154067287436 0.008536500130636707 0 0.00064344737329857348 0.0089483148227782403 0 0.00051777634454232876 0.0086245213890178644 0 -1.7207126373082984e-05 0.0087760955288960427 0 0.00053916303435439287 0.0081072000320480606 0 -0.00036535967013332697 0.0085183321590618713 0 0.00057524964291828286 0.0080498756447866682 0 8.1225223795992096e-05 0.0081708636697967914 0 -1.7207126373082984e-05 0.0087760955288960427 0 0.00051777634454232876 0.0086245213890178644 0 0.00053916303435439287 0.0081072000320480606 0 0.00073325025947539437 0.0076684187484703523 0 0.00078701501805137112 0.0076031276822416229 0 0.00072520932214932381 0.0078412506041841377 0 0.00053916303435439287 0.0081072000320480606 0 0.00073325025947539437 0.0076684187484703523 0 0.00072520932214932381 0.0078412506041841377 0 -6.4464815135179798e-05 0.0090992802164884586 0 -1.7207126373082984e-05 0.0087760955288960427 0 -0.00035496637917348852 0.0088576163096078398 0 -1.7207126373082984e-05 0.0087760955288960427 0 -0.00036535967013332697 0.0085183321590618713 0 -0.00035496637917348852 0.0088576163096078398 0 -6.4464815135179798e-05 0.0090992802164884586 0 -0.00035496637917348852 0.0088576163096078398 0 -0.00045860623959149792 0.0091186975586147433 0 0.0012299718364624035 0.0074379831347483978 0 0.0012890110363604878 0.0074232832238669963 0 0.0012274029717838243 0.0073788439279874416 0 -0.00036535967013332697 0.0085183321590618713 0 -0.00035496637917348852 0.0088576163096078398 0 -0.00094229335302789497 0.0088030115211571412 0 0.00039352702902140346 0.0082823806946431006 0 0.0004641524154313645 0.0077916388696057859 0 -0.00035496637917348852 0.0088576163096078398 0 -0.00045860623959149792 0.0091186975586147433 0 -0.00094229335302789497 0.0088030115211571412 0 8.1225223795992096e-05 0.0081708636697967914 0 0.0004641524154313645 0.0077916388696057859 0 0.00073325025947539437 0.0076684187484703523 0 0.00078915296932123861 0.0075573665747369016 0 0.00078701501805137112 0.0076031276822416229 0 0.00078701501805137112 0.0076031276822416229 0 0.00079373397713025976 0.0076495821385155066 0 0.00072520932214932381 0.0078412506041841377 0 0.00079373397713025976 0.0076495821385155066 0 0.00080497232218312929 0.0078675463000437255 0 0.00084320130805300478 0.0077097451129991791 0 0.00079373397713025976 0.0076495821385155066 0 0.00080497232218312929 0.0078675463000437255 0 0.00072520932214932381 0.0078412506041841377 0 0.00080497232218312929 0.0078675463000437255 0 0.00072520932214932381 0.0078412506041841377 0 0.0007324114211441807 0.0079538319099303634 0 0.00053916303435439287 0.0081072000320480606 0 0.00072520932214932381 0.0078412506041841377 0 0.0007324114211441807 0.0079538319099303634 0 0.00053916303435439287 0.0081072000320480606 0 0.00084436529238113148 0.0080660405266568397 0 0.0007324114211441807 0.0079538319099303634 0 0.00084436529238113148 0.0080660405266568397 0 0.00087586135755284261 0.0079920938788821793 0 0.0007324114211441807 0.0079538319099303634 0 0.00087586135755284261 0.0079920938788821793 0 0.0007324114211441807 0.0079538319099303634 0 0.00090722723515138722 0.0080327862582930658 0 0.00080497232218312929 0.0078675463000437255 0 0.0007324114211441807 0.0079538319099303634 0 0.00090722723515138722 0.0080327862582930658 0 0.00082462390951038879 0.0078855529668306317 0 0.00092611641279905161 0.0079592844478166593 0 0.00096552327264223022 0.0078723470498271771 0 0.0010121172207726359 0.0079149459811677213 0 0.00092277921838964814 0.0078158244552583248 0 0.00080497232218312929 0.0078675463000437255 0 0.00096552327264223022 0.0078723470498271771 0 0.00092277921838964814 0.0078158244552583248 0 0.00087586135755284261 0.0079920938788821793 0 0.00090722723515138722 0.0080327862582930658 0 0.00091161862436365409 0.0081012687640494331 0 0.00092611641279905161 0.0079592844478166593 0 0.00092964655124131888 0.0081837221454769335 0 0.00096552327264223022 0.0078723470498271771 0 0.00089970685445174114 0.0080202467914315626 0 0.0010338052116231177 0.00806202385190888 0 0.00096552327264223022 0.0078723470498271771 0 0.0010121172207726359 0.0079149459811677213 0 0.0010338052116231177 0.00806202385190888 0 0.00092277921838964814 0.0078158244552583248 0 0.00093644628728267688 0.0078078624410088063 0 0.00087033092161335247 0.007665261636081065 0 0.00092277921838964814 0.0078158244552583248 0 0.00084320130805300478 0.0077097451129991791 0 0.00087033092161335247 0.007665261636081065 0 0.00080497232218312929 0.0078675463000437255 0 0.00092277921838964814 0.0078158244552583248 0 0.00084320130805300478 0.0077097451129991791 0 0.00041555207023380686 0.0079948671230240399 0 0.00049125055573154177 0.007816970817405719 0 0.00053988344465969438 0.0079380379316449923 0 0.00021446244121181693 0.0080429776537604015 0 0.00041555207023380686 0.0079948671230240399 0 0.0003684510443421003 0.0081303736185545251 0 0.00021446244121181693 0.0080429776537604015 0 0.00041555207023380686 0.0079948671230240399 0 0.00049125055573154177 0.007816970817405719 0 0.0019255730148020308 0.012853413543512677 0 0.0020270179139442839 0.012828162593447358 0 0.0020738785780000397 0.012819455790665924 0 0.0010106806111555289 0.010022932870117886 0 0.0012893596545504077 0.010431815126802753 0 0.00041555207023380686 0.0079948671230240399 0 0.00052072681213242706 0.0080832340105953214 0 0.0003684510443421003 0.0081303736185545251 0 0.00041555207023380686 0.0079948671230240399 0 0.00053988344465969438 0.0079380379316449923 0 0.00052072681213242706 0.0080832340105953214 0 0.0019502092072975171 0.012826876626332064 0 0.0020270179139442839 0.012828162593447358 0 0.002015229792832644 0.012790830942558281 0 0.0020270179139442839 0.012828162593447358 0 0.002015229792832644 0.012790830942558281 0 0.0020738785780000397 0.012819455790665924 0 0.002068658641210482 0.012735670876387667 0 0.002015229792832644 0.012790830942558281 0 0.0020738785780000397 0.012819455790665924 0 0.00049125055573154177 0.007816970817405719 0 0.00061942222513958938 0.0078647589103964678 0 0.00053988344465969438 0.0079380379316449923 0 0.00074533216733426084 0.0076262816587383117 0 0.00049125055573154177 0.007816970817405719 0 0.00067141126515542053 0.0077747522759060465 0 0.00049125055573154177 0.007816970817405719 0 0.00067141126515542053 0.0077747522759060465 0 0.00061942222513958938 0.0078647589103964678 0 0.00067141126515542053 0.0077747522759060465 0 0.00061942222513958938 0.0078647589103964678 0 0.00073170076572468294 0.0078542908144208362 0 0.00061942222513958938 0.0078647589103964678 0 0.00067214512068511985 0.007960063466965081 0 0.00073170076572468294 0.0078542908144208362 0 0.00067214512068511985 0.007960063466965081 0 0.00075005949359791782 0.0081121263804808403 0 0.00052072681213242706 0.0080832340105953214 0 0.00061942222513958938 0.0078647589103964678 0 0.00067214512068511985 0.007960063466965081 0 0.00053988344465969438 0.0079380379316449923 0 0.00067214512068511985 0.007960063466965081 0 0.00053988344465969438 0.0079380379316449923 0 0.00052072681213242706 0.0080832340105953214 0 0.00067214512068511985 0.007960063466965081 0 0.00094235546812435761 0.0079692485516835668 0 0.00075005949359791782 0.0081121263804808403 0 0.00067214512068511985 0.007960063466965081 0 0.00073170076572468294 0.0078542908144208362 0 0.00094235546812435761 0.0079692485516835668 0 0.00073170076572468294 0.0078542908144208362 0 0.0008242494896628671 0.0077891878695214873 0 0.00094235546812435761 0.0079692485516835668 0 0.0009537148662839629 0.0077160383311362405 0 0.0010207498538633232 0.008082474009470585 0 0.00067141126515542053 0.0077747522759060465 0 0.00073170076572468294 0.0078542908144208362 0 0.0008242494896628671 0.0077891878695214873 0 0.0013612517353016362 0.0084668238341393861 0 0.001288298875787762 0.0081907464356412597 0 0.0010668374603166051 0.0082678063297501343 0 0.001288298875787762 0.0081907464356412597 0 0.0010668374603166051 0.0082678063297501343 0 0.00094235546812435761 0.0079692485516835668 0 0.00094521154067287436 0.008536500130636707 0 0.00084436529238113148 0.0080660405266568397 0 0.0010668374603166051 0.0082678063297501343 0 0.00084436529238113148 0.0080660405266568397 0 0.0010668374603166051 0.0082678063297501343 0 0.00094235546812435761 0.0079692485516835668 0 0.00084436529238113148 0.0080660405266568397 0 0.00087586135755284261 0.0079920938788821793 0 0.00094235546812435761 0.0079692485516835668 0 0.00087586135755284261 0.0079920938788821793 0 0.00094235546812435761 0.0079692485516835668 0 0.00091161862436365409 0.0081012687640494331 0 0.00091161862436365409 0.0081012687640494331 0 0.00097566709491872018 0.0083332756451525124 0 0.00080786750622590504 0.0082777961394001568 0 0.00090722723515138722 0.0080327862582930658 0 0.00091161862436365409 0.0081012687640494331 0 0.00097566709491872018 0.0083332756451525124 0 0.00080786750622590504 0.0082777961394001568 0 0.00075005949359791782 0.0081121263804808403 0 0.0005787993579373105 0.0083672031448532094 0 0.00091161862436365409 0.0081012687640494331 0 0.00080786750622590504 0.0082777961394001568 0 0.00075005949359791782 0.0081121263804808403 0 0.00094235546812435761 0.0079692485516835668 0 0.00091161862436365409 0.0081012687640494331 0 0.00075005949359791782 0.0081121263804808403 0 0.00052072681213242706 0.0080832340105953214 0 0.0005787993579373105 0.0083672031448532094 0 0.00042457058283861188 0.0082256343672866307 0 0.00075005949359791782 0.0081121263804808403 0 0.00052072681213242706 0.0080832340105953214 0 0.0005787993579373105 0.0083672031448532094 0 0.0002668423946742773 0.0083167021488761046 0 0.0005787993579373105 0.0083672031448532094 0 0.00042457058283861188 0.0082256343672866307 0 0.0002668423946742773 0.0083167021488761046 0 0.0005787993579373105 0.0083672031448532094 0 0.00031037080159737531 0.0087011749899650378 0 0.0002668423946742773 0.0083167021488761046 0 0.00042457058283861188 0.0082256343672866307 0 0.0003684510443421003 0.0081303736185545251 0 0.00052072681213242706 0.0080832340105953214 0 0.00042457058283861188 0.0082256343672866307 0 0.0003684510443421003 0.0081303736185545251 0 0.00047693706143907239 0.0091745772010788564 0 0.00049572467075836076 0.0092725147380285471 0 0.00065182464606787548 0.0094112667105439307 0 0.00058598686700497686 0.0095197741338426782 0 0.00050857824402065674 0.0093108469818644814 0 0.00031037080159737531 0.0087011749899650378 0 0.00057239057096424993 0.0088823780722001641 0 0.00050857824402065674 0.0093108469818644814 0 0.00034007257967487485 0.0087029843233448149 0 0.00047693706143907239 0.0091745772010788564 0 0.0005787993579373105 0.0083672031448532094 0 0.00031037080159737531 0.0087011749899650378 0 0.00057239057096424993 0.0088823780722001641 0 0.0005787993579373105 0.0083672031448532094 0 0.00057239057096424993 0.0088823780722001641 0 0.00083388637975530223 0.0087514734256701511 0 0.0007831534392234331 0.0085423825839890128 0 0.0005732663078643047 0.0090235194735110227 0 0.00074177961951438535 0.0083196697862709425 0 0.00070036243094748121 0.0086683601572255381 0 0.00058992474925934307 0.0087500963684507219 0 0.00057239057096424993 0.0088823780722001641 0 0.00083388637975530223 0.0087514734256701511 0 0.00051102551569842398 0.0093061391954596413 0 0.00057239057096424993 0.0088823780722001641 0 0.00051102551569842398 0.0093061391954596413 0 0.00050857824402065674 0.0093108469818644814 0 0.00074177961951438535 0.0083196697862709425 0 0.00079037235947762477 0.008631734186090213 0 0.00070036243094748121 0.0086683601572255381 0 0.00074177961951438535 0.0083196697862709425 0 0.00090599469721752452 0.0084907215765808054 0 0.00079037235947762477 0.008631734186090213 0 0.00092964655124131888 0.0081837221454769335 0 0.0007831534392234331 0.0085423825839890128 0 0.00097566709491872018 0.0083332756451525124 0 0.00080786750622590504 0.0082777961394001568 0 0.00083388637975530223 0.0087514734256701511 0 0.00080786750622590504 0.0082777961394001568 0 0.0005787993579373105 0.0083672031448532094 0 0.00083388637975530223 0.0087514734256701511 0 0.00089970685445174114 0.0080202467914315626 0 0.00074177961951438535 0.0083196697862709425 0 0.0009722535670340913 0.0082582834457218621 0 0.00090599469721752452 0.0084907215765808054 0 0.0009722535670340913 0.0082582834457218621 0 0.0010527912645251303 0.0084448307185585412 0 0.00074177961951438535 0.0083196697862709425 0 0.00090599469721752452 0.0084907215765808054 0 0.0009722535670340913 0.0082582834457218621 0 0.00090599469721752452 0.0084907215765808054 0 0.00096078350014479656 0.0086003784692739345 0 0.0010527912645251303 0.0084448307185585412 0 0.00090599469721752452 0.0084907215765808054 0 0.00087520579323940764 0.0086732647573667977 0 0.00096078350014479656 0.0086003784692739345 0 0.00087520579323940764 0.0086732647573667977 0 0.00096078350014479656 0.0086003784692739345 0 0.00093364873152399939 0.0087457501006017908 0 0.00096078350014479656 0.0086003784692739345 0 0.00093364873152399939 0.0087457501006017908 0 0.0010322062060252547 0.0087045705472697226 0 0.00096436981596942795 0.0088351685505554788 0 0.00093364873152399939 0.0087457501006017908 0 0.0010322062060252547 0.0087045705472697226 0 0.00096436981596942795 0.0088351685505554788 0 0.0010176141534436465 0.0088298353010744183 0 0.0010322062060252547 0.0087045705472697226 0 0.00096436981596942795 0.0088351685505554788 0 0.00091888998001757663 0.0089360948313657162 0 0.00098585079905229279 0.0089200725739028656 0 0.00096436981596942795 0.0088351685505554788 0 0.0010176141534436465 0.0088298353010744183 0 0.00098585079905229279 0.0089200725739028656 0 0.00091888998001757663 0.0089360948313657162 0 0.00090673976573474736 0.008850459602736848 0 0.00085539241131271768 0.0089240032135021186 0 0.00096436981596942795 0.0088351685505554788 0 0.00091888998001757663 0.0089360948313657162 0 0.00090673976573474736 0.008850459602736848 0 0.00096436981596942795 0.0088351685505554788 0 0.00090673976573474736 0.008850459602736848 0 0.00093364873152399939 0.0087457501006017908 0 0.00087520579323940764 0.0086732647573667977 0 0.00093364873152399939 0.0087457501006017908 0 0.0008656385964813957 0.0088096889916786658 0 0.00090673976573474736 0.008850459602736848 0 0.00093364873152399939 0.0087457501006017908 0 0.0008656385964813957 0.0088096889916786658 0 0.00087520579323940764 0.0086732647573667977 0 0.0008656385964813957 0.0088096889916786658 0 0.00080814021699579909 0.0087864888821971975 0 0.0008243111429549957 0.0088685000066311345 0 0.0008656385964813957 0.0088096889916786658 0 0.00080814021699579909 0.0087864888821971975 0 0.0008243111429549957 0.0088685000066311345 0 0.0008656385964813957 0.0088096889916786658 0 0.00085539241131271768 0.0089240032135021186 0 0.00085539241131271768 0.0089240032135021186 0 0.00080380026152501618 0.0090399045700819986 0 0.00086852464321929659 0.0090134073253015784 0 0.00090673976573474736 0.008850459602736848 0 0.0008656385964813957 0.0088096889916786658 0 0.00085539241131271768 0.0089240032135021186 0 0.0008243111429549957 0.0088685000066311345 0 0.00085539241131271768 0.0089240032135021186 0 0.00080239091932326275 0.0089464778146180323 0 0.00091888998001757663 0.0089360948313657162 0 0.00085539241131271768 0.0089240032135021186 0 0.00086852464321929659 0.0090134073253015784 0 0.00076262761310759365 0.0089959139224792053 0 0.00075214825373878878 0.0090886840803341157 0 0.00080380026152501618 0.0090399045700819986 0 0.00080239091932326275 0.0089464778146180323 0 0.00076262761310759365 0.0089959139224792053 0 0.00080380026152501618 0.0090399045700819986 0 0.00085539241131271768 0.0089240032135021186 0 0.00080239091932326275 0.0089464778146180323 0 0.00080380026152501618 0.0090399045700819986 0 0.00080239091932326275 0.0089464778146180323 0 0.00077537655452047786 0.0089004215111538037 0 0.00076262761310759365 0.0089959139224792053 0 0.00077537655452047786 0.0089004215111538037 0 0.00080814021699579909 0.0087864888821971975 0 0.00072276531420149305 0.0088417616545126924 0 0.0008243111429549957 0.0088685000066311345 0 0.00080239091932326275 0.0089464778146180323 0 0.00077537655452047786 0.0089004215111538037 0 0.0008243111429549957 0.0088685000066311345 0 0.00077537655452047786 0.0089004215111538037 0 0.00080814021699579909 0.0087864888821971975 0 0.00080814021699579909 0.0087864888821971975 0 0.00079037235947762477 0.008631734186090213 0 0.00072276531420149305 0.0088417616545126924 0 0.00087520579323940764 0.0086732647573667977 0 0.00080814021699579909 0.0087864888821971975 0 0.00079037235947762477 0.008631734186090213 0 0.00090599469721752452 0.0084907215765808054 0 0.00087520579323940764 0.0086732647573667977 0 0.00079037235947762477 0.008631734186090213 0 0.00079037235947762477 0.008631734186090213 0 0.00070036243094748121 0.0086683601572255381 0 0.00072276531420149305 0.0088417616545126924 0 0.00070036243094748121 0.0086683601572255381 0 0.00058992474925934307 0.0087500963684507219 0 0.00067309941151549976 0.0087941617387824553 0 0.00058992474925934307 0.0087500963684507219 0 0.00066861770387788722 0.0089072971574726961 0 0.00065124179819088838 0.0090635515771030715 0 0.00058992474925934307 0.0087500963684507219 0 0.00066861770387788722 0.0089072971574726961 0 0.00067309941151549976 0.0087941617387824553 0 0.00066861770387788722 0.0089072971574726961 0 0.00072276531420149305 0.0088417616545126924 0 0.00070194372371539231 0.0089406794999608175 0 0.00066861770387788722 0.0089072971574726961 0 0.00067309941151549976 0.0087941617387824553 0 0.00072276531420149305 0.0088417616545126924 0 0.00070036243094748121 0.0086683601572255381 0 0.00067309941151549976 0.0087941617387824553 0 0.00072276531420149305 0.0088417616545126924 0 0.00077537655452047786 0.0089004215111538037 0 0.00072276531420149305 0.0088417616545126924 0 0.00073043212472350815 0.0089636591639188478 0 0.00072276531420149305 0.0088417616545126924 0 0.00070194372371539231 0.0089406794999608175 0 0.00073043212472350815 0.0089636591639188478 0 0.00077537655452047786 0.0089004215111538037 0 0.00073043212472350815 0.0089636591639188478 0 0.00076262761310759365 0.0089959139224792053 0 0.00073043212472350815 0.0089636591639188478 0 0.00076262761310759365 0.0089959139224792053 0 0.00072143641218578311 0.0090636312219457976 0 0.00076262761310759365 0.0089959139224792053 0 0.00072143641218578311 0.0090636312219457976 0 0.00075214825373878878 0.0090886840803341157 0 0.00072143641218578311 0.0090636312219457976 0 0.00070486841528397527 0.0091768828249982979 0 0.00075214825373878878 0.0090886840803341157 0 0.00072143641218578311 0.0090636312219457976 0 0.00068773922246494678 0.0090470206669085156 0 0.00070486841528397527 0.0091768828249982979 0 0.00066861770387788722 0.0089072971574726961 0 0.00068773922246494678 0.0090470206669085156 0 0.00065124179819088838 0.0090635515771030715 0 0.00073043212472350815 0.0089636591639188478 0 0.00072143641218578311 0.0090636312219457976 0 0.00068773922246494678 0.0090470206669085156 0 0.00066861770387788722 0.0089072971574726961 0 0.00070194372371539231 0.0089406794999608175 0 0.00068773922246494678 0.0090470206669085156 0 0.00070194372371539231 0.0089406794999608175 0 0.00073043212472350815 0.0089636591639188478 0 0.00068773922246494678 0.0090470206669085156 0 0.00068773922246494678 0.0090470206669085156 0 0.00067256699463706909 0.0092333086417490853 0 0.00070486841528397527 0.0091768828249982979 0 0.00068773922246494678 0.0090470206669085156 0 0.00065124179819088838 0.0090635515771030715 0 0.00067256699463706909 0.0092333086417490853 0 0.0006558612673094518 0.0093013331686261757 0 0.00065124179819088838 0.0090635515771030715 0 0.00067256699463706909 0.0092333086417490853 0 0.0006558612673094518 0.0093013331686261757 0 0.00058992474925934307 0.0087500963684507219 0 0.00065124179819088838 0.0090635515771030715 0 0.00065182464606787548 0.0094112667105439307 0 0.0006558612673094518 0.0093013331686261757 0 0.00050857824402065674 0.0093108469818644814 0 0.0006558612673094518 0.0093013331686261757 0 0.00051102551569842398 0.0093061391954596413 0 0.00050857824402065674 0.0093108469818644814 0 0.00063658497911750359 0.0092515437208077825 0 0.0005732663078643047 0.0090235194735110227 0 0.0011333363394103524 0.0079733606406078173 0 0.0011455211077388441 0.0082281133136825075 0 0.0012687949457641586 0.0082145241193594259 0 0.0013549316248372084 0.0082284671366919318 0 0.0011333363394103524 0.0079733606406078173 0 0.0012687949457641586 0.0082145241193594259 0 0.001138581849324648 0.0080221390097863655 0 0.0011212884853659488 0.007957534429606318 0 0.00095418259479467329 0.0077366777008863125 0 0.00093644628728267688 0.0078078624410088063 0 0.0011333363394103524 0.0079733606406078173 0 0.00095418259479467329 0.0077366777008863125 0 0.00093644628728267688 0.0078078624410088063 0 0.00091039538665011019 0.0077343701013379814 0 0.00092277921838964814 0.0078158244552583248 0 0.00093644628728267688 0.0078078624410088063 0 0.0011333363394103524 0.0079733606406078173 0 0.0010121172207726359 0.0079149459811677213 0 0.00092277921838964814 0.0078158244552583248 0 0.0011333363394103524 0.0079733606406078173 0 0.0010121172207726359 0.0079149459811677213 0 0.0011333363394103524 0.0079733606406078173 0 0.0010338052116231177 0.00806202385190888 0 0.00089970685445174114 0.0080202467914315626 0 0.0010338052116231177 0.00806202385190888 0 0.0009722535670340913 0.0082582834457218621 0 0.0009722535670340913 0.0082582834457218621 0 0.0011455211077388441 0.0082281133136825075 0 0.0010527912645251303 0.0084448307185585412 0 0.0010338052116231177 0.00806202385190888 0 0.0009722535670340913 0.0082582834457218621 0 0.0011455211077388441 0.0082281133136825075 0 0.0011333363394103524 0.0079733606406078173 0 0.0010338052116231177 0.00806202385190888 0 0.0011455211077388441 0.0082281133136825075 0 0.0011455211077388441 0.0082281133136825075 0 0.0011756118725462445 0.0083688728574499056 0 0.0010527912645251303 0.0084448307185585412 0 0.0011455211077388441 0.0082281133136825075 0 0.0011756118725462445 0.0083688728574499056 0 0.0013164081776002611 0.0083465189268227859 0 0.0011455211077388441 0.0082281133136825075 0 0.0013164081776002611 0.0083465189268227859 0 0.0012687949457641586 0.0082145241193594259 0 0.0011756118725462445 0.0083688728574499056 0 0.0010527912645251303 0.0084448307185585412 0 0.0011262009955770791 0.008590997288876627 0 0.00096078350014479656 0.0086003784692739345 0 0.0010527912645251303 0.0084448307185585412 0 0.0010322062060252547 0.0087045705472697226 0 0.0010527912645251303 0.0084448307185585412 0 0.0010322062060252547 0.0087045705472697226 0 0.0011262009955770791 0.008590997288876627 0 0.0010322062060252547 0.0087045705472697226 0 0.0011262009955770791 0.008590997288876627 0 0.0011309784460075282 0.0087499090024102683 0 0.0011262009955770791 0.008590997288876627 0 0.0011309784460075282 0.0087499090024102683 0 0.0012782658297661117 0.0087380770594691071 0 0.0011309784460075282 0.0087499090024102683 0 0.0012782658297661117 0.0087380770594691071 0 0.0011627030463192251 0.0088644830731945505 0 0.0011309784460075282 0.0087499090024102683 0 0.001084165123016557 0.008858628566581421 0 0.0011627030463192251 0.0088644830731945505 0 0.0010322062060252547 0.0087045705472697226 0 0.0011309784460075282 0.0087499090024102683 0 0.001084165123016557 0.008858628566581421 0 0.0010176141534436465 0.0088298353010744183 0 0.0010322062060252547 0.0087045705472697226 0 0.001084165123016557 0.008858628566581421 0 0.0011756118725462445 0.0083688728574499056 0 0.0013164081776002611 0.0083465189268227859 0 0.0012782658297661117 0.0087380770594691071 0 0.0011756118725462445 0.0083688728574499056 0 0.0011262009955770791 0.008590997288876627 0 0.0012782658297661117 0.0087380770594691071 0 0.0013164081776002611 0.0083465189268227859 0 0.0013836492923734473 0.0082804584406346721 0 0.00133845984552192 0.0082616215047823759 0 0.0013463512199825764 0.0083633701348053736 0 0.0012733873407630562 0.0085927167959540356 0 0.001399226498987354 0.0081270042046438298 0 0.0017211890845318328 0.0079720655468061546 0 0.0013164081776002611 0.0083465189268227859 0 0.0014076055414618128 0.0081097035283468413 0 0.00133845984552192 0.0082616215047823759 0 0.0013164081776002611 0.0083465189268227859 0 0.0012687949457641586 0.0082145241193594259 0 0.0013498038331272995 0.008213234349174427 0 0.0013164081776002611 0.0083465189268227859 0 0.0013498038331272995 0.008213234349174427 0 0.0014076055414618128 0.0081097035283468413 0 0.0013549316248372084 0.0082284671366919318 0 0.0012687949457641586 0.0082145241193594259 0 0.0013498038331272995 0.008213234349174427 0 0.0013549316248372084 0.0082284671366919318 0 0.0013498038331272995 0.008213234349174427 0 0.0012320984043783306 0.0081931373101396341 0 0.0013498038331272995 0.008213234349174427 0 0.001207748106447467 0.0081052447952426766 0 0.0012320984043783306 0.0081931373101396341 0 0.0013498038331272995 0.008213234349174427 0 0.0014076055414618128 0.0081097035283468413 0 0.001207748106447467 0.0081052447952426766 0 0.0014076055414618128 0.0081097035283468413 0 0.001207748106447467 0.0081052447952426766 0 0.0012835652221332161 0.0078214451657974884 0 0.001207748106447467 0.0081052447952426766 0 0.0010788664658544704 0.0079866654945669295 0 0.0012835652221332161 0.0078214451657974884 0 0.0010788664658544704 0.0079866654945669295 0 0.0010017373335454935 0.0078557227614911799 0 0.0012835652221332161 0.0078214451657974884 0 0.001207748106447467 0.0081052447952426766 0 0.0010591162662814042 0.0080693271958554025 0 0.0011185988662369176 0.0081474032955585977 0 0.001207748106447467 0.0081052447952426766 0 0.0010591162662814042 0.0080693271958554025 0 0.0010788664658544704 0.0079866654945669295 0 0.0010591162662814042 0.0080693271958554025 0 0.0010788664658544704 0.0079866654945669295 0 0.00098961114951372046 0.0080018214975863828 0 0.0010788664658544704 0.0079866654945669295 0 0.00098961114951372046 0.0080018214975863828 0 0.0010017373335454935 0.0078557227614911799 0 0.0015304229481215821 0.00701993697909671 0 0.0012963670869668121 0.007175390889609271 0 0.0012890749209540679 0.0071402111747707799 0 0.0014546743392192735 0.006978086855945414 0 0.0015304229481215821 0.00701993697909671 0 0.0012890749209540679 0.0071402111747707799 0 0.0026243712024598587 0.0058332988288621853 0 0.00075216720338187014 0.0076586774743788999 0 0.0016615914478351485 0.0069027045946054664 0 0.0010445247804618724 0.0076195825627345844 0 0.00098961114951372046 0.0080018214975863828 0 0.00082046652147669554 0.0081173488406531494 0 0.0010017373335454935 0.0078557227614911799 0 0.0013128008183039138 0.007066259169980541 0 0.0013002515110681863 0.0071262363704148075 0 0.0012963670869668121 0.007175390889609271 0 0.00098961114951372046 0.0080018214975863828 0 0.00096988027805013782 0.0080777641856411113 0 0.00082046652147669554 0.0081173488406531494 0 0.0010591162662814042 0.0080693271958554025 0 0.00098961114951372046 0.0080018214975863828 0 0.00096988027805013782 0.0080777641856411113 0 0.0010591162662814042 0.0080693271958554025 0 0.00096988027805013782 0.0080777641856411113 0 0.0010152647903634432 0.0081489139941414174 0 0.0010152647903634432 0.0081489139941414174 0 0.00082046652147669554 0.0081173488406531494 0 0.0010447332205196108 0.008238701802352125 0 0.00096988027805013782 0.0080777641856411113 0 0.0010152647903634432 0.0081489139941414174 0 0.00082046652147669554 0.0081173488406531494 0 0.0010737980769616126 0.0076021380724781594 0 0.0012405967232818646 0.0072296306259875672 0 0.0016232387778040262 0.0071958381605787989 0 0.0010864716907822063 0.0069013317898811224 0 0.0018144518766742362 0.0066005894998719663 0 0.0016615914478351485 0.0069027045946054664 0 0.0010737980769616126 0.0076021380724781594 0 0.0013549316248372084 0.0082284671366919318 0 0.0010657034970512987 0.0082381778844774767 0 0.0010903906656879662 0.0082237822259509409 0 0.0013549316248372084 0.0082284671366919318 0 0.0012320984043783306 0.0081931373101396341 0 0.0010903906656879662 0.0082237822259509409 0 0.001138581849324648 0.0080221390097863655 0 0.0010737980769616126 0.0076021380724781594 0 0.0010737980769616126 0.0076021380724781594 0 0.0010486500405747837 0.0076409645565121229 0 0.001207748106447467 0.0081052447952426766 0 0.0012320984043783306 0.0081931373101396341 0 0.0011185988662369176 0.0081474032955585977 0 0.0012320984043783306 0.0081931373101396341 0 0.0011185988662369176 0.0081474032955585977 0 0.0010903906656879662 0.0082237822259509409 0 0.0010591162662814042 0.0080693271958554025 0 0.0010152647903634432 0.0081489139941414174 0 0.0011185988662369176 0.0081474032955585977 0 0.0010152647903634432 0.0081489139941414174 0 0.0010447332205196108 0.008238701802352125 0 0.0010903906656879662 0.0082237822259509409 0 0.0010152647903634432 0.0081489139941414174 0 0.0011185988662369176 0.0081474032955585977 0 0.0010903906656879662 0.0082237822259509409 0 0.0048802248214459233 0.0038256634814483278 0 0.0046235998408602702 0.0038024116914008488 0 0.0044784305785457532 0.0035411978232395718 0 0.0048340346149451244 0.0039156739051960845 0 0.0048094544415027236 0.0040165830331409082 0 0.0050632344670281113 0.0039538090370627105 0 0.0047070321115936942 0.0039080418838046832 0 0.0046844139163351763 0.0040456579505150341 0 0.0045692075771495092 0.0040194716479923648 0 0.0047070321115936942 0.0039080418838046832 0 0.0048094544415027236 0.0040165830331409082 0 0.0046844139163351763 0.0040456579505150341 0 0.0047070321115936942 0.0039080418838046832 0 0.0048340346149451244 0.0039156739051960845 0 0.0048094544415027236 0.0040165830331409082 0 0.0047070321115936942 0.0039080418838046832 0 0.0048802248214459233 0.0038256634814483278 0 0.0046235998408602702 0.0038024116914008488 0 0.0042402565648325362 0.004796307757593387 0 0.0045832203967916931 0.0041949421311325745 0 0.0047070321115936942 0.0039080418838046832 0 0.0048802248214459233 0.0038256634814483278 0 0.0048340346149451244 0.0039156739051960845 0 0.0042402565648325362 0.004796307757593387 0 0.0026243712024598587 0.0058332988288621853 0 0.0048699392631725846 0.0038449164316279199 0 0.0048340346149451244 0.0039156739051960845 0 0.0050632344670281113 0.0039538090370627105 0 0.0013700230762097826 0.0070812304915051152 0 0.0013128008183039138 0.007066259169980541 0 0.0013164795943961054 0.0071076361337484469 0 0.0013128008183039138 0.007066259169980541 0 0.0013164795943961054 0.0071076361337484469 0 0.0013002515110681863 0.0071262363704148075 0 0.0016615914478351485 0.0069027045946054664 0 0.0026243712024598587 0.0058332988288621853 0 0.0032439411049272741 0.0055767882398579695 0 0.0033739051526343569 0.0051548692935592944 0 0.0037665696361656531 0.0051577517079371216 0 0.0030406811201992112 0.0054711772699138853 0 0.0032439411049272741 0.0055767882398579695 0 0.0033739051526343569 0.0051548692935592944 0 0.0016232387778040262 0.0071958381605787989 0 0.0020839148157812373 0.0067484081207593218 0 0.0018144518766742362 0.0066005894998719663 0 0.0016615914478351485 0.0069027045946054664 0 0.0029590714757214008 0.0057331721025825344 0 0.0048094544415027236 0.0040165830331409082 0 0.0050632344670281113 0.0039538090370627105 0 0.0047361261112963959 0.0042604559848630928 0 0.0026243712024598587 0.0058332988288621853 0 0.004586667302180829 0.0044635198323857792 0 0.0047361261112963959 0.0042604559848630928 0 0.0046844139163351763 0.0040456579505150341 0 0.0046218605244414896 0.0041265371638750329 0 0.0048094544415027236 0.0040165830331409082 0 0.0047361261112963959 0.0042604559848630928 0 0.0046844139163351763 0.0040456579505150341 0 0.0037665696361656531 0.0051577517079371216 0 0.0036786066803208024 0.0049171811422564198 0 0.0040034751840478189 0.004816522605915489 0 0.0033739051526343569 0.0051548692935592944 0 0.0037665696361656531 0.0051577517079371216 0 0.0036786066803208024 0.0049171811422564198 0 0.0010434234109176859 0.0077095102598744737 0 0.0010302007977664022 0.0076413931623450304 0 0.0011135455520760599 0.0076533326263214761 0 0.0029590714757214008 0.0057331721025825344 0 0.0023760332275080628 0.0063147366656008562 0 0.0023760332275080628 0.0063147366656008562 0 0.0012405967232818646 0.0072296306259875672 0 0.0020839148157812373 0.0067484081207593218 0 0.0025432896922670104 0.0063052077563958749 0 0.0018144518766742362 0.0066005894998719663 0 0.00092928376632279638 0.0077331598140910817 0 0.00096489109326497392 0.0076387342308659335 0 0.00090799169501859728 0.0076598683236974545 0 0.0010434234109176859 0.0077095102598744737 0 0.00092928376632279638 0.0077331598140910817 0 0.00096489109326497392 0.0076387342308659335 0 0.00096489109326497392 0.0076387342308659335 0 0.00090799169501859728 0.0076598683236974545 0 0.00091774243806856952 0.007543777358487427 0 0.00096489109326497392 0.0076387342308659335 0 0.00091774243806856952 0.007543777358487427 0 0.001035498327696193 0.0075135668125569481 0 0.0010434234109176859 0.0077095102598744737 0 0.00096489109326497392 0.0076387342308659335 0 0.0010302007977664022 0.0076413931623450304 0 0.00096489109326497392 0.0076387342308659335 0 0.0010302007977664022 0.0076413931623450304 0 0.001035498327696193 0.0075135668125569481 0 0.0010302007977664022 0.0076413931623450304 0 0.0011201137417738397 0.0076105585895100414 0 0.001035498327696193 0.0075135668125569481 0 0.0011201137417738397 0.0076105585895100414 0 0.001035498327696193 0.0075135668125569481 0 0.0011753062632205349 0.0075698394685039354 0 0.0010302007977664022 0.0076413931623450304 0 0.0011201137417738397 0.0076105585895100414 0 0.0011135455520760599 0.0076533326263214761 0 0.00090202830344396627 0.0077203086267887428 0 0.00091039538665011019 0.0077343701013379814 0 0.00090108786748248403 0.007719622605507806 0 0.00095418259479467329 0.0077366777008863125 0 0.00090202830344396627 0.0077203086267887428 0 0.00091039538665011019 0.0077343701013379814 0 0.00091039538665011019 0.0077343701013379814 0 0.00090108786748248403 0.007719622605507806 0 0.00089786730286681344 0.0077257307363547603 0 0.00092928376632279638 0.0077331598140910817 0 0.00090108786748248403 0.007719622605507806 0 0.00090799169501859728 0.0076598683236974545 0 0.00090202830344396627 0.0077203086267887428 0 0.00092928376632279638 0.0077331598140910817 0 0.00090108786748248403 0.007719622605507806 0 0.00090799169501859728 0.0076598683236974545 0 0.00089786730286681344 0.0077257307363547603 0 0.00087033092161335247 0.007665261636081065 0 0.00090108786748248403 0.007719622605507806 0 0.00090799169501859728 0.0076598683236974545 0 0.00089786730286681344 0.0077257307363547603 0 0.00093644628728267688 0.0078078624410088063 0 0.00091039538665011019 0.0077343701013379814 0 0.00089786730286681344 0.0077257307363547603 0 0.00093644628728267688 0.0078078624410088063 0 0.00089786730286681344 0.0077257307363547603 0 0.00087033092161335247 0.007665261636081065 0 0.00084320130805300478 0.0077097451129991791 0 0.00087033092161335247 0.007665261636081065 0 0.00082592805991834727 0.0075301661763134894 0 0.00087033092161335247 0.007665261636081065 0 0.00087013730383486883 0.0075188223236321581 0 0.00082592805991834727 0.0075301661763134894 0 0.00087033092161335247 0.007665261636081065 0 0.00087013730383486883 0.0075188223236321581 0 0.00091774243806856952 0.007543777358487427 0 0.00090799169501859728 0.0076598683236974545 0 0.00087033092161335247 0.007665261636081065 0 0.00091774243806856952 0.007543777358487427 0 0.00091774243806856952 0.007543777358487427 0 0.001035498327696193 0.0075135668125569481 0 0.00099827822937138648 0.0074207880143986301 0 0.001035498327696193 0.0075135668125569481 0 0.00099827822937138648 0.0074207880143986301 0 0.0010856898273588899 0.0074189816291767661 0 0.00099827822937138648 0.0074207880143986301 0 0.0010578934040638398 0.0073367033268719392 0 0.0010856898273588899 0.0074189816291767661 0 0.00099827822937138648 0.0074207880143986301 0 0.00099650116769629208 0.007305246612660971 0 0.0010578934040638398 0.0073367033268719392 0 0.00099827822937138648 0.0074207880143986301 0 0.00099650116769629208 0.007305246612660971 0 0.00091371663767160233 0.0073900329977822591 0 0.00091774243806856952 0.007543777358487427 0 0.00099827822937138648 0.0074207880143986301 0 0.00091371663767160233 0.0073900329977822591 0 0.00087013730383486883 0.0075188223236321581 0 0.00091774243806856952 0.007543777358487427 0 0.00091371663767160233 0.0073900329977822591 0 0.00087013730383486883 0.0075188223236321581 0 0.00091371663767160233 0.0073900329977822591 0 0.00085620748223206981 0.0073113618219873538 0 0.00091371663767160233 0.0073900329977822591 0 0.00085620748223206981 0.0073113618219873538 0 0.00093260716772406349 0.0072613822048502039 0 0.00085620748223206981 0.0073113618219873538 0 0.00093260716772406349 0.0072613822048502039 0 0.000915448044110625 0.0071292728207219434 0 0.00099650116769629208 0.007305246612660971 0 0.00093260716772406349 0.0072613822048502039 0 0.001008114101437338 0.0071687795093577592 0 0.00099650116769629208 0.007305246612660971 0 0.00091371663767160233 0.0073900329977822591 0 0.00093260716772406349 0.0072613822048502039 0 0.00093260716772406349 0.0072613822048502039 0 0.000915448044110625 0.0071292728207219434 0 0.001008114101437338 0.0071687795093577592 0 0.000915448044110625 0.0071292728207219434 0 0.0010149245795306359 0.0069904497162129094 0 0.001008114101437338 0.0071687795093577592 0 0.000915448044110625 0.0071292728207219434 0 0.0008883371816657005 0.0069933925851309534 0 0.00083830906831521999 0.0071225508605847702 0 0.000915448044110625 0.0071292728207219434 0 0.0008883371816657005 0.0069933925851309534 0 0.0010149245795306359 0.0069904497162129094 0 0.00085620748223206981 0.0073113618219873538 0 0.000915448044110625 0.0071292728207219434 0 0.00083830906831521999 0.0071225508605847702 0 0.00078075530094719539 0.0072950542380211284 0 0.00085620748223206981 0.0073113618219873538 0 0.00083830906831521999 0.0071225508605847702 0 0.00078075530094719539 0.0072950542380211284 0 0.00085620748223206981 0.0073113618219873538 0 0.00082592805991834727 0.0075301661763134894 0 0.00078075530094719539 0.0072950542380211284 0 0.00079373397713025976 0.0076495821385155066 0 0.00082592805991834727 0.0075301661763134894 0 0.00078075530094719539 0.0072950542380211284 0 0.00078701501805137112 0.0076031276822416229 0 0.00079373397713025976 0.0076495821385155066 0 0.00079373397713025976 0.0076495821385155066 0 0.00084320130805300478 0.0077097451129991791 0 0.00082592805991834727 0.0075301661763134894 0 0.00087013730383486883 0.0075188223236321581 0 0.00085620748223206981 0.0073113618219873538 0 0.00082592805991834727 0.0075301661763134894 0 0.0013254264666925711 0.0069210843139025759 0 0.00144837359200041 0.0069834266965906741 0 0.0015287644247439424 0.0067730842324548336 0 0.0013254264666925711 0.0069210843139025759 0 0.0013144624512608249 0.0070502751313446348 0 0.00144837359200041 0.0069834266965906741 0 0.00144837359200041 0.0069834266965906741 0 0.0016124331212043434 0.0068606586955734482 0 0.0015287644247439424 0.0067730842324548336 0 0.0016124331212043434 0.0068606586955734482 0 0.001654281293622916 0.0067437342554852557 0 0.0015287644247439424 0.0067730842324548336 0 0.0017190135271399078 0.0066052995450313224 0 0.0016456519401980196 0.0065127993468866259 0 0.0015287644247439424 0.0067730842324548336 0 0.0017190135271399078 0.0066052995450313224 0 0.001654281293622916 0.0067437342554852557 0 0.0015287644247439424 0.0067730842324548336 0 0.0016456519401980196 0.0065127993468866259 0 0.0014645786521941158 0.0066237545562746547 0 0.0015287644247439424 0.0067730842324548336 0 0.0014645786521941158 0.0066237545562746547 0 0.0015287644247439424 0.0067730842324548336 0 0.0014039054839636393 0.006770529641890048 0 0.0014645786521941158 0.0066237545562746547 0 0.0014039054839636393 0.006770529641890048 0 0.0012953352761751755 0.006761713838374153 0 0.0013254264666925711 0.0069210843139025759 0 0.0015287644247439424 0.0067730842324548336 0 0.0014039054839636393 0.006770529641890048 0 0.0013254264666925711 0.0069210843139025759 0 0.0014039054839636393 0.006770529641890048 0 0.0012953352761751755 0.006761713838374153 0 0.0011236691392325535 0.0067285620443259435 0 0.0012953352761751755 0.006761713838374153 0 0.0011799886649670518 0.0069344641400367517 0 0.0013254264666925711 0.0069210843139025759 0 0.0012953352761751755 0.006761713838374153 0 0.0011799886649670518 0.0069344641400367517 0 0.0011236691392325535 0.0067285620443259435 0 0.0011799886649670518 0.0069344641400367517 0 0.0010149245795306359 0.0069904497162129094 0 0.00094630699718602999 0.0068333804420459268 0 0.0008883371816657005 0.0069933925851309534 0 0.0010149245795306359 0.0069904497162129094 0 0.0011799886649670518 0.0069344641400367517 0 0.0010149245795306359 0.0069904497162129094 0 0.0011136025582044868 0.007096315539461156 0 0.0010149245795306359 0.0069904497162129094 0 0.001008114101437338 0.0071687795093577592 0 0.0011136025582044868 0.007096315539461156 0 0.0011136025582044868 0.007096315539461156 0 0.0012067709888304904 0.0071503253435577776 0 0.0010829542321772673 0.0072307848735834769 0 0.001008114101437338 0.0071687795093577592 0 0.0011136025582044868 0.007096315539461156 0 0.0010829542321772673 0.0072307848735834769 0 0.00099650116769629208 0.007305246612660971 0 0.001008114101437338 0.0071687795093577592 0 0.0010829542321772673 0.0072307848735834769 0 0.0013254264666925711 0.0069210843139025759 0 0.0011799886649670518 0.0069344641400367517 0 0.0012169908444531806 0.0070346936823035095 0 0.0011799886649670518 0.0069344641400367517 0 0.0011136025582044868 0.007096315539461156 0 0.0012169908444531806 0.0070346936823035095 0 0.0011136025582044868 0.007096315539461156 0 0.0012169908444531806 0.0070346936823035095 0 0.0012067709888304904 0.0071503253435577776 0 0.0013254264666925711 0.0069210843139025759 0 0.0013144624512608249 0.0070502751313446348 0 0.0012169908444531806 0.0070346936823035095 0 0.0013144624512608249 0.0070502751313446348 0 0.0012169908444531806 0.0070346936823035095 0 0.0012067709888304904 0.0071503253435577776 0 0.0013144624512608249 0.0070502751313446348 0 0.0012067709888304904 0.0071503253435577776 0 0.0013384835259171188 0.007157648223600389 0 0.0012067709888304904 0.0071503253435577776 0 0.0012345790643312315 0.0072452996343007475 0 0.0011367118935833164 0.007300778581535829 0 0.0012067709888304904 0.0071503253435577776 0 0.0012345790643312315 0.0072452996343007475 0 0.0013384835259171188 0.007157648223600389 0 0.0012345790643312315 0.0072452996343007475 0 0.0012969231641369568 0.0072650943271965274 0 0.0013384835259171188 0.007157648223600389 0 0.00099650116769629208 0.007305246612660971 0 0.0010829542321772673 0.0072307848735834769 0 0.0010578934040638398 0.0073367033268719392 0 0.0012067709888304904 0.0071503253435577776 0 0.0010829542321772673 0.0072307848735834769 0 0.0011367118935833164 0.007300778581535829 0 0.0010829542321772673 0.0072307848735834769 0 0.0011367118935833164 0.007300778581535829 0 0.0010578934040638398 0.0073367033268719392 0 0.0011367118935833164 0.007300778581535829 0 0.0010856898273588899 0.0074189816291767661 0 0.0012249934853211727 0.0073525752126229627 0 0.0010856898273588899 0.0074189816291767661 0 0.0012249934853211727 0.0073525752126229627 0 0.0011329053409572375 0.0074663115493022519 0 0.001035498327696193 0.0075135668125569481 0 0.0010856898273588899 0.0074189816291767661 0 0.0011329053409572375 0.0074663115493022519 0 0.0011367118935833164 0.007300778581535829 0 0.0010578934040638398 0.0073367033268719392 0 0.0010856898273588899 0.0074189816291767661 0 0.0012249934853211727 0.0073525752126229627 0 0.0013961055701062479 0.0073047894572921363 0 0.0012897057961807719 0.0074692952874510672 0 0.0012969231641369568 0.0072650943271965274 0 0.0012249934853211727 0.0073525752126229627 0 0.0013961055701062479 0.0073047894572921363 0 0.0012345790643312315 0.0072452996343007475 0 0.0012969231641369568 0.0072650943271965274 0 0.0012249934853211727 0.0073525752126229627 0 0.0012345790643312315 0.0072452996343007475 0 0.0011367118935833164 0.007300778581535829 0 0.0012249934853211727 0.0073525752126229627 0 0.0013961055701062479 0.0073047894572921363 0 0.0015811963328288576 0.0072835476380281594 0 0.0012897057961807719 0.0074692952874510672 0 0.0013961055701062479 0.0073047894572921363 0 0.0013384835259171188 0.007157648223600389 0 0.0014761238280211148 0.0071354900128308271 0 0.0013961055701062479 0.0073047894572921363 0 0.0014761238280211148 0.0071354900128308271 0 0.0015022662758096977 0.0072143970240935874 0 0.0012969231641369568 0.0072650943271965274 0 0.0013961055701062479 0.0073047894572921363 0 0.0013384835259171188 0.007157648223600389 0 0.00144837359200041 0.0069834266965906741 0 0.0013384835259171188 0.007157648223600389 0 0.0014761238280211148 0.0071354900128308271 0 0.0013144624512608249 0.0070502751313446348 0 0.00144837359200041 0.0069834266965906741 0 0.0013384835259171188 0.007157648223600389 0 0.0017047410834288308 0.0069089403232906058 0 0.0016124331212043434 0.0068606586955734482 0 0.0015885462995433109 0.007008211054931086 0 0.00144837359200041 0.0069834266965906741 0 0.0014761238280211148 0.0071354900128308271 0 0.0015885462995433109 0.007008211054931086 0 0.00144837359200041 0.0069834266965906741 0 0.0016124331212043434 0.0068606586955734482 0 0.0015885462995433109 0.007008211054931086 0 0.0014761238280211148 0.0071354900128308271 0 0.0015885462995433109 0.007008211054931086 0 0.0015626852704837709 0.0071372996734545618 0 0.0016732899323078604 0.0070475079863404951 0 0.0015885462995433109 0.007008211054931086 0 0.0015626852704837709 0.0071372996734545618 0 0.0016732899323078604 0.0070475079863404951 0 0.0017047410834288308 0.0069089403232906058 0 0.0015885462995433109 0.007008211054931086 0 0.0016732899323078604 0.0070475079863404951 0 0.0015626852704837709 0.0071372996734545618 0 0.0015811963328288576 0.0072835476380281594 0 0.0013961055701062479 0.0073047894572921363 0 0.0015022662758096977 0.0072143970240935874 0 0.0015811963328288576 0.0072835476380281594 0 0.0015626852704837709 0.0071372996734545618 0 0.0015022662758096977 0.0072143970240935874 0 0.0015811963328288576 0.0072835476380281594 0 0.0014761238280211148 0.0071354900128308271 0 0.0015626852704837709 0.0071372996734545618 0 0.0015022662758096977 0.0072143970240935874 0 0.0037053153584762116 0.0047420152323371222 0 0.0036907650200238749 0.0050712793445328334 0 0.0041134046902430695 0.0048296992801933822 0 0.0032773277940825111 0.005328466838630151 0 0.0032659738802268065 0.0053290327145242159 0 0.0032418203646193975 0.0053877832836671836 0 0.0034591864378559702 0.0052173415039866271 0 0.0036921042706253549 0.0049162547977797157 0 0.0036355810414814105 0.0046954298619042122 0 0.0036921042706253549 0.0049162547977797157 0 0.0034485368114758378 0.0049350771108772245 0 0.0038138806502783008 0.0049931763295228667 0 0.0038444436974388132 0.004868894498517201 0 0.0023621828431163441 0.0063264367760827861 0 0.0024537270162272172 0.0063500244515106111 0 0.0032659738802268065 0.0053290327145242159 0 0.0032418203646193975 0.0053877832836671836 0 0.003127743329365335 0.0053785163399055515 0 0.0036921042706253549 0.0049162547977797157 0 0.0024537270162272172 0.0063500244515106111 0 0.003783660325950925 0.0046485865285814734 0 0.0038892356444650755 0.0043494609968527031 0 0.004173914199719542 0.0043916417219909574 0 0.0038892356444650755 0.0043494609968527031 0 0.004173914199719542 0.0043916417219909574 0 0.0040311930177779247 0.004129211990487742 0 0.0036921042706253549 0.0049162547977797157 0 0.0039903479888881467 0.0045191992227760734 0 0.0034485368114758378 0.0049350771108772245 0 0.0038444436974388132 0.004868894498517201 0 0.003803856278597187 0.004693593052644645 0 0.003783660325950925 0.0046485865285814734 0 0.0038892356444650755 0.0043494609968527031 0 0.0036460722013349949 0.0044120565842192053 0 0.0038892356444650755 0.0043494609968527031 0 0.0036460722013349949 0.0044120565842192053 0 0.0037608857386834437 0.0041391563579880426 0 0.0035273875175701849 0.0046162093313559536 0 0.003783660325950925 0.0046485865285814734 0 0.0036460722013349949 0.0044120565842192053 0 0.0011020027254348269 0.0075065091868101062 0 0.0010689325956632671 0.007474972160482889 0 0.001035498327696193 0.0075135668125569481 0 0.0011753062632205349 0.0075698394685039354 0 0.0012826563980069591 0.0075046817016389735 0 0.0011201137417738397 0.0076105585895100414 0 0.0011135455520760599 0.0076533326263214761 0 0.0012684586468107164 0.0076698734656066815 0 0.0011201137417738397 0.0076105585895100414 0 0.0011753062632205349 0.0075698394685039354 0 0.0012684586468107164 0.0076698734656066815 0 0.0011753062632205349 0.0075698394685039354 0 0.0012826563980069591 0.0075046817016389735 0 0.0012684586468107164 0.0076698734656066815 0 0.0012249934853211727 0.0073525752126229627 0 0.0011329053409572375 0.0074663115493022519 0 0.0012897057961807719 0.0074692952874510672 0 0.0040034751840478189 0.004816522605915489 0 0.0038138806502783008 0.0049931763295228667 0 0.0038444436974388132 0.004868894498517201 0 0.0012826563980069591 0.0075046817016389735 0 0.0012684586468107164 0.0076698734656066815 0 0.0015814007944579286 0.0075466039767689216 0 0.002665524262117764 0.0062330345700948135 0 0.0024537270162272172 0.0063500244515106111 0 0.0010689325956632671 0.007474972160482889 0 0.0024537270162272172 0.0063500244515106111 0 0.0039903479888881467 0.0045191992227760734 0 0.0044904274691671747 0.0042252506332321384 0 0.0040034751840478189 0.004816522605915489 0 0.0038444436974388132 0.004868894498517201 0 0.0040259065472245366 0.0048229862651307312 0 0.003803856278597187 0.004693593052644645 0 0.0040259065472245366 0.0048229862651307312 0 0.0045113723856927222 0.0041991243064000193 0 0.0038444436974388132 0.004868894498517201 0 0.003803856278597187 0.004693593052644645 0 0.0040259065472245366 0.0048229862651307312 0 0.0037665696361656531 0.0051577517079371216 0 0.0040034751840478189 0.004816522605915489 0 0.0040259065472245366 0.0048229862651307312 0 0.0010434234109176859 0.0077095102598744737 0 0.0011135455520760599 0.0076533326263214761 0 0.0012684586468107164 0.0076698734656066815 0 0.0023760332275080628 0.0063147366656008562 0 0.002665524262117764 0.0062330345700948135 0 0.004586667302180829 0.0044635198323857792 0 0.0038894176665686081 0.0049315208828798647 0 0.0047361261112963959 0.0042604559848630928 0 0.0040259065472245366 0.0048229862651307312 0 0.0045113723856927222 0.0041991243064000193 0 0.0045692075771495092 0.0040194716479923648 0 0.0045113723856927222 0.0041991243064000193 0 0.00444093619644773 0.0040830197200295579 0 0.0045692075771495092 0.0040194716479923648 0 0.0046218605244414896 0.0041265371638750329 0 0.0045113723856927222 0.0041991243064000193 0 0.0046844139163351763 0.0040456579505150341 0 0.0045692075771495092 0.0040194716479923648 0 0.0046218605244414896 0.0041265371638750329 0 0.0047361261112963959 0.0042604559848630928 0 0.0046218605244414896 0.0041265371638750329 0 0.0045113723856927222 0.0041991243064000193 0 0.0045113723856927222 0.0041991243064000193 0 0.00444093619644773 0.0040830197200295579 0 0.004294251582874129 0.0041850265345959531 0 0.00444093619644773 0.0040830197200295579 0 0.004294251582874129 0.0041850265345959531 0 0.004400766370824644 0.0039160166392587063 0 0.004173914199719542 0.0043916417219909574 0 0.0045113723856927222 0.0041991243064000193 0 0.004294251582874129 0.0041850265345959531 0 0.004173914199719542 0.0043916417219909574 0 0.004294251582874129 0.0041850265345959531 0 0.0040311930177779247 0.004129211990487742 0 0.004294251582874129 0.0041850265345959531 0 0.0041727189280832662 0.0039279199824506584 0 0.0040311930177779247 0.004129211990487742 0 0.004294251582874129 0.0041850265345959531 0 0.0041727189280832662 0.0039279199824506584 0 0.004400766370824644 0.0039160166392587063 0 0.0041727189280832662 0.0039279199824506584 0 0.004400766370824644 0.0039160166392587063 0 0.0041930653151313526 0.0035933233320974444 0 0.004400766370824644 0.0039160166392587063 0 0.0046235998408602702 0.0038024116914008488 0 0.0044784305785457532 0.0035411978232395718 0 0.0045692075771495092 0.0040194716479923648 0 0.00444093619644773 0.0040830197200295579 0 0.004400766370824644 0.0039160166392587063 0 0.0045692075771495092 0.0040194716479923648 0 0.004400766370824644 0.0039160166392587063 0 0.0046235998408602702 0.0038024116914008488 0 0.0047070321115936942 0.0039080418838046832 0 0.0045692075771495092 0.0040194716479923648 0 0.0046235998408602702 0.0038024116914008488 0 0.0034863255055366067 0.0042083295401849682 0 0.0036460722013349949 0.0044120565842192053 0 0.0037608857386834437 0.0041391563579880426 0 0.0034863255055366067 0.0042083295401849682 0 0.0037608857386834437 0.0041391563579880426 0 0.0036068899459530432 0.0038826271893675972 0 0.0037608857386834437 0.0041391563579880426 0 0.0040311930177779247 0.004129211990487742 0 0.003869437932398787 0.0037415389274680797 0 0.0038892356444650755 0.0043494609968527031 0 0.0037608857386834437 0.0041391563579880426 0 0.0040311930177779247 0.004129211990487742 0 0.0041727189280832662 0.0039279199824506584 0 0.0040311930177779247 0.004129211990487742 0 0.003869437932398787 0.0037415389274680797 0 0.0041727189280832662 0.0039279199824506584 0 0.003869437932398787 0.0037415389274680797 0 0.0041930653151313526 0.0035933233320974444 0 0.0037608857386834437 0.0041391563579880426 0 0.003869437932398787 0.0037415389274680797 0 0.0036068899459530432 0.0038826271893675972 0 0.003869437932398787 0.0037415389274680797 0 0.0036068899459530432 0.0038826271893675972 0 0.0035327700852854221 0.0035687947188668347 0 0.003869437932398787 0.0037415389274680797 0 0.00367059151485576 0.0032465802572953111 0 0.0035327700852854221 0.0035687947188668347 0 0.003869437932398787 0.0037415389274680797 0 0.0039736389043101431 0.0032689636307610551 0 0.00367059151485576 0.0032465802572953111 0 0.003869437932398787 0.0037415389274680797 0 0.0039736389043101431 0.0032689636307610551 0 0.0041930653151313526 0.0035933233320974444 0 0.0039736389043101431 0.0032689636307610551 0 0.00367059151485576 0.0032465802572953111 0 0.0038421276151122119 0.0028460746213966538 0 0.0039736389043101431 0.0032689636307610551 0 0.0044048246270736308 0.0031973786356393648 0 0.0038421276151122119 0.0028460746213966538 0 0.0044784305785457532 0.0035411978232395718 0 0.0044048246270736308 0.0031973786356393648 0 0.004752448799967922 0.0034881821886420402 0 0.004400766370824644 0.0039160166392587063 0 0.0044784305785457532 0.0035411978232395718 0 0.0041930653151313526 0.0035933233320974444 0 0.0044784305785457532 0.0035411978232395718 0 0.0041930653151313526 0.0035933233320974444 0 0.0044048246270736308 0.0031973786356393648 0 0.0039736389043101431 0.0032689636307610551 0 0.0041930653151313526 0.0035933233320974444 0 0.0044048246270736308 0.0031973786356393648 0 0.0044048246270736308 0.0031973786356393648 0 0.0043397988168514326 0.0026794373414903805 0 0.0047745873904314401 0.0029328810459221372 0 0.0040139403332146726 0.0025072598964302911 0 0.0044171029099597647 0.0023836172333523771 0 0.0044048246270736308 0.0031973786356393648 0 0.0043397988168514326 0.0026794373414903805 0 0.0038421276151122119 0.0028460746213966538 0 0.0037766095763724665 0.0022918542924311937 0 0.0038245528820614531 0.0023984394490416134 0 0.003798931291836912 0.0023461757337478635 0 0.0040139403332146726 0.0025072598964302911 0 0.0038449376462424498 0.0023952958776150149 0 0.0037766095763724665 0.0022918542924311937 0 0.003798931291836912 0.0023461757337478635 0 0.0037098092582841654 0.002325239675677898 0 0.0037766095763724665 0.0022918542924311937 0 0.0037098092582841654 0.002325239675677898 0 0.0036616550885351664 0.0022573841354005426 0 0.00367059151485576 0.0032465802572953111 0 0.0038421276151122119 0.0028460746213966538 0 0.0034507201789414073 0.0028249342322949553 0 0.0038421276151122119 0.0028460746213966538 0 0.0036010382776054026 0.0025600881077895341 0 0.0034507201789414073 0.0028249342322949553 0 0.0043397988168514326 0.0026794373414903805 0 0.0038421276151122119 0.0028460746213966538 0 0.0038245528820614531 0.0023984394490416134 0 0.0038421276151122119 0.0028460746213966538 0 0.0038245528820614531 0.0023984394490416134 0 0.0036010382776054026 0.0025600881077895341 0 0.0038245528820614531 0.0023984394490416134 0 0.0036010382776054026 0.0025600881077895341 0 0.0035562304120368223 0.0023425545412836873 0 0.0038245528820614531 0.0023984394490416134 0 0.0035562304120368223 0.0023425545412836873 0 0.0036434549860651566 0.0021722395160084884 0 0.0035562304120368223 0.0023425545412836873 0 0.0036434549860651566 0.0021722395160084884 0 0.00334534514638158 0.0021874033614532702 0 0.0036434549860651566 0.0021722395160084884 0 0.0036209918058541196 0.0018589881017977163 0 0.0034518358928956926 0.0018767181504505469 0 0.0036434549860651566 0.0021722395160084884 0 0.0036209918058541196 0.0018589881017977163 0 0.0038548167012159283 0.0019464429504690184 0 0.0036544059247729764 0.0021897999315477271 0 0.003870900412353607 0.0022191905799600906 0 0.0036434549860651566 0.0021722395160084884 0 0.0039416763542115688 0.0021386535191891516 0 0.0038548167012159283 0.0019464429504690184 0 0.0038245528820614531 0.0023984394490416134 0 0.0036434549860651566 0.0021722395160084884 0 0.003819819025139789 0.0023018915103176808 0 0.0038245528820614531 0.0023984394490416134 0 0.003798931291836912 0.0023461757337478635 0 0.003819819025139789 0.0023018915103176808 0 0.003798931291836912 0.0023461757337478635 0 0.0037707165741958765 0.0023526774165826101 0 0.003819819025139789 0.0023018915103176808 0 0.003798931291836912 0.0023461757337478635 0 0.0037098092582841654 0.002325239675677898 0 0.0037707165741958765 0.0023526774165826101 0 0.0037098092582841654 0.002325239675677898 0 0.0037707165741958765 0.0023526774165826101 0 0.0036976945839257685 0.0023691939661919272 0 0.0037707165741958765 0.0023526774165826101 0 0.0037465330543134056 0.0024234894370662556 0 0.0036976945839257685 0.0023691939661919272 0 0.0039943684454215598 0.0022799994479453995 0 0.003870900412353607 0.0022191905799600906 0 0.0037707165741958765 0.0023526774165826101 0 0.0037465330543134056 0.0024234894370662556 0 0.003819819025139789 0.0023018915103176808 0 0.0042570879905025104 0.0021365173583992392 0 0.0039416763542115688 0.0021386535191891516 0 0.0040730435536384894 0.0020312637498873711 0 0.0039416763542115688 0.0021386535191891516 0 0.0040730435536384894 0.0020312637498873711 0 0.0038548167012159283 0.0019464429504690184 0 0.0040730435536384894 0.0020312637498873711 0 0.0040328183020187985 0.0019055154399571417 0 0.0038548167012159283 0.0019464429504690184 0 0.0040730435536384894 0.0020312637498873711 0 0.0040328183020187985 0.0019055154399571417 0 0.0041729423595496902 0.0020160258706938771 0 0.0040328183020187985 0.0019055154399571417 0 0.0039070433059846862 0.0017671889687311058 0 0.0038548167012159283 0.0019464429504690184 0 0.0041729423595496902 0.0020160258706938771 0 0.0042914509798020447 0.0017703241542122586 0 0.0041862557843194651 0.0022373887853298245 0 0.0042570879905025104 0.0021365173583992392 0 0.0041729423595496902 0.0020160258706938771 0 0.0041862557843194651 0.0022373887853298245 0 0.0042570879905025104 0.0021365173583992392 0 0.0040730435536384894 0.0020312637498873711 0 0.0041729423595496902 0.0020160258706938771 0 0.0040328183020187985 0.0019055154399571417 0 0.0041729423595496902 0.0020160258706938771 0 0.0041346840924526146 0.0018351089751417655 0 0.0041346840924526146 0.0018351089751417655 0 0.0042914509798020447 0.0017703241542122586 0 0.0040713597268423199 0.0016753093918620576 0 0.0041729423595496902 0.0020160258706938771 0 0.0041346840924526146 0.0018351089751417655 0 0.0042914509798020447 0.0017703241542122586 0 0.0040328183020187985 0.0019055154399571417 0 0.0040713597268423199 0.0016753093918620576 0 0.0039070433059846862 0.0017671889687311058 0 0.0040713597268423199 0.0016753093918620576 0 0.0039070433059846862 0.0017671889687311058 0 0.00387009221181138 0.0015623953791210874 0 0.0040328183020187985 0.0019055154399571417 0 0.0041346840924526146 0.0018351089751417655 0 0.0040713597268423199 0.0016753093918620576 0 0.0039070433059846862 0.0017671889687311058 0 0.0037209964678871538 0.0017459507863609044 0 0.00387009221181138 0.0015623953791210874 0 0.0048039674565050709 -0.00093078458604647603 0 0.0041144918667341433 -0.0003272995980745136 0 0.0037209964678871538 0.0017459507863609044 0 0.0035629904774934825 0.0016126952648134907 0 0.00387009221181138 0.0015623953791210874 0 0.0045714061504987013 -0.0020830866578730096 0 0.0046455344669452331 -0.0021663165768434907 0 0.0045552067252255992 -0.0021030625277946371 0 0.0048039674565050709 -0.00093078458604647603 0 0.0058249130932364794 -0.0021657209907707739 0 0.0035629904774934825 0.0016126952648134907 0 0.0035521884601621982 0.0016801869351658514 0 0.0034936690732234998 0.0016988919030424803 0 0.0035629904774934825 0.0016126952648134907 0 0.0035521884601621982 0.0016801869351658514 0 0.0036079017577871973 0.0017248989975264738 0 0.0035521884601621982 0.0016801869351658514 0 0.0035446919861129114 0.0017470610718169591 0 0.0034936690732234998 0.0016988919030424803 0 0.0035521884601621982 0.0016801869351658514 0 0.0036079017577871973 0.0017248989975264738 0 0.0035446919861129114 0.0017470610718169591 0 0.0037209964678871538 0.0017459507863609044 0 0.0035629904774934825 0.0016126952648134907 0 0.0036079017577871973 0.0017248989975264738 0 0.0037209964678871538 0.0017459507863609044 0 0.0036079017577871973 0.0017248989975264738 0 0.0036209918058541196 0.0018589881017977163 0 0.0035446919861129114 0.0017470610718169591 0 0.0036209918058541196 0.0018589881017977163 0 0.0034676419331142135 0.0017780255008830227 0 0.0036079017577871973 0.0017248989975264738 0 0.0035446919861129114 0.0017470610718169591 0 0.0036209918058541196 0.0018589881017977163 0 0.0036209918058541196 0.0018589881017977163 0 0.0034676419331142135 0.0017780255008830227 0 0.0034518358928956926 0.0018767181504505469 0 0.0037209964678871538 0.0017459507863609044 0 0.0036209918058541196 0.0018589881017977163 0 0.0038548167012159283 0.0019464429504690184 0 0.0039070433059846862 0.0017671889687311058 0 0.0037209964678871538 0.0017459507863609044 0 0.0038548167012159283 0.0019464429504690184 0 0.0031773095654026745 0.0026180167734607043 0 0.0030947586857299511 0.0024152808096310346 0 0.0026156438743864274 0.0026374537809804254 0 0.0031773095654026745 0.0026180167734607043 0 0.0028000210608041089 0.0030841989640702614 0 0.0026156438743864274 0.0026374537809804254 0 0.0031773095654026745 0.0026180167734607043 0 0.0028000210608041089 0.0030841989640702614 0 0.0033052704033745117 0.0031128364699530772 0 0.0028000210608041089 0.0030841989640702614 0 0.0033052704033745117 0.0031128364699530772 0 0.0031528149727785789 0.0035953979534954325 0 0.0031773095654026745 0.0026180167734607043 0 0.0033052704033745117 0.0031128364699530772 0 0.0036597563563134389 0.0027713760798672412 0 0.0033052704033745117 0.0031128364699530772 0 0.0036193017182284239 0.0031470837090150929 0 0.0036597563563134389 0.0027713760798672412 0 0.0036193017182284239 0.0031470837090150929 0 0.0038550082547717636 0.003072030438285675 0 0.0036597563563134389 0.0027713760798672412 0 0.0038550082547717636 0.003072030438285675 0 0.0036597563563134389 0.0027713760798672412 0 0.0040695561052384926 0.0025745141401793533 0 0.0041846526033741073 0.0026409605536574471 0 0.0041401357535836821 0.0026099261746774139 0 0.0041757682897901075 0.0026437561652975492 0 0.0041401357535836821 0.0026099261746774139 0 0.0040695561052384926 0.0025745141401793533 0 0.0041757682897901075 0.0026437561652975492 0 0.0042225326411410215 0.0026604077512181277 0 0.0041401357535836821 0.0026099261746774139 0 0.0041862557843194651 0.0022373887853298245 0 0.0038550082547717636 0.003072030438285675 0 0.0040695561052384926 0.0025745141401793533 0 0.0041644450864358942 0.0034127516766475673 0 0.0040706489901875219 0.0025483266499333351 0 0.0042083983376182644 0.0031405349175416624 0 0.0042225326411410215 0.0026604077512181277 0 0.0041846526033741073 0.0026409605536574471 0 0.0041401357535836821 0.0026099261746774139 0 0.0042570879905025104 0.0021365173583992392 0 0.0041862557843194651 0.0022373887853298245 0 0.0039522899064453852 0.0022749620505640852 0 0.0042358314738861732 0.0024676025474922314 0 0.0041840477178460931 0.002114027908555837 0 0.0041401357535836821 0.0026099261746774139 0 0.0040695561052384926 0.0025745141401793533 0 0.0041862557843194651 0.0022373887853298245 0 0.0040695561052384926 0.0025745141401793533 0 0.0041862557843194651 0.0022373887853298245 0 0.0039522899064453852 0.0022749620505640852 0 0.0032241639810170835 0.0025894522951342403 0 0.0037417197185854118 0.0024101497139693111 0 0.0031773095654026745 0.0026180167734607043 0 0.0035543761764307256 0.0025321615454259668 0 0.0034730367448875241 0.0024091788366957917 0 0.0031773095654026745 0.0026180167734607043 0 0.0036597563563134389 0.0027713760798672412 0 0.0039522899064453852 0.0022749620505640852 0 0.0036597563563134389 0.0027713760798672412 0 0.0040695561052384926 0.0025745141401793533 0 0.0039522899064453852 0.0022749620505640852 0 0.0035543761764307256 0.0025321615454259668 0 0.0034730367448875241 0.0024091788366957917 0 0.0036289591635509481 0.0024161539335685652 0 0.0034730367448875241 0.0024091788366957917 0 0.0036289591635509481 0.0024161539335685652 0 0.0035891171492258064 0.0023406266008550759 0 0.0034730367448875241 0.0024091788366957917 0 0.0033524022629867227 0.0021999599122367324 0 0.0033103057280091464 0.0023434110456654897 0 0.0036289591635509481 0.0024161539335685652 0 0.0036976945839257685 0.0023691939661919272 0 0.0035891171492258064 0.0023406266008550759 0 0.0039943684454215598 0.0022799994479453995 0 0.0037417197185854118 0.0024101497139693111 0 0.0037465330543134056 0.0024234894370662556 0 0.0035543761764307256 0.0025321615454259668 0 0.0036289591635509481 0.0024161539335685652 0 0.0037465330543134056 0.0024234894370662556 0 0.0036289591635509481 0.0024161539335685652 0 0.0036976945839257685 0.0023691939661919272 0 0.0037098092582841654 0.002325239675677898 0 0.0035891171492258064 0.0023406266008550759 0 0.0036065091543308024 0.0023181170384739078 0 0.0037098092582841654 0.002325239675677898 0 0.0036976945839257685 0.0023691939661919272 0 0.0035891171492258064 0.0023406266008550759 0 0.0035891171492258064 0.0023406266008550759 0 0.003562245072712098 0.0023534773911055669 0 0.0036065091543308024 0.0023181170384739078 0 0.0034730367448875241 0.0024091788366957917 0 0.0035891171492258064 0.0023406266008550759 0 0.0033524022629867227 0.0021999599122367324 0 0.0035602150973460594 0.0023261002277739909 0 0.0034768028107931819 0.0023076167389441508 0 0.003562245072712098 0.0023534773911055669 0 0.0035073529587300776 0.0023557290357456117 0 0.0035663434897853495 0.0023236513043771684 0 0.0033524022629867227 0.0021999599122367324 0 0.0031983075812094513 0.0022504551967657449 0 0.0031281996131764058 0.0021154057561569187 0 0.0034768028107931819 0.0023076167389441508 0 0.0021645760654834959 0.0044551747558338661 0 0.0033524022629867227 0.0021999599122367324 0 0.0031983075812094513 0.0022504551967657449 0 0.0033103057280091464 0.0023434110456654897 0 0.0031773095654026745 0.0026180167734607043 0 0.0030947586857299511 0.0024152808096310346 0 0.0033103057280091464 0.0023434110456654897 0 0.0031773095654026745 0.0026180167734607043 0 0.0034730367448875241 0.0024091788366957917 0 0.0033103057280091464 0.0023434110456654897 0 0.0031983075812094513 0.0022504551967657449 0 0.0033103057280091464 0.0023434110456654897 0 0.0030004062232414459 0.0023616101893864394 0 0.0035336254023399165 0.0022146993871916269 0 0.0022447189403772983 0.0032033330884058283 0 0.0030947586857299511 0.0024152808096310346 0 0.0033103057280091464 0.0023434110456654897 0 0.0028562696777717674 0.0022516533279314916 0 0.0022447189403772983 0.0032033330884058283 0 0.0028262131858270254 0.0022510080445430672 0 0.0030947586857299511 0.0024152808096310346 0 0.0028562696777717674 0.0022516533279314916 0 0.0026156438743864274 0.0026374537809804254 0 0.001165182588532782 0.0058351642776322162 0 0.00095185557343245119 0.0062513289457507368 0 0.00136700325151282 0.0061467277686556411 0 0.0022447189403772983 0.0032033330884058283 0 0.0021645760654834959 0.0044551747558338661 0 0.0031983075812094513 0.0022504551967657449 0 0.0030004062232414459 0.0023616101893864394 0 0.0031281996131764058 0.0021154057561569187 0 0.0012910423836497117 0.0065987934919373116 0 0.0013568711975335281 0.0068182892909705297 0 0.0012022984866033204 0.0068387766089798531 0 0.0012910423836497117 0.0065987934919373116 0 0.0013568711975335281 0.0068182892909705297 0 0.0015329735649491653 0.0066855110499068953 0 0.00095185557343245119 0.0062513289457507368 0 0.0014016369539732866 0.0064831084802654329 0 0.00136700325151282 0.0061467277686556411 0 0.0021645760654834959 0.0044551747558338661 0 0.0013887183148628764 0.0067115772246603093 0 0.0035073529587300776 0.0023557290357456117 0 0.0035365110226262177 0.0023042271369361224 0 0.0035663434897853495 0.0023236513043771684 0 0.0021645760654834959 0.0044551747558338661 0 0.0023463990083470686 0.0045976138275214988 0 0.0035365110226262177 0.0023042271369361224 0 0.0035663434897853495 0.0023236513043771684 0 0.0035864387150853407 0.0022904158264546322 0 0.0012022984866033204 0.0068387766089798531 0 0.0011775726076910338 0.0070593106204097575 0 0.0012271966851489834 0.0070865555441437149 0 0.0023463990083470686 0.0045976138275214988 0 0.0030434658647378755 0.0046589684225173886 0 0.0035365110226262177 0.0023042271369361224 0 0.0035864387150853407 0.0022904158264546322 0 0.0035648364949301763 0.0022555842771216331 0 0.0012022984866033204 0.0068387766089798531 0 0.0012774540025331704 0.0069955642903484164 0 0.0012271966851489834 0.0070865555441437149 0 0.0013568711975335281 0.0068182892909705297 0 0.0012022984866033204 0.0068387766089798531 0 0.0012774540025331704 0.0069955642903484164 0 0.0012774540025331704 0.0069955642903484164 0 0.0013124607056726157 0.0071471315288430155 0 0.0014632965605687318 0.0069696580750202219 0 0.0013568711975335281 0.0068182892909705297 0 0.0015329735649491653 0.0066855110499068953 0 0.0014632965605687318 0.0069696580750202219 0 0.0013568711975335281 0.0068182892909705297 0 0.0012774540025331704 0.0069955642903484164 0 0.0014632965605687318 0.0069696580750202219 0 0.0037098092582841654 0.002325239675677898 0 0.0036065091543308024 0.0023181170384739078 0 0.0036616550885351664 0.0022573841354005426 0 0.0036065091543308024 0.0023181170384739078 0 0.0035864387150853407 0.0022904158264546322 0 0.0036616550885351664 0.0022573841354005426 0 0.003562245072712098 0.0023534773911055669 0 0.0036065091543308024 0.0023181170384739078 0 0.0035663434897853495 0.0023236513043771684 0 0.0036065091543308024 0.0023181170384739078 0 0.0035663434897853495 0.0023236513043771684 0 0.0035864387150853407 0.0022904158264546322 0 0.0047745873904314401 0.0029328810459221372 0 0.0048720069921084266 0.0032159004673116554 0 0.0051797777778588355 0.0031583693277389404 0 0.0035864387150853407 0.0022904158264546322 0 0.0036616550885351664 0.0022573841354005426 0 0.0035648364949301763 0.0022555842771216331 0 0.0044171029099597647 0.0023836172333523771 0 0.0030434658647378755 0.0046589684225173886 0 0.0044048246270736308 0.0031973786356393648 0 0.0047745873904314401 0.0029328810459221372 0 0.0048720069921084266 0.0032159004673116554 0 0.0048720069921084266 0.0032159004673116554 0 0.0050332036735806539 0.0034636890930529137 0 0.004752448799967922 0.0034881821886420402 0 0.0044048246270736308 0.0031973786356393648 0 0.0048720069921084266 0.0032159004673116554 0 0.004752448799967922 0.0034881821886420402 0 0.0030434658647378755 0.0046589684225173886 0 0.0030427723978877011 0.0055111886209515499 0 0.0012406018425935464 0.0070906008930978776 0 0.0013061738279721818 0.0071296827921967874 0 0.0012613415057300243 0.0071196829236290044 0 0.0048720069921084266 0.0032159004673116554 0 0.0051797777778588355 0.0031583693277389404 0 0.0050332036735806539 0.0034636890930529137 0 0.0042402565648325362 0.004796307757593387 0 0.0030427723978877011 0.0055111886209515499 0 0.0013700230762097826 0.0070812304915051152 0 0.0013164795943961054 0.0071076361337484469 0 0.0013061738279721818 0.0071296827921967874 0 0.0013061738279721818 0.0071296827921967874 0 0.0012613415057300243 0.0071196829236290044 0 0.001288102283377562 0.0071353132232175355 0 0.0013164795943961054 0.0071076361337484469 0 0.001288102283377562 0.0071353132232175355 0 0.0013002515110681863 0.0071262363704148075 0 0.0013164795943961054 0.0071076361337484469 0 0.0013061738279721818 0.0071296827921967874 0 0.001288102283377562 0.0071353132232175355 0 0.0042402565648325362 0.004796307757593387 0 0.0046517069219741804 0.0033385064940384488 0 0.0048790076442081142 0.0037749805129182507 0 0.0050332036735806539 0.0034636890930529137 0 0.004752448799967922 0.0034881821886420402 0 0.0048790076442081142 0.0037749805129182507 0 0.0044784305785457532 0.0035411978232395718 0 0.004752448799967922 0.0034881821886420402 0 0.0013124607056726157 0.0071471315288430155 0 0.0013928765057276034 0.0073111294058602191 0 0.0014632965605687318 0.0069696580750202219 0 0.0013124607056726157 0.0071471315288430155 0 0.0012677534873557635 0.0071210508645784985 0 0.0012927431331231684 0.0071631834413852279 0 0.0013124607056726157 0.0071471315288430155 0 0.0012927431331231684 0.0071631834413852279 0 0.0013296123088996474 0.0072210597739819065 0 0.0013124607056726157 0.0071471315288430155 0 0.0013296123088996474 0.0072210597739819065 0 0.0013928765057276034 0.0073111294058602191 0 0.0012774540025331704 0.0069955642903484164 0 0.0012271966851489834 0.0070865555441437149 0 0.0012677534873557635 0.0071210508645784985 0 0.0012774540025331704 0.0069955642903484164 0 0.0013124607056726157 0.0071471315288430155 0 0.0012677534873557635 0.0071210508645784985 0 0.0012406018425935464 0.0070906008930978776 0 0.0012271966851489834 0.0070865555441437149 0 0.0012613415057300243 0.0071196829236290044 0 0.0012271966851489834 0.0070865555441437149 0 0.0012613415057300243 0.0071196829236290044 0 0.0012677534873557635 0.0071210508645784985 0 0.0030434658647378755 0.0046589684225173886 0 0.0024768586234504412 0.0050067860196701371 0 0.0012613415057300243 0.0071196829236290044 0 0.0012677534873557635 0.0071210508645784985 0 0.001279836900672119 0.0071477105992532276 0 0.0012677534873557635 0.0071210508645784985 0 0.0012927431331231684 0.0071631834413852279 0 0.001279836900672119 0.0071477105992532276 0 0.0012912152006708231 0.007152695907833127 0 0.0012930353972353678 0.0071709589146124108 0 0.0012963670869668121 0.007175390889609271 0 0.0012927431331231684 0.0071631834413852279 0 0.001279836900672119 0.0071477105992532276 0 0.0012930353972353678 0.0071709589146124108 0 0.001279836900672119 0.0071477105992532276 0 0.0012912152006708231 0.007152695907833127 0 0.0012930353972353678 0.0071709589146124108 0 0.0012613415057300243 0.0071196829236290044 0 0.001279836900672119 0.0071477105992532276 0 0.001288102283377562 0.0071353132232175355 0 0.001279836900672119 0.0071477105992532276 0 0.0012912152006708231 0.007152695907833127 0 0.001288102283377562 0.0071353132232175355 0 0.0012912152006708231 0.007152695907833127 0 0.001288102283377562 0.0071353132232175355 0 0.0013002515110681863 0.0071262363704148075 0 0.0012912152006708231 0.007152695907833127 0 0.0013002515110681863 0.0071262363704148075 0 0.0012963670869668121 0.007175390889609271 0 0.0012963670869668121 0.007175390889609271 0 0.0012890749209540679 0.0071402111747707799 0 0.0013296123088996474 0.0072210597739819065 0 0.0010445247804618724 0.0076195825627345844 0 0.001433114762890183 0.0072563473435002003 0 0.0012890749209540679 0.0071402111747707799 0 0.0013296123088996474 0.0072210597739819065 0 0.0013928765057276034 0.0073111294058602191 0 0.0010017373335454935 0.0078557227614911799 0 0.0012835652221332161 0.0078214451657974884 0 0.0013928765057276034 0.0073111294058602191 0 0.0012930353972353678 0.0071709589146124108 0 0.0012963670869668121 0.007175390889609271 0 0.0013296123088996474 0.0072210597739819065 0 0.0012927431331231684 0.0071631834413852279 0 0.0012930353972353678 0.0071709589146124108 0 0.0013296123088996474 0.0072210597739819065 0 0.0014076055414618128 0.0081097035283468413 0 0.0012835652221332161 0.0078214451657974884 0 0.0017369534481591104 0.0074566403912918406 0 0.0012835652221332161 0.0078214451657974884 0 0.0013928765057276034 0.0073111294058602191 0 0.0017369534481591104 0.0074566403912918406 0 0.0013928765057276034 0.0073111294058602191 0 0.0017310832538685089 0.0070720204450381357 0 0.0014632965605687318 0.0069696580750202219 0 0.0013928765057276034 0.0073111294058602191 0 0.0017310832538685089 0.0070720204450381357 0 0.0017369534481591104 0.0074566403912918406 0 0.0017310832538685089 0.0070720204450381357 0 0.0017369534481591104 0.0074566403912918406 0 0.0020351037436263323 0.0071571279634841754 0 0.0017369534481591104 0.0074566403912918406 0 0.0020902620304048044 0.007415798570497123 0 0.0020351037436263323 0.0071571279634841754 0 0.0017369534481591104 0.0074566403912918406 0 0.0020117909145284537 0.0077754612558695573 0 0.0020902620304048044 0.007415798570497123 0 0.0014076055414618128 0.0081097035283468413 0 0.0017369534481591104 0.0074566403912918406 0 0.0020117909145284537 0.0077754612558695573 0 0.0017211890845318328 0.0079720655468061546 0 0.001721789992914696 0.0081866166218908278 0 0.0020117909145284537 0.0077754612558695573 0 0.0022192076559255729 0.0074991952610205977 0 0.0024479134501086369 0.0075203564684916974 0 0.0013836492923734473 0.0082804584406346721 0 0.00133845984552192 0.0082616215047823759 0 0.0014215181014677774 0.0082204873748596002 0 0.0012733873407630562 0.0085927167959540356 0 0.001721789992914696 0.0081866166218908278 0 0.0022192076559255729 0.0074991952610205977 0 0.0024479134501086369 0.0075203564684916974 0 0.0023236108507055349 0.007297187771623281 0 0.0020117909145284537 0.0077754612558695573 0 0.0022192076559255729 0.0074991952610205977 0 0.0020902620304048044 0.007415798570497123 0 0.0010695172837959343 0.0089755787181146542 0 0.0010333873117802938 0.0089220580832873909 0 0.0010128503963161819 0.0090047424372158361 0 0.0010695172837959343 0.0089755787181146542 0 0.0010333873117802938 0.0089220580832873909 0 0.001084165123016557 0.008858628566581421 0 0.0010176141534436465 0.0088298353010744183 0 0.0010333873117802938 0.0089220580832873909 0 0.001084165123016557 0.008858628566581421 0 0.0010695172837959343 0.0089755787181146542 0 0.001084165123016557 0.008858628566581421 0 0.0011281889826444695 0.0089766452805601134 0 0.0012782658297661117 0.0087380770594691071 0 0.0011627030463192251 0.0088644830731945505 0 0.0011988004005497267 0.0090207819986896157 0 0.0011627030463192251 0.0088644830731945505 0 0.0011988004005497267 0.0090207819986896157 0 0.0011281889826444695 0.0089766452805601134 0 0.001084165123016557 0.008858628566581421 0 0.0011627030463192251 0.0088644830731945505 0 0.0011281889826444695 0.0089766452805601134 0 0.0016248923956392299 0.0083036794188329245 0 0.0017902167739445736 0.0082246509797777607 0 0.0018363933130445063 0.0079460718909747114 0 0.001721789992914696 0.0081866166218908278 0 0.0015347982708672698 0.0084364154338263248 0 0.0011988004005497267 0.0090207819986896157 0 0.0011317942959096739 0.0090572602307577646 0 0.0011281889826444695 0.0089766452805601134 0 0.0011317942959096739 0.0090572602307577646 0 0.00106167022796901 0.0090431977517917064 0 0.00098743822735393146 0.0091372507473219469 0 0.0010695172837959343 0.0089755787181146542 0 0.0011281889826444695 0.0089766452805601134 0 0.00106167022796901 0.0090431977517917064 0 0.0011317942959096739 0.0090572602307577646 0 0.0011281889826444695 0.0089766452805601134 0 0.00106167022796901 0.0090431977517917064 0 0.0010695172837959343 0.0089755787181146542 0 0.00106167022796901 0.0090431977517917064 0 0.0010128503963161819 0.0090047424372158361 0 0.0019645986994959799 0.0078224890848235876 0 0.0023479477482751415 0.0072348681576556509 0 0.0016377110450897583 0.0083336292687757572 0 0.0016261978486288738 0.0084028010022890853 0 0.0014804752387413992 0.0084136622572957356 0 0.0015347982708672698 0.0084364154338263248 0 0.0019645986994959799 0.0078224890848235876 0 0.001721789992914696 0.0081866166218908278 0 0.0019645986994959799 0.0078224890848235876 0 0.0024479134501086369 0.0075203564684916974 0 0.0025812169761881957 0.0072935628635678847 0 0.0023236108507055349 0.007297187771623281 0 0.0025812169761881957 0.0072935628635678847 0 0.0023236108507055349 0.007297187771623281 0 0.002343938739140166 0.0069907206377171427 0 0.0019645986994959799 0.0078224890848235876 0 0.0017619065670728209 0.0081605386646063389 0 0.0022192076559255729 0.0074991952610205977 0 0.0020902620304048044 0.007415798570497123 0 0.0023236108507055349 0.007297187771623281 0 0.0020902620304048044 0.007415798570497123 0 0.0023236108507055349 0.007297187771623281 0 0.0020351037436263323 0.0071571279634841754 0 0.0023236108507055349 0.007297187771623281 0 0.0020351037436263323 0.0071571279634841754 0 0.002343938739140166 0.0069907206377171427 0 0.0020351037436263323 0.0071571279634841754 0 0.002343938739140166 0.0069907206377171427 0 0.0018717809864736482 0.0067395158630147722 0 0.002343938739140166 0.0069907206377171427 0 0.0023153045367683214 0.0066322733230810517 0 0.0018717809864736482 0.0067395158630147722 0 0.0020016783025768913 0.0077483745393162572 0 0.0019990755974292362 0.0077546044452891727 0 0.0019953566552903478 0.0077542369771131233 0 0.0025812169761881957 0.0072935628635678847 0 0.002343938739140166 0.0069907206377171427 0 0.0026557031260019837 0.0068774688333447217 0 0.002343938739140166 0.0069907206377171427 0 0.0026557031260019837 0.0068774688333447217 0 0.0023153045367683214 0.0066322733230810517 0 0.0026557031260019837 0.0068774688333447217 0 0.0027345841558015001 0.0064497595801181222 0 0.0023153045367683214 0.0066322733230810517 0 0.0022593440524104427 0.0072129672525146453 0 0.002357091211799904 0.0061013201377532441 0 0.0023479477482751415 0.0072348681576556509 0 0.0022593440524104427 0.0072129672525146453 0 0.0019990755974292362 0.0077546044452891727 0 0.001997368967451407 0.0077647535787479611 0 0.0019946218470488853 0.0077597292723706824 0 0.0027345841558015001 0.0064497595801181222 0 0.0023153045367683214 0.0066322733230810517 0 0.0022302100671096558 0.006209520949824774 0 0.0020629065178794817 0.0064587181843993044 0 0.0023153045367683214 0.0066322733230810517 0 0.0022302100671096558 0.006209520949824774 0 0.0020629065178794817 0.0064587181843993044 0 0.0023153045367683214 0.0066322733230810517 0 0.0018717809864736482 0.0067395158630147722 0 0.0020629065178794817 0.0064587181843993044 0 0.0018717809864736482 0.0067395158630147722 0 0.0018279170428761274 0.0062576519636737488 0 0.0014016369539732866 0.0064831084802654329 0 0.0018717809864736482 0.0067395158630147722 0 0.0018279170428761274 0.0062576519636737488 0 0.0013887183148628764 0.0067115772246603093 0 0.0018658128629337545 0.006720127337655874 0 0.0015329735649491653 0.0066855110499068953 0 0.0014632965605687318 0.0069696580750202219 0 0.0018717809864736482 0.0067395158630147722 0 0.0017310832538685089 0.0070720204450381357 0 0.0014632965605687318 0.0069696580750202219 0 0.0018717809864736482 0.0067395158630147722 0 0.0017310832538685089 0.0070720204450381357 0 0.0020351037436263323 0.0071571279634841754 0 0.0018717809864736482 0.0067395158630147722 0 0.00072593193094937648 0.0093731431187844116 0 0.00072697671546816534 0.0094154132360166603 0 0.00074587264085679901 0.0094802491322637655 0 0.00072593193094937648 0.0093731431187844116 0 0.00074009524682860136 0.0094293288973228088 0 0.00074587264085679901 0.0094802491322637655 0 0.00072593193094937648 0.0093731431187844116 0 0.00075776192461482071 0.0093777769389431342 0 0.00074009524682860136 0.0094293288973228088 0 0.0006558612673094518 0.0093013331686261757 0 0.00067256699463706909 0.0092333086417490853 0 0.00072697671546816534 0.0094154132360166603 0 0.00072593193094937648 0.0093731431187844116 0 0.00070579489498442667 0.009295244200001768 0 0.00072697671546816534 0.0094154132360166603 0 0.00067256699463706909 0.0092333086417490853 0 0.00070579489498442667 0.009295244200001768 0 0.00072697671546816534 0.0094154132360166603 0 0.00067256699463706909 0.0092333086417490853 0 0.00070579489498442667 0.009295244200001768 0 0.00070486841528397527 0.0091768828249982979 0 0.00072593193094937648 0.0093731431187844116 0 0.00070579489498442667 0.009295244200001768 0 0.00073108861295181633 0.0092538119265602181 0 0.00070579489498442667 0.009295244200001768 0 0.00073108861295181633 0.0092538119265602181 0 0.00070486841528397527 0.0091768828249982979 0 0.00073108861295181633 0.0092538119265602181 0 0.00070486841528397527 0.0091768828249982979 0 0.00077252922052832281 0.0091717069585163496 0 0.00070486841528397527 0.0091768828249982979 0 0.00075214825373878878 0.0090886840803341157 0 0.00077252922052832281 0.0091717069585163496 0 0.00073108861295181633 0.0092538119265602181 0 0.00077252922052832281 0.0091717069585163496 0 0.00076548123894962098 0.0092573778232261841 0 0.00077252922052832281 0.0091717069585163496 0 0.00076548123894962098 0.0092573778232261841 0 0.0008085540465147279 0.0092143529342979674 0 0.00076548123894962098 0.0092573778232261841 0 0.00074715492633841037 0.0093276303939372213 0 0.00078132055618340126 0.0093117766769246837 0 0.00076548123894962098 0.0092573778232261841 0 0.00078132055618340126 0.0093117766769246837 0 0.0008085540465147279 0.0092143529342979674 0 0.00073108861295181633 0.0092538119265602181 0 0.00076548123894962098 0.0092573778232261841 0 0.00074715492633841037 0.0093276303939372213 0 0.00072593193094937648 0.0093731431187844116 0 0.00073108861295181633 0.0092538119265602181 0 0.00074715492633841037 0.0093276303939372213 0 0.00074715492633841037 0.0093276303939372213 0 0.00075776192461482071 0.0093777769389431342 0 0.00078132055618340126 0.0093117766769246837 0 0.00072593193094937648 0.0093731431187844116 0 0.00074715492633841037 0.0093276303939372213 0 0.00075776192461482071 0.0093777769389431342 0 0.00078132055618340126 0.0093117766769246837 0 0.00082136177744767357 0.0093071279957648058 0 0.00078669261629570736 0.0093731703765352926 0 0.00075776192461482071 0.0093777769389431342 0 0.00078132055618340126 0.0093117766769246837 0 0.00078669261629570736 0.0093731703765352926 0 0.00082136177744767357 0.0093071279957648058 0 0.00091777748229223864 0.0092433359423469939 0 0.00078669261629570736 0.0093731703765352926 0 0.00093395093327108109 0.0091503653174371327 0 0.00076960870017599614 0.0093921785028881471 0 0.00082136177744767357 0.0093071279957648058 0 0.0008707823493544995 0.009257592544457377 0 0.00082106095315504315 0.0092677037732628899 0 0.00078132055618340126 0.0093117766769246837 0 0.00082136177744767357 0.0093071279957648058 0 0.00082106095315504315 0.0092677037732628899 0 0.00082136177744767357 0.0093071279957648058 0 0.0008707823493544995 0.009257592544457377 0 0.00091777748229223864 0.0092433359423469939 0 0.00084655449363066121 0.0092185053371206353 0 0.0008085540465147279 0.0092143529342979674 0 0.00085894606393889777 0.0091482502646866963 0 0.0008707823493544995 0.009257592544457377 0 0.00084655449363066121 0.0092185053371206353 0 0.00082106095315504315 0.0092677037732628899 0 0.0008707823493544995 0.009257592544457377 0 0.00089545446927787248 0.0092257252348466028 0 0.00091777748229223864 0.0092433359423469939 0 0.0008707823493544995 0.009257592544457377 0 0.0008838829692339198 0.009196605217021387 0 0.00089545446927787248 0.0092257252348466028 0 0.0008707823493544995 0.009257592544457377 0 0.0008838829692339198 0.009196605217021387 0 0.00084655449363066121 0.0092185053371206353 0 0.0008838829692339198 0.009196605217021387 0 0.00084655449363066121 0.0092185053371206353 0 0.00085894606393889777 0.0091482502646866963 0 0.00078132055618340126 0.0093117766769246837 0 0.00082106095315504315 0.0092677037732628899 0 0.0008085540465147279 0.0092143529342979674 0 0.00084655449363066121 0.0092185053371206353 0 0.00082106095315504315 0.0092677037732628899 0 0.0008085540465147279 0.0092143529342979674 0 0.0008085540465147279 0.0092143529342979674 0 0.00083010954100704395 0.009112993829488842 0 0.00085894606393889777 0.0091482502646866963 0 0.00077252922052832281 0.0091717069585163496 0 0.0008085540465147279 0.0092143529342979674 0 0.00083010954100704395 0.009112993829488842 0 0.00075214825373878878 0.0090886840803341157 0 0.00077252922052832281 0.0091717069585163496 0 0.00080380026152501618 0.0090399045700819986 0 0.00077252922052832281 0.0091717069585163496 0 0.00083010954100704395 0.009112993829488842 0 0.00080380026152501618 0.0090399045700819986 0 0.00083010954100704395 0.009112993829488842 0 0.00080380026152501618 0.0090399045700819986 0 0.00086852464321929659 0.0090134073253015784 0 0.00083010954100704395 0.009112993829488842 0 0.00086852464321929659 0.0090134073253015784 0 0.00088272479769603714 0.0090795421602983279 0 0.00086852464321929659 0.0090134073253015784 0 0.00088272479769603714 0.0090795421602983279 0 0.00090842827069420107 0.0090225521231664541 0 0.00083010954100704395 0.009112993829488842 0 0.00088272479769603714 0.0090795421602983279 0 0.00085894606393889777 0.0091482502646866963 0 0.00088272479769603714 0.0090795421602983279 0 0.00085894606393889777 0.0091482502646866963 0 0.00089445679705861872 0.00913634771738067 0 0.0008838829692339198 0.009196605217021387 0 0.00085894606393889777 0.0091482502646866963 0 0.00089445679705861872 0.00913634771738067 0 0.00089445679705861872 0.00913634771738067 0 0.00092256303149577544 0.00907613328012781 0 0.0009289001960473193 0.0091482326845101544 0 0.00092256303149577544 0.00907613328012781 0 0.00096963562510411544 0.0090762875142514493 0 0.0009289001960473193 0.0091482326845101544 0 0.00092256303149577544 0.00907613328012781 0 0.00095365107398437561 0.0090051103035070287 0 0.00096963562510411544 0.0090762875142514493 0 0.00088272479769603714 0.0090795421602983279 0 0.00092256303149577544 0.00907613328012781 0 0.00090842827069420107 0.0090225521231664541 0 0.00088272479769603714 0.0090795421602983279 0 0.00089445679705861872 0.00913634771738067 0 0.00092256303149577544 0.00907613328012781 0 0.00092256303149577544 0.00907613328012781 0 0.00090842827069420107 0.0090225521231664541 0 0.00095365107398437561 0.0090051103035070287 0 0.00091888998001757663 0.0089360948313657162 0 0.00090842827069420107 0.0090225521231664541 0 0.00095365107398437561 0.0090051103035070287 0 0.00091888998001757663 0.0089360948313657162 0 0.00086852464321929659 0.0090134073253015784 0 0.00090842827069420107 0.0090225521231664541 0 0.0010176141534436465 0.0088298353010744183 0 0.0010333873117802938 0.0089220580832873909 0 0.00098585079905229279 0.0089200725739028656 0 0.00091888998001757663 0.0089360948313657162 0 0.00095365107398437561 0.0090051103035070287 0 0.00098585079905229279 0.0089200725739028656 0 0.00095365107398437561 0.0090051103035070287 0 0.00098585079905229279 0.0089200725739028656 0 0.0010128503963161819 0.0090047424372158361 0 0.0010333873117802938 0.0089220580832873909 0 0.00098585079905229279 0.0089200725739028656 0 0.0010128503963161819 0.0090047424372158361 0 0.0010128503963161819 0.0090047424372158361 0 0.00096963562510411544 0.0090762875142514493 0 0.0010096545138314882 0.009070582217134809 0 0.00106167022796901 0.0090431977517917064 0 0.0010128503963161819 0.0090047424372158361 0 0.0010096545138314882 0.009070582217134809 0 0.00095365107398437561 0.0090051103035070287 0 0.0010128503963161819 0.0090047424372158361 0 0.00096963562510411544 0.0090762875142514493 0 0.00096963562510411544 0.0090762875142514493 0 0.0010096545138314882 0.009070582217134809 0 0.00098743822735393146 0.0091372507473219469 0 0.00096963562510411544 0.0090762875142514493 0 0.00098743822735393146 0.0091372507473219469 0 0.0009289001960473193 0.0091482326845101544 0 0.00106167022796901 0.0090431977517917064 0 0.0010096545138314882 0.009070582217134809 0 0.00098743822735393146 0.0091372507473219469 0 0.0016261978486288738 0.0084028010022890853 0 0.0014804752387413992 0.0084136622572957356 0 0.0015441824730386539 0.0085390284633517968 0 0.0015347982708672698 0.0084364154338263248 0 0.0011444809973729865 0.0089414136727100774 0 0.0011317942959096739 0.0090572602307577646 0 0.00098743822735393146 0.0091372507473219469 0 0.00095037832394259279 0.0092146122907465575 0 0.00098743822735393146 0.0091372507473219469 0 0.00093560805316303657 0.0091839251611913718 0 0.0009289001960473193 0.0091482326845101544 0 0.00093560805316303657 0.0091839251611913718 0 0.0009289001960473193 0.0091482326845101544 0 0.00091078993332963879 0.0092050339345144151 0 0.0008838829692339198 0.009196605217021387 0 0.0009289001960473193 0.0091482326845101544 0 0.00091078993332963879 0.0092050339345144151 0 0.0008838829692339198 0.009196605217021387 0 0.00089445679705861872 0.00913634771738067 0 0.0009289001960473193 0.0091482326845101544 0 0.00093560805316303657 0.0091839251611913718 0 0.00091078993332963879 0.0092050339345144151 0 0.00091777748229223864 0.0092433359423469939 0 0.0008838829692339198 0.009196605217021387 0 0.00091078993332963879 0.0092050339345144151 0 0.00089545446927787248 0.0092257252348466028 0 0.00091078993332963879 0.0092050339345144151 0 0.00089545446927787248 0.0092257252348466028 0 0.00091777748229223864 0.0092433359423469939 0 0.00098743822735393146 0.0091372507473219469 0 0.00095037832394259279 0.0092146122907465575 0 0.00091777748229223864 0.0092433359423469939 0 0.00098743822735393146 0.0091372507473219469 0 0.00093560805316303657 0.0091839251611913718 0 0.00091777748229223864 0.0092433359423469939 0 0.0011444809973729865 0.0089414136727100774 0 0.00093395093327108109 0.0091503653174371327 0 0.0009212514067431178 0.0092914122721232204 0 0.00090214453514807669 0.0093008712114437276 0 0.0008646937903807921 0.0093703869817979082 0 0.0009212514067431178 0.0092914122721232204 0 0.00089244144887604181 0.0094510388625863081 0 0.0008646937903807921 0.0093703869817979082 0 0.0014804752387413992 0.0084136622572957356 0 0.0015441824730386539 0.0085390284633517968 0 0.0014380700226950909 0.0086638618391471217 0 0.0011444809973729865 0.0089414136727100774 0 0.0012751109672028893 0.0088942392956423769 0 0.0015441824730386539 0.0085390284633517968 0 0.0014380700226950909 0.0086638618391471217 0 0.0014635795763956125 0.0086744542406179126 0 0.0017619065670728209 0.0081605386646063389 0 0.0016047011313126097 0.008383763374754204 0 0.0019953566552903478 0.0077542369771131233 0 0.0019946218470488853 0.0077597292723706824 0 0.0019873970202124967 0.0077648394358632222 0 0.0019990755974292362 0.0077546044452891727 0 0.0019953566552903478 0.0077542369771131233 0 0.0019946218470488853 0.0077597292723706824 0 0.001997368967451407 0.0077647535787479611 0 0.0019946218470488853 0.0077597292723706824 0 0.0019873970202124967 0.0077648394358632222 0 0.0022593440524104427 0.0072129672525146453 0 0.0016047011313126097 0.008383763374754204 0 0.0015749313286847625 0.007804120113581346 0 0.001871583274961577 0.0078194890812771107 0 0.0019157710218412464 0.0079579116415143796 0 0.0015749313286847625 0.007804120113581346 0 0.0017678883638407603 0.0077174111841664056 0 0.001871583274961577 0.0078194890812771107 0 0.0017678883638407603 0.0077174111841664056 0 0.001871583274961577 0.0078194890812771107 0 0.0020121269511077038 0.0077958918447443119 0 0.0017233749348587715 0.0081748854887884904 0 0.0015211670403143449 0.0086755055725812168 0 0.0017678883638407603 0.0077174111841664056 0 0.0020157496309009303 0.0077945063719718861 0 0.0020434360612987946 0.0077480204587573502 0 0.0015211670403143449 0.0086755055725812168 0 0.0016833596090349444 0.0085227049684975398 0 0.001871583274961577 0.0078194890812771107 0 0.0020121269511077038 0.0077958918447443119 0 0.0019157710218412464 0.0079579116415143796 0 0.0015211670403143449 0.0086755055725812168 0 0.0016047011313126097 0.008383763374754204 0 0.0013719142136303715 0.0086038917295399187 0 0.0013669677868430766 0.0086616749022321218 0 0.0013438590328877478 0.0086512424200287652 0 0.0015211670403143449 0.0086755055725812168 0 0.0012751109672028893 0.0088942392956423769 0 0.0012751109672028893 0.0088942392956423769 0 0.0016047011313126097 0.008383763374754204 0 0.00092786861086210134 0.0094638122262549699 0 0.00081922697695201868 0.0094336759726881114 0 0.00083058351142559 0.0094819797407110998 0 0.00092582363100917719 0.0095012311460216537 0 0.00092786861086210134 0.0094638122262549699 0 0.00083058351142559 0.0094819797407110998 0 0.0015211670403143449 0.0086755055725812168 0 0.0010822207646525497 0.0094026119619155697 0 0.0014968881834498185 0.0093535252197288615 0 0.0014472670014010198 0.0093742548054614461 0 0.0014141370318571306 0.0093351550780671477 0 0.0014968881834498185 0.0093535252197288615 0 0.0014922740371513807 0.0093618436875626421 0 0.0014472670014010198 0.0093742548054614461 0 0.0014472670014010198 0.0093742548054614461 0 0.0014141370318571306 0.0093351550780671477 0 0.0013914214801687347 0.0093784701152795202 0 0.0012751109672028893 0.0088942392956423769 0 0.0007672296468639048 0.0094498417367868612 0 0.00090214453514807669 0.0093008712114437276 0 0.0008646937903807921 0.0093703869817979082 0 0.00078669261629570736 0.0093731703765352926 0 0.00089244144887604181 0.0094510388625863081 0 0.00082209065470923099 0.0093856098182368963 0 0.00078689072901854393 0.0094038564020525496 0 0.00089244144887604181 0.0094510388625863081 0 0.0008646937903807921 0.0093703869817979082 0 0.00082209065470923099 0.0093856098182368963 0 0.00082209065470923099 0.0093856098182368963 0 0.00078669261629570736 0.0093731703765352926 0 0.00078689072901854393 0.0094038564020525496 0 0.0008646937903807921 0.0093703869817979082 0 0.00082209065470923099 0.0093856098182368963 0 0.00078669261629570736 0.0093731703765352926 0 0.0007672296468639048 0.0094498417367868612 0 0.00075557443355425235 0.0094209217955043799 0 0.00081922697695201868 0.0094336759726881114 0 0.00075744948718900495 0.0094626563445559479 0 0.0007462365661531922 0.0094500182759081532 0 0.00075776192461482071 0.0093777769389431342 0 0.00078689072901854393 0.0094038564020525496 0 0.00074009524682860136 0.0094293288973228088 0 0.00081922697695201868 0.0094336759726881114 0 0.0007462365661531922 0.0094500182759081532 0 0.00074009524682860136 0.0094293288973228088 0 0.00075776192461482071 0.0093777769389431342 0 0.00078669261629570736 0.0093731703765352926 0 0.00078689072901854393 0.0094038564020525496 0 0.0010822207646525497 0.0094026119619155697 0 0.0011409551895646439 0.0096533012065858279 0 0.0014141370318571306 0.0093351550780671477 0 0.0013914214801687347 0.0093784701152795202 0 0.0013374423824855789 0.0093169434153224442 0 0.0014494693326228875 0.010381064643596167 0 0.0014115516520437463 0.010312472727883368 0 0.001381933606943895 0.010370161420049323 0 0.00081922697695201868 0.0094336759726881114 0 0.00083058351142559 0.0094819797407110998 0 0.00075744948718900495 0.0094626563445559479 0 0.0014745903557286922 0.0099502321406648459 0 0.0011409551895646439 0.0096533012065858279 0 0.0014115516520437463 0.010312472727883368 0 0.0013479630222639099 0.010322278239922244 0 0.0013072910414496724 0.010212180316724613 0 0.0014115516520437463 0.010312472727883368 0 0.001381933606943895 0.010370161420049323 0 0.0013479630222639099 0.010322278239922244 0 0.001381933606943895 0.010370161420049323 0 0.0013441275276818542 0.010419809195070209 0 0.0013286122688205165 0.010380109078354127 0 0.001381933606943895 0.010370161420049323 0 0.0013479630222639099 0.010322278239922244 0 0.0013286122688205165 0.010380109078354127 0 0.0011409551895646439 0.0096533012065858279 0 0.0010133862856280781 0.0098914065389810856 0 0.00074343855817988298 0.0094384362191770044 0 0.0007462365661531922 0.0094500182759081532 0 0.00077585442083184439 0.0095041760063244319 0 0.0011409551895646439 0.0096533012065858279 0 0.00099955093977116072 0.0095220775608465587 0 0.0007462365661531922 0.0094500182759081532 0 0.00074009524682860136 0.0094293288973228088 0 0.00074587264085679901 0.0094802491322637655 0 0.0013627950780500352 0.010489804083131356 0 0.0013698011435623256 0.010499710184737759 0 0.0012865275322635696 0.010526740291013014 0 0.0013698011435623256 0.010499710184737759 0 0.001395131761685353 0.010506683996611567 0 0.0012865275322635696 0.010526740291013014 0 0.0013627950780500352 0.010489804083131356 0 0.0013698011435623256 0.010499710184737759 0 0.0014024119631475581 0.010483575866882333 0 0.0013627950780500352 0.010489804083131356 0 0.0013603198999446971 0.010455419342480751 0 0.0014130715667894235 0.010451849515749675 0 0.0013627950780500352 0.010489804083131356 0 0.0014130715667894235 0.010451849515749675 0 0.0014024119631475581 0.010483575866882333 0 0.0013627950780500352 0.010489804083131356 0 0.0013603198999446971 0.010455419342480751 0 0.0013214561539469803 0.01048810462742273 0 0.0013603198999446971 0.010455419342480751 0 0.0013075363443921983 0.010465881659068484 0 0.0013214561539469803 0.01048810462742273 0 0.0013603198999446971 0.010455419342480751 0 0.0013441275276818542 0.010419809195070209 0 0.0013959578270747986 0.010418354465980146 0 0.0013603198999446971 0.010455419342480751 0 0.0013441275276818542 0.010419809195070209 0 0.0013075363443921983 0.010465881659068484 0 0.001381933606943895 0.010370161420049323 0 0.0013441275276818542 0.010419809195070209 0 0.0013959578270747986 0.010418354465980146 0 0.0013603198999446971 0.010455419342480751 0 0.0013959578270747986 0.010418354465980146 0 0.0014130715667894235 0.010451849515749675 0 0.0014494693326228875 0.010381064643596167 0 0.001381933606943895 0.010370161420049323 0 0.0013959578270747986 0.010418354465980146 0 0.0014494693326228875 0.010381064643596167 0 0.0014130715667894235 0.010451849515749675 0 0.0014921012221423861 0.010447539264009745 0 0.001420808061408768 0.010429688788349994 0 0.0014830218476582779 0.0097233030736400463 0 0.0014494693326228875 0.010381064643596167 0 0.0013959578270747986 0.010418354465980146 0 0.0014130715667894235 0.010451849515749675 0 0.0014130715667894235 0.010451849515749675 0 0.0014245562685278725 0.010460660843467218 0 0.0014310177056965829 0.010447805547845693 0 0.0014130715667894235 0.010451849515749675 0 0.0014024119631475581 0.010483575866882333 0 0.0014245562685278725 0.010460660843467218 0 0.0014024119631475581 0.010483575866882333 0 0.0014245562685278725 0.010460660843467218 0 0.0014180757668836965 0.010487657878112778 0 0.0016617954805183003 0.0084815315996766977 0 0.0014704534048841863 0.0088361004958202264 0 0.0014544883723757477 0.010438127584475203 0 0.0014401663296181987 0.010443210658133632 0 0.0014369391877882183 0.010479840937484938 0 0.0014245562685278725 0.010460660843467218 0 0.0014401663296181987 0.010443210658133632 0 0.0014369391877882183 0.010479840937484938 0 0.0016617954805183003 0.0084815315996766977 0 0.0018749261931480239 0.0080549980464612661 0 0.001524013158754953 0.0085593936336829449 0 0.0016856475892898582 0.0087603822910128915 0 0.0014893571342356879 0.0087521174421893184 0 0.0014544883723757477 0.010438127584475203 0 0.0014401663296181987 0.010443210658133632 0 0.0014446177920776999 0.010422849903953885 0 0.0016617954805183003 0.0084815315996766977 0 0.0016585774053785303 0.0092333726843579298 0 0.0012862323281296281 0.010457925597464045 0 0.0014830218476582779 0.0097233030736400463 0 0.0014245562685278725 0.010460660843467218 0 0.0014401663296181987 0.010443210658133632 0 0.0014359483043371053 0.010422883336981747 0 0.0014401663296181987 0.010443210658133632 0 0.0014446177920776999 0.010422849903953885 0 0.0014359483043371053 0.010422883336981747 0 0.0016833596090349444 0.0085227049684975398 0 0.0018749261931480239 0.0080549980464612661 0 0.0014494693326228875 0.010381064643596167 0 0.0014921012221423861 0.010447539264009745 0 0.0014965299761718668 0.010439700775406277 0 0.0016833596090349444 0.0085227049684975398 0 0.0016038993480480344 0.0095111068350457548 0 0.0014922740371513807 0.0093618436875626421 0 0.0014472670014010198 0.0093742548054614461 0 0.0014458580703945105 0.009443324684230198 0 0.0018489385620863005 0.0085980845760012022 0 0.0017297972302762693 0.0087987772113859008 0 0.0018082245853168726 0.0088213522628305466 0 0.0016469114832396161 0.009376848044617114 0 0.0018102619366370803 0.009383118557228386 0 0.001742985829834258 0.0094961679968715955 0 0.0016585774053785303 0.0092333726843579298 0 0.0014830218476582779 0.0097233030736400463 0 0.0016585774053785303 0.0092333726843579298 0 0.0016038993480480344 0.0095111068350457548 0 0.0014830218476582779 0.0097233030736400463 0 0.0016038993480480344 0.0095111068350457548 0 0.0014745903557286922 0.0099502321406648459 0 0.0016038993480480344 0.0095111068350457548 0 0.0014472670014010198 0.0093742548054614461 0 0.0013914214801687347 0.0093784701152795202 0 0.0014458580703945105 0.009443324684230198 0 0.0017475077350271493 0.0088203472687002522 0 0.0017297972302762693 0.0087987772113859008 0 0.0018082245853168726 0.0088213522628305466 0 0.0016585774053785303 0.0092333726843579298 0 0.0018749261931480239 0.0080549980464612661 0 0.0017678883638407603 0.0077174111841664056 0 0.0019136148795145353 0.0074711202839683249 0 0.0016726336203737031 0.0072067578726983123 0 0.0020434360612987946 0.0077480204587573502 0 0.0021374767814973578 0.0072316888702161977 0 0.0019136148795145353 0.0074711202839683249 0 0.0015749313286847625 0.007804120113581346 0 0.0017678883638407603 0.0077174111841664056 0 0.0016726336203737031 0.0072067578726983123 0 0.0021374767814973578 0.0072316888702161977 0 0.0019136148795145353 0.0074711202839683249 0 0.0016726336203737031 0.0072067578726983123 0 0.0022593440524104427 0.0072129672525146453 0 0.001869272758595755 0.0055376731574706883 0 0.0017678883638407603 0.0077174111841664056 0 0.0020434360612987946 0.0077480204587573502 0 0.0019136148795145353 0.0074711202839683249 0 0.0018749261931480239 0.0080549980464612661 0 0.001869272758595755 0.0055376731574706883 0 0.0022978195476469543 0.0064659804142517376 0 0.0011042140863815068 0.0067490897327044464 0 0.0013460008192475799 0.0052752071960891446 0 0.0022978195476469543 0.0064659804142517376 0 0.0022374531678274251 0.006799104912466384 0 0.0011042140863815068 0.0067490897327044464 0 0.0016617954805183003 0.0084815315996766977 0 0.0011570092428084286 0.0044408769610126027 0 0.001869272758595755 0.0055376731574706883 0 0.0011570092428084286 0.0044408769610126027 0 0.0011570092428084286 0.0044408769610126027 0 0.0008276920079729167 0.0027405281062650678 0 0.0011812604145685103 0.0030624372468267512 0 0.00078983190271695496 0.0034943347078575625 0 0.0010425479254431076 0.0034378141758027326 0 0.0011570092428084286 0.0044408769610126027 0 0.00089850515952629177 0.0054388633898544017 0 0.00098522874721983277 0.0071505836935797616 0 0.0016052806318741105 0.0066304707290813581 0 0.0011275265090055667 0.0062899552260716066 0 0.00093333110050166344 0.0027655306529392569 0 0.0011812604145685103 0.0030624372468267512 0 0.00078983190271695496 0.0034943347078575625 0 0.0015136805543141077 0.0090817062774404874 0 0.00089850515952629177 0.0054388633898544017 0 0.0015136805543141077 0.0090817062774404874 0 0.001564054697640421 0.0098775578034539201 0 0.0015136805543141077 0.0090817062774404874 0 0.0014704534048841863 0.0088361004958202264 0 0.00098522874721983277 0.0071505836935797616 0 0.0016052806318741105 0.0066304707290813581 0 0.0015107125794684504 0.0071600181923559018 0 0.0014170572835084465 0.007698190993364106 0 0.00098522874721983277 0.0071505836935797616 0 0.0015107125794684504 0.0071600181923559018 0 0.0014306157577179002 0.010490377341126605 0 0.0014369391877882183 0.010479840937484938 0 0.0014180757668836965 0.010487657878112778 0 0.0014245562685278725 0.010460660843467218 0 0.0014369391877882183 0.010479840937484938 0 0.0014180757668836965 0.010487657878112778 0 0.0014306157577179002 0.010490377341126605 0 0.0014180757668836965 0.010487657878112778 0 0.001395131761685353 0.010506683996611567 0 0.0014024119631475581 0.010483575866882333 0 0.0014180757668836965 0.010487657878112778 0 0.001395131761685353 0.010506683996611567 0 0.0017823829712234594 0.011664187868402818 0 0.0017876486352531617 0.01178482201642205 0 0.0020028956201737775 0.011854301119837221 0 0.0011212399053001473 0.0108427065262708 0 0.0013172521639101503 0.010913180262574927 0 0.0013050309962538882 0.010988449990244651 0 0.0011212399053001473 0.0108427065262708 0 0.0013172521639101503 0.010913180262574927 0 0.0011440901711364463 0.0107220491161612 0 0.0016138549506739513 0.011537358305242959 0 0.001564054697640421 0.0098775578034539201 0 0.0015136805543141077 0.0090817062774404874 0 0.0013704547122012352 0.010992124439610165 0 0.0017823829712234594 0.011664187868402818 0 0.0017876486352531617 0.01178482201642205 0 0.0016882445469072705 0.01169966672201051 0 0.0017876486352531617 0.01178482201642205 0 0.0016882445469072705 0.01169966672201051 0 0.0016707900842983211 0.01180939585556086 0 0.0017823829712234594 0.011664187868402818 0 0.0016882445469072705 0.01169966672201051 0 0.0016421122072357841 0.011597267592034118 0 0.0013172521639101503 0.010913180262574927 0 0.0013050309962538882 0.010988449990244651 0 0.0013956418555572867 0.011061333746692556 0 0.0013704547122012352 0.010992124439610165 0 0.0013202211231395891 0.010761161199560431 0 0.0016138549506739513 0.011537358305242959 0 0.0014476569332426169 0.01119066651461708 0 0.0017823829712234594 0.011664187868402818 0 0.0015644877545251969 0.011436726700685591 0 0.0016421122072357841 0.011597267592034118 0 0.0013698011435623256 0.010499710184737759 0 0.0014024119631475581 0.010483575866882333 0 0.001395131761685353 0.010506683996611567 0 0.0022427761544689222 0.0022324914930509148 0 0.0017876070617154969 0.0025667930359174716 0 0.0021668563025809295 0.0026547017635594745 0 0.0019232572801346761 0.0041391964877190972 0 0.0019604243001482544 0.0039366828510540141 0 0.0022427761544689222 0.0022324914930509148 0 0.0021668563025809295 0.0026547017635594745 0 0.0026156438743864274 0.0026374537809804254 0 0.0022447189403772983 0.0032033330884058283 0 0.0019232572801346761 0.0041391964877190972 0 0.0028060189059236195 0.0022516581083044315 0 0.0022427761544689222 0.0022324914930509148 0 0.0026156438743864274 0.0026374537809804254 0 0.0014016369539732866 0.0064831084802654329 0 0.00136700325151282 0.0061467277686556411 0 0.0018279170428761274 0.0062576519636737488 0 0.001165182588532782 0.0058351642776322162 0 0.0017075476845226612 0.0058717200174506429 0 0.00136700325151282 0.0061467277686556411 0 0.0017075476845226612 0.0058717200174506429 0 0.00136700325151282 0.0061467277686556411 0 0.0018279170428761274 0.0062576519636737488 0 0.0017075476845226612 0.0058717200174506429 0 0.0018279170428761274 0.0062576519636737488 0 0.0022548089340397458 0.0059085662625883379 0 0.0018279170428761274 0.0062576519636737488 0 0.0022302100671096558 0.006209520949824774 0 0.0022548089340397458 0.0059085662625883379 0 0.0020629065178794817 0.0064587181843993044 0 0.0018279170428761274 0.0062576519636737488 0 0.0022302100671096558 0.006209520949824774 0 0.0022302100671096558 0.006209520949824774 0 0.0024950735800267541 0.0061016681123718863 0 0.0022548089340397458 0.0059085662625883379 0 0.0027626486970992736 0.0059403182112207726 0 0.0024950735800267541 0.0061016681123718863 0 0.0022548089340397458 0.0059085662625883379 0 0.0026866166618362652 0.0064043825792433062 0 0.0027626486970992736 0.0059403182112207726 0 0.0024950735800267541 0.0061016681123718863 0 0.0026866166618362652 0.0064043825792433062 0 0.0022302100671096558 0.006209520949824774 0 0.0024950735800267541 0.0061016681123718863 0 0.001869272758595755 0.0055376731574706883 0 0.0019604243001482544 0.0039366828510540141 0 0.0010561935359222072 0.0022475628647903854 0 0.0016398929740258871 0.0022363357238839371 0 0.0013632345814138325 0.0026220609351761161 0 0.0010561935359222072 0.0022475628647903854 0 0.00095684086509728779 0.0027690804199670986 0 0.0013632345814138325 0.0026220609351761161 0 0.0016398929740258871 0.0022363357238839371 0 0.0017876070617154969 0.0025667930359174716 0 0.0013632345814138325 0.0026220609351761161 0 0.0022427761544689222 0.0022324914930509148 0 0.0016398929740258871 0.0022363357238839371 0 0.0017876070617154969 0.0025667930359174716 0 0.0017876070617154969 0.0025667930359174716 0 0.0015801754260768618 0.0028743072594751094 0 0.0013632345814138325 0.0026220609351761161 0 0.0017876070617154969 0.0025667930359174716 0 0.0015801754260768618 0.0028743072594751094 0 0.0018823066538957956 0.0029143411433870739 0 0.0015801754260768618 0.0028743072594751094 0 0.0013632345814138325 0.0026220609351761161 0 0.0011812604145685103 0.0030624372468267512 0 0.00095684086509728779 0.0027690804199670986 0 0.0013632345814138325 0.0026220609351761161 0 0.0011812604145685103 0.0030624372468267512 0 0.0015801754260768618 0.0028743072594751094 0 0.0011812604145685103 0.0030624372468267512 0 0.0015474666652197039 0.003193143306559751 0 0.0011812604145685103 0.0030624372468267512 0 0.0015474666652197039 0.003193143306559751 0 0.0012709985262080719 0.0033972500013675459 0 0.0011812604145685103 0.0030624372468267512 0 0.0012709985262080719 0.0033972500013675459 0 0.0010425479254431076 0.0034378141758027326 0 0.0018823066538957956 0.0029143411433870739 0 0.0015474666652197039 0.003193143306559751 0 0.0019509769675197311 0.0033969805505682077 0 0.0015801754260768618 0.0028743072594751094 0 0.0018823066538957956 0.0029143411433870739 0 0.0015474666652197039 0.003193143306559751 0 0.0018823066538957956 0.0029143411433870739 0 0.0023038623889162085 0.0029289677074940353 0 0.0019509769675197311 0.0033969805505682077 0 0.0023038623889162085 0.0029289677074940353 0 0.0023942368999035259 0.0033128738303525749 0 0.0019509769675197311 0.0033969805505682077 0 0.0018823066538957956 0.0029143411433870739 0 0.0021668563025809295 0.0026547017635594745 0 0.0023038623889162085 0.0029289677074940353 0 0.0017876070617154969 0.0025667930359174716 0 0.0018823066538957956 0.0029143411433870739 0 0.0021668563025809295 0.0026547017635594745 0 0.0021668563025809295 0.0026547017635594745 0 0.0023038623889162085 0.0029289677074940353 0 0.0026156438743864274 0.0026374537809804254 0 0.0028000210608041089 0.0030841989640702614 0 0.0023038623889162085 0.0029289677074940353 0 0.0026156438743864274 0.0026374537809804254 0 0.0028000210608041089 0.0030841989640702614 0 0.0023038623889162085 0.0029289677074940353 0 0.0023942368999035259 0.0033128738303525749 0 0.0028000210608041089 0.0030841989640702614 0 0.0023942368999035259 0.0033128738303525749 0 0.0026338402212911899 0.0037281672300724703 0 0.0023942368999035259 0.0033128738303525749 0 0.0026338402212911899 0.0037281672300724703 0 0.0020397831422512094 0.0038938805128728516 0 0.0026338402212911899 0.0037281672300724703 0 0.0020397831422512094 0.0038938805128728516 0 0.0024469035807652886 0.0042840294449837009 0 0.0019999437141676284 0.0038534530987521256 0 0.0026305068101390326 0.0044993007437185229 0 0.0023942368999035259 0.0033128738303525749 0 0.0020397831422512094 0.0038938805128728516 0 0.0019509769675197311 0.0033969805505682077 0 0.0020397831422512094 0.0038938805128728516 0 0.0019509769675197311 0.0033969805505682077 0 0.0015058946970752283 0.0036326555599873502 0 0.0015474666652197039 0.003193143306559751 0 0.0019509769675197311 0.0033969805505682077 0 0.0015058946970752283 0.0036326555599873502 0 0.0015474666652197039 0.003193143306559751 0 0.0015058946970752283 0.0036326555599873502 0 0.0012709985262080719 0.0033972500013675459 0 0.0012709985262080719 0.0033972500013675459 0 0.0011202744697834588 0.0036179988483899983 0 0.0010425479254431076 0.0034378141758027326 0 0.0015058946970752283 0.0036326555599873502 0 0.0012709985262080719 0.0033972500013675459 0 0.0011202744697834588 0.0036179988483899983 0 0.0015058946970752283 0.0036326555599873502 0 0.0011202744697834588 0.0036179988483899983 0 0.0011462987427560132 0.0038785280651441427 0 0.0015058946970752283 0.0036326555599873502 0 0.0011462987427560132 0.0038785280651441427 0 0.0015718546752519792 0.0040629063923707121 0 0.0011462987427560132 0.0038785280651441427 0 0.0015718546752519792 0.0040629063923707121 0 0.001276510445268304 0.0044523941120077496 0 0.0020397831422512094 0.0038938805128728516 0 0.0015718546752519792 0.0040629063923707121 0 0.0018850551707014216 0.0046279071635055109 0 0.0020397831422512094 0.0038938805128728516 0 0.0015058946970752283 0.0036326555599873502 0 0.0015718546752519792 0.0040629063923707121 0 0.0015718546752519792 0.0040629063923707121 0 0.0018850551707014216 0.0046279071635055109 0 0.001276510445268304 0.0044523941120077496 0 0.0018850551707014216 0.0046279071635055109 0 0.001276510445268304 0.0044523941120077496 0 0.0011293428275506324 0.0050106011770235295 0 0.0018850551707014216 0.0046279071635055109 0 0.0011293428275506324 0.0050106011770235295 0 0.0016254290619874714 0.0054027126974566242 0 0.0018850551707014216 0.0046279071635055109 0 0.0022733635742948626 0.0051266073619023536 0 0.0016254290619874714 0.0054027126974566242 0 0.0018850551707014216 0.0046279071635055109 0 0.0024872242924103794 0.0043939884436709938 0 0.0022733635742948626 0.0051266073619023536 0 0.001280693719085595 0.0045335152834917744 0 0.0020722037656017139 0.0040688512183949931 0 0.0024872242924103794 0.0043939884436709938 0 0.0022733635742948626 0.0051266073619023536 0 0.0029148708402692829 0.0048548882730727874 0 0.0004991256408147782 0.003874909043951949 0 0.00043275571403838777 0.003858466817097804 0 0.00056692643140773629 0.0037914973133820968 0 0.0026305068101390326 0.0044993007437185229 0 0.0020722037656017139 0.0040688512183949931 0 0.0020397831422512094 0.0038938805128728516 0 0.0018850551707014216 0.0046279071635055109 0 0.0024872242924103794 0.0043939884436709938 0 0.0017518365586466284 0.0120934148007605 0 0.0017829936903926754 0.01190967807028582 0 0.0018727343108265921 0.011999334358178128 0 0.0017518365586466284 0.0120934148007605 0 0.0017829936903926754 0.01190967807028582 0 0.0015547989481370797 0.011969878107471276 0 0.0016707900842983211 0.01180939585556086 0 0.0017829936903926754 0.01190967807028582 0 0.0015547989481370797 0.011969878107471276 0 0.0017876486352531617 0.01178482201642205 0 0.0016707900842983211 0.01180939585556086 0 0.0017829936903926754 0.01190967807028582 0 0.0017876486352531617 0.01178482201642205 0 0.0017829936903926754 0.01190967807028582 0 0.0020028956201737775 0.011854301119837221 0 0.0017829936903926754 0.01190967807028582 0 0.0018727343108265921 0.011999334358178128 0 0.0020028956201737775 0.011854301119837221 0 0.0018727343108265921 0.011999334358178128 0 0.0020028956201737775 0.011854301119837221 0 0.0019489865973216557 0.012139070007186724 0 0.0017518365586466284 0.0120934148007605 0 0.0018727343108265921 0.011999334358178128 0 0.0019489865973216557 0.012139070007186724 0 0.001564054697640421 0.0098775578034539201 0 0.0014904964461561372 0.010369583939531952 0 0.0011185342537995276 0.008162397867733831 0 0.0013188976267800552 0.0083208633791485732 0 0.0010409274764561246 0.0085309132188565798 0 0.0019238149200672533 0.0074458839114886852 0 0.00047572187188537013 0.0076509916590722423 0 0.00069095252370871105 0.0063589874033065001 0 0.0017274928312242248 0.0085259623539857572 0 0.0019238149200672533 0.0074458839114886852 0 0.00047572187188537013 0.0076509916590722423 0 0.001564054697640421 0.0098775578034539201 0 0.00078740682471613419 0.0056572566200858605 0 0.00089850515952629177 0.0054388633898544017 0 0.00078740682471613419 0.0056572566200858605 0 0.00078677145129478813 0.0034967522248884964 0 0.00090787812596624848 0.0037465172269932844 0 0.00070456067832214966 0.0039168400923257777 0 0.00078677145129478813 0.0034967522248884964 0 0.00086829542217875077 0.0035494902412998826 0 0.00090787812596624848 0.0037465172269932844 0 0.00089850515952629177 0.0054388633898544017 0 0.00063039877189465519 0.0050134000813154625 0 0.00078983190271695496 0.0034943347078575625 0 0.0010425479254431076 0.0034378141758027326 0 0.00086829542217875077 0.0035494902412998826 0 0.0011202744697834588 0.0036179988483899983 0 0.0010425479254431076 0.0034378141758027326 0 0.00086829542217875077 0.0035494902412998826 0 0.0011202744697834588 0.0036179988483899983 0 0.0011462987427560132 0.0038785280651441427 0 0.00090787812596624848 0.0037465172269932844 0 0.0011202744697834588 0.0036179988483899983 0 0.00086829542217875077 0.0035494902412998826 0 0.00090787812596624848 0.0037465172269932844 0 0.0011462987427560132 0.0038785280651441427 0 0.00090787812596624848 0.0037465172269932844 0 0.00070456067832214966 0.0039168400923257777 0 0.00078740682471613419 0.0056572566200858605 0 0.00093478140835139239 0.0067069842029479276 0 0.0011462987427560132 0.0038785280651441427 0 0.001276510445268304 0.0044523941120077496 0 0.00070456067832214966 0.0039168400923257777 0 0.0010871452135096642 0.0038359903130145883 0 0.00078740682471613419 0.0056572566200858605 0 0.001276510445268304 0.0044523941120077496 0 0.0011293428275506324 0.0050106011770235295 0 0.00057046640015322029 0.0046190332613904117 0 0.001276510445268304 0.0044523941120077496 0 0.00068634431372884409 0.0039916653245395169 0 0.00057046640015322029 0.0046190332613904117 0 0.0011293428275506324 0.0050106011770235295 0 0.00057046640015322029 0.0046190332613904117 0 0.0004489868701551488 0.0052855047428711395 0 0.00093478140835139239 0.0067069842029479276 0 0.00085961579380158435 0.007340599851533537 0 0.0011335493983247282 0.0088281528752216596 0 0.0012716818826308905 0.0086604485021270165 0 0.001215678419126796 0.0090606746318222849 0 0.0011335493983247282 0.0088281528752216596 0 0.00094886807537432967 0.0089417693802994434 0 0.001215678419126796 0.0090606746318222849 0 0.0013188976267800552 0.0083208633791485732 0 0.0012716818826308905 0.0086604485021270165 0 0.0010409274764561246 0.0085309132188565798 0 0.0011335493983247282 0.0088281528752216596 0 0.0012716818826308905 0.0086604485021270165 0 0.0010409274764561246 0.0085309132188565798 0 0.0017518365586466284 0.0120934148007605 0 0.0019489865973216557 0.012139070007186724 0 0.0017994785936141955 0.012252206511657978 0 0.0019489865973216557 0.012139070007186724 0 0.0019148368129179229 0.012423864896365884 0 0.0017994785936141955 0.012252206511657978 0 0.0011335493983247282 0.0088281528752216596 0 0.0010409274764561246 0.0085309132188565798 0 0.00094886807537432967 0.0089417693802994434 0 0.0014904964461561372 0.010369583939531952 0 0.0014461153119743504 0.010661487061631943 0 0.0019148368129179229 0.012423864896365884 0 0.0017139366460720918 0.012566432533616822 0 0.0016197776483165723 0.012325502239765579 0 0.0019148368129179229 0.012423864896365884 0 0.0017994785936141955 0.012252206511657978 0 0.0016197776483165723 0.012325502239765579 0 0.0017437825130749347 0.012109408096534999 0 0.0016125525759763384 0.012374994906873266 0 0.0017518365586466284 0.0120934148007605 0 0.0017994785936141955 0.012252206511657978 0 0.0016197776483165723 0.012325502239765579 0 0.0017139366460720918 0.012566432533616822 0 0.0018750840323043284 0.012770212216266135 0 0.0015924851460949814 0.012954318934915127 0 0.00094886807537432967 0.0089417693802994434 0 0.0010756168755394417 0.0091645395546289723 0 0.00096828909765431204 0.0094020265581965887 0 0.0019148368129179229 0.012423864896365884 0 0.0017139366460720918 0.012566432533616822 0 0.0018750840323043284 0.012770212216266135 0 0.0014461153119743504 0.010661487061631943 0 0.0012624839464596628 0.011201959034557825 0 0.00094886807537432967 0.0089417693802994434 0 0.00096828909765431204 0.0094020265581965887 0 0.00083681792929342163 0.0094755671023060047 0 0.0010756168755394417 0.0091645395546289723 0 0.00096828909765431204 0.0094020265581965887 0 0.00089136490130341793 0.0096852205025993992 0 0.0010756168755394417 0.0091645395546289723 0 0.0011357658201949536 0.0093509298628207931 0 0.00097601813006720803 0.0094125880613232706 0 0.001092635384840421 0.0091978320271580982 0 0.00082384187816089368 0.0095019769677205865 0 0.0013441479563575138 0.01033264825989819 0 0.0012624839464596628 0.011201959034557825 0 0.00096828909765431204 0.0094020265581965887 0 0.00082683891173974565 0.0094829803042987097 0 0.00089136490130341793 0.0096852205025993992 0 0.00033291258643111953 0.0059568977102938056 0 0.0004489868701551488 0.0052855047428711395 0 0.00098100717912362966 0.0056792932522644109 0 0.00030629652488674356 0.0067203463571158112 0 0.00085961579380158435 0.007340599851533537 0 0.0010756168755394417 0.0091645395546289723 0 0.0011357658201949536 0.0093509298628207931 0 0.001215678419126796 0.0090606746318222849 0 0.00094886807537432967 0.0089417693802994434 0 0.0010756168755394417 0.0091645395546289723 0 0.001215678419126796 0.0090606746318222849 0 0.0011293428275506324 0.0050106011770235295 0 0.0004489868701551488 0.0052855047428711395 0 0.00098100717912362966 0.0056792932522644109 0 0.00030629652488674356 0.0067203463571158112 0 0.00063735400632680976 0.0046373860601310124 0 0.00011220731676352045 0.0040871341175453208 0 0.00020607758267694479 0.004014971781960564 0 0.0002116900743793074 0.0040868848181121924 0 0.00011220731676352045 0.0040871341175453208 0 0.0002116900743793074 0.0040868848181121924 0 0.00017404872845826834 0.0041449028716705602 0 0.0002116900743793074 0.0040868848181121924 0 0.00017404872845826834 0.0041449028716705602 0 0.00024098754817905387 0.0041449758791023321 0 0.00017404872845826834 0.0041449028716705602 0 0.00016318319321717979 0.0042023712521465978 0 0.00020527834733475211 0.0042069679644795568 0 0.00017404872845826834 0.0041449028716705602 0 0.00024098754817905387 0.0041449758791023321 0 0.00020527834733475211 0.0042069679644795568 0 0.00017404872845826834 0.0041449028716705602 0 0.00016318319321717979 0.0042023712521465978 0 0.00010692736151927696 0.0041925645648993263 0 0.00011220731676352045 0.0040871341175453208 0 0.00017404872845826834 0.0041449028716705602 0 0.00010692736151927696 0.0041925645648993263 0 0.00030629652488674356 0.0067203463571158112 0 -0.00019047260711696647 0.0055787056223811481 0 0.0006284207912724231 0.010524527909984701 0 0.00063210407360431457 0.010522308845433573 0 0.00062110098353849498 0.010533471395198108 0 -0.00051176858000532286 0.0081085524640872094 0 -0.00038602674907870323 0.0072279123550226644 0 -7.2193537331781552e-06 0.0079165092353969541 0 0.00030629652488674356 0.0067203463571158112 0 0.00082384187816089368 0.0095019769677205865 0 0.00082683891173974565 0.0094829803042987097 0 0.00078272803409706003 0.009733847198299183 0 0.00089136490130341793 0.0096852205025993992 0 0.0012624839464596628 0.011201959034557825 0 0.00076685217236002908 0.011774243514335854 0 0.00076685217236002908 0.011774243514335854 0 0.00082384187816089368 0.0095019769677205865 0 0.00082384187816089368 0.0095019769677205865 0 0.00066867373500306205 0.010463400039490025 0 -0.00038602674907870323 0.0072279123550226644 0 -7.2193537331781552e-06 0.0079165092353969541 0 0.00029104023625028659 0.0071501126419358822 0 0.00076685217236002908 0.011774243514335854 0 0.00066867373500306205 0.010463400039490025 0 0.00074590029690446821 0.013683442754518415 0 0.00071893276095136988 0.013789498805062113 0 0.00064834306809046839 0.01376609678835876 0 0.00076685217236002908 0.011774243514335854 0 0.00088599168361289235 0.01347359001866393 0 0.0012624839464596628 0.011201959034557825 0 0.0013771370935671844 0.013032225264855092 0 0.0014664017082982922 0.012536807299687293 0 0.0014351011904522512 0.01272088651732977 0 0.0011233219075788823 0.012745918285908577 0 0.0014351011904522512 0.01272088651732977 0 0.0011233219075788823 0.012745918285908577 0 0.0011023788427685258 0.0128754936338311 0 0.00037221056972330026 0.0039720350049025693 0 0.00044914674355359894 0.0039581369322453062 0 0.0003927341788607379 0.0040350593585442148 0 0.00044914674355359894 0.0039581369322453062 0 0.00046593079104021833 0.0040484369902212677 0 0.00054185004618574042 0.0039621372619780115 0 0.00044914674355359894 0.0039581369322453062 0 0.0004991256408147782 0.003874909043951949 0 0.00054185004618574042 0.0039621372619780115 0 0.00044914674355359894 0.0039581369322453062 0 0.0004991256408147782 0.003874909043951949 0 0.00043275571403838777 0.003858466817097804 0 0.001280693719085595 0.0045335152834917744 0 0.00096896869854384729 0.0046893333699367127 0 0.00037221056972330026 0.0039720350049025693 0 0.00044914674355359894 0.0039581369322453062 0 0.00043275571403838777 0.003858466817097804 0 0.00037221056972330026 0.0039720350049025693 0 0.00043275571403838777 0.003858466817097804 0 0.00031023130911225836 0.0039364480785247314 0 0.00063735400632680976 0.0046373860601310124 0 0.00096896869854384729 0.0046893333699367127 0 0.0011293428275506324 0.0050106011770235295 0 0.00098100717912362966 0.0056792932522644109 0 0.0016254290619874714 0.0054027126974566242 0 0.00020607758267694479 0.004014971781960564 0 0.00031023130911225836 0.0039364480785247314 0 0.00028982114052993372 0.004061026013968059 0 0.00020607758267694479 0.004014971781960564 0 0.0002116900743793074 0.0040868848181121924 0 0.00028982114052993372 0.004061026013968059 0 0.00037221056972330026 0.0039720350049025693 0 0.00031023130911225836 0.0039364480785247314 0 0.00028982114052993372 0.004061026013968059 0 0.00037221056972330026 0.0039720350049025693 0 0.00028982114052993372 0.004061026013968059 0 0.0003927341788607379 0.0040350593585442148 0 0.0002116900743793074 0.0040868848181121924 0 0.00028982114052993372 0.004061026013968059 0 0.00024098754817905387 0.0041449758791023321 0 0.00024098754817905387 0.0041449758791023321 0 0.00030400110749306131 0.0041562452878812564 0 0.00025876685740658232 0.0042105110034179284 0 0.00024098754817905387 0.0041449758791023321 0 0.00025876685740658232 0.0042105110034179284 0 0.00020527834733475211 0.0042069679644795568 0 0.00028982114052993372 0.004061026013968059 0 0.00024098754817905387 0.0041449758791023321 0 0.00030400110749306131 0.0041562452878812564 0 0.00028982114052993372 0.004061026013968059 0 0.00030400110749306131 0.0041562452878812564 0 0.00037677199528545927 0.0041181978820658723 0 0.00037677199528545927 0.0041181978820658723 0 0.00044201251279299674 0.0041497588876922443 0 0.00035949393494477471 0.0041850845589719568 0 0.00030400110749306131 0.0041562452878812564 0 0.00037677199528545927 0.0041181978820658723 0 0.00035949393494477471 0.0041850845589719568 0 0.00037677199528545927 0.0041181978820658723 0 0.0003927341788607379 0.0040350593585442148 0 0.00046593079104021833 0.0040484369902212677 0 0.00028982114052993372 0.004061026013968059 0 0.00037677199528545927 0.0041181978820658723 0 0.0003927341788607379 0.0040350593585442148 0 0.00044914674355359894 0.0039581369322453062 0 0.0003927341788607379 0.0040350593585442148 0 0.00046593079104021833 0.0040484369902212677 0 0.00046593079104021833 0.0040484369902212677 0 0.00044201251279299674 0.0041497588876922443 0 0.00056638015153238246 0.0040717189360972806 0 0.00037677199528545927 0.0041181978820658723 0 0.00046593079104021833 0.0040484369902212677 0 0.00044201251279299674 0.0041497588876922443 0 0.00044201251279299674 0.0041497588876922443 0 0.00053979292851272286 0.0041531089920124487 0 0.00056638015153238246 0.0040717189360972806 0 0.00056638015153238246 0.0040717189360972806 0 0.00064790892541809143 0.0040488350892380733 0 0.00067723254823991174 0.0041451088550834196 0 0.00053979292851272286 0.0041531089920124487 0 0.00056638015153238246 0.0040717189360972806 0 0.00067723254823991174 0.0041451088550834196 0 0.00064790892541809143 0.0040488350892380733 0 0.00062743422354376939 0.0039842306114094596 0 0.00072077055493457271 0.0039954464989292787 0 0.00056638015153238246 0.0040717189360972806 0 0.00064790892541809143 0.0040488350892380733 0 0.00062743422354376939 0.0039842306114094596 0 0.00056638015153238246 0.0040717189360972806 0 0.00062743422354376939 0.0039842306114094596 0 0.00054185004618574042 0.0039621372619780115 0 0.00046593079104021833 0.0040484369902212677 0 0.00056638015153238246 0.0040717189360972806 0 0.00054185004618574042 0.0039621372619780115 0 0.00062743422354376939 0.0039842306114094596 0 0.00054185004618574042 0.0039621372619780115 0 0.00061384322587203319 0.0039210415109256153 0 0.00054185004618574042 0.0039621372619780115 0 0.00061384322587203319 0.0039210415109256153 0 0.00056897798696637595 0.0038988211671141717 0 0.00062743422354376939 0.0039842306114094596 0 0.00068428451003636195 0.0039323104982090205 0 0.00072077055493457271 0.0039954464989292787 0 0.00062743422354376939 0.0039842306114094596 0 0.00061384322587203319 0.0039210415109256153 0 0.00068428451003636195 0.0039323104982090205 0 0.00065866025892620604 0.003875076564884769 0 0.00069965996641725974 0.0038688047245470205 0 0.00068428451003636195 0.0039323104982090205 0 0.00061384322587203319 0.0039210415109256153 0 0.00065866025892620604 0.003875076564884769 0 0.00068428451003636195 0.0039323104982090205 0 0.00060865696531200606 0.00387782281127255 0 0.00065866025892620604 0.003875076564884769 0 0.00059955324981551469 0.0038408455569744859 0 0.00061384322587203319 0.0039210415109256153 0 0.00060865696531200606 0.00387782281127255 0 0.00065866025892620604 0.003875076564884769 0 0.00065866025892620604 0.003875076564884769 0 0.00068346655715271207 0.003824391286260595 0 0.00069965996641725974 0.0038688047245470205 0 0.0021468353506035559 0.0030075125706771366 0 0.0019602276725403968 0.0029596098209627051 0 0.0020761369103852604 0.0028892744365048083 0 0.00065866025892620604 0.003875076564884769 0 0.00068346655715271207 0.003824391286260595 0 0.00059214213306219238 0.0037953799083299492 0 0.00065199130198103858 0.0038466324043918455 0 0.00090608792891902913 0.003598568420595792 0 0.0015382173053570172 0.0033988171435656682 0 0.00090608792891902913 0.003598568420595792 0 0.00060865696531200606 0.00387782281127255 0 0.00057238021811918032 0.0038598662058184977 0 0.00059955324981551469 0.0038408455569744859 0 0.00057238021811918032 0.0038598662058184977 0 0.00059955324981551469 0.0038408455569744859 0 0.00056380074910439726 0.0038308317680645783 0 0.0004991256408147782 0.003874909043951949 0 0.00054185004618574042 0.0039621372619780115 0 0.00056897798696637595 0.0038988211671141717 0 0.0004991256408147782 0.003874909043951949 0 0.00057238021811918032 0.0038598662058184977 0 0.00056380074910439726 0.0038308317680645783 0 0.0004991256408147782 0.003874909043951949 0 0.00057238021811918032 0.0038598662058184977 0 0.00056897798696637595 0.0038988211671141717 0 0.00061384322587203319 0.0039210415109256153 0 0.00060865696531200606 0.00387782281127255 0 0.00056897798696637595 0.0038988211671141717 0 0.00060865696531200606 0.00387782281127255 0 0.00057238021811918032 0.0038598662058184977 0 0.00056897798696637595 0.0038988211671141717 0 0.0019464937398890301 0.00053005600209700464 0 0.0024655084475650266 0.00069342189590567208 0 0.0020452572818562501 0.0012028766347534098 0 0.0014186006354927939 -0.000330888716296642 0 0.0026334868611668002 0.00016320518581963871 0 0.0015242464376655832 0.0018525623885584774 0 0.0023788856770537038 0.0020082168873035463 0 0.0014186006354927939 -0.000330888716296642 0 0.0015242464376655832 0.0018525623885584774 0 0.0015382173053570172 0.0033988171435656682 0 0.0015242464376655832 0.0018525623885584774 0 0.0021468353506035559 0.0030075125706771366 0 0.002329845516478335 0.0030549569932907202 0 0.0022363979012458642 0.0029049728349357928 0 0.00068346655715271207 0.003824391286260595 0 0.00069965996641725974 0.0038688047245470205 0 0.00077115379324334884 0.0038404065362834688 0 0.0015242464376655832 0.0018525623885584774 0 0.00048140339711748152 0.0018479052799881763 0 0.00077115379324334884 0.0038404065362834688 0 0.00068428451003636195 0.0039323104982090205 0 0.00072077055493457271 0.0039954464989292787 0 0.00049882470074324851 -0.00041542907736609122 0 0.00052060827975997873 -0.00035323950689421419 0 0.00043260273444870989 -0.00029943285840459613 0 0.00069965996641725974 0.0038688047245470205 0 0.00077115379324334884 0.0038404065362834688 0 0.00068428451003636195 0.0039323104982090205 0 0.00056137079449297786 -0.00040224101560001413 0 0.00052060827975997873 -0.00035323950689421419 0 0.00059796496175263747 -0.00033061918210001154 0 0.00056137079449297786 -0.00040224101560001413 0 0.00049882470074324851 -0.00041542907736609122 0 0.00052060827975997873 -0.00035323950689421419 0 0.00052060827975997873 -0.00035323950689421419 0 0.00043260273444870989 -0.00029943285840459613 0 0.0005167366109191517 -0.00024739096484362107 0 0.00052060827975997873 -0.00035323950689421419 0 0.0005167366109191517 -0.00024739096484362107 0 0.00059796496175263747 -0.00033061918210001154 0 0.0005167366109191517 -0.00024739096484362107 0 0.00064056860604117666 -0.00020281525477283818 0 0.00059796496175263747 -0.00033061918210001154 0 0.00048140339711748152 0.0018479052799881763 0 0.00038345587048774579 0.0019624247233137196 0 0.00043260273444870989 -0.00029943285840459613 0 0.0005167366109191517 -0.00024739096484362107 0 0.00037468055845058228 -0.00010413563832734694 0 0.00064790892541809143 0.0040488350892380733 0 0.00072077055493457271 0.0039954464989292787 0 0.00067723254823991174 0.0041451088550834196 0 0.00062312345623625782 -0.00086003564035861053 0 0.00038345587048774579 0.0019624247233137196 0 0.0005167366109191517 -0.00024739096484362107 0 0.00045441730691484297 -6.7602688971739802e-05 0 0.00015760580388547816 -0.00011209683718159777 0 0.00064056860604117666 -0.00020281525477283818 0 0.00063734421799040717 -4.3812947008080129e-05 0 0.00045441730691484297 -6.7602688971739802e-05 0 0.0005167366109191517 -0.00024739096484362107 0 0.00064056860604117666 -0.00020281525477283818 0 0.00045441730691484297 -6.7602688971739802e-05 0 0.00085059008902001524 -0.00037048944182930345 0 0.00080564013236099981 -0.0003651192560541447 0 0.00064056860604117666 -0.00020281525477283818 0 0.00081971956610971575 -0.00021758950338696207 0 0.00063734421799040717 -4.3812947008080129e-05 0 0.00064056860604117666 -0.00020281525477283818 0 0.00081971956610971575 -0.00021758950338696207 0 0.00070889316955745438 -0.00028760204394113342 0 0.0012961081529240851 -0.0012138509228064333 0 0.0015443941251010523 -0.00063839650446096557 0 0.0008635636479959912 -0.00055678650710490384 0 0.0012961081529240851 -0.0012138509228064333 0 0.0019947450693444421 -0.0010453750967113805 0 0.0015443941251010523 -0.00063839650446096557 0 0.00085059008902001524 -0.00037048944182930345 0 0.0021548546797881315 -0.0031333682059531548 0 0.00081971956610971575 -0.00021758950338696207 0 0.00090840480860573795 -0.00044691692748332311 0 0.00079193713630290607 -0.00041867527786360054 0 0.00081971956610971575 -0.00021758950338696207 0 0.00090840480860573795 -0.00044691692748332311 0 0.0010593156346010277 -0.00048020498217749631 0 0.0012961081529240851 -0.0012138509228064333 0 0.0019947450693444421 -0.0010453750967113805 0 0.0017733854192635691 -0.0018732891960659016 0 0.00090840480860573795 -0.00044691692748332311 0 0.00079193713630290607 -0.00041867527786360054 0 0.00086930380165059712 -0.00053954786937831611 0 0.00079193713630290607 -0.00041867527786360054 0 0.00059796496175263747 -0.00033061918210001154 0 0.00072229532317801633 -0.00053808062799324402 0 0.00064056860604117666 -0.00020281525477283818 0 0.00059796496175263747 -0.00033061918210001154 0 0.00070889316955745438 -0.00028760204394113342 0 0.00081971956610971575 -0.00021758950338696207 0 0.00079193713630290607 -0.00041867527786360054 0 0.00070889316955745438 -0.00028760204394113342 0 0.00079193713630290607 -0.00041867527786360054 0 0.00059796496175263747 -0.00033061918210001154 0 0.00070889316955745438 -0.00028760204394113342 0 0.0025078697576100648 -0.0069138132309616981 0 0.0025898381824891199 -0.0069193871002118318 0 0.0025533263384017973 -0.0068635753956708088 0 0.0025078697576100648 -0.0069138132309616981 0 0.002519995315564556 -0.0069614721784122917 0 0.0025898381824891199 -0.0069193871002118318 0 0.0025078697576100648 -0.0069138132309616981 0 0.0024946490617276142 -0.0069523962309098629 0 0.0024760912535139847 -0.0069517641875825823 0 0.0025078697576100648 -0.0069138132309616981 0 0.0024946490617276142 -0.0069523962309098629 0 0.002519995315564556 -0.0069614721784122917 0 0.0024946490617276142 -0.0069523962309098629 0 0.002519995315564556 -0.0069614721784122917 0 0.0024757091768307662 -0.0069812715827563734 0 0.0025870157105269318 -0.0068253361413313394 0 0.0024932104203625313 -0.0068445463357839189 0 0.0026224731790781258 -0.0067505562090428876 0 0.0022462050971951658 -0.0042477995971305074 0 0.0021548546797881315 -0.0031333682059531548 0 0.0025898381824891199 -0.0069193871002118318 0 0.0026492850544444098 -0.0067849151318452308 0 0.0025870157105269318 -0.0068253361413313394 0 0.0025898381824891199 -0.0069193871002118318 0 0.0025870157105269318 -0.0068253361413313394 0 0.0025533263384017973 -0.0068635753956708088 0 0.0026492850544444098 -0.0067849151318452308 0 0.0025870157105269318 -0.0068253361413313394 0 0.0026224731790781258 -0.0067505562090428876 0 0.0025870157105269318 -0.0068253361413313394 0 0.0025533263384017973 -0.0068635753956708088 0 0.0024932104203625313 -0.0068445463357839189 0 0.0025078697576100648 -0.0069138132309616981 0 0.0025533263384017973 -0.0068635753956708088 0 0.0024932104203625313 -0.0068445463357839189 0 0.0032134864196362301 -0.0069223025352093447 0 0.0034668101589574131 -0.0046002471280897654 0 0.0039855064226320411 -0.0065115398127912573 0 0.0041979798703855806 -0.0062843521651005357 0 0.0045688929028891694 -0.0062930253962693297 0 0.004015398187701402 -0.0062237216737275232 0 0.0041979798703855806 -0.0062843521651005357 0 0.0041229341295985949 -0.0059897248736912887 0 0.004015398187701402 -0.0062237216737275232 0 0.0041229341295985949 -0.0059897248736912887 0 0.0038375653283868748 -0.0060530831086108823 0 0.0039855064226320411 -0.0065115398127912573 0 0.0040177860369710076 -0.0063567231542062362 0 0.0041979798703855806 -0.0062843521651005357 0 0.004015398187701402 -0.0062237216737275232 0 0.0040177860369710076 -0.0063567231542062362 0 0.0038689362787556183 -0.0064072101611002607 0 0.004015398187701402 -0.0062237216737275232 0 0.0040177860369710076 -0.0063567231542062362 0 0.0041979798703855806 -0.0062843521651005357 0 0.0039855064226320411 -0.0065115398127912573 0 0.0040177860369710076 -0.0063567231542062362 0 0.0038689362787556183 -0.0064072101611002607 0 0.0041979798703855806 -0.0062843521651005357 0 0.0044729987926154444 -0.0061694746715753165 0 0.0041229341295985949 -0.0059897248736912887 0 0.0045324466532173776 -0.0038080420952273817 0 0.0045053575960571921 -0.0044654294758724204 0 0.0041979798703855806 -0.0062843521651005357 0 0.0044729987926154444 -0.0061694746715753165 0 0.0045688929028891694 -0.0062930253962693297 0 0.0043719139765100203 -0.0038127333366087374 0 0.0039401771207002714 -0.0032448326408772944 0 0.0035157067552116996 -0.0033708721058368593 0 0.0026617640126048408 -0.0033503967805015781 0 0.0028309893016272179 -0.0035719280817162508 0 0.0026783940593650682 -0.0036155686867795807 0 0.0021548546797881315 -0.0031333682059531548 0 0.0034668101589574131 -0.0046002471280897654 0 0.0034668101589574131 -0.0046002471280897654 0 0.0034082376371981841 -0.0030090244906313657 0 0.0046977617349713667 -0.0025366757974065899 0 0.0047166345287107002 -0.0025501639629979377 0 0.0047135586318707142 -0.0025168559315046036 0 0.0047166345287107002 -0.0025501639629979377 0 0.0047135586318707142 -0.0025168559315046036 0 0.0047241287136917352 -0.0025477934003917727 0 0.0045324466532173776 -0.0038080420952273817 0 0.0034082376371981841 -0.0030090244906313657 0 0.0045324466532173776 -0.0038080420952273817 0 0.0034668101589574131 -0.0046002471280897654 0 0.0047135586318707142 -0.0025168559315046036 0 0.0047535564477909362 -0.0024839209960554639 0 0.0047043130884458851 -0.0024760997434728703 0 0.0047135586318707142 -0.0025168559315046036 0 0.0046871399332050565 -0.0025030623000689024 0 0.0047043130884458851 -0.0024760997434728703 0 0.0046871399332050565 -0.0025030623000689024 0 0.004682950150134018 -0.0024803534025069607 0 0.0047043130884458851 -0.0024760997434728703 0 0.0046977617349713667 -0.0025366757974065899 0 0.0047135586318707142 -0.0025168559315046036 0 0.0046871399332050565 -0.0025030623000689024 0 0.0046977617349713667 -0.0025366757974065899 0 0.0046871399332050565 -0.0025030623000689024 0 0.0046630421300259094 -0.0024844962432303639 0 0.0045324466532173776 -0.0038080420952273817 0 0.0046905002248812753 -0.0021706413057827967 0 0.0050791085596024388 -0.0030459000621246559 0 0.0046563984633419828 -0.0025507400650896699 0 0.0046797347456058137 -0.0028325713611616608 0 0.0050791085596024388 -0.0030459000621246559 0 0.0046563984633419828 -0.0025507400650896699 0 0.0046630421300259094 -0.0024844962432303639 0 0.0046871399332050565 -0.0025030623000689024 0 0.0046761181549561191 -0.0024855451946406621 0 0.0046630421300259094 -0.0024844962432303639 0 0.0046871399332050565 -0.0025030623000689024 0 0.0046761181549561191 -0.0024855451946406621 0 0.004682950150134018 -0.0024803534025069607 0 0.0046563984633419828 -0.0025507400650896699 0 0.0046797347456058137 -0.0028325713611616608 0 0.0042661078675504741 -0.0026280472872012004 0 0.00054835581149781831 -0.00074154089943299906 0 0.00059796496175263747 -0.00033061918210001154 0 0.00072229532317801633 -0.00053808062799324402 0 0.0014186006354927939 -0.000330888716296642 0 0.00041626866377417443 -0.00046462602526993767 0 0.00054835581149781831 -0.00074154089943299906 0 0.0007905053724008152 -0.0006673423975697174 0 0.00072229532317801633 -0.00053808062799324402 0 0.0014186006354927939 -0.000330888716296642 0 0.0017015982557217373 -0.00099272932700485497 0 0.0007905053724008152 -0.0006673423975697174 0 0.00072229532317801633 -0.00053808062799324402 0 0.00086930380165059712 -0.00053954786937831611 0 0.00079193713630290607 -0.00041867527786360054 0 0.00072229532317801633 -0.00053808062799324402 0 0.00086930380165059712 -0.00053954786937831611 0 0.0007905053724008152 -0.0006673423975697174 0 0.00086930380165059712 -0.00053954786937831611 0 0.001024983221135332 -0.00060800285803615977 0 0.0027676316993218994 -0.0011954420889166973 0 0.0024282173145297112 -0.0013058312765420283 0 0.0025607899484965629 -0.00084054639952395197 0 0.00086930380165059712 -0.00053954786937831611 0 0.001024983221135332 -0.00060800285803615977 0 0.0010328501485655449 -0.0005781443945796431 0 0.00090840480860573795 -0.00044691692748332311 0 0.00086930380165059712 -0.00053954786937831611 0 0.0010328501485655449 -0.0005781443945796431 0 0.00090840480860573795 -0.00044691692748332311 0 0.0010593156346010277 -0.00048020498217749631 0 0.0010328501485655449 -0.0005781443945796431 0 0.0026617640126048408 -0.0033503967805015781 0 0.0026783940593650682 -0.0036155686867795807 0 0.0025995133219040381 -0.0035741943597654923 0 0.0021548546797881315 -0.0031333682059531548 0 0.0028790581924455919 -0.0025665836490326951 0 0.0029895766750701958 -0.0022559241590589508 0 0.0028790581924455919 -0.0025665836490326951 0 0.0028389598640040656 -0.0027577954131861836 0 0.0029000474616842722 -0.0027383439160136329 0 0.0028873729810367532 -0.0027826010257085932 0 0.0034082376371981841 -0.0030090244906313657 0 0.0029895766750701958 -0.0022559241590589508 0 0.0034082376371981841 -0.0030090244906313657 0 0.0028790581924455919 -0.0025665836490326951 0 0.0017015982557217373 -0.00099272932700485497 0 0.0029895766750701958 -0.0022559241590589508 0 0.0027676316993218994 -0.0011954420889166973 0 0.0025607899484965629 -0.00084054639952395197 0 0.0028638216866037937 -0.00081607291649631551 0 0.0029895766750701958 -0.0022559241590589508 0 0.0037140812753950277 -0.0015581533422791996 0 0.0047135586318707142 -0.0025168559315046036 0 0.0047241287136917352 -0.0025477934003917727 0 0.0047535564477909362 -0.0024839209960554639 0 0.0031079758653121885 -0.0010862483028616875 0 0.0027676316993218994 -0.0011954420889166973 0 0.0028638216866037937 -0.00081607291649631551 0 0.0031079758653121885 -0.0010862483028616875 0 0.0028638216866037937 -0.00081607291649631551 0 0.0031847510733624619 -0.00058035216005693062 0 0.0028638216866037937 -0.00081607291649631551 0 0.0026977157346321592 -0.00037425429298169541 0 0.0031847510733624619 -0.00058035216005693062 0 0.0047535564477909362 -0.0024839209960554639 0 0.0047367604727194838 -0.0024387612572289987 0 0.0047043130884458851 -0.0024760997434728703 0 0.0025607899484965629 -0.00084054639952395197 0 0.0028638216866037937 -0.00081607291649631551 0 0.0026977157346321592 -0.00037425429298169541 0 0.0037140812753950277 -0.0015581533422791996 0 0.003707064009712754 -0.0015112807291023493 0 0.0047535564477909362 -0.0024839209960554639 0 0.0047367604727194838 -0.0024387612572289987 0 0.004785968573407743 -0.0024038298596884031 0 0.0047367604727194838 -0.0024387612572289987 0 0.004785968573407743 -0.0024038298596884031 0 0.0047426138466694912 -0.0023971195931861504 0 0.004785968573407743 -0.0024038298596884031 0 0.0047426138466694912 -0.0023971195931861504 0 0.0047660376479929552 -0.0023344353125386258 0 0.004785968573407743 -0.0024038298596884031 0 0.0047660376479929552 -0.0023344353125386258 0 0.0048156719796692785 -0.0023036022781844122 0 0.0047426138466694912 -0.0023971195931861504 0 0.0047660376479929552 -0.0023344353125386258 0 0.0047275282858246148 -0.0023497733702785499 0 0.0026977157346321592 -0.00037425429298169541 0 0.0028376118434583746 9.0745211523605176e-05 0 0.0032577697180343999 -7.0900913997120504e-05 0 0.0026977157346321592 -0.00037425429298169541 0 0.0031847510733624619 -0.00058035216005693062 0 0.0032577697180343999 -7.0900913997120504e-05 0 0.003707064009712754 -0.0015112807291023493 0 0.0039434306978985258 -0.00055935222394553458 0 0.0046338500687757777 -0.0024328025610431325 0 0.0046461008897947763 -0.0024482316796270468 0 0.0046235080690103106 -0.0024589146622178673 0 0.0046338500687757777 -0.0024328025610431325 0 0.0046461008897947763 -0.0024482316796270468 0 0.0046600075607072366 -0.0024268950077410635 0 0.0046461008897947763 -0.0024482316796270468 0 0.0046474138892964425 -0.0024701796496242657 0 0.0046647446476543201 -0.0024559957794218377 0 0.0046461008897947763 -0.0024482316796270468 0 0.0046647446476543201 -0.0024559957794218377 0 0.0046600075607072366 -0.0024268950077410635 0 0.0046461008897947763 -0.0024482316796270468 0 0.0046474138892964425 -0.0024701796496242657 0 0.0046235080690103106 -0.0024589146622178673 0 0.0046474138892964425 -0.0024701796496242657 0 0.0046196746522080365 -0.0024993970370492469 0 0.0046235080690103106 -0.0024589146622178673 0 0.0046563984633419828 -0.0025507400650896699 0 0.0046630421300259094 -0.0024844962432303639 0 0.0046196746522080365 -0.0024993970370492469 0 0.0046474138892964425 -0.0024701796496242657 0 0.0046630421300259094 -0.0024844962432303639 0 0.0046196746522080365 -0.0024993970370492469 0 0.0046474138892964425 -0.0024701796496242657 0 0.0046630421300259094 -0.0024844962432303639 0 0.0046618445611830792 -0.0024715700915859335 0 0.0046474138892964425 -0.0024701796496242657 0 0.0046618445611830792 -0.0024715700915859335 0 0.0046647446476543201 -0.0024559957794218377 0 0.0046618445611830792 -0.0024715700915859335 0 0.0046711760648496846 -0.0024734596924280957 0 0.0046647446476543201 -0.0024559957794218377 0 0.0046630421300259094 -0.0024844962432303639 0 0.0046618445611830792 -0.0024715700915859335 0 0.0046711760648496846 -0.0024734596924280957 0 0.0046761181549561191 -0.0024855451946406621 0 0.0046630421300259094 -0.0024844962432303639 0 0.0046711760648496846 -0.0024734596924280957 0 0.0046711760648496846 -0.0024734596924280957 0 0.004682950150134018 -0.0024803534025069607 0 0.0046826769256916338 -0.0024608704564251364 0 0.0046761181549561191 -0.0024855451946406621 0 0.0046711760648496846 -0.0024734596924280957 0 0.004682950150134018 -0.0024803534025069607 0 0.0046711760648496846 -0.0024734596924280957 0 0.0046826769256916338 -0.0024608704564251364 0 0.0046647446476543201 -0.0024559957794218377 0 0.0046826769256916338 -0.0024608704564251364 0 0.004677727420848792 -0.0024389576717327752 0 0.0046647446476543201 -0.0024559957794218377 0 0.004677727420848792 -0.0024389576717327752 0 0.0046647446476543201 -0.0024559957794218377 0 0.0046600075607072366 -0.0024268950077410635 0 0.004677727420848792 -0.0024389576717327752 0 0.0046600075607072366 -0.0024268950077410635 0 0.0046795553791755705 -0.0024161766598536621 0 0.004677727420848792 -0.0024389576717327752 0 0.0047028880987922995 -0.0024284123118256925 0 0.0046795553791755705 -0.0024161766598536621 0 0.0046826769256916338 -0.0024608704564251364 0 0.004677727420848792 -0.0024389576717327752 0 0.0047028880987922995 -0.0024284123118256925 0 0.004682950150134018 -0.0024803534025069607 0 0.0046826769256916338 -0.0024608704564251364 0 0.0047043130884458851 -0.0024760997434728703 0 0.0046826769256916338 -0.0024608704564251364 0 0.0047028880987922995 -0.0024284123118256925 0 0.0047043130884458851 -0.0024760997434728703 0 0.0047367604727194838 -0.0024387612572289987 0 0.0047028880987922995 -0.0024284123118256925 0 0.0047043130884458851 -0.0024760997434728703 0 0.0047367604727194838 -0.0024387612572289987 0 0.0047426138466694912 -0.0023971195931861504 0 0.0047028880987922995 -0.0024284123118256925 0 0.0047426138466694912 -0.0023971195931861504 0 0.0047122508702670211 -0.0023875536120284303 0 0.0047275282858246148 -0.0023497733702785499 0 0.0047426138466694912 -0.0023971195931861504 0 0.0047028880987922995 -0.0024284123118256925 0 0.0047122508702670211 -0.0023875536120284303 0 0.0047122508702670211 -0.0023875536120284303 0 0.0047275282858246148 -0.0023497733702785499 0 0.0046970041184829867 -0.002347699829950345 0 0.0046970041184829867 -0.002347699829950345 0 0.0046881424083698017 -0.0023906368341159528 0 0.0046668773651067121 -0.0023635206368746381 0 0.0047122508702670211 -0.0023875536120284303 0 0.0046970041184829867 -0.002347699829950345 0 0.0046881424083698017 -0.0023906368341159528 0 0.0047028880987922995 -0.0024284123118256925 0 0.0047122508702670211 -0.0023875536120284303 0 0.0046881424083698017 -0.0023906368341159528 0 0.0047028880987922995 -0.0024284123118256925 0 0.0046881424083698017 -0.0023906368341159528 0 0.0046795553791755705 -0.0024161766598536621 0 0.0046600075607072366 -0.0024268950077410635 0 0.0046795553791755705 -0.0024161766598536621 0 0.0046643393708369132 -0.0023956054856601322 0 0.0046881424083698017 -0.0023906368341159528 0 0.0046795553791755705 -0.0024161766598536621 0 0.0046643393708369132 -0.0023956054856601322 0 0.0046881424083698017 -0.0023906368341159528 0 0.0046643393708369132 -0.0023956054856601322 0 0.0046668773651067121 -0.0023635206368746381 0 0.0046643393708369132 -0.0023956054856601322 0 0.0046418302909596995 -0.0023721139555840749 0 0.0046373928808713452 -0.0024033466014933406 0 0.0046643393708369132 -0.0023956054856601322 0 0.0046668773651067121 -0.0023635206368746381 0 0.0046418302909596995 -0.0023721139555840749 0 0.0046600075607072366 -0.0024268950077410635 0 0.0046643393708369132 -0.0023956054856601322 0 0.0046373928808713452 -0.0024033466014933406 0 0.0046338500687757777 -0.0024328025610431325 0 0.0046600075607072366 -0.0024268950077410635 0 0.0046373928808713452 -0.0024033466014933406 0 0.0046450820142909782 -0.0023042147280661193 0 0.0046487926471460595 -0.0023454259785271642 0 0.0046713367083847466 -0.0023234408142460161 0 0.0046668773651067121 -0.0023635206368746381 0 0.0046418302909596995 -0.0023721139555840749 0 0.0046487926471460595 -0.0023454259785271642 0 0.0046450820142909782 -0.0023042147280661193 0 0.0046487926471460595 -0.0023454259785271642 0 0.0046188863663187939 -0.0023658844376119826 0 0.0046418302909596995 -0.0023721139555840749 0 0.0046487926471460595 -0.0023454259785271642 0 0.0046188863663187939 -0.0023658844376119826 0 0.0046970041184829867 -0.002347699829950345 0 0.0046668773651067121 -0.0023635206368746381 0 0.0046713367083847466 -0.0023234408142460161 0 0.0046668773651067121 -0.0023635206368746381 0 0.0046487926471460595 -0.0023454259785271642 0 0.0046713367083847466 -0.0023234408142460161 0 0.0046713367083847466 -0.0023234408142460161 0 0.0046978266657030695 -0.0023003483498441591 0 0.0046770129021831688 -0.0022887231251310612 0 0.0046450820142909782 -0.0023042147280661193 0 0.0046713367083847466 -0.0023234408142460161 0 0.0046770129021831688 -0.0022887231251310612 0 0.0046978266657030695 -0.0023003483498441591 0 0.0046935561475996597 -0.0022792388701038031 0 0.0046770129021831688 -0.0022887231251310612 0 0.0046978266657030695 -0.0023003483498441591 0 0.004710028838086089 -0.0022697903563008211 0 0.0046935561475996597 -0.0022792388701038031 0 0.0046970041184829867 -0.002347699829950345 0 0.0046978266657030695 -0.0023003483498441591 0 0.0047163202541086304 -0.0023190341862567958 0 0.0046970041184829867 -0.002347699829950345 0 0.0046713367083847466 -0.0023234408142460161 0 0.0046978266657030695 -0.0023003483498441591 0 0.0047275282858246148 -0.0023497733702785499 0 0.0046970041184829867 -0.002347699829950345 0 0.0047163202541086304 -0.0023190341862567958 0 0.0047275282858246148 -0.0023497733702785499 0 0.0047163202541086304 -0.0023190341862567958 0 0.0047340642035529719 -0.0023126664041464083 0 0.0047163202541086304 -0.0023190341862567958 0 0.0047222356163875339 -0.0022840714045964596 0 0.0047340642035529719 -0.0023126664041464083 0 0.0046978266657030695 -0.0023003483498441591 0 0.0047222356163875339 -0.0022840714045964596 0 0.004710028838086089 -0.0022697903563008211 0 0.0047222356163875339 -0.0022840714045964596 0 0.004710028838086089 -0.0022697903563008211 0 0.0047413439327396922 -0.0022355534771322356 0 0.0046978266657030695 -0.0023003483498441591 0 0.0047163202541086304 -0.0023190341862567958 0 0.0047222356163875339 -0.0022840714045964596 0 0.0044525663147985152 -0.0021484681618744242 0 0.0048189913083663176 -0.0022694656419236475 0 0.004710028838086089 -0.0022697903563008211 0 0.0046899619863997313 -0.0022653109068812823 0 0.0047413439327396922 -0.0022355534771322356 0 0.0045714061504987013 -0.0020830866578730096 0 0.0046956755575802197 -0.0021721261325717126 0 0.0046455344669452331 -0.0021663165768434907 0 0.0046956755575802197 -0.0021721261325717126 0 0.0046455344669452331 -0.0021663165768434907 0 0.0047413439327396922 -0.0022355534771322356 0 0.0046899619863997313 -0.0022653109068812823 0 0.0046935561475996597 -0.0022792388701038031 0 0.0046770129021831688 -0.0022887231251310612 0 0.004710028838086089 -0.0022697903563008211 0 0.0046899619863997313 -0.0022653109068812823 0 0.0046935561475996597 -0.0022792388701038031 0 0.0046450820142909782 -0.0023042147280661193 0 0.0046643738327531888 -0.002275358707174456 0 0.0046433815255916919 -0.0022437317076878368 0 0.0046899619863997313 -0.0022653109068812823 0 0.0046643738327531888 -0.002275358707174456 0 0.0046433815255916919 -0.0022437317076878368 0 0.0044525663147985152 -0.0021484681618744242 0 0.0058249130932364794 -0.0021657209907707739 0 0.0046899619863997313 -0.0022653109068812823 0 0.0046643738327531888 -0.002275358707174456 0 0.0046770129021831688 -0.0022887231251310612 0 0.0046450820142909782 -0.0023042147280661193 0 0.0046643738327531888 -0.002275358707174456 0 0.0046770129021831688 -0.0022887231251310612 0 0.0039434306978985258 -0.00055935222394553458 0 0.003375930640957446 0.0017601059366194433 0 0.0041680502170632055 0.0024519856322313045 0 0.0040679636568469388 0.0024288137297040712 0 0.0042495034267255099 0.0023631298865921619 0 0.0041209429261146362 0.0025414222900627171 0 0.0041680502170632055 0.0024519856322313045 0 0.0041915665219756128 0.0026271596787021158 0 0.004104698350151364 0.0025470533340356777 0 0.0041209429261146362 0.0025414222900627171 0 0.0040679636568469388 0.0024288137297040712 0 0.0046496369025038741 0.00063587967578912637 0 0.0039434306978985258 -0.00055935222394553458 0 0.0048239821444818407 -0.0022402749614428359 0 0.0048032073218144244 -0.0022775912889560841 0 0.0047807292524705749 -0.0022590230303426856 0 0.0046496369025038741 0.00063587967578912637 0 0.004554869620645048 0.00071979348716340178 0 0.0041209429261146362 0.0025414222900627171 0 0.0041680502170632055 0.0024519856322313045 0 0.0040679636568469388 0.0024288137297040712 0 0.0048239821444818407 -0.0022402749614428359 0 0.0047807292524705749 -0.0022590230303426856 0 0.0047413439327396922 -0.0022355534771322356 0 0.0039434306978985258 -0.00055935222394553458 0 0.0051941219360004875 -0.0024099911216473313 0 0.0047660376479929552 -0.0023344353125386258 0 0.0048156719796692785 -0.0023036022781844122 0 0.0047427240068646922 -0.0022770079504643797 0 0.0047660376479929552 -0.0023344353125386258 0 0.0047340642035529719 -0.0023126664041464083 0 0.0047427240068646922 -0.0022770079504643797 0 0.0047660376479929552 -0.0023344353125386258 0 0.0047275282858246148 -0.0023497733702785499 0 0.0047340642035529719 -0.0023126664041464083 0 0.0047427240068646922 -0.0022770079504643797 0 0.0047807292524705749 -0.0022590230303426856 0 0.0047413439327396922 -0.0022355534771322356 0 0.0047222356163875339 -0.0022840714045964596 0 0.0047340642035529719 -0.0023126664041464083 0 0.0047427240068646922 -0.0022770079504643797 0 0.0047222356163875339 -0.0022840714045964596 0 0.0047427240068646922 -0.0022770079504643797 0 0.0047413439327396922 -0.0022355534771322356 0 0.0048032073218144244 -0.0022775912889560841 0 0.0047427240068646922 -0.0022770079504643797 0 0.0047807292524705749 -0.0022590230303426856 0 0.0041144918667341433 -0.0003272995980745136 0 0.0046496369025038741 0.00063587967578912637 0 0.0046956755575802197 -0.0021721261325717126 0 0.0048239821444818407 -0.0022402749614428359 0 0.0047413439327396922 -0.0022355534771322356 0 0.0040713597268423199 0.0016753093918620576 0 0.00387009221181138 0.0015623953791210874 0 0.0042065076167837135 0.00142325673047005 0 0.0042914509798020447 0.0017703241542122586 0 0.0040713597268423199 0.0016753093918620576 0 0.0042065076167837135 0.00142325673047005 0 0.0042358314738861732 0.0024676025474922314 0 0.0046496369025038741 0.00063587967578912637 0 0.0042225326411410215 0.0026604077512181277 0 0.0041106890375753767 0.0025518738628799603 0 0.0041915665219756128 0.0026271596787021158 0 0.0041106890375753767 0.0025518738628799603 0 0.0041209429261146362 0.0025414222900627171 0 0.0041915665219756128 0.0026271596787021158 0 0.0041915665219756128 0.0026271596787021158 0 0.0041757682897901075 0.0026437561652975492 0 0.0041733173070074119 0.0026812995273300787 0 0.0041846526033741073 0.0026409605536574471 0 0.0041915665219756128 0.0026271596787021158 0 0.0041757682897901075 0.0026437561652975492 0 0.0042225326411410215 0.0026604077512181277 0 0.0041846526033741073 0.0026409605536574471 0 0.0041915665219756128 0.0026271596787021158 0 0.0041644450864358942 0.0034127516766475673 0 0.004033198015364817 0.0037555328078830298 0 0.003819168405558356 0.0034574471104564042 0 0.0041680502170632055 0.0024519856322313045 0 0.0041915665219756128 0.0026271596787021158 0 0.0042561033999141337 0.0024124894258681596 0 0.0042083983376182644 0.0031405349175416624 0 0.0037716440222831452 0.0028259417521980116 0 0.0041644450864358942 0.0034127516766475673 0 0.004033198015364817 0.0037555328078830298 0 0.0042073826577626074 0.0040620925395391475 0 0.0042853315784609968 0.0024892060398455599 0 0.0037716440222831452 0.0028259417521980116 0 0.004033198015364817 0.0037555328078830298 0 0.0039988996737123804 0.003980634978470567 0 0.0042073826577626074 0.0040620925395391475 0 0.0039988996737123804 0.003980634978470567 0 0.0041689002754140194 0.0042124671959107452 0 0.0037866841485521621 0.0041165817560724297 0 0.0039988996737123804 0.003980634978470567 0 0.0042073826577626074 0.0040620925395391475 0 0.0041689002754140194 0.0042124671959107452 0 0.0041680502170632055 0.0024519856322313045 0 0.0042561033999141337 0.0024124894258681596 0 0.0042495034267255099 0.0023631298865921619 0 0.0036890134124869037 0.0038033907667570262 0 0.0034278171714439559 0.0040304445744927713 0 0.0037866841485521621 0.0041165817560724297 0 0.0039988996737123804 0.003980634978470567 0 0.0036890134124869037 0.0038033907667570262 0 0.0037866841485521621 0.0041165817560724297 0 0.004033198015364817 0.0037555328078830298 0 0.0039988996737123804 0.003980634978470567 0 0.0036890134124869037 0.0038033907667570262 0 0.0036890134124869037 0.0038033907667570262 0 0.003819168405558356 0.0034574471104564042 0 0.0034860376280180993 0.0034798434456487031 0 0.004033198015364817 0.0037555328078830298 0 0.0036890134124869037 0.0038033907667570262 0 0.003819168405558356 0.0034574471104564042 0 0.0036193017182284239 0.0031470837090150929 0 0.0038550082547717636 0.003072030438285675 0 0.003819168405558356 0.0034574471104564042 0 0.0038550082547717636 0.003072030438285675 0 0.0041644450864358942 0.0034127516766475673 0 0.003819168405558356 0.0034574471104564042 0 0.0036193017182284239 0.0031470837090150929 0 0.003819168405558356 0.0034574471104564042 0 0.0034860376280180993 0.0034798434456487031 0 0.0036890134124869037 0.0038033907667570262 0 0.0031528149727785789 0.0035953979534954325 0 0.0034860376280180993 0.0034798434456487031 0 0.0033052704033745117 0.0031128364699530772 0 0.0031528149727785789 0.0035953979534954325 0 0.0034860376280180993 0.0034798434456487031 0 0.0033052704033745117 0.0031128364699530772 0 0.0036193017182284239 0.0031470837090150929 0 0.0034860376280180993 0.0034798434456487031 0 0.0028000210608041089 0.0030841989640702614 0 0.0026338402212911899 0.0037281672300724703 0 0.0031528149727785789 0.0035953979534954325 0 0.0026338402212911899 0.0037281672300724703 0 0.0031528149727785789 0.0035953979534954325 0 0.003014142041690239 0.0041564089134950646 0 0.0026338402212911899 0.0037281672300724703 0 0.0024469035807652886 0.0042840294449837009 0 0.003014142041690239 0.0041564089134950646 0 0.0031528149727785789 0.0035953979534954325 0 0.0034278171714439559 0.0040304445744927713 0 0.003014142041690239 0.0041564089134950646 0 0.0036890134124869037 0.0038033907667570262 0 0.0031528149727785789 0.0035953979534954325 0 0.0034278171714439559 0.0040304445744927713 0 0.0034278171714439559 0.0040304445744927713 0 0.0035019328995670781 0.0044760336135649895 0 0.003014142041690239 0.0041564089134950646 0 0.0035019328995670781 0.0044760336135649895 0 0.003014142041690239 0.0041564089134950646 0 0.0028619020822376979 0.0047229668416697212 0 0.0024469035807652886 0.0042840294449837009 0 0.003014142041690239 0.0041564089134950646 0 0.0028619020822376979 0.0047229668416697212 0 0.0019602276725403968 0.0029596098209627051 0 0.0018469968537785863 0.0028455327328089711 0 0.0020761369103852604 0.0028892744365048083 0 0.00062682866860032458 0.003845765980389812 0 0.00056692643140773629 0.0037914973133820968 0 0.00056380074910439726 0.0038308317680645783 0 0.00090608792891902913 0.003598568420595792 0 0.00060579592950398518 0.0036970385046711882 0 0.00090608792891902913 0.003598568420595792 0 0.0020722037656017139 0.0040688512183949931 0 0.0004991256408147782 0.003874909043951949 0 0.00056692643140773629 0.0037914973133820968 0 0.00056380074910439726 0.0038308317680645783 0 0.0029082266201700671 0.0036586668305648518 0 0.0020722037656017139 0.0040688512183949931 0 0.0021516216620754525 0.0027120714773100898 0 0.0018469968537785863 0.0028455327328089711 0 0.0020761369103852604 0.0028892744365048083 0 0.0021516216620754525 0.0027120714773100898 0 0.0020761369103852604 0.0028892744365048083 0 0.0022363979012458642 0.0029049728349357928 0 0.0021468353506035559 0.0030075125706771366 0 0.0020761369103852604 0.0028892744365048083 0 0.0022363979012458642 0.0029049728349357928 0 0.002329845516478335 0.0030549569932907202 0 0.0022363979012458642 0.0029049728349357928 0 0.0023969107115989806 0.0028227139810670563 0 0.0021516216620754525 0.0027120714773100898 0 0.0022363979012458642 0.0029049728349357928 0 0.0023969107115989806 0.0028227139810670563 0 0.0024655084475650266 0.00069342189590567208 0 0.0023353017013051434 0.0012717137198560292 0 0.0020452572818562501 0.0012028766347534098 0 0.0023353017013051434 0.0012717137198560292 0 0.0020452572818562501 0.0012028766347534098 0 0.0022106861632375449 0.0018555538230970198 0 0.0026334868611668002 0.00016320518581963871 0 0.003375930640957446 0.0017601059366194433 0 0.0020452572818562501 0.0012028766347534098 0 0.0021504524484103069 0.0018799236398994459 0 0.0022106861632375449 0.0018555538230970198 0 0.0023788856770537038 0.0020082168873035463 0 0.0030709801759641439 0.0024398561470274616 0 0.0035983099440414111 0.0025933557085484889 0 0.00353479603899335 0.0021262874233636546 0 0.0037270361100278696 0.0020487057412873141 0 0.0037716440222831452 0.0028259417521980116 0 0.003375930640957446 0.0017601059366194433 0 0.0037716440222831452 0.0028259417521980116 0 0.0030709801759641439 0.0024398561470274616 0 0.003375930640957446 0.0017601059366194433 0 0.0030709801759641439 0.0024398561470274616 0 0.0021516216620754525 0.0027120714773100898 0 0.0023969107115989806 0.0028227139810670563 0 0.002463211344687413 0.0025806594982400819 0 0.0034278171714439559 0.0040304445744927713 0 0.0035019328995670781 0.0044760336135649895 0 0.0037866841485521621 0.0041165817560724297 0 0.0029082266201700671 0.0036586668305648518 0 0.0030709801759641439 0.0024398561470274616 0 0.0035019328995670781 0.0044760336135649895 0 0.0041689002754140194 0.0042124671959107452 0 0.0037866841485521621 0.0041165817560724297 0 -1.0122931319505301e-05 0.014988479299884255 0 -4.0619138693993382e-06 0.014995329646096621 0 -5.0452323530259755e-06 0.014994771490613686 0 -4.0377522915301246e-05 0.014868836636362282 0 -3.1334238777052284e-05 0.014820959949558763 0 -1.0122931319505301e-05 0.014988479299884255 0 -4.0619138693993382e-06 0.014995329646096621 0 -2.6401594001520533e-06 0.014996769402795896 0 -5.9041893189051073e-09 0.014999987210609737 0 -4.0619138693993382e-06 0.014995329646096621 0 -5.0452323530259755e-06 0.014994771490613686 0 -5.9041893189051073e-09 0.014999987210609737 0 -4.0619138693993382e-06 0.014995329646096621 0 -2.6401594001520533e-06 0.014996769402795896 0 -3.1334238777052284e-05 0.014820959949558763 0 -2.2929450707587135e-08 0.014999928793173191 0 -5.9041893189051073e-09 0.014999987210609737 0 -2.6401594001520533e-06 0.014996769402795896 0 1.3734233723913805e-09 0.014999999967212532 0 -9.7860778169766324e-05 0.014458594256973444 0 -0.0001061349496104981 0.014702787086125992 0 -5.256635509818405e-05 0.014580717836338115 0 -0.0001061349496104981 0.014702787086125992 0 -5.256635509818405e-05 0.014580717836338115 0 -4.5768188669441872e-05 0.014752855612857923 0 -5.256635509818405e-05 0.014580717836338115 0 -1.5587633440434371e-05 0.014513426990349841 0 -2.2146789186212282e-05 0.014409722849838987 0 -1.5587633440434371e-05 0.014513426990349841 0 -1.8002599819678357e-06 0.014358880842121668 0 -2.2146789186212282e-05 0.014409722849838987 0 -1.8002599819678357e-06 0.014358880842121668 0 -2.2146789186212282e-05 0.014409722849838987 0 4.9817232606551573e-06 0.01429944179646968 0 -9.7860778169766324e-05 0.014458594256973444 0 -5.256635509818405e-05 0.014580717836338115 0 -2.2146789186212282e-05 0.014409722849838987 0 -0.00075708413583926311 0.013393994760034986 0 -0.00060720293037449938 0.013517972951806028 0 -4.0377522915301246e-05 0.014868836636362282 0 -0.00075708413583926311 0.013393994760034986 0 -9.7860778169766324e-05 0.014458594256973444 0 -2.2146789186212282e-05 0.014409722849838987 0 -5.7406940961063881e-05 0.014339139553679162 0 -1.0122931319505301e-05 0.014988479299884255 0 -2.1237177672777536e-05 0.014978151695822013 0 -1.4567809901739569e-05 0.014987246977149735 0 -0.00075708413583926311 0.013393994760034986 0 -0.00086821691056070713 0.013261822218129831 0 -2.2146789186212282e-05 0.014409722849838987 0 -5.7406940961063881e-05 0.014339139553679162 0 4.9817232606551573e-06 0.01429944179646968 0 -0.001645251757610921 0.012183997246422331 0 -0.0016768237132973765 0.012191447636922268 0 -0.0017156004757054759 0.012243416156135754 0 -0.001645251757610921 0.012183997246422331 0 -0.0016768237132973765 0.012191447636922268 0 -0.0016321473513327912 0.01223061564119339 0 -0.00075708413583926311 0.013393994760034986 0 -0.0017185893986963912 0.011867647353635298 0 -0.0013816535038351707 0.011983827635712268 0 -0.0014466056324153431 0.012161724466764905 0 -0.0016321473513327912 0.01223061564119339 0 -0.0013816535038351707 0.011983827635712268 0 -0.0012408956661739722 0.012239919375319534 0 -0.0011215728993363215 0.012052917968642015 0 -0.0012408956661739722 0.012239919375319534 0 -0.0014466056324153431 0.012161724466764905 0 -0.0016067327776857923 0.012289214163971891 0 -0.0013816535038351707 0.011983827635712268 0 -0.0012408956661739722 0.012239919375319534 0 -0.0014466056324153431 0.012161724466764905 0 -0.00060720293037449938 0.013517972951806028 0 -0.00023764681775893814 0.014118629859719426 0 -3.4835142650591901e-05 0.01496421541941321 0 -8.5650770604202365e-06 0.01498247151825534 0 -7.0509335086428867e-06 0.014991770893225419 0 -0.0006560685265307334 0.013545697981347233 0 -0.00023764681775893814 0.014118629859719426 0 -0.0012408956661739722 0.012239919375319534 0 -0.0011215728993363215 0.012052917968642015 0 -0.00084400919021918681 0.012144864157151379 0 -1.4567809901739569e-05 0.014987246977149735 0 -8.3416404572266072e-06 0.014992469484535023 0 -6.167242506060013e-06 0.014996221975032404 0 -1.0122931319505301e-05 0.014988479299884255 0 -1.4567809901739569e-05 0.014987246977149735 0 -8.3416404572266072e-06 0.014992469484535023 0 -1.0122931319505301e-05 0.014988479299884255 0 -5.0452323530259755e-06 0.014994771490613686 0 -8.3416404572266072e-06 0.014992469484535023 0 -5.9041893189051073e-09 0.014999987210609737 0 -5.0452323530259755e-06 0.014994771490613686 0 -9.3803001671964141e-09 0.014999987513780412 0 -5.0452323530259755e-06 0.014994771490613686 0 -8.3416404572266072e-06 0.014992469484535023 0 -9.3803001671964141e-09 0.014999987513780412 0 -0.00023764681775893814 0.014118629859719426 0 1.9681379289589575e-07 0.014999503696307596 0 -1.9968763579026196e-10 0.01499999396711061 0 -3.3378664522709486e-06 0.014995025376505905 0 -1.2958926968419059e-09 0.015000001177400947 0 -2.0957354196601235e-07 0.014999470427199646 0 -0.00023764681775893814 0.014118629859719426 0 -8.3416404572266072e-06 0.014992469484535023 0 -9.3803001671964141e-09 0.014999987513780412 0 -6.167242506060013e-06 0.014996221975032404 0 -8.5650770604202365e-06 0.01498247151825534 0 -8.0321210796572292e-09 0.014999930067589489 0 -7.0509335086428867e-06 0.014991770893225419 0 -7.0509335086428867e-06 0.014991770893225419 0 -1.8822631112501229e-05 0.014992090748760291 0 -5.4656815076009785e-09 0.015000022730326181 0 -8.0321210796572292e-09 0.014999930067589489 0 -7.0509335086428867e-06 0.014991770893225419 0 -5.4656815076009785e-09 0.015000022730326181 0 -3.4835142650591901e-05 0.01496421541941321 0 -7.0509335086428867e-06 0.014991770893225419 0 -1.8822631112501229e-05 0.014992090748760291 0 -2.1459177916473718e-05 0.014975055130343425 0 -4.1661729772907631e-05 0.014952313293336288 0 -1.9880662142830074e-05 0.014957598762317692 0 -1.1514127584447966e-05 0.014978651936786077 0 -3.7007613566828658e-05 0.014950454637036547 0 -4.3891891472540999e-09 0.014999926222400473 0 -4.7388166088801922e-09 0.014999986615584895 0 -1.1514127584447966e-05 0.014978651936786077 0 -2.1459177916473718e-05 0.014975055130343425 0 -1.0554458838343867e-08 0.014999987556206263 0 -1.9880662142830074e-05 0.014957598762317692 0 -4.3891891472540999e-09 0.014999926222400473 0 -1.1514127584447966e-05 0.014978651936786077 0 -4.7388166088801922e-09 0.014999986615584895 0 -1.1514127584447966e-05 0.014978651936786077 0 -8.7790063082311864e-06 0.014992375987043047 0 -1.1514127584447966e-05 0.014978651936786077 0 -2.5829503180653678e-05 0.014968777281554387 0 -8.7790063082311864e-06 0.014992375987043047 0 -1.1514127584447966e-05 0.014978651936786077 0 -2.5829503180653678e-05 0.014968777281554387 0 -3.7007613566828658e-05 0.014950454637036547 0 -2.5829503180653678e-05 0.014968777281554387 0 -8.7790063082311864e-06 0.014992375987043047 0 -2.5067669041437942e-05 0.014983093415486178 0 -9.4013334832233292e-06 0.014999404616555639 0 -8.7790063082311864e-06 0.014992375987043047 0 -1.5082829812322255e-05 0.014995251706561725 0 -8.7790063082311864e-06 0.014992375987043047 0 -2.5067669041437942e-05 0.014983093415486178 0 -1.5082829812322255e-05 0.014995251706561725 0 -2.5067669041437942e-05 0.014983093415486178 0 -2.5131411006925861e-05 0.014995445075306809 0 -1.5082829812322255e-05 0.014995251706561725 0 -1.6478832039860588e-05 0.014998722464441875 0 -2.5131411006925861e-05 0.014995445075306809 0 -1.5082829812322255e-05 0.014995251706561725 0 -9.4013334832233292e-06 0.014999404616555639 0 -1.6478832039860588e-05 0.014998722464441875 0 -1.5082829812322255e-05 0.014995251706561725 0 -3.9789450701633284e-09 0.015000001861489356 0 -4.7388166088801922e-09 0.014999986615584895 0 -8.7790063082311864e-06 0.014992375987043047 0 -3.9789450701633284e-09 0.015000001861489356 0 -9.4013334832233292e-06 0.014999404616555639 0 -8.7790063082311864e-06 0.014992375987043047 0 -5.4230694179832595e-05 0.014878823148140013 0 -4.6881533863448173e-05 0.014883714165213929 0 -4.8804541260882836e-05 0.014871362912045756 0 -5.4230694179832595e-05 0.014878823148140013 0 -4.6881533863448173e-05 0.014883714165213929 0 -5.3267009937251871e-05 0.014896660057714192 0 -4.3010062705708542e-05 0.014868547925378017 0 -4.6881533863448173e-05 0.014883714165213929 0 -4.8804541260882836e-05 0.014871362912045756 0 -4.3010062705708542e-05 0.014868547925378017 0 -4.6881533863448173e-05 0.014883714165213929 0 -3.7230825537039662e-05 0.014890400936579389 0 -5.1352463498421541e-05 0.014875189974581138 0 -8.9716735735033328e-05 0.014865631424437115 0 -4.3010062705708542e-05 0.014868547925378017 0 -7.3797251361293228e-05 0.01484575606059443 0 -2.8890983393087671e-05 0.014849845143886778 0 -5.4230694179832595e-05 0.014878823148140013 0 -4.1772049810009069e-05 0.014867067942532623 0 -5.3776395874371649e-05 0.01485867930024351 0 -8.9716735735033328e-05 0.014865631424437115 0 -7.9655928235161094e-05 0.014779631769850086 0 -6.8355751276342032e-05 0.014862078651257875 0 -8.9716735735033328e-05 0.014865631424437115 0 -4.7235926599102294e-05 0.014846533061493321 0 -8.5467091435499092e-05 0.014869901047485982 0 -7.454703583107513e-05 0.014885722548147306 0 -7.9655928235161094e-05 0.014779631769850086 0 -8.6320334657272597e-05 0.01488034062963297 0 -3.0891783759678197e-05 0.015023106044087445 0 -2.5131411006925861e-05 0.014995445075306809 0 -4.3620655506908945e-05 0.01499132034135363 0 -5.4230694179832595e-05 0.014878823148140013 0 -5.3776395874371649e-05 0.01485867930024351 0 -7.454703583107513e-05 0.014885722548147306 0 -0.00010285996540097949 0.014809185412293013 0 -4.7235926599102294e-05 0.014846533061493321 0 -8.5467091435499092e-05 0.014869901047485982 0 -8.5467091435499092e-05 0.014869901047485982 0 -7.454703583107513e-05 0.014885722548147306 0 -5.5593637101407188e-05 0.014936813353183115 0 -2.5067669041437942e-05 0.014983093415486178 0 -4.3620655506908945e-05 0.01499132034135363 0 -5.5593637101407188e-05 0.014936813353183115 0 -2.5067669041437942e-05 0.014983093415486178 0 -2.5131411006925861e-05 0.014995445075306809 0 -4.3620655506908945e-05 0.01499132034135363 0 -5.4230694179832595e-05 0.014878823148140013 0 -7.454703583107513e-05 0.014885722548147306 0 -5.3267009937251871e-05 0.014896660057714192 0 -7.454703583107513e-05 0.014885722548147306 0 -5.5593637101407188e-05 0.014936813353183115 0 -5.3267009937251871e-05 0.014896660057714192 0 -6.2146218083357848e-05 0.014934855232366293 0 -5.85166056565761e-05 0.014934537771268219 0 -2.5829503180653678e-05 0.014968777281554387 0 -2.5067669041437942e-05 0.014983093415486178 0 -5.5593637101407188e-05 0.014936813353183115 0 -2.5829503180653678e-05 0.014968777281554387 0 -5.5593637101407188e-05 0.014936813353183115 0 -3.7007613566828658e-05 0.014950454637036547 0 -5.5593637101407188e-05 0.014936813353183115 0 -4.8599472567818224e-05 0.014920968832239546 0 -4.620490742885676e-05 0.014903155584654531 0 -5.5593637101407188e-05 0.014936813353183115 0 -5.3267009937251871e-05 0.014896660057714192 0 -4.620490742885676e-05 0.014903155584654531 0 -4.6881533863448173e-05 0.014883714165213929 0 -5.3267009937251871e-05 0.014896660057714192 0 -4.620490742885676e-05 0.014903155584654531 0 -4.6881533863448173e-05 0.014883714165213929 0 -4.620490742885676e-05 0.014903155584654531 0 -3.7230825537039662e-05 0.014890400936579389 0 -4.8599472567818224e-05 0.014920968832239546 0 -4.620490742885676e-05 0.014903155584654531 0 -3.8789953127706999e-05 0.014909245722546413 0 -4.620490742885676e-05 0.014903155584654531 0 -3.8789953127706999e-05 0.014909245722546413 0 -3.7230825537039662e-05 0.014890400936579389 0 -4.9543227412384181e-05 0.014929288036539326 0 -4.5336271740616141e-05 0.014935119727504881 0 -4.4570815873595993e-05 0.014933565742459543 0 -4.8599472567818224e-05 0.014920968832239546 0 -4.9543227412384181e-05 0.014929288036539326 0 -4.2900400362970593e-05 0.014923447587865693 0 -4.8599472567818224e-05 0.014920968832239546 0 -3.8789953127706999e-05 0.014909245722546413 0 -4.2900400362970593e-05 0.014923447587865693 0 -5.5593637101407188e-05 0.014936813353183115 0 -4.8599472567818224e-05 0.014920968832239546 0 -4.9543227412384181e-05 0.014929288036539326 0 -4.9543227412384181e-05 0.014929288036539326 0 -4.2900400362970593e-05 0.014923447587865693 0 -4.4570815873595993e-05 0.014933565742459543 0 -1.9880662142830074e-05 0.014957598762317692 0 -3.7007613566828658e-05 0.014950454637036547 0 -4.5336271740616141e-05 0.014935119727504881 0 -5.5593637101407188e-05 0.014936813353183115 0 -4.9543227412384181e-05 0.014929288036539326 0 -3.7007613566828658e-05 0.014950454637036547 0 -4.9543227412384181e-05 0.014929288036539326 0 -3.7007613566828658e-05 0.014950454637036547 0 -4.5336271740616141e-05 0.014935119727504881 0 -0.0006560685265307334 0.013545697981347233 0 -0.00081173920554153281 0.013611010989090308 0 -3.4835142650591901e-05 0.01496421541941321 0 -1.8822631112501229e-05 0.014992090748760291 0 -4.2881943695001312e-05 0.014969037843994327 0 -3.4835142650591901e-05 0.01496421541941321 0 -4.2881943695001312e-05 0.014969037843994327 0 -5.0533437331626031e-05 0.014947187593123497 0 -4.2881943695001312e-05 0.014969037843994327 0 -4.4570815873595993e-05 0.014933565742459543 0 -5.0533437331626031e-05 0.014947187593123497 0 -4.1661729772907631e-05 0.014952313293336288 0 -4.2865477149274387e-05 0.014938547151760368 0 -0.0014466056324153431 0.012161724466764905 0 -0.0016067327776857923 0.012289214163971891 0 -0.0016321473513327912 0.01223061564119339 0 -0.0016067327776857923 0.012289214163971891 0 -0.0016321473513327912 0.01223061564119339 0 -0.0016801010485235177 0.012238717046005284 0 -0.00081173920554153281 0.013611010989090308 0 -0.00089430539251375096 0.013712900452679998 0 -4.4570815873595993e-05 0.014933565742459543 0 -5.0533437331626031e-05 0.014947187593123497 0 -2.109068547474874e-05 0.014918027827858598 0 -0.0016067327776857923 0.012289214163971891 0 -0.0016801010485235177 0.012238717046005284 0 -0.0017239859010395554 0.012293856168836917 0 -0.0016801010485235177 0.012238717046005284 0 -0.0017447408079361382 0.012236003138997986 0 -0.0017239859010395554 0.012293856168836917 0 -0.0017447408079361382 0.012236003138997986 0 -0.0018253690387302068 0.012335500784139744 0 -0.0017995503501875164 0.012214552171563741 0 -0.0017447408079361382 0.012236003138997986 0 -0.0017239859010395554 0.012293856168836917 0 -0.0018253690387302068 0.012335500784139744 0 -9.3299401576493279e-06 0.014893088088433776 0 1.0832509381297016e-05 0.014871106267939404 0 1.8340239166153317e-05 0.014881397251938067 0 -0.00089430539251375096 0.013712900452679998 0 -0.00097467390153444769 0.012651975991590939 0 -2.109068547474874e-05 0.014918027827858598 0 -9.3299401576493279e-06 0.014893088088433776 0 1.8340239166153317e-05 0.014881397251938067 0 -4.4570815873595993e-05 0.014933565742459543 0 -2.109068547474874e-05 0.014918027827858598 0 -3.1629209657409386e-05 0.014914229029076779 0 -4.2900400362970593e-05 0.014923447587865693 0 -4.4570815873595993e-05 0.014933565742459543 0 -3.1629209657409386e-05 0.014914229029076779 0 -2.109068547474874e-05 0.014918027827858598 0 -9.3299401576493279e-06 0.014893088088433776 0 -3.1629209657409386e-05 0.014914229029076779 0 -9.3299401576493279e-06 0.014893088088433776 0 -3.1629209657409386e-05 0.014914229029076779 0 -2.4657789168151462e-05 0.014895394106295671 0 -3.8789953127706999e-05 0.014909245722546413 0 -3.1629209657409386e-05 0.014914229029076779 0 -2.4657789168151462e-05 0.014895394106295671 0 -3.8789953127706999e-05 0.014909245722546413 0 -4.2900400362970593e-05 0.014923447587865693 0 -3.1629209657409386e-05 0.014914229029076779 0 -3.8789953127706999e-05 0.014909245722546413 0 -3.7230825537039662e-05 0.014890400936579389 0 -2.4657789168151462e-05 0.014895394106295671 0 -4.3010062705708542e-05 0.014868547925378017 0 -3.7230825537039662e-05 0.014890400936579389 0 -2.1336746943586519e-05 0.014874924396834773 0 -3.7230825537039662e-05 0.014890400936579389 0 -2.1336746943586519e-05 0.014874924396834773 0 -2.4657789168151462e-05 0.014895394106295671 0 -2.1336746943586519e-05 0.014874924396834773 0 -2.4657789168151462e-05 0.014895394106295671 0 -6.613855671854116e-06 0.014879038044389991 0 -9.3299401576493279e-06 0.014893088088433776 0 -2.4657789168151462e-05 0.014895394106295671 0 -6.613855671854116e-06 0.014879038044389991 0 -6.613855671854116e-06 0.014879038044389991 0 1.6131609991970579e-05 0.014843596586909069 0 1.0832509381297016e-05 0.014871106267939404 0 -6.613855671854116e-06 0.014879038044389991 0 -4.0885705053638423e-06 0.01486069998130269 0 1.6131609991970579e-05 0.014843596586909069 0 -9.3299401576493279e-06 0.014893088088433776 0 -6.613855671854116e-06 0.014879038044389991 0 1.0832509381297016e-05 0.014871106267939404 0 -2.1336746943586519e-05 0.014874924396834773 0 -6.613855671854116e-06 0.014879038044389991 0 -4.0885705053638423e-06 0.01486069998130269 0 2.3366609699012788e-06 0.014821801753067226 0 -7.6999713215023714e-06 0.014844417240471162 0 1.6131609991970579e-05 0.014843596586909069 0 0.00044737492996784649 0.012470195236286024 0 0.00048011208568547156 0.012470815462288422 0 0.00045707723299906949 0.012435932365664851 0 -4.0885705053638423e-06 0.01486069998130269 0 -7.6999713215023714e-06 0.014844417240471162 0 1.6131609991970579e-05 0.014843596586909069 0 0.00013952024263032674 0.013787948427168526 0 0.00034762976240682654 0.013781200282345059 0 0.00013952024263032674 0.013787948427168526 0 -0.00020488057723127884 0.014902493483200231 0 -1.6956094870212389e-05 0.014815263043812376 0 1.8205343355724948e-05 0.014809561741268152 0 -7.6999713215023714e-06 0.014844417240471162 0 -1.6956094870212389e-05 0.014815263043812376 0 -7.6999713215023714e-06 0.014844417240471162 0 -2.8890983393087671e-05 0.014849845143886778 0 -1.6956094870212389e-05 0.014815263043812376 0 -7.3797251361293228e-05 0.01484575606059443 0 -2.8890983393087671e-05 0.014849845143886778 0 -4.3010062705708542e-05 0.014868547925378017 0 -2.1336746943586519e-05 0.014874924396834773 0 -2.8890983393087671e-05 0.014849845143886778 0 -2.1336746943586519e-05 0.014874924396834773 0 -7.6999713215023714e-06 0.014844417240471162 0 -2.8890983393087671e-05 0.014849845143886778 0 -2.1336746943586519e-05 0.014874924396834773 0 -4.0885705053638423e-06 0.01486069998130269 0 -7.6999713215023714e-06 0.014844417240471162 0 0.00063815755991606445 0.0097159157894971138 0 0.00063234769204097477 0.0097161270931078632 0 0.00061391668837175418 0.0097291878173083948 0 0.0006108026894851605 0.010600118297620694 0 0.00023638820769478281 0.01218313095061558 0 0.00063234769204097477 0.0097161270931078632 0 0.00062667024208433225 0.0097078791145327019 0 0.0006290962814753529 0.0097048924342726644 0 0.00061649675032713019 0.0097361423995175698 0 0.00063234769204097477 0.0097161270931078632 0 0.0006290962814753529 0.0097048924342726644 0 0.00061649675032713019 0.0097361423995175698 0 0.00064774333700299842 0.0097518996400555204 0 0.00063234769204097477 0.0097161270931078632 0 0.0006108026894851605 0.010600118297620694 0 0.00059806809864279922 0.0094905217344580951 0 0.00041250566589377498 0.012457028126954687 0 0.00045707723299906949 0.012435932365664851 0 0.00043132890657421736 0.01240109424625355 0 1.6131609991970579e-05 0.014843596586909069 0 1.0832509381297016e-05 0.014871106267939404 0 2.8260104094918802e-05 0.014852911321509666 0 0.00034762976240682654 0.013781200282345059 0 0.00023638820769478281 0.01218313095061558 0 1.0832509381297016e-05 0.014871106267939404 0 2.8260104094918802e-05 0.014852911321509666 0 1.8340239166153317e-05 0.014881397251938067 0 0.00023638820769478281 0.01218313095061558 0 -4.2226453798599784e-05 0.010632414364396582 0 0.00061391668837175418 0.0097291878173083948 0 0.00062667024208433225 0.0097078791145327019 0 0.00061413099559420349 0.0097394305527641941 0 0.00063234769204097477 0.0097161270931078632 0 0.00061391668837175418 0.0097291878173083948 0 0.00062667024208433225 0.0097078791145327019 0 -4.2226453798599784e-05 0.010632414364396582 0 -7.462662918383211e-05 0.010958284305822328 0 -0.00054638436978855418 0.011201850059651479 0 -0.00093113113476198843 0.011344047166106173 0 -0.00066964363585012617 0.011814043621296311 0 0.00023638820769478281 0.01218313095061558 0 -0.00097467390153444769 0.012651975991590939 0 -4.2226453798599784e-05 0.010632414364396582 0 -0.00097467390153444769 0.012651975991590939 0 -0.00027939159814606239 0.011620488433973184 0 -7.6830596455303464e-05 0.011862778054732846 0 -0.00040707539383677457 0.011986054033247004 0 -0.00097467390153444769 0.012651975991590939 0 -0.0014017986407502895 0.011844469808491475 0 -0.00093113113476198843 0.011344047166106173 0 -0.00066964363585012617 0.011814043621296311 0 -0.0011540015112001757 0.011994102413293113 0 -0.00059269287359385505 0.011452317507902408 0 -0.0014017986407502895 0.011844469808491475 0 -0.0005542894459956469 0.011084782618116251 0 -1.7910111950663783e-05 0.011183084386734946 0 6.4174695924041795e-05 0.010878953450732944 0 -0.00059269287359385505 0.011452317507902408 0 -7.462662918383211e-05 0.010958284305822328 0 -0.00054638436978855418 0.011201850059651479 0 -0.00066964363585012617 0.011814043621296311 0 -0.00018660519728706351 0.011631507215155976 0 -0.0005542894459956469 0.011084782618116251 0 -0.00011980903338256451 0.011503945090598279 0 -1.7910111950663783e-05 0.011183084386734946 0 -0.0005542894459956469 0.011084782618116251 0 -0.00011980903338256451 0.011503945090598279 0 -0.00068705785856174018 0.011568445974276479 0 -0.00011980903338256451 0.011503945090598279 0 -0.00070881005004570113 0.012033438081988828 0 -0.00068705785856174018 0.011568445974276479 0 -0.00011980903338256451 0.011503945090598279 0 -7.0428754883682294e-05 0.012420775663409645 0 -0.00070881005004570113 0.012033438081988828 0 -7.0428754883682294e-05 0.012420775663409645 0 -0.00070881005004570113 0.012033438081988828 0 -0.0013368240030512874 0.012664673060414669 0 -0.00070881005004570113 0.012033438081988828 0 -0.0012611238310767914 0.012171376743400381 0 -0.0013368240030512874 0.012664673060414669 0 -0.0012611238310767914 0.012171376743400381 0 -0.0010425990566120297 0.011864610841135629 0 -0.0014445794703026413 0.012035892019580044 0 -0.00070881005004570113 0.012033438081988828 0 -0.0012611238310767914 0.012171376743400381 0 -0.0010425990566120297 0.011864610841135629 0 -0.0005542894459956469 0.011084782618116251 0 -0.00068705785856174018 0.011568445974276479 0 -0.0013140242878689691 0.011408321714061996 0 -0.0010425990566120297 0.011864610841135629 0 -0.0013140242878689691 0.011408321714061996 0 -0.0014445794703026413 0.012035892019580044 0 -0.00070881005004570113 0.012033438081988828 0 -0.0010425990566120297 0.011864610841135629 0 -0.00068705785856174018 0.011568445974276479 0 -0.0010425990566120297 0.011864610841135629 0 -0.00068705785856174018 0.011568445974276479 0 -0.0013140242878689691 0.011408321714061996 0 -0.0017447408079361382 0.012236003138997986 0 -0.0017995503501875164 0.012214552171563741 0 -0.0016832938945432387 0.012144660589186999 0 -0.0013966913599900057 0.011887935589046709 0 -0.0014445794703026413 0.012035892019580044 0 -0.0016832938945432387 0.012144660589186999 0 -0.0014017986407502895 0.011844469808491475 0 -0.0017593445276000942 0.012185755468876633 0 -0.0014017986407502895 0.011844469808491475 0 -0.0014178405387197126 0.011910006669946535 0 -0.0014445794703026413 0.012035892019580044 0 -0.0016832938945432387 0.012144660589186999 0 -0.0015498554761496069 0.012223951628735226 0 -0.0016321473513327912 0.01223061564119339 0 -0.0016801010485235177 0.012238717046005284 0 -0.0016832938945432387 0.012144660589186999 0 -0.0016768237132973765 0.012191447636922268 0 -0.0016321473513327912 0.01223061564119339 0 -0.0016832938945432387 0.012144660589186999 0 -0.0016801010485235177 0.012238717046005284 0 -0.0017447408079361382 0.012236003138997986 0 -0.0016832938945432387 0.012144660589186999 0 -0.0016768237132973765 0.012191447636922268 0 -0.0016832938945432387 0.012144660589186999 0 -0.0017156004757054759 0.012243416156135754 0 -0.0016832938945432387 0.012144660589186999 0 -0.0017156004757054759 0.012243416156135754 0 -0.0015498554761496069 0.012223951628735226 0 -0.0017156004757054759 0.012243416156135754 0 -0.0015498554761496069 0.012223951628735226 0 -0.0013368240030512874 0.012664673060414669 0 -0.00086821691056070713 0.013261822218129831 0 -0.00060686408266204706 0.013378912623412674 0 -0.0012611238310767914 0.012171376743400381 0 -0.0014445794703026413 0.012035892019580044 0 -0.0015498554761496069 0.012223951628735226 0 -0.0012611238310767914 0.012171376743400381 0 -0.0015498554761496069 0.012223951628735226 0 -0.0013368240030512874 0.012664673060414669 0 4.9817232606551573e-06 0.01429944179646968 0 6.2632002478352094e-06 0.014274759772868162 0 -1.1075991717564543e-05 0.014101988160875477 0 6.2632002478352094e-06 0.014274759772868162 0 8.3987128393945253e-06 0.014150278257289981 0 -1.1075991717564543e-05 0.014101988160875477 0 -1.8002599819678357e-06 0.014358880842121668 0 4.9817232606551573e-06 0.01429944179646968 0 6.2632002478352094e-06 0.014274759772868162 0 -1.5587633440434371e-05 0.014513426990349841 0 6.2632002478352094e-06 0.014274759772868162 0 3.1587837166717528e-05 0.014445636666544127 0 -1.5587633440434371e-05 0.014513426990349841 0 -1.8002599819678357e-06 0.014358880842121668 0 6.2632002478352094e-06 0.014274759772868162 0 8.3987128393945253e-06 0.014150278257289981 0 6.4849705373785655e-05 0.014210531407575878 0 3.1587837166717528e-05 0.014445636666544127 0 6.2632002478352094e-06 0.014274759772868162 0 8.3987128393945253e-06 0.014150278257289981 0 3.1587837166717528e-05 0.014445636666544127 0 8.3987128393945253e-06 0.014150278257289981 0 6.4849705373785655e-05 0.014210531407575878 0 -2.4203022926356209e-06 0.013902560374950431 0 -2.4203022926356209e-06 0.013902560374950431 0 0.000337391211871647 0.013905759978930222 0 0.0002688918658310129 0.014169113842986253 0 6.4849705373785655e-05 0.014210531407575878 0 -2.4203022926356209e-06 0.013902560374950431 0 0.0002688918658310129 0.014169113842986253 0 3.4387884307235926e-05 0.013408533182205593 0 -2.4203022926356209e-06 0.013902560374950431 0 0.000337391211871647 0.013905759978930222 0 -7.0428754883682294e-05 0.012420775663409645 0 3.4387884307235926e-05 0.013408533182205593 0 -0.0013368240030512874 0.012664673060414669 0 8.3987128393945253e-06 0.014150278257289981 0 -2.4203022926356209e-06 0.013902560374950431 0 -1.1075991717564543e-05 0.014101988160875477 0 3.552827056052089e-05 0.013440253531751148 0 -0.00060686408266204706 0.013378912623412674 0 3.4387884307235926e-05 0.013408533182205593 0 -2.4203022926356209e-06 0.013902560374950431 0 -1.1075991717564543e-05 0.014101988160875477 0 0.0004156578417156484 0.011693064364785347 0 0.00061031814453377112 0.011711695542315704 0 0.00040214125362536833 0.01170070053867588 0 0.00056482490505137565 0.011702587669151858 0 0.00045263891531903817 0.011562157339518399 0 0.00041281974496034746 0.011685380751817454 0 0.00040214125362536833 0.01170070053867588 0 0.00050626538868125872 0.011780782911406069 0 0.00040214125362536833 0.01170070053867588 0 0.00050626538868125872 0.011780782911406069 0 0.00065741341416907873 0.01171057782181998 0 -7.0428754883682294e-05 0.012420775663409645 0 3.4387884307235926e-05 0.013408533182205593 0 0.00078398030089222356 0.013664864756126409 0 3.4387884307235926e-05 0.013408533182205593 0 0.00078398030089222356 0.013664864756126409 0 0.000337391211871647 0.013905759978930222 0 0.00041281974496034746 0.011685380751817454 0 0.00040214125362536833 0.01170070053867588 0 0.00040546993933497432 0.011846347789877748 0 0.00057457114907633186 0.012650610757943695 0 0.00042562291856254559 0.011898569251046412 0 0.000337391211871647 0.013905759978930222 0 0.00063904262347416892 0.014298931374124366 0 0.0002688918658310129 0.014169113842986253 0 0.00078398030089222356 0.013664864756126409 0 0.000337391211871647 0.013905759978930222 0 0.00063904262347416892 0.014298931374124366 0 0.00041281974496034746 0.011685380751817454 0 0.00050626538868125872 0.011780782911406069 0 0.00042338777608475392 0.011957121682990306 0 0.00057457114907633186 0.012650610757943695 0 0.00053901555294954694 0.013117206344889941 0 0.00050626538868125872 0.011780782911406069 0 0.00065741341416907873 0.01171057782181998 0 0.00066022104531739459 0.011951954647906009 0 0.00056482490505137565 0.011702587669151858 0 0.00075707160113361077 0.011559781679509272 0 0.00091155210145685967 0.011800719040389354 0 0.00065741341416907873 0.01171057782181998 0 0.00096333477052941419 0.01179591370102644 0 0.00066022104531739459 0.011951954647906009 0 0.00061031814453377112 0.011711695542315704 0 0.00094123926667716111 0.011797493854499181 0 0.00056482490505137565 0.011702587669151858 0 0.00075707160113361077 0.011559781679509272 0 0.00063493568311875155 0.011393340330409127 0 0.00056482490505137565 0.011702587669151858 0 0.00063493568311875155 0.011393340330409127 0 0.00045263891531903817 0.011562157339518399 0 0.00063493568311875155 0.011393340330409127 0 0.00049790314024330618 0.011214723740718821 0 0.00045263891531903817 0.011562157339518399 0 0.00075707160113361077 0.011559781679509272 0 0.00063493568311875155 0.011393340330409127 0 0.00086009676198147149 0.011247784289681423 0 0.00063493568311875155 0.011393340330409127 0 0.00066862382580975079 0.011054942276561315 0 0.00086009676198147149 0.011247784289681423 0 0.00066862382580975079 0.011054942276561315 0 0.00049790314024330618 0.011214723740718821 0 0.00058292593613420041 0.010781146748152198 0 0.00063493568311875155 0.011393340330409127 0 0.00066862382580975079 0.011054942276561315 0 0.00049790314024330618 0.011214723740718821 0 0.00049790314024330618 0.011214723740718821 0 0.00042377885078845909 0.011449252313333208 0 0.00045263891531903817 0.011562157339518399 0 0.00049790314024330618 0.011214723740718821 0 0.00042377885078845909 0.011449252313333208 0 0.00038595626338158256 0.011114010321830939 0 0.00042377885078845909 0.011449252313333208 0 0.00024732009612477148 0.011355711222044708 0 0.00038595626338158256 0.011114010321830939 0 0.00040214125362536833 0.01170070053867588 0 0.00045263891531903817 0.011562157339518399 0 0.00040546993933497432 0.011846347789877748 0 0.00042377885078845909 0.011449252313333208 0 0.00045263891531903817 0.011562157339518399 0 0.00040546993933497432 0.011846347789877748 0 -7.0428754883682294e-05 0.012420775663409645 0 0.00078398030089222356 0.013664864756126409 0 0.00040546993933497432 0.011846347789877748 0 -0.00011980903338256451 0.011503945090598279 0 -7.0428754883682294e-05 0.012420775663409645 0 0.00040546993933497432 0.011846347789877748 0 -0.00011980903338256451 0.011503945090598279 0 0.00040546993933497432 0.011846347789877748 0 0.00024732009612477148 0.011355711222044708 0 0.00042377885078845909 0.011449252313333208 0 0.00040546993933497432 0.011846347789877748 0 0.00024732009612477148 0.011355711222044708 0 -0.00011980903338256451 0.011503945090598279 0 0.00024732009612477148 0.011355711222044708 0 -1.7910111950663783e-05 0.011183084386734946 0 0.00018220212493363686 0.011066330060881502 0 0.000113434963457173 0.010983857310152965 0 0.0004001965091536407 0.010728613174864661 0 0.00024732009612477148 0.011355711222044708 0 -1.7910111950663783e-05 0.011183084386734946 0 0.00018220212493363686 0.011066330060881502 0 -1.7910111950663783e-05 0.011183084386734946 0 0.00018220212493363686 0.011066330060881502 0 6.4174695924041795e-05 0.010878953450732944 0 0.00024732009612477148 0.011355711222044708 0 0.00018220212493363686 0.011066330060881502 0 0.00038595626338158256 0.011114010321830939 0 7.1268708133791456e-05 0.011051986389698457 0 -7.462662918383211e-05 0.010958284305822328 0 0.00018220212493363686 0.011066330060881502 0 0.00038595626338158256 0.011114010321830939 0 0.0004001965091536407 0.010728613174864661 0 0.00038595626338158256 0.011114010321830939 0 0.0004001965091536407 0.010728613174864661 0 0.0004643463170464642 0.010921616743889475 0 0.00049790314024330618 0.011214723740718821 0 0.00038595626338158256 0.011114010321830939 0 0.0004643463170464642 0.010921616743889475 0 -1.4573258501214775e-05 0.010166378736794714 0 0.00024401966836981617 0.010059334494308365 0 0.00013359602908134835 0.010011881347852752 0 -7.462662918383211e-05 0.010958284305822328 0 0.00036750808611876279 0.010330154480875698 0 0.00024401966836981617 0.010059334494308365 0 0.00013359602908134835 0.010011881347852752 0 0.00028377981962227078 0.0099259820761092681 0 -0.00015069385524865494 0.010002255056758329 0 2.386563912946258e-05 0.010018318132135325 0 0.00012956026883620604 0.0098897359952616875 0 -0.00015069385524865494 0.010002255056758329 0 -1.4573258501214775e-05 0.010166378736794714 0 2.386563912946258e-05 0.010018318132135325 0 -1.4573258501214775e-05 0.010166378736794714 0 0.00013359602908134835 0.010011881347852752 0 2.386563912946258e-05 0.010018318132135325 0 0.00013359602908134835 0.010011881347852752 0 2.386563912946258e-05 0.010018318132135325 0 0.00012956026883620604 0.0098897359952616875 0 -4.2226453798599784e-05 0.010632414364396582 0 0.00047488047020763011 0.0096774060541751691 0 0.00062667024208433225 0.0097078791145327019 0 0.00061413099559420349 0.0097394305527641941 0 0.00065631200289827216 0.0097056231321005128 0 0.00062667024208433225 0.0097078791145327019 0 0.00064010265862153505 0.0096761696295963179 0 0.00065631200289827216 0.0097056231321005128 0 0.00064010265862153505 0.0096761696295963179 0 0.00065631200289827216 0.0097056231321005128 0 0.00066013269072137085 0.0096801529256058168 0 0.00047488047020763011 0.0096774060541751691 0 0.0005421523076930548 0.0097313834975240512 0 0.00012956026883620604 0.0098897359952616875 0 0.00040387762094557168 0.0097726951055686368 0 0.00028377981962227078 0.0099259820761092681 0 0.00013359602908134835 0.010011881347852752 0 0.00012956026883620604 0.0098897359952616875 0 0.00028377981962227078 0.0099259820761092681 0 0.00065631200289827216 0.0097056231321005128 0 0.00068246674346826163 0.0096667343744750653 0 0.00072604882932451463 0.0096511624289407159 0 0.00065631200289827216 0.0097056231321005128 0 0.00066013269072137085 0.0096801529256058168 0 0.00068246674346826163 0.0096667343744750653 0 0.00066195853107396815 0.0096772471576824955 0 0.00068246674346826163 0.0096667343744750653 0 0.00067918681522798475 0.0096638968785476669 0 0.00066013269072137085 0.0096801529256058168 0 0.00066195853107396815 0.0096772471576824955 0 0.00068246674346826163 0.0096667343744750653 0 0.00070404583214903234 0.0096294160050119215 0 0.00068246674346826163 0.0096667343744750653 0 0.0007087874475332508 0.0096394911009689988 0 0.00070404583214903234 0.0096294160050119215 0 0.00068246674346826163 0.0096667343744750653 0 0.00067918681522798475 0.0096638968785476669 0 0.00066195853107396815 0.0096772471576824955 0 0.00067918681522798475 0.0096638968785476669 0 0.00066574371676966565 0.0097087480895206631 0 0.00069282282293918896 0.0096343209934959678 0 0.00067918681522798475 0.0096638968785476669 0 0.00066574371676966565 0.0097087480895206631 0 0.0007618439434970381 0.0097806224632320526 0 0.00064010265862153505 0.0096761696295963179 0 0.00066574371676966565 0.0097087480895206631 0 0.00061649675032713019 0.0097361423995175698 0 0.00064010265862153505 0.0096761696295963179 0 0.0006290962814753529 0.0097048924342726644 0 0.00066976747350674514 0.00969841238494208 0 0.00066016282473154494 0.0097130718317150998 0 0.00062667024208433225 0.0097078791145327019 0 0.00064010265862153505 0.0096761696295963179 0 0.0006290962814753529 0.0097048924342726644 0 0.00064010265862153505 0.0096761696295963179 0 0.00066195853107396815 0.0096772471576824955 0 0.00066574371676966565 0.0097087480895206631 0 0.00064010265862153505 0.0096761696295963179 0 0.00066013269072137085 0.0096801529256058168 0 0.00066195853107396815 0.0096772471576824955 0 0.00073885027193871698 0.0095919561832144874 0 0.00072604882932451463 0.0096511624289407159 0 0.00075835603186049782 0.0095728913448097936 0 0.0005421523076930548 0.0097313834975240512 0 0.00072638118893332819 0.0095951195394069957 0 0.00040387762094557168 0.0097726951055686368 0 0.0005919606140649149 0.0098023272753717458 0 0.00069069256876948921 0.0096358717912990687 0 0.00068246674346826163 0.0096667343744750653 0 0.00072604882932451463 0.0096511624289407159 0 0.0007087874475332508 0.0096394911009689988 0 0.00072356556296311462 0.009607490461135116 0 0.00073885027193871698 0.0095919561832144874 0 0.00072604882932451463 0.0096511624289407159 0 0.00072356556296311462 0.009607490461135116 0 0.00072604882932451463 0.0096511624289407159 0 0.0007087874475332508 0.0096394911009689988 0 0.00072356556296311462 0.009607490461135116 0 0.00070404583214903234 0.0096294160050119215 0 0.0007087874475332508 0.0096394911009689988 0 0.00040387762094557168 0.0097726951055686368 0 0.00028377981962227078 0.0099259820761092681 0 0.00050034145403957315 0.0099529571838024161 0 0.00040387762094557168 0.0097726951055686368 0 0.0005919606140649149 0.0098023272753717458 0 0.00050034145403957315 0.0099529571838024161 0 0.0006029785003864971 0.010334671154234148 0 0.00058292593613420041 0.010781146748152198 0 0.00084865749157722668 0.010615592553769938 0 0.00036750808611876279 0.010330154480875698 0 0.00055841587345641921 0.010138598139947675 0 0.00024401966836981617 0.010059334494308365 0 0.00028377981962227078 0.0099259820761092681 0 0.00050034145403957315 0.0099529571838024161 0 0.0004001965091536407 0.010728613174864661 0 0.0006029785003864971 0.010334671154234148 0 0.00058292593613420041 0.010781146748152198 0 0.0004001965091536407 0.010728613174864661 0 0.00058292593613420041 0.010781146748152198 0 0.0004643463170464642 0.010921616743889475 0 0.00049790314024330618 0.011214723740718821 0 0.00058292593613420041 0.010781146748152198 0 0.0004643463170464642 0.010921616743889475 0 0.00066862382580975079 0.011054942276561315 0 0.00058292593613420041 0.010781146748152198 0 0.00084865749157722668 0.010615592553769938 0 0.00084865749157722668 0.010615592553769938 0 0.0010315257850387971 0.010452738124900487 0 0.001069194480848001 0.010493629730771134 0 0.00084865749157722668 0.010615592553769938 0 0.0010315257850387971 0.010452738124900487 0 0.00099871270949580425 0.010285843685716499 0 0.00085587431998909226 0.010607075543159055 0 0.0011868683471398828 0.010779531226974714 0 0.00093222459106084832 0.0099367339232628183 0 0.00081536695887678861 0.010232003646766829 0 0.0007831787661373848 0.0098489590819690644 0 0.00084865749157722668 0.010615592553769938 0 0.00099871270949580425 0.010285843685716499 0 0.00081536695887678861 0.010232003646766829 0 0.00099871270949580425 0.010285843685716499 0 0.00093222459106084832 0.0099367339232628183 0 0.00081536695887678861 0.010232003646766829 0 0.0006029785003864971 0.010334671154234148 0 0.00084865749157722668 0.010615592553769938 0 0.00081536695887678861 0.010232003646766829 0 0.00055841587345641921 0.010138598139947675 0 0.00080172013322811291 0.0098795036156743427 0 0.0005919606140649149 0.0098023272753717458 0 0.00050034145403957315 0.0099529571838024161 0 0.0007831787661373848 0.0098489590819690644 0 0.0005919606140649149 0.0098023272753717458 0 0.0007831787661373848 0.0098489590819690644 0 0.00069069256876948921 0.0096358717912990687 0 0.0006029785003864971 0.010334671154234148 0 0.00081536695887678861 0.010232003646766829 0 0.0007831787661373848 0.0098489590819690644 0 0.0007831787661373848 0.0098489590819690644 0 0.00077434206271579579 0.0096386862191807348 0 0.00082451300647156311 0.0096324871831063481 0 0.00093222459106084832 0.0099367339232628183 0 0.0007831787661373848 0.0098489590819690644 0 0.00082451300647156311 0.0096324871831063481 0 0.00077271407602854812 0.0094785435923199872 0 0.00077434206271579579 0.0096386862191807348 0 0.00082451300647156311 0.0096324871831063481 0 0.00077271407602854812 0.0094785435923199872 0 0.00077434206271579579 0.0096386862191807348 0 0.00069069256876948921 0.0096358717912990687 0 0.0007831787661373848 0.0098489590819690644 0 0.00077434206271579579 0.0096386862191807348 0 0.00069069256876948921 0.0096358717912990687 0 0.0007753279656047597 0.009496729461409897 0 0.00072638118893332819 0.0095951195394069957 0 0.00072697671546816534 0.0094154132360166603 0 0.00076098447794043227 0.009477610593220798 0 0.00080792374997215805 0.0095910234358051339 0 0.0006558612673094518 0.0093013331686261757 0 0.00072697671546816534 0.0094154132360166603 0 0.00076098447794043227 0.009477610593220798 0 0.00076098447794043227 0.009477610593220798 0 0.00082451300647156311 0.0096324871831063481 0 0.00080792374997215805 0.0095910234358051339 0 0.00077271407602854812 0.0094785435923199872 0 0.00076098447794043227 0.009477610593220798 0 0.00082451300647156311 0.0096324871831063481 0 0.00093222459106084832 0.0099367339232628183 0 0.00082451300647156311 0.0096324871831063481 0 0.00080792374997215805 0.0095910234358051339 0 0.00072697671546816534 0.0094154132360166603 0 0.00080792374997215805 0.0095910234358051339 0 0.00074587264085679901 0.0094802491322637655 0 0.00080792374997215805 0.0095910234358051339 0 0.00074587264085679901 0.0094802491322637655 0 0.00077585442083184439 0.0095041760063244319 0 0.0007462365661531922 0.0094500182759081532 0 0.00074587264085679901 0.0094802491322637655 0 0.00077585442083184439 0.0095041760063244319 0 0.00093222459106084832 0.0099367339232628183 0 0.00080792374997215805 0.0095910234358051339 0 0.00077585442083184439 0.0095041760063244319 0 0.00091710604081008372 0.0099026366588071488 0 0.0010133862856280781 0.0098914065389810856 0 0.00099871270949580425 0.010285843685716499 0 0.00093222459106084832 0.0099367339232628183 0 0.0013072910414496724 0.010212180316724613 0 0.00099871270949580425 0.010285843685716499 0 0.0013072910414496724 0.010212180316724613 0 0.0011602316461038029 0.010369338983217303 0 0.0010315257850387971 0.010452738124900487 0 0.00099871270949580425 0.010285843685716499 0 0.0011602316461038029 0.010369338983217303 0 0.0011602316461038029 0.010369338983217303 0 0.0012769076219864475 0.01035866643101817 0 0.0012074315373051911 0.010423247386126685 0 0.0011602316461038029 0.010369338983217303 0 0.0012074315373051911 0.010423247386126685 0 0.0011257342329958823 0.010442956637621759 0 0.0010315257850387971 0.010452738124900487 0 0.0011602316461038029 0.010369338983217303 0 0.0011257342329958823 0.010442956637621759 0 0.0010315257850387971 0.010452738124900487 0 0.0011257342329958823 0.010442956637621759 0 0.0010847060631313003 0.010465778421634122 0 0.0013479630222639099 0.010322278239922244 0 0.0013072910414496724 0.010212180316724613 0 0.0012769076219864475 0.01035866643101817 0 0.0013072910414496724 0.010212180316724613 0 0.0011602316461038029 0.010369338983217303 0 0.0012769076219864475 0.01035866643101817 0 0.0012769076219864475 0.01035866643101817 0 0.0012799396336025616 0.010427984924969916 0 0.0012074315373051911 0.010423247386126685 0 0.0013479630222639099 0.010322278239922244 0 0.0012769076219864475 0.01035866643101817 0 0.0013286122688205165 0.010380109078354127 0 0.0012769076219864475 0.01035866643101817 0 0.0013286122688205165 0.010380109078354127 0 0.0012799396336025616 0.010427984924969916 0 0.0013441275276818542 0.010419809195070209 0 0.0012799396336025616 0.010427984924969916 0 0.0013075363443921983 0.010465881659068484 0 0.0013441275276818542 0.010419809195070209 0 0.0013286122688205165 0.010380109078354127 0 0.0012799396336025616 0.010427984924969916 0 0.0012799396336025616 0.010427984924969916 0 0.0012185441571978429 0.010463114049073552 0 0.0012074315373051911 0.010423247386126685 0 0.0012799396336025616 0.010427984924969916 0 0.0012619487670472113 0.010474648432814577 0 0.0012185441571978429 0.010463114049073552 0 0.0012619487670472113 0.010474648432814577 0 0.0012151267497019448 0.010488418007415595 0 0.0012185441571978429 0.010463114049073552 0 0.0012619487670472113 0.010474648432814577 0 0.0012867967308890793 0.010499251167627429 0 0.0012575906376063872 0.010497974787216187 0 0.0012619487670472113 0.010474648432814577 0 0.0012575906376063872 0.010497974787216187 0 0.0012151267497019448 0.010488418007415595 0 0.0012799396336025616 0.010427984924969916 0 0.0012619487670472113 0.010474648432814577 0 0.0013075363443921983 0.010465881659068484 0 0.0012619487670472113 0.010474648432814577 0 0.0013075363443921983 0.010465881659068484 0 0.0012867967308890793 0.010499251167627429 0 0.0013627950780500352 0.010489804083131356 0 0.0013214561539469803 0.01048810462742273 0 0.0012865275322635696 0.010526740291013014 0 0.0013214561539469803 0.01048810462742273 0 0.0012867967308890793 0.010499251167627429 0 0.0012865275322635696 0.010526740291013014 0 0.0013050309962538882 0.010988449990244651 0 0.0013900011285600887 0.011078908230289626 0 0.0013956418555572867 0.011061333746692556 0 0.0013075363443921983 0.010465881659068484 0 0.0013214561539469803 0.01048810462742273 0 0.0012867967308890793 0.010499251167627429 0 0.0012575906376063872 0.010497974787216187 0 0.0012865275322635696 0.010526740291013014 0 0.0012151267497019448 0.010488418007415595 0 0.0012867967308890793 0.010499251167627429 0 0.0012575906376063872 0.010497974787216187 0 0.0012865275322635696 0.010526740291013014 0 0.0015644877545251969 0.011436726700685591 0 0.0013940739362663162 0.011351674973211488 0 0.0013245147407239832 0.011098729068623709 0 0.0014476569332426169 0.01119066651461708 0 0.0013389208617168389 0.011121672274339196 0 0.0013900011285600887 0.011078908230289626 0 0.0013956418555572867 0.011061333746692556 0 0.0013245147407239832 0.011098729068623709 0 0.0013940739362663162 0.011351674973211488 0 0.001306775726363619 0.011382338146074603 0 0.0013780902565672197 0.011470552225270443 0 0.0013940739362663162 0.011351674973211488 0 0.001306775726363619 0.011382338146074603 0 0.001291694857837258 0.011264267388420138 0 0.0015644877545251969 0.011436726700685591 0 0.0013940739362663162 0.011351674973211488 0 0.001473053983359289 0.01148113787141691 0 0.0013940739362663162 0.011351674973211488 0 0.0013245147407239832 0.011098729068623709 0 0.001291694857837258 0.011264267388420138 0 0.0012865275322635696 0.010526740291013014 0 0.0011448260130181235 0.010490873224964628 0 0.001069194480848001 0.010493629730771134 0 0.0013900011285600887 0.011078908230289626 0 0.0013245147407239832 0.011098729068623709 0 0.0013269871613468265 0.011070138863490991 0 0.0013202211231395891 0.010761161199560431 0 0.0011868683471398828 0.010779531226974714 0 0.0012865275322635696 0.010526740291013014 0 0.0011448260130181235 0.010490873224964628 0 0.0012151267497019448 0.010488418007415595 0 0.0011448260130181235 0.010490873224964628 0 0.0012151267497019448 0.010488418007415595 0 0.0011711374653621989 0.010464250673098011 0 0.0012151267497019448 0.010488418007415595 0 0.0012185441571978429 0.010463114049073552 0 0.0011711374653621989 0.010464250673098011 0 0.0011711374653621989 0.010464250673098011 0 0.0012074315373051911 0.010423247386126685 0 0.0011257342329958823 0.010442956637621759 0 0.0012185441571978429 0.010463114049073552 0 0.0011711374653621989 0.010464250673098011 0 0.0012074315373051911 0.010423247386126685 0 0.0011448260130181235 0.010490873224964628 0 0.0011149939126308957 0.010472198937072109 0 0.001069194480848001 0.010493629730771134 0 0.0011149939126308957 0.010472198937072109 0 0.0010847060631313003 0.010465778421634122 0 0.001069194480848001 0.010493629730771134 0 0.0011448260130181235 0.010490873224964628 0 0.0011711374653621989 0.010464250673098011 0 0.0011149939126308957 0.010472198937072109 0 0.0011149939126308957 0.010472198937072109 0 0.0011257342329958823 0.010442956637621759 0 0.0010847060631313003 0.010465778421634122 0 0.0011711374653621989 0.010464250673098011 0 0.0011149939126308957 0.010472198937072109 0 0.0011257342329958823 0.010442956637621759 0 0.0010315257850387971 0.010452738124900487 0 0.0010847060631313003 0.010465778421634122 0 0.001069194480848001 0.010493629730771134 0 0.00084865749157722668 0.010615592553769938 0 0.0013269871613468265 0.011070138863490991 0 0.0011104981099993529 0.01116575254900534 0 0.0013269871613468265 0.011070138863490991 0 0.0011104981099993529 0.01116575254900534 0 0.0012313880972696818 0.011170509700127462 0 0.0013245147407239832 0.011098729068623709 0 0.0013269871613468265 0.011070138863490991 0 0.0012313880972696818 0.011170509700127462 0 0.00084865749157722668 0.010615592553769938 0 0.0011104981099993529 0.01116575254900534 0 0.00086009676198147149 0.011247784289681423 0 0.00066862382580975079 0.011054942276561315 0 0.00084865749157722668 0.010615592553769938 0 0.00086009676198147149 0.011247784289681423 0 0.0011104981099993529 0.01116575254900534 0 0.00086009676198147149 0.011247784289681423 0 0.0010028357847692143 0.011452923754055436 0 0.00075707160113361077 0.011559781679509272 0 0.00086009676198147149 0.011247784289681423 0 0.0010028357847692143 0.011452923754055436 0 0.0011104981099993529 0.01116575254900534 0 0.0011942450161788803 0.011327543085250604 0 0.0010028357847692143 0.011452923754055436 0 0.0013245147407239832 0.011098729068623709 0 0.0012313880972696818 0.011170509700127462 0 0.001291694857837258 0.011264267388420138 0 0.0012313880972696818 0.011170509700127462 0 0.001291694857837258 0.011264267388420138 0 0.0011942450161788803 0.011327543085250604 0 0.0011104981099993529 0.01116575254900534 0 0.0012313880972696818 0.011170509700127462 0 0.0011942450161788803 0.011327543085250604 0 0.001306775726363619 0.011382338146074603 0 0.001291694857837258 0.011264267388420138 0 0.0011942450161788803 0.011327543085250604 0 0.001306775726363619 0.011382338146074603 0 0.0011942450161788803 0.011327543085250604 0 0.001208176131400223 0.011540110598270831 0 0.0011942450161788803 0.011327543085250604 0 0.001208176131400223 0.011540110598270831 0 0.0010028357847692143 0.011452923754055436 0 0.00075707160113361077 0.011559781679509272 0 0.0010028357847692143 0.011452923754055436 0 0.00091155210145685967 0.011800719040389354 0 0.001208176131400223 0.011540110598270831 0 0.0010028357847692143 0.011452923754055436 0 0.00091155210145685967 0.011800719040389354 0 0.00091155210145685967 0.011800719040389354 0 0.001328643036337234 0.011701667035947704 0 0.0012761746916227106 0.011885802311264973 0 0.001208176131400223 0.011540110598270831 0 0.00091155210145685967 0.011800719040389354 0 0.001328643036337234 0.011701667035947704 0 0.00094123926667716111 0.011797493854499181 0 0.0012566684723172967 0.011884857923913358 0 0.001328643036337234 0.011701667035947704 0 0.0015348408098923906 0.011714215624447353 0 0.001468571539754859 0.01157826528430589 0 0.001328643036337234 0.011701667035947704 0 0.0015348408098923906 0.011714215624447353 0 0.0012761746916227106 0.011885802311264973 0 0.0016882445469072705 0.01169966672201051 0 0.0016707900842983211 0.01180939585556086 0 0.0015348408098923906 0.011714215624447353 0 0.0016882445469072705 0.01169966672201051 0 0.0015348408098923906 0.011714215624447353 0 0.0016421122072357841 0.011597267592034118 0 0.0015348408098923906 0.011714215624447353 0 0.001549769269063319 0.011553127507937522 0 0.001468571539754859 0.01157826528430589 0 0.001549769269063319 0.011553127507937522 0 0.001473053983359289 0.01148113787141691 0 0.001468571539754859 0.01157826528430589 0 0.0015348408098923906 0.011714215624447353 0 0.001549769269063319 0.011553127507937522 0 0.0016421122072357841 0.011597267592034118 0 0.0015644877545251969 0.011436726700685591 0 0.001549769269063319 0.011553127507937522 0 0.0016421122072357841 0.011597267592034118 0 0.0015644877545251969 0.011436726700685591 0 0.001549769269063319 0.011553127507937522 0 0.001473053983359289 0.01148113787141691 0 0.0013940739362663162 0.011351674973211488 0 0.001473053983359289 0.01148113787141691 0 0.0013780902565672197 0.011470552225270443 0 0.001473053983359289 0.01148113787141691 0 0.0013780902565672197 0.011470552225270443 0 0.001468571539754859 0.01157826528430589 0 0.001328643036337234 0.011701667035947704 0 0.0013780902565672197 0.011470552225270443 0 0.001468571539754859 0.01157826528430589 0 0.001208176131400223 0.011540110598270831 0 0.001328643036337234 0.011701667035947704 0 0.0013780902565672197 0.011470552225270443 0 0.001306775726363619 0.011382338146074603 0 0.001208176131400223 0.011540110598270831 0 0.0013780902565672197 0.011470552225270443 0 0.0015547989481370797 0.011969878107471276 0 0.0012761746916227106 0.011885802311264973 0 0.0013101235758067686 0.012227108451834593 0 0.0017518365586466284 0.0120934148007605 0 0.0015547989481370797 0.011969878107471276 0 0.00154833483478035 0.012176289093986324 0 0.0015547989481370797 0.011969878107471276 0 0.0013101235758067686 0.012227108451834593 0 0.00154833483478035 0.012176289093986324 0 0.0016707900842983211 0.01180939585556086 0 0.0015348408098923906 0.011714215624447353 0 0.0015547989481370797 0.011969878107471276 0 0.0015348408098923906 0.011714215624447353 0 0.0015547989481370797 0.011969878107471276 0 0.0012761746916227106 0.011885802311264973 0 0.00096333477052941419 0.01179591370102644 0 0.0012761746916227106 0.011885802311264973 0 0.0010981671000733924 0.012075227110822472 0 0.00096333477052941419 0.01179591370102644 0 0.0010981671000733924 0.012075227110822472 0 0.00084648887980798054 0.01215882826994155 0 0.0010981671000733924 0.012075227110822472 0 0.0010479696728878181 0.01232367407887601 0 0.00084648887980798054 0.01215882826994155 0 0.0012761746916227106 0.011885802311264973 0 0.0010981671000733924 0.012075227110822472 0 0.0013101235758067686 0.012227108451834593 0 0.0010981671000733924 0.012075227110822472 0 0.0010479696728878181 0.01232367407887601 0 0.0013101235758067686 0.012227108451834593 0 0.0010479696728878181 0.01232367407887601 0 0.0012761703849431137 0.012507671637802751 0 0.0013101235758067686 0.012227108451834593 0 0.0010479696728878181 0.01232367407887601 0 0.0010010600924753857 0.012550966515689975 0 0.00076401205017595974 0.012424237492653485 0 0.0010479696728878181 0.01232367407887601 0 0.0010010600924753857 0.012550966515689975 0 0.0012761703849431137 0.012507671637802751 0 0.0012761703849431137 0.012507671637802751 0 0.0013101235758067686 0.012227108451834593 0 0.0016042871660379454 0.012430724861548254 0 0.0012761703849431137 0.012507671637802751 0 0.0016042871660379454 0.012430724861548254 0 0.0014507604736723144 0.012728384842817004 0 0.0017518365586466284 0.0120934148007605 0 0.00154833483478035 0.012176289093986324 0 0.0016042871660379454 0.012430724861548254 0 0.0013101235758067686 0.012227108451834593 0 0.00154833483478035 0.012176289093986324 0 0.0016042871660379454 0.012430724861548254 0 0.0017139366460720918 0.012566432533616822 0 0.0016197776483165723 0.012325502239765579 0 0.0014559751974894532 0.012634536554711986 0 0.0016125525759763384 0.012374994906873266 0 0.0014529337879233425 0.012685868921130952 0 0.0012761703849431137 0.012507671637802751 0 0.0014507604736723144 0.012728384842817004 0 0.0012071353020745553 0.012789188255828726 0 0.0014507604736723144 0.012728384842817004 0 0.0013058149820816803 0.012998282089571602 0 0.0012071353020745553 0.012789188255828726 0 0.0014529337879233425 0.012685868921130952 0 0.0013136967853702964 0.012979709636631484 0 0.0017139366460720918 0.012566432533616822 0 0.0014559751974894532 0.012634536554711986 0 0.0015924851460949814 0.012954318934915127 0 0.0014559751974894532 0.012634536554711986 0 0.0015924851460949814 0.012954318934915127 0 0.0013058149820816803 0.012998282089571602 0 0.0011233219075788823 0.012745918285908577 0 0.0011023788427685258 0.0128754936338311 0 0.00082357837689817992 0.012943593183999574 0 0.0015924851460949814 0.012954318934915127 0 0.0013058149820816803 0.012998282089571602 0 0.0013019977748200391 0.013139258799305489 0 0.0013771370935671844 0.013032225264855092 0 0.0010671779488167499 0.013019359786917224 0 0.0013058149820816803 0.012998282089571602 0 0.0013019977748200391 0.013139258799305489 0 0.0011785580387406063 0.013071005635295009 0 0.0011023788427685258 0.0128754936338311 0 0.00081230756088557633 0.013018964921608931 0 0.00082357837689817992 0.012943593183999574 0 0.00088599168361289235 0.01347359001866393 0 0.00073163597202262353 0.013414740286975965 0 0.00064834306809046839 0.01376609678835876 0 0.00062968457991711393 0.01385231847749741 0 0.0006405877029915071 0.013822208476497856 0 0.00071893276095136988 0.013789498805062113 0 0.00064834306809046839 0.01376609678835876 0 0.0006405877029915071 0.013822208476497856 0 0.0010200921813566936 0.013311702847593952 0 0.0010652223754495046 0.012995789787553067 0 0.00080137509027244892 0.013062786749084116 0 0.0013019977748200391 0.013139258799305489 0 0.0010200921813566936 0.013311702847593952 0 0.0011785580387406063 0.013071005635295009 0 0.00073163597202262353 0.013414740286975965 0 0.00060036347802511388 0.013524673161991553 0 0.00081230756088557633 0.013018964921608931 0 0.00082357837689817992 0.012943593183999574 0 0.0005731098433144708 0.013117392788686537 0 0.00081230756088557633 0.013018964921608931 0 0.0005731098433144708 0.013117392788686537 0 0.00056851662156943018 0.013150495637244514 0 0.0010200921813566936 0.013311702847593952 0 0.0011785580387406063 0.013071005635295009 0 0.0010652223754495046 0.012995789787553067 0 0.0010671779488167499 0.013019359786917224 0 0.00079508915339750197 0.013194442542119111 0 0.0013058149820816803 0.012998282089571602 0 0.0011785580387406063 0.013071005635295009 0 0.0011911718710457112 0.012950751827314968 0 0.0011785580387406063 0.013071005635295009 0 0.0011911718710457112 0.012950751827314968 0 0.0010652223754495046 0.012995789787553067 0 0.0010652223754495046 0.012995789787553067 0 0.00092593965763513165 0.012836084100154684 0 0.00085363501572364336 0.013062129204617447 0 0.0010235368565908968 0.013011221674011678 0 0.00087698227702509254 0.013015932369359063 0 0.0010652223754495046 0.012995789787553067 0 0.00092593965763513165 0.012836084100154684 0 0.0012071353020745553 0.012789188255828726 0 0.0011911718710457112 0.012950751827314968 0 0.0010652223754495046 0.012995789787553067 0 0.0012071353020745553 0.012789188255828726 0 0.0013058149820816803 0.012998282089571602 0 0.0011911718710457112 0.012950751827314968 0 0.0012071353020745553 0.012789188255828726 0 0.0010010600924753857 0.012550966515689975 0 0.0012761703849431137 0.012507671637802751 0 0.0012071353020745553 0.012789188255828726 0 0.0010010600924753857 0.012550966515689975 0 0.00092593965763513165 0.012836084100154684 0 0.0012071353020745553 0.012789188255828726 0 0.0010010600924753857 0.012550966515689975 0 0.00092593965763513165 0.012836084100154684 0 0.00075034253228292377 0.012692271472423701 0 0.00075034253228292377 0.012692271472423701 0 0.00057855207291404782 0.012836617442971723 0 0.00052334847724034152 0.012544967417351786 0 0.00075034253228292377 0.012692271472423701 0 0.00057855207291404782 0.012836617442971723 0 0.00074874514792478211 0.012910864556776097 0 0.00092593965763513165 0.012836084100154684 0 0.00075034253228292377 0.012692271472423701 0 0.00074874514792478211 0.012910864556776097 0 0.00092593965763513165 0.012836084100154684 0 0.00074874514792478211 0.012910864556776097 0 0.00085363501572364336 0.013062129204617447 0 0.00087698227702509254 0.013015932369359063 0 0.00048689170192045675 0.013884824584627177 0 0.00074874514792478211 0.012910864556776097 0 0.00085363501572364336 0.013062129204617447 0 0.0006335836660225204 0.013127493935984754 0 0.00057855207291404782 0.012836617442971723 0 0.00074874514792478211 0.012910864556776097 0 0.0006335836660225204 0.013127493935984754 0 0.00058028162348325513 0.013872011167972671 0 0.00048689170192045675 0.013884824584627177 0 0.00054762028369427474 0.014835903683161884 0 0.00056404649444055871 0.014958141292493274 0 0.00048724013834141672 0.014916988376850801 0 0.00053561745761507458 0.013133869172921775 0 0.00073562937814744653 0.013304426449448211 0 0.0006124334913866214 0.013537616761009742 0 0.0010200921813566936 0.013311702847593952 0 0.00080137509027244892 0.013062786749084116 0 0.00073562937814744653 0.013304426449448211 0 0.00080137509027244892 0.013062786749084116 0 0.00053561745761507458 0.013133869172921775 0 0.00073562937814744653 0.013304426449448211 0 0.00037536432100058933 0.014282944586662398 0 0.00035729284728449278 0.01429474046511392 0 0.00036527116626579109 0.014298758822860113 0 0.00056404649444055871 0.014958141292493274 0 0.00042748832820665154 0.014999908519612396 0 0.00048724013834141672 0.014916988376850801 0 0.00048689170192045675 0.013884824584627177 0 0.00037148810574096785 0.014744262796888938 0 0.00042748832820665154 0.014999908519612396 0 0.00048724013834141672 0.014916988376850801 0 0.00041055896774797409 0.014876032241397214 0 0.00042748832820665154 0.014999908519612396 0 0.00041055896774797409 0.014876032241397214 0 0.00032401797219590078 0.014928922309128833 0 0.00054762028369427474 0.014835903683161884 0 0.00048724013834141672 0.014916988376850801 0 0.00041055896774797409 0.014876032241397214 0 0.00054762028369427474 0.014835903683161884 0 0.00041055896774797409 0.014876032241397214 0 0.00040572042548958111 0.014757882474264756 0 0.00054762028369427474 0.014835903683161884 0 0.00040572042548958111 0.014757882474264756 0 0.000547856560473606 0.014705872823542038 0 0.00058028162348325513 0.013872011167972671 0 0.00053331380840317588 0.013615414465305731 0 0.00041055896774797409 0.014876032241397214 0 0.00040572042548958111 0.014757882474264756 0 0.00028271797348815379 0.014810717776542519 0 0.00056550918037136418 0.014548704153841829 0 0.000547856560473606 0.014705872823542038 0 0.00033375479089754924 0.014652059930161955 0 0.00040572042548958111 0.014757882474264756 0 0.000547856560473606 0.014705872823542038 0 0.00033375479089754924 0.014652059930161955 0 0.00056550918037136418 0.014548704153841829 0 0.00035870607698445693 0.014470307644364041 0 0.00033375479089754924 0.014652059930161955 0 0.00051979038432293666 0.013396923960415223 0 0.00053331380840317588 0.013615414465305731 0 0.00047007315485697723 0.012250200956023112 0 0.00076401205017595974 0.012424237492653485 0 0.00084648887980798054 0.01215882826994155 0 0.00075034253228292377 0.012692271472423701 0 0.00052334847724034152 0.012544967417351786 0 0.00076401205017595974 0.012424237492653485 0 0.00047007315485697723 0.012250200956023112 0 0.00052334847724034152 0.012544967417351786 0 0.00076401205017595974 0.012424237492653485 0 0.0010010600924753857 0.012550966515689975 0 0.00075034253228292377 0.012692271472423701 0 0.00076401205017595974 0.012424237492653485 0 0.0010479696728878181 0.01232367407887601 0 0.00076401205017595974 0.012424237492653485 0 0.00084648887980798054 0.01215882826994155 0 0.00047007315485697723 0.012250200956023112 0 0.00084648887980798054 0.01215882826994155 0 0.00066022104531739459 0.011951954647906009 0 0.00096333477052941419 0.01179591370102644 0 0.00084648887980798054 0.01215882826994155 0 0.00066022104531739459 0.011951954647906009 0 0.00050626538868125872 0.011780782911406069 0 0.00066022104531739459 0.011951954647906009 0 0.00042338777608475392 0.011957121682990306 0 0.00063904262347416892 0.014298931374124366 0 0.00035870607698445693 0.014470307644364041 0 0.0002688918658310129 0.014169113842986253 0 0.00056550918037136418 0.014548704153841829 0 0.00063904262347416892 0.014298931374124366 0 0.00035870607698445693 0.014470307644364041 0 0.00051979038432293666 0.013396923960415223 0 0.00053901555294954694 0.013117206344889941 0 0.00047007315485697723 0.012250200956023112 0 0.00066022104531739459 0.011951954647906009 0 0.00042338777608475392 0.011957121682990306 0 0.00013384865590563083 0.014552492825273228 0 0.00035870607698445693 0.014470307644364041 0 0.00021764997018277043 0.014330157836989739 0 0.00035870607698445693 0.014470307644364041 0 0.0002688918658310129 0.014169113842986253 0 0.00021764997018277043 0.014330157836989739 0 6.4849705373785655e-05 0.014210531407575878 0 0.0002688918658310129 0.014169113842986253 0 0.00021764997018277043 0.014330157836989739 0 6.4849705373785655e-05 0.014210531407575878 0 0.00013384865590563083 0.014552492825273228 0 0.00021764997018277043 0.014330157836989739 0 0.00013384865590563083 0.014552492825273228 0 3.1587837166717528e-05 0.014445636666544127 0 5.1003472250331193e-05 0.014776580287397581 0 3.1587837166717528e-05 0.014445636666544127 0 5.1003472250331193e-05 0.014776580287397581 0 -1.6228285614188561e-05 0.014725671455123053 0 6.4849705373785655e-05 0.014210531407575878 0 0.00013384865590563083 0.014552492825273228 0 3.1587837166717528e-05 0.014445636666544127 0 -1.5587633440434371e-05 0.014513426990349841 0 3.1587837166717528e-05 0.014445636666544127 0 -1.6228285614188561e-05 0.014725671455123053 0 0.00013585435691227456 0.014571284354769324 0 6.6273320854833595e-05 0.01472583493036706 0 0.00013384865590563083 0.014552492825273228 0 8.6693885731939878e-05 0.014683393354413469 0 0.00018583570543373503 0.014705887251861524 0 8.6693885731939878e-05 0.014683393354413469 0 0.00013185045470755365 0.014813096026741617 0 2.3482222849211015e-05 0.014795721968594428 0 8.6693885731939878e-05 0.014683393354413469 0 0.00018583570543373503 0.014705887251861524 0 0.00013185045470755365 0.014813096026741617 0 0.00018583570543373503 0.014705887251861524 0 0.00033375479089754924 0.014652059930161955 0 0.00028271797348815379 0.014810717776542519 0 0.00013384865590563083 0.014552492825273228 0 0.00018583570543373503 0.014705887251861524 0 0.00033375479089754924 0.014652059930161955 0 0.00013384865590563083 0.014552492825273228 0 0.00035870607698445693 0.014470307644364041 0 0.00033375479089754924 0.014652059930161955 0 0.00018583570543373503 0.014705887251861524 0 0.00028271797348815379 0.014810717776542519 0 0.00013185045470755365 0.014813096026741617 0 0.00040572042548958111 0.014757882474264756 0 0.00033375479089754924 0.014652059930161955 0 0.00028271797348815379 0.014810717776542519 0 0.00028271797348815379 0.014810717776542519 0 0.00021656279600499418 0.014929222080005761 0 0.00013185045470755365 0.014813096026741617 0 0.00028271797348815379 0.014810717776542519 0 0.00032401797219590078 0.014928922309128833 0 0.00021656279600499418 0.014929222080005761 0 0.00041055896774797409 0.014876032241397214 0 0.00028271797348815379 0.014810717776542519 0 0.00032401797219590078 0.014928922309128833 0 0.00032401797219590078 0.014928922309128833 0 0.00021656279600499418 0.014929222080005761 0 0.00028912862834995972 0.015027588202612114 0 0.00021656279600499418 0.014929222080005761 0 0.00028912862834995972 0.015027588202612114 0 0.00016881274254028177 0.015044224593432944 0 0.00037148810574096785 0.014744262796888938 0 0.00032565367170914021 0.014649572039001873 0 0.00042748832820665154 0.014999908519612396 0 0.00032401797219590078 0.014928922309128833 0 0.00028912862834995972 0.015027588202612114 0 0.00021656279600499418 0.014929222080005761 0 0.0001249075961568031 0.01498074581175428 0 0.00016881274254028177 0.015044224593432944 0 0.00021656279600499418 0.014929222080005761 0 0.0001249075961568031 0.01498074581175428 0 0.00012327171240823466 0.014904037330906235 0 0.0001249075961568031 0.01498074581175428 0 0.00012327171240823466 0.014904037330906235 0 6.1356580467623905e-05 0.0149588222690306 0 0.00012327171240823466 0.014904037330906235 0 0.00013185045470755365 0.014813096026741617 0 4.9106595206407938e-05 0.014886009239607168 0 0.00021656279600499418 0.014929222080005761 0 0.00012327171240823466 0.014904037330906235 0 0.00013185045470755365 0.014813096026741617 0 0.00013185045470755365 0.014813096026741617 0 2.3482222849211015e-05 0.014795721968594428 0 4.9106595206407938e-05 0.014886009239607168 0 9.1199867207843881e-06 0.014855803135973187 0 -1.5887175573172455e-05 0.014939760418200249 0 2.3482222849211015e-05 0.014795721968594428 0 4.9106595206407938e-05 0.014886009239607168 0 -2.0116995474939539e-05 0.01490309132326084 0 4.9106595206407938e-05 0.014886009239607168 0 9.7637684775655549e-06 0.014934746458449704 0 -2.0116995474939539e-05 0.01490309132326084 0 4.9106595206407938e-05 0.014886009239607168 0 6.1356580467623905e-05 0.0149588222690306 0 9.7637684775655549e-06 0.014934746458449704 0 0.00012327171240823466 0.014904037330906235 0 4.9106595206407938e-05 0.014886009239607168 0 6.1356580467623905e-05 0.0149588222690306 0 6.1356580467623905e-05 0.0149588222690306 0 9.7637684775655549e-06 0.014934746458449704 0 1.73295605501164e-07 0.014997623469144423 0 1.2125777618707251e-05 0.01492188600208218 0 -1.2460985249587015e-06 0.015036663312609935 0 6.1356580467623905e-05 0.0149588222690306 0 1.73295605501164e-07 0.014997623469144423 0 7.2396171582331923e-05 0.015053595406781648 0 0.0001249075961568031 0.01498074581175428 0 6.1356580467623905e-05 0.0149588222690306 0 7.2396171582331923e-05 0.015053595406781648 0 -1.0818855813450016e-08 0.014999975346413655 0 -5.1510706178010138e-06 0.014988127635206903 0 -3.0525723315110259e-06 0.014996695806815766 0 -1.0818855813450016e-08 0.014999975346413655 0 -5.1510706178010138e-06 0.014988127635206903 0 -5.7714057597241327e-07 0.01499771747231729 0 1.2369289807750876e-05 0.014991195479115753 0 -1.0535994924737278e-06 0.014979909072348502 0 -5.7714057597241327e-07 0.01499771747231729 0 -5.1510706178010138e-06 0.014988127635206903 0 -1.0535994924737278e-06 0.014979909072348502 0 -5.7714057597241327e-07 0.01499771747231729 0 9.7637684775655549e-06 0.014934746458449704 0 -1.0535994924737278e-06 0.014979909072348502 0 -7.9437914785263817e-06 0.01496213007088963 0 -7.9437914785263817e-06 0.01496213007088963 0 -3.0525723315110259e-06 0.014996695806815766 0 -2.0116995474939539e-05 0.01490309132326084 0 -5.1510706178010138e-06 0.014988127635206903 0 -1.0535994924737278e-06 0.014979909072348502 0 -7.9437914785263817e-06 0.01496213007088963 0 9.7637684775655549e-06 0.014934746458449704 0 1.2369289807750876e-05 0.014991195479115753 0 -1.0535994924737278e-06 0.014979909072348502 0 -5.1510706178010138e-06 0.014988127635206903 0 -7.9437914785263817e-06 0.01496213007088963 0 -3.0525723315110259e-06 0.014996695806815766 0 -1.0818855813450016e-08 0.014999975346413655 0 -1.3199476915595851e-08 0.014999972042746768 0 -3.0525723315110259e-06 0.014996695806815766 0 -1.3199476915595851e-08 0.014999972042746768 0 -3.0525723315110259e-06 0.014996695806815766 0 -1.8034574191458852e-05 0.014977032522813906 0 -1.3199476915595851e-08 0.014999972042746768 0 -1.8034574191458852e-05 0.014977032522813906 0 -3.9391016649651927e-08 0.014999920359910391 0 -5.6490171947732707e-06 0.01498792020640473 0 -1.5887175573172455e-05 0.014939760418200249 0 9.7637684775655549e-06 0.014934746458449704 0 -7.9437914785263817e-06 0.01496213007088963 0 -2.0116995474939539e-05 0.01490309132326084 0 -4.6064910168106193e-06 0.014916993441685823 0 -1.8034574191458852e-05 0.014977032522813906 0 -2.6898936076348486e-05 0.014950105038102278 0 -1.8034574191458852e-05 0.014977032522813906 0 -3.9391016649651927e-08 0.014999920359910391 0 -2.6898936076348486e-05 0.014950105038102278 0 -3.9391016649651927e-08 0.014999920359910391 0 5.6819954385020805e-09 0.014999965574078638 0 -2.6898936076348486e-05 0.014950105038102278 0 5.6819954385020805e-09 0.014999965574078638 0 -4.2215497753667637e-05 0.014879460069952199 0 -2.6898936076348486e-05 0.014950105038102278 0 5.1003472250331193e-05 0.014776580287397581 0 -4.6064910168106193e-06 0.014916993441685823 0 -1.6228285614188561e-05 0.014725671455123053 0 -4.6064910168106193e-06 0.014916993441685823 0 -4.2215497753667637e-05 0.014879460069952199 0 -2.6898936076348486e-05 0.014950105038102278 0 -4.6064910168106193e-06 0.014916993441685823 0 -4.2215497753667637e-05 0.014879460069952199 0 -1.6228285614188561e-05 0.014725671455123053 0 6.6273320854833595e-05 0.01472583493036706 0 9.1199867207843881e-06 0.014855803135973187 0 -4.2215497753667637e-05 0.014879460069952199 0 -1.6228285614188561e-05 0.014725671455123053 0 -4.5768188669441872e-05 0.014752855612857923 0 -5.256635509818405e-05 0.014580717836338115 0 -1.5587633440434371e-05 0.014513426990349841 0 -4.5768188669441872e-05 0.014752855612857923 0 -1.5587633440434371e-05 0.014513426990349841 0 -1.6228285614188561e-05 0.014725671455123053 0 -4.5768188669441872e-05 0.014752855612857923 0 -0.0001061349496104981 0.014702787086125992 0 -4.5768188669441872e-05 0.014752855612857923 0 -4.3330368376441717e-05 0.014914835756235421 0 -0.0001061349496104981 0.014702787086125992 0 -3.049468489571585e-07 0.014999328160366027 0 -4.3330368376441717e-05 0.014914835756235421 0 5.6819954385020805e-09 0.014999965574078638 0 -3.049468489571585e-07 0.014999328160366027 0 -4.3330368376441717e-05 0.014914835756235421 0 5.6819954385020805e-09 0.014999965574078638 0 -4.2215497753667637e-05 0.014879460069952199 0 -4.3330368376441717e-05 0.014914835756235421 0 -4.2215497753667637e-05 0.014879460069952199 0 -4.5768188669441872e-05 0.014752855612857923 0 -4.3330368376441717e-05 0.014914835756235421 0 0.00013408717094100581 0.014822042651237249 0 6.373314948158055e-05 0.014898588237863181 0 0.00010540638491622976 0.014802361478539609 0 0.00013408717094100581 0.014822042651237249 0 6.373314948158055e-05 0.014898588237863181 0 7.5464756362114866e-08 0.014999810378678613 0 6.373314948158055e-05 0.014898588237863181 0 7.5464756362114866e-08 0.014999810378678613 0 3.0766183181591358e-08 0.014999768058120061 0 0.00013408717094100581 0.014822042651237249 0 7.5464756362114866e-08 0.014999810378678613 0 0.00013420115265439775 0.01483277554652537 0 7.5464756362114866e-08 0.014999810378678613 0 0.00013420115265439775 0.01483277554652537 0 9.3006256560681119e-08 0.014999772884024281 0 0.00013408717094100581 0.014822042651237249 0 0.00026163990109039596 0.014691805655952664 0 0.00013420115265439775 0.01483277554652537 0 0.00013408717094100581 0.014822042651237249 0 0.00022197978468898365 0.01471763797723499 0 0.00026163990109039596 0.014691805655952664 0 0.00032688553247986674 0.01462193026800741 0 0.00022197978468898365 0.01471763797723499 0 0.00026163990109039596 0.014691805655952664 0 0.00028006245995173531 0.014644475609701155 0 0.00022197978468898365 0.01471763797723499 0 0.0002158333570036426 0.014683971561251894 0 0.00032688553247986674 0.01462193026800741 0 0.00028006245995173531 0.014644475609701155 0 0.00022197978468898365 0.01471763797723499 0 0.00013408717094100581 0.014822042651237249 0 0.00022197978468898365 0.01471763797723499 0 0.00010540638491622976 0.014802361478539609 0 0.0002158333570036426 0.014683971561251894 0 0.00015780013014791619 0.014700588762085083 0 0.00010540638491622976 0.014802361478539609 0 0.00022197978468898365 0.01471763797723499 0 0.0002158333570036426 0.014683971561251894 0 0.00010540638491622976 0.014802361478539609 0 0.00028006245995173531 0.014644475609701155 0 0.0002158333570036426 0.014683971561251894 0 0.00029655794702279864 0.01459236224699201 0 0.0002158333570036426 0.014683971561251894 0 0.00024826801715335009 0.014602900384282767 0 0.00029655794702279864 0.01459236224699201 0 0.0002158333570036426 0.014683971561251894 0 0.00024826801715335009 0.014602900384282767 0 0.00015780013014791619 0.014700588762085083 0 0.00024826801715335009 0.014602900384282767 0 0.00015780013014791619 0.014700588762085083 0 0.00020478312058379395 0.014573126351847277 0 0.00024826801715335009 0.014602900384282767 0 0.00020478312058379395 0.014573126351847277 0 0.00026491935146248966 0.014521352549698033 0 0.00015780013014791619 0.014700588762085083 0 4.2043710023835493e-05 0.014787114497507031 0 0.00010540638491622976 0.014802361478539609 0 0.00015780013014791619 0.014700588762085083 0 4.2043710023835493e-05 0.014787114497507031 0 0.00020478312058379395 0.014573126351847277 0 4.2043710023835493e-05 0.014787114497507031 0 0.00010540638491622976 0.014802361478539609 0 3.0766183181591358e-08 0.014999768058120061 0 6.373314948158055e-05 0.014898588237863181 0 0.00010540638491622976 0.014802361478539609 0 3.0766183181591358e-08 0.014999768058120061 0 4.2043710023835493e-05 0.014787114497507031 0 3.0766183181591358e-08 0.014999768058120061 0 5.0407613854243695e-08 0.014999843656362213 0 4.2043710023835493e-05 0.014787114497507031 0 5.0407613854243695e-08 0.014999843656362213 0 1.2317941847432857e-05 0.014978353300580907 0 4.2043710023835493e-05 0.014787114497507031 0 -3.3058279015787472e-05 0.014956747906724903 0 1.2317941847432857e-05 0.014978353300580907 0 3.1414535131451874e-05 0.014797903774805604 0 1.1457062940423612e-05 0.014690276301396332 0 -3.3058279015787472e-05 0.014956747906724903 0 1.2317941847432857e-05 0.014978353300580907 0 8.721949368293822e-07 0.015003020020554097 0 5.0407613854243695e-08 0.014999843656362213 0 1.2317941847432857e-05 0.014978353300580907 0 1.0211193243344448e-08 0.01500002516664194 0 3.8264786766678407e-09 0.01500001315092774 0 8.3518509296423879e-07 0.015000854097898305 0 -5.7714057597241327e-07 0.01499771747231729 0 1.2317941847432857e-05 0.014978353300580907 0 1.0211193243344448e-08 0.01500002516664194 0 8.721949368293822e-07 0.015003020020554097 0 1.264138181354053e-08 0.014999997862654076 0 -1.6573757673978007e-05 0.015002763439324466 0 1.1457062940423612e-05 0.014690276301396332 0 4.9926543325207412e-05 0.014841174355489171 0 8.3518509296423879e-07 0.015000854097898305 0 -5.7714057597241327e-07 0.01499771747231729 0 7.0231937608552527e-06 0.015001829975393826 0 -3.3058279015787472e-05 0.014956747906724903 0 8.721949368293822e-07 0.015003020020554097 0 -3.6365931233411274e-05 0.015010772309221702 0 -1.6573757673978007e-05 0.015002763439324466 0 4.9926543325207412e-05 0.014841174355489171 0 1.2369289807750876e-05 0.014991195479115753 0 -5.7714057597241327e-07 0.01499771747231729 0 7.0231937608552527e-06 0.015001829975393826 0 -1.0818855813450016e-08 0.014999975346413655 0 3.8264786766678407e-09 0.01500001315092774 0 -5.7714057597241327e-07 0.01499771747231729 0 -1.2460985249587015e-06 0.015036663312609935 0 4.9926543325207412e-05 0.014841174355489171 0 1.73295605501164e-07 0.014997623469144423 0 7.2396171582331923e-05 0.015053595406781648 0 -5.727862803370646e-06 0.015068504562607657 0 4.5813248729925846e-05 0.014489079562617291 0 6.9849384950158923e-05 0.01433832702073343 0 0.00018699074162594094 0.014409342329225082 0 0.00014612190986665324 0.014664088815071063 0 4.9926543325207412e-05 0.014841174355489171 0 0.00022116861697312279 0.014309317218851012 0 6.9849384950158923e-05 0.01433832702073343 0 0.00018699074162594094 0.014409342329225082 0 0.00022116861697312279 0.014309317218851012 0 0.00018699074162594094 0.014409342329225082 0 0.00029077551948593464 0.014348185142214708 0 0.00018699074162594094 0.014409342329225082 0 0.00020478312058379395 0.014573126351847277 0 0.00026764460341852987 0.014446238070052655 0 4.5813248729925846e-05 0.014489079562617291 0 0.00018699074162594094 0.014409342329225082 0 0.00020478312058379395 0.014573126351847277 0 4.2043710023835493e-05 0.014787114497507031 0 4.5813248729925846e-05 0.014489079562617291 0 0.00020478312058379395 0.014573126351847277 0 0.00020478312058379395 0.014573126351847277 0 0.00026491935146248966 0.014521352549698033 0 0.00026764460341852987 0.014446238070052655 0 0.00026491935146248966 0.014521352549698033 0 0.00029896096992791622 0.01445546520982454 0 0.00029374361711682716 0.014520561878096885 0 0.00026491935146248966 0.014521352549698033 0 0.00029896096992791622 0.01445546520982454 0 0.00026764460341852987 0.014446238070052655 0 0.00031319832053626479 0.014452757394559342 0 0.00029896096992791622 0.01445546520982454 0 0.0003259058089720838 0.014395794939322618 0 0.00031319832053626479 0.014452757394559342 0 0.00029896096992791622 0.01445546520982454 0 0.00029374361711682716 0.014520561878096885 0 0.00029896096992791622 0.01445546520982454 0 0.00031154981726311595 0.014394317783082982 0 0.0003259058089720838 0.014395794939322618 0 0.00031154981726311595 0.014394317783082982 0 0.00029077551948593464 0.014348185142214708 0 0.0003305488291969643 0.01434497716813618 0 0.00031154981726311595 0.014394317783082982 0 0.00033260418448173806 0.014359925533955207 0 0.0003259058089720838 0.014395794939322618 0 0.00031154981726311595 0.014394317783082982 0 0.0003305488291969643 0.01434497716813618 0 0.00033260418448173806 0.014359925533955207 0 0.00031154981726311595 0.014394317783082982 0 0.00026764460341852987 0.014446238070052655 0 0.00029077551948593464 0.014348185142214708 0 0.00029896096992791622 0.01445546520982454 0 0.00031154981726311595 0.014394317783082982 0 0.00026764460341852987 0.014446238070052655 0 0.00018699074162594094 0.014409342329225082 0 0.00026764460341852987 0.014446238070052655 0 0.00029077551948593464 0.014348185142214708 0 0.00029077551948593464 0.014348185142214708 0 0.0003305488291969643 0.01434497716813618 0 0.00033091425283128078 0.014317599243185345 0 0.00029077551948593464 0.014348185142214708 0 0.00031360937495287139 0.014298934348433422 0 0.00033091425283128078 0.014317599243185345 0 0.00014612190986665324 0.014664088815071063 0 0.00023888759806663833 0.014675753112711945 0 0.0001249075961568031 0.01498074581175428 0 7.2396171582331923e-05 0.015053595406781648 0 0.00016881274254028177 0.015044224593432944 0 0.00022116861697312279 0.014309317218851012 0 0.00029077551948593464 0.014348185142214708 0 0.00031360937495287139 0.014298934348433422 0 0.00034770093221490336 0.014300573656960792 0 0.00034576688854291249 0.014318306910973053 0 0.00035151225050307608 0.014311016259200797 0 0.00034770093221490336 0.014300573656960792 0 0.00035151225050307608 0.014311016259200797 0 0.00035616836980213772 0.014305070859685378 0 0.00032565367170914021 0.014649572039001873 0 0.00023888759806663833 0.014675753112711945 0 0.00034770093221490336 0.014300573656960792 0 0.00034576688854291249 0.014318306910973053 0 0.00033091425283128078 0.014317599243185345 0 0.00034770093221490336 0.014300573656960792 0 0.00031360937495287139 0.014298934348433422 0 0.00033091425283128078 0.014317599243185345 0 0.0003305488291969643 0.01434497716813618 0 0.00034576688854291249 0.014318306910973053 0 0.00033091425283128078 0.014317599243185345 0 0.0003305488291969643 0.01434497716813618 0 0.00034576688854291249 0.014318306910973053 0 0.00034409596622666356 0.014329930324445671 0 0.00034576688854291249 0.014318306910973053 0 0.00035049057176144577 0.014314140821009205 0 0.00034409596622666356 0.014329930324445671 0 0.00035049057176144577 0.014314140821009205 0 0.00035165319455250047 0.014309087153269067 0 0.00034893598833368917 0.014299835856180757 0 0.00034576688854291249 0.014318306910973053 0 0.00035049057176144577 0.014314140821009205 0 0.00035151225050307608 0.014311016259200797 0 0.00035151225050307608 0.014311016259200797 0 0.00035165319455250047 0.014309087153269067 0 0.00035385910689133122 0.014309845741430571 0 0.00035049057176144577 0.014314140821009205 0 0.00035151225050307608 0.014311016259200797 0 0.00035165319455250047 0.014309087153269067 0 0.00035049057176144577 0.014314140821009205 0 0.00034808077137456341 0.01431584618513345 0 0.00034893598833368917 0.014299835856180757 0 0.00034808077137456341 0.01431584618513345 0 0.00034893598833368917 0.014299835856180757 0 0.00034746674578389449 0.014299132085085736 0 0.00034893598833368917 0.014299835856180757 0 0.00034746674578389449 0.014299132085085736 0 0.0003424245321994988 0.014274177378422754 0 0.00034808077137456341 0.01431584618513345 0 0.00034746674578389449 0.014299132085085736 0 0.00034147312421475362 0.0143389213211192 0 0.00034746674578389449 0.014299132085085736 0 0.00034147312421475362 0.0143389213211192 0 0.00035067697096695768 0.014309327778531222 0 0.00036983620716967444 0.014244570233158244 0 0.0003424245321994988 0.014274177378422754 0 0.00038879941273431531 0.014192385962702378 0 0.00035439059526618915 0.014275932095412641 0 0.00036983620716967444 0.014244570233158244 0 0.0003424245321994988 0.014274177378422754 0 0.00034746674578389449 0.014299132085085736 0 0.00035439059526618915 0.014275932095412641 0 0.0003424245321994988 0.014274177378422754 0 0.0003305488291969643 0.01434497716813618 0 0.00034409596622666356 0.014329930324445671 0 0.00033260418448173806 0.014359925533955207 0 0.00035049057176144577 0.014314140821009205 0 0.00034808077137456341 0.01431584618513345 0 0.00034409596622666356 0.014329930324445671 0 0.00034808077137456341 0.01431584618513345 0 0.00034409596622666356 0.014329930324445671 0 0.00034147312421475362 0.0143389213211192 0 0.00034409596622666356 0.014329930324445671 0 0.00034147312421475362 0.0143389213211192 0 0.00033260418448173806 0.014359925533955207 0 0.00034147312421475362 0.0143389213211192 0 0.00033260418448173806 0.014359925533955207 0 0.0003259058089720838 0.014395794939322618 0 0.00034147312421475362 0.0143389213211192 0 0.00033799081410986354 0.014363397056633642 0 0.00035067697096695768 0.014309327778531222 0 0.00034147312421475362 0.0143389213211192 0 0.0003259058089720838 0.014395794939322618 0 0.00033799081410986354 0.014363397056633642 0 0.00033799081410986354 0.014363397056633642 0 0.00032934191394289199 0.014408681484051283 0 0.00034228056210119852 0.01436500983190879 0 0.00031319832053626479 0.014452757394559342 0 0.0003259058089720838 0.014395794939322618 0 0.00032934191394289199 0.014408681484051283 0 0.0003259058089720838 0.014395794939322618 0 0.00033799081410986354 0.014363397056633642 0 0.00032934191394289199 0.014408681484051283 0 0.00035439059526618915 0.014275932095412641 0 0.00035067697096695768 0.014309327778531222 0 0.00037709676042434886 0.014260244277458655 0 0.00035067697096695768 0.014309327778531222 0 0.00036994390163515572 0.014312868822766582 0 0.00037709676042434886 0.014260244277458655 0 0.00035439059526618915 0.014275932095412641 0 0.00036983620716967444 0.014244570233158244 0 0.00037709676042434886 0.014260244277458655 0 0.00034746674578389449 0.014299132085085736 0 0.00035439059526618915 0.014275932095412641 0 0.00035067697096695768 0.014309327778531222 0 0.00033799081410986354 0.014363397056633642 0 0.00035067697096695768 0.014309327778531222 0 0.00034228056210119852 0.01436500983190879 0 0.00035067697096695768 0.014309327778531222 0 0.00034228056210119852 0.01436500983190879 0 0.00036994390163515572 0.014312868822766582 0 0.00036994390163515572 0.014312868822766582 0 0.00034993278634863905 0.014377334433171964 0 0.00036808141585012872 0.0143647698517709 0 0.00034228056210119852 0.01436500983190879 0 0.00034993278634863905 0.014377334433171964 0 0.00033553219511347153 0.014409380701541193 0 0.00034228056210119852 0.01436500983190879 0 0.00036994390163515572 0.014312868822766582 0 0.00034993278634863905 0.014377334433171964 0 0.00034993278634863905 0.014377334433171964 0 0.00036808141585012872 0.0143647698517709 0 0.00033845626465832482 0.014430482990023266 0 0.00034993278634863905 0.014377334433171964 0 0.00033845626465832482 0.014430482990023266 0 0.00033553219511347153 0.014409380701541193 0 0.00036808141585012872 0.0143647698517709 0 0.00035737257590374484 0.014417895376647154 0 0.00033845626465832482 0.014430482990023266 0 0.00035737257590374484 0.014417895376647154 0 0.00033845626465832482 0.014430482990023266 0 0.00032683704570906909 0.014481115710313103 0 0.00033845626465832482 0.014430482990023266 0 0.00032358714058150387 0.014495178468951575 0 0.00032683704570906909 0.014481115710313103 0 0.00033845626465832482 0.014430482990023266 0 0.00032358714058150387 0.014495178468951575 0 0.00032133313197325473 0.014464717236294809 0 0.00033845626465832482 0.014430482990023266 0 0.00032133313197325473 0.014464717236294809 0 0.00033553219511347153 0.014409380701541193 0 0.00032934191394289199 0.014408681484051283 0 0.00034228056210119852 0.01436500983190879 0 0.00033553219511347153 0.014409380701541193 0 0.00031319832053626479 0.014452757394559342 0 0.00032934191394289199 0.014408681484051283 0 0.00032133313197325473 0.014464717236294809 0 0.00032934191394289199 0.014408681484051283 0 0.00032133313197325473 0.014464717236294809 0 0.00033553219511347153 0.014409380701541193 0 0.00031319832053626479 0.014452757394559342 0 0.00032133313197325473 0.014464717236294809 0 0.00029374361711682716 0.014520561878096885 0 0.00032133313197325473 0.014464717236294809 0 0.00029374361711682716 0.014520561878096885 0 0.00031148786374862351 0.014526236992472821 0 0.00024826801715335009 0.014602900384282767 0 0.00029374361711682716 0.014520561878096885 0 0.00029655794702279864 0.01459236224699201 0 0.00024826801715335009 0.014602900384282767 0 0.00026491935146248966 0.014521352549698033 0 0.00029374361711682716 0.014520561878096885 0 0.00029374361711682716 0.014520561878096885 0 0.00029655794702279864 0.01459236224699201 0 0.00031148786374862351 0.014526236992472821 0 0.00029655794702279864 0.01459236224699201 0 0.00031148786374862351 0.014526236992472821 0 0.00032860143630475028 0.014536940600219197 0 0.00032358714058150387 0.014495178468951575 0 0.00031148786374862351 0.014526236992472821 0 0.00032860143630475028 0.014536940600219197 0 0.00032358714058150387 0.014495178468951575 0 0.00032133313197325473 0.014464717236294809 0 0.00031148786374862351 0.014526236992472821 0 0.00029655794702279864 0.01459236224699201 0 0.00032860143630475028 0.014536940600219197 0 0.0003377256860843917 0.014580702119006783 0 0.00032688553247986674 0.01462193026800741 0 0.00028006245995173531 0.014644475609701155 0 0.0003377256860843917 0.014580702119006783 0 0.00028006245995173531 0.014644475609701155 0 0.00029655794702279864 0.01459236224699201 0 0.0003377256860843917 0.014580702119006783 0 0.00032688553247986674 0.01462193026800741 0 0.0003377256860843917 0.014580702119006783 0 0.00041315777720889516 0.014502665934478484 0 0.0003377256860843917 0.014580702119006783 0 0.00035386061376345564 0.014524367426635099 0 0.00041315777720889516 0.014502665934478484 0 0.00032860143630475028 0.014536940600219197 0 0.00035386061376345564 0.014524367426635099 0 0.00031586659288121834 0.014496236387856399 0 0.00035386061376345564 0.014524367426635099 0 0.0003519681354268385 0.01445715638717229 0 0.00041315777720889516 0.014502665934478484 0 0.00032860143630475028 0.014536940600219197 0 0.0003377256860843917 0.014580702119006783 0 0.00035386061376345564 0.014524367426635099 0 0.00035386061376345564 0.014524367426635099 0 0.00031586659288121834 0.014496236387856399 0 0.0003519681354268385 0.01445715638717229 0 0.00031586659288121834 0.014496236387856399 0 0.00032683704570906909 0.014481115710313103 0 0.00032284249703387559 0.014500845780152691 0 0.00031586659288121834 0.014496236387856399 0 0.00032284249703387559 0.014500845780152691 0 0.00026833838669537274 0.014364964005615492 0 0.00032683704570906909 0.014481115710313103 0 0.00037334720114617784 0.014446351502112849 0 0.00032284249703387559 0.014500845780152691 0 0.00035737257590374484 0.014417895376647154 0 0.00032683704570906909 0.014481115710313103 0 0.00037334720114617784 0.014446351502112849 0 0.00032860143630475028 0.014536940600219197 0 0.00031586659288121834 0.014496236387856399 0 0.00032683704570906909 0.014481115710313103 0 0.00032358714058150387 0.014495178468951575 0 0.00032860143630475028 0.014536940600219197 0 0.00032683704570906909 0.014481115710313103 0 0.00046896866345089887 0.014465746820851375 0 0.00037334720114617784 0.014446351502112849 0 0.00043190029331769845 0.014389139603134803 0 0.00046896866345089887 0.014465746820851375 0 0.00037334720114617784 0.014446351502112849 0 0.00032284249703387559 0.014500845780152691 0 0.00017458249877339081 0.014454060300466028 0 0.00022017969174621658 0.014392684762784269 0 3.2411453983624834e-05 0.014294407027031246 0 5.5009942863501997e-05 0.014332393478798808 0 3.2915990765756715e-05 0.014299400712281456 0 3.2411453983624834e-05 0.014294407027031246 0 3.1721585029055348e-05 0.014291588507835401 0 3.2915990765756715e-05 0.014299400712281456 0 3.1721585029055348e-05 0.014291588507835401 0 4.4332608631840573e-05 0.01428563627959715 0 3.5144114221565645e-05 0.01428545016901204 0 3.2411453983624834e-05 0.014294407027031246 0 3.1721585029055348e-05 0.014291588507835401 0 4.4332608631840573e-05 0.01428563627959715 0 0.00082305639425401796 0.013452674185576564 0 0.00033091669424081631 0.013372123007284515 0 0.0014871345247219575 0.012731232387668627 0 0.0011132193358664945 0.012697843661086543 0 0.0014643265030978357 0.012247496763332375 0 0.00082305639425401796 0.013452674185576564 0 0.00066081096135611913 0.013919531517537819 0 0.0014871345247219575 0.012731232387668627 0 0.0015132683474255199 0.013233092145696537 0 0.0011695777668180886 0.013054521186773763 0 3.2411453983624834e-05 0.014294407027031246 0 4.4332608631840573e-05 0.01428563627959715 0 5.3917553245431549e-05 0.01426659431052423 0 0.00017458249877339081 0.014454060300466028 0 0.00066081096135611913 0.013919531517537819 0 0.00046896866345089887 0.014465746820851375 0 0.00056683486416617731 0.014307870059475458 0 0.00065883303677688487 0.014318806533448821 0 0.00046896866345089887 0.014465746820851375 0 0.00056683486416617731 0.014307870059475458 0 0.00050070966896488469 0.014311925008559061 0 0.00056683486416617731 0.014307870059475458 0 0.00065883303677688487 0.014318806533448821 0 0.00064658271115200874 0.01419111631667388 0 0.00056683486416617731 0.014307870059475458 0 0.00057314230186133238 0.014209417311436707 0 0.00050070966896488469 0.014311925008559061 0 0.00066081096135611913 0.013919531517537819 0 0.0010289668513262724 0.013741100649237755 0 0.00064886015748907605 0.014253973021427663 0 0.00064658271115200874 0.01419111631667388 0 0.00074388492157138127 0.014103621177824108 0 0.0015132683474255199 0.013233092145696537 0 0.0011989127577846665 0.013477961423271654 0 0.0011695777668180886 0.013054521186773763 0 0.00066081096135611913 0.013919531517537819 0 0.00065758002175383674 0.01425168487048431 0 0.00064658271115200874 0.01419111631667388 0 0.00068365603751978777 0.014091886923963761 0 0.00074388492157138127 0.014103621177824108 0 0.00064658271115200874 0.01419111631667388 0 0.0006282450123984933 0.014124648439328841 0 0.00068365603751978777 0.014091886923963761 0 0.0006282450123984933 0.014124648439328841 0 0.00068365603751978777 0.014091886923963761 0 0.00067297570697649365 0.014036065684148769 0 0.00057314230186133238 0.014209417311436707 0 0.00050992036143110832 0.014227939182812481 0 0.00050070966896488469 0.014311925008559061 0 0.00056683486416617731 0.014307870059475458 0 0.00064658271115200874 0.01419111631667388 0 0.00057314230186133238 0.014209417311436707 0 0.00064658271115200874 0.01419111631667388 0 0.0006282450123984933 0.014124648439328841 0 0.00057314230186133238 0.014209417311436707 0 0.0006282450123984933 0.014124648439328841 0 0.00057314230186133238 0.014209417311436707 0 0.00057128934206355803 0.014142791585746987 0 0.00057314230186133238 0.014209417311436707 0 0.00050992036143110832 0.014227939182812481 0 0.00057128934206355803 0.014142791585746987 0 0.00050992036143110832 0.014227939182812481 0 0.00051902508918868953 0.014174135465163037 0 0.00057128934206355803 0.014142791585746987 0 0.00050992036143110832 0.014227939182812481 0 0.00051902508918868953 0.014174135465163037 0 0.00046507018044496457 0.014224803126905418 0 0.00045005034328868878 0.014301200427047914 0 0.00040910748259137439 0.014296862304822598 0 0.00046507018044496457 0.014224803126905418 0 0.00050992036143110832 0.014227939182812481 0 0.00045005034328868878 0.014301200427047914 0 0.00046507018044496457 0.014224803126905418 0 0.00050992036143110832 0.014227939182812481 0 0.00045005034328868878 0.014301200427047914 0 0.00050070966896488469 0.014311925008559061 0 0.00046896866345089887 0.014465746820851375 0 0.00050070966896488469 0.014311925008559061 0 0.00043190029331769845 0.014389139603134803 0 0.00045005034328868878 0.014301200427047914 0 0.00050070966896488469 0.014311925008559061 0 0.00043190029331769845 0.014389139603134803 0 0.00035737257590374484 0.014417895376647154 0 0.00037334720114617784 0.014446351502112849 0 0.00039959380519863456 0.014358374769399442 0 0.00037334720114617784 0.014446351502112849 0 0.00043190029331769845 0.014389139603134803 0 0.00039959380519863456 0.014358374769399442 0 0.00045005034328868878 0.014301200427047914 0 0.00043190029331769845 0.014389139603134803 0 0.00039959380519863456 0.014358374769399442 0 0.00036808141585012872 0.0143647698517709 0 0.00035737257590374484 0.014417895376647154 0 0.00039959380519863456 0.014358374769399442 0 0.00036808141585012872 0.0143647698517709 0 0.00039959380519863456 0.014358374769399442 0 0.00040910748259137439 0.014296862304822598 0 0.00045005034328868878 0.014301200427047914 0 0.00039959380519863456 0.014358374769399442 0 0.00040910748259137439 0.014296862304822598 0 0.00036994390163515572 0.014312868822766582 0 0.00036808141585012872 0.0143647698517709 0 0.00040910748259137439 0.014296862304822598 0 0.00036994390163515572 0.014312868822766582 0 0.0004158758769493982 0.01424321037657097 0 0.00037709676042434886 0.014260244277458655 0 0.00036994390163515572 0.014312868822766582 0 0.00040910748259137439 0.014296862304822598 0 0.0004158758769493982 0.01424321037657097 0 0.00040910748259137439 0.014296862304822598 0 0.0004158758769493982 0.01424321037657097 0 0.00046507018044496457 0.014224803126905418 0 0.0004158758769493982 0.01424321037657097 0 0.00044031230666808692 0.014185886369765028 0 0.0004114012755185775 0.014214909304199518 0 0.0004158758769493982 0.01424321037657097 0 0.00044031230666808692 0.014185886369765028 0 0.00045541673659688141 0.014197867956988353 0 0.00044031230666808692 0.014185886369765028 0 0.0004114012755185775 0.014214909304199518 0 0.00042605506866375892 0.014172138899063167 0 0.0004114012755185775 0.014214909304199518 0 0.00037709676042434886 0.014260244277458655 0 0.00039900167262471071 0.014205829279551425 0 0.0004158758769493982 0.01424321037657097 0 0.0004114012755185775 0.014214909304199518 0 0.00037709676042434886 0.014260244277458655 0 0.00036983620716967444 0.014244570233158244 0 0.00037709676042434886 0.014260244277458655 0 0.00039900167262471071 0.014205829279551425 0 0.00051902508918868953 0.014174135465163037 0 0.00046507018044496457 0.014224803126905418 0 0.00050230160187642405 0.014151760576216119 0 0.00051902508918868953 0.014174135465163037 0 0.00050230160187642405 0.014151760576216119 0 0.00054808668513074287 0.014115082336915453 0 0.00046507018044496457 0.014224803126905418 0 0.00045541673659688141 0.014197867956988353 0 0.00050230160187642405 0.014151760576216119 0 0.0004158758769493982 0.01424321037657097 0 0.00046507018044496457 0.014224803126905418 0 0.00045541673659688141 0.014197867956988353 0 0.00045541673659688141 0.014197867956988353 0 0.00047699548086429161 0.014144126510472345 0 0.00050230160187642405 0.014151760576216119 0 0.00044031230666808692 0.014185886369765028 0 0.00045541673659688141 0.014197867956988353 0 0.00047699548086429161 0.014144126510472345 0 0.00047699548086429161 0.014144126510472345 0 0.00050230160187642405 0.014151760576216119 0 0.00052749803850961373 0.014090606262934948 0 0.00050230160187642405 0.014151760576216119 0 0.00052749803850961373 0.014090606262934948 0 0.00054808668513074287 0.014115082336915453 0 0.00052749803850961373 0.014090606262934948 0 0.0004964339459197425 0.014090425810514316 0 0.00053778070995832462 0.014036437059736 0 0.00047699548086429161 0.014144126510472345 0 0.00052749803850961373 0.014090606262934948 0 0.0004964339459197425 0.014090425810514316 0 0.0004964339459197425 0.014090425810514316 0 0.00045644674344851342 0.014130630978069313 0 0.00047626912409278182 0.01408398589014408 0 0.00047699548086429161 0.014144126510472345 0 0.0004964339459197425 0.014090425810514316 0 0.00045644674344851342 0.014130630978069313 0 0.00044031230666808692 0.014185886369765028 0 0.00047699548086429161 0.014144126510472345 0 0.00045644674344851342 0.014130630978069313 0 0.00045644674344851342 0.014130630978069313 0 0.00045360286772863981 0.014091921113410819 0 0.00044052249371438057 0.014133593403533195 0 0.00045644674344851342 0.014130630978069313 0 0.00045360286772863981 0.014091921113410819 0 0.00047626912409278182 0.01408398589014408 0 0.00045360286772863981 0.014091921113410819 0 0.00042727728617556891 0.014137364236576884 0 0.00046165544978199165 0.013992573908575541 0 0.00045360286772863981 0.014091921113410819 0 0.00048191504526571535 0.014043352879656856 0 0.00046165544978199165 0.013992573908575541 0 0.00045360286772863981 0.014091921113410819 0 0.00048191504526571535 0.014043352879656856 0 0.00047626912409278182 0.01408398589014408 0 0.00048191504526571535 0.014043352879656856 0 0.00051154197343655544 0.014019276345005655 0 0.00049162853745206075 0.014011499574139115 0 0.00048191504526571535 0.014043352879656856 0 0.00047626912409278182 0.01408398589014408 0 0.00049801476061870514 0.014054568557408749 0 0.0004964339459197425 0.014090425810514316 0 0.00047626912409278182 0.01408398589014408 0 0.00049801476061870514 0.014054568557408749 0 0.0004964339459197425 0.014090425810514316 0 0.00049801476061870514 0.014054568557408749 0 0.00053778070995832462 0.014036437059736 0 0.00049801476061870514 0.014054568557408749 0 0.00051154197343655544 0.014019276345005655 0 0.00053778070995832462 0.014036437059736 0 0.00048191504526571535 0.014043352879656856 0 0.00049801476061870514 0.014054568557408749 0 0.00051154197343655544 0.014019276345005655 0 0.00053778070995832462 0.014036437059736 0 0.00053233021189064698 0.013992032579678326 0 0.00056036889047531555 0.013988790061677074 0 0.00051154197343655544 0.014019276345005655 0 0.00053778070995832462 0.014036437059736 0 0.00053233021189064698 0.013992032579678326 0 0.0003424245321994988 0.014274177378422754 0 0.00038879941273431531 0.014192385962702378 0 0.00046165544978199165 0.013992573908575541 0 0.00034893598833368917 0.014299835856180757 0 0.0003424245321994988 0.014274177378422754 0 0.00031958334000521389 0.014282646297549779 0 0.0003424245321994988 0.014274177378422754 0 0.00031958334000521389 0.014282646297549779 0 0.00032165335472100987 0.014284635904738727 0 0.0003449345342721244 0.014249242850370327 0 0.00040815524070178836 0.014154804114227927 0 0.00038879941273431531 0.014192385962702378 0 0.00039900167262471071 0.014205829279551425 0 0.00042727728617556891 0.014137364236576884 0 0.00036983620716967444 0.014244570233158244 0 0.00038879941273431531 0.014192385962702378 0 0.00039900167262471071 0.014205829279551425 0 0.0004114012755185775 0.014214909304199518 0 0.00039900167262471071 0.014205829279551425 0 0.00042605506866375892 0.014172138899063167 0 0.00039900167262471071 0.014205829279551425 0 0.00042605506866375892 0.014172138899063167 0 0.00042727728617556891 0.014137364236576884 0 0.00044031230666808692 0.014185886369765028 0 0.00045644674344851342 0.014130630978069313 0 0.00042605506866375892 0.014172138899063167 0 0.00045360286772863981 0.014091921113410819 0 0.00044052249371438057 0.014133593403533195 0 0.00042727728617556891 0.014137364236576884 0 0.00042605506866375892 0.014172138899063167 0 0.00044052249371438057 0.014133593403533195 0 0.00042727728617556891 0.014137364236576884 0 0.00045644674344851342 0.014130630978069313 0 0.00042605506866375892 0.014172138899063167 0 0.00044052249371438057 0.014133593403533195 0 0.00038879941273431531 0.014192385962702378 0 0.00042727728617556891 0.014137364236576884 0 0.00046165544978199165 0.013992573908575541 0 0.00036271028855721233 0.014282778620090621 0 0.00031593167486817782 0.014345791023329198 0 0.00035165319455250047 0.014309087153269067 0 0.00034893598833368917 0.014299835856180757 0 0.00035729133926584407 0.014314164887511555 0 0.00035165319455250047 0.014309087153269067 0 0.00035467678545727068 0.014310912742206548 0 0.00035729133926584407 0.014314164887511555 0 0.00035165319455250047 0.014309087153269067 0 0.00035385910689133122 0.014309845741430571 0 0.00035467678545727068 0.014310912742206548 0 0.00035151225050307608 0.014311016259200797 0 0.00035385910689133122 0.014309845741430571 0 0.00035616836980213772 0.014305070859685378 0 0.00035385910689133122 0.014309845741430571 0 0.00035673108536546496 0.01430937755294605 0 0.00035616836980213772 0.014305070859685378 0 0.00035673108536546496 0.01430937755294605 0 0.00035467678545727068 0.014310912742206548 0 0.00035729133926584407 0.014314164887511555 0 0.00035385910689133122 0.014309845741430571 0 0.00035673108536546496 0.01430937755294605 0 0.00035467678545727068 0.014310912742206548 0 0.00031593167486817782 0.014345791023329198 0 0.00044788284576726691 0.013970502472049756 0 0.00031958334000521389 0.014282646297549779 0 0.00032165335472100987 0.014284635904738727 0 0.00038043871675933172 0.01423770634861444 0 0.00035729133926584407 0.014314164887511555 0 0.00036240318212952969 0.014305936648072613 0 0.00037976503713871653 0.014303949907720876 0 0.00046165544978199165 0.013992573908575541 0 0.00049162853745206075 0.014011499574139115 0 0.00050830472481774467 0.013996448923770751 0 0.00048191504526571535 0.014043352879656856 0 0.00046165544978199165 0.013992573908575541 0 0.00049162853745206075 0.014011499574139115 0 0.00046165544978199165 0.013992573908575541 0 0.00050830472481774467 0.013996448923770751 0 0.00054192134242606201 0.01396545246108455 0 0.00053233021189064698 0.013992032579678326 0 0.00050830472481774467 0.013996448923770751 0 0.00054192134242606201 0.01396545246108455 0 0.00053233021189064698 0.013992032579678326 0 0.00054192134242606201 0.01396545246108455 0 0.00056036889047531555 0.013988790061677074 0 0.00051154197343655544 0.014019276345005655 0 0.00053233021189064698 0.013992032579678326 0 0.00050830472481774467 0.013996448923770751 0 0.00051154197343655544 0.014019276345005655 0 0.00049162853745206075 0.014011499574139115 0 0.00050830472481774467 0.013996448923770751 0 0.00035673108536546496 0.01430937755294605 0 0.00035729133926584407 0.014314164887511555 0 0.00036240318212952969 0.014305936648072613 0 0.00036240318212952969 0.014305936648072613 0 0.00036527116626579109 0.014298758822860113 0 0.00037976503713871653 0.014303949907720876 0 0.00036240318212952969 0.014305936648072613 0 0.00036527116626579109 0.014298758822860113 0 0.00035616836980213772 0.014305070859685378 0 0.00035729284728449278 0.01429474046511392 0 0.00036527116626579109 0.014298758822860113 0 0.00035616836980213772 0.014305070859685378 0 0.00035729284728449278 0.01429474046511392 0 0.00034770093221490336 0.014300573656960792 0 0.00035616836980213772 0.014305070859685378 0 0.00035673108536546496 0.01430937755294605 0 0.00036240318212952969 0.014305936648072613 0 0.00035616836980213772 0.014305070859685378 0 0.00065846405682965252 0.013892672970682014 0 0.00066772333659400652 0.013903529468970969 0 0.00066819867947607323 0.013885122555732257 0 0.00073562937814744653 0.013304426449448211 0 0.00070759082538588618 0.013487160363382607 0 0.0006124334913866214 0.013537616761009742 0 0.0010200921813566936 0.013311702847593952 0 0.00073562937814744653 0.013304426449448211 0 0.00070759082538588618 0.013487160363382607 0 0.00065846405682965252 0.013892672970682014 0 0.00063672738027162801 0.013897387460812337 0 0.00065075032492451282 0.013902771974270981 0 0.00057510742248966787 0.013559797694691208 0 0.00044788284576726691 0.013970502472049756 0 0.00048689170192045675 0.013884824584627177 0 0.00044788284576726691 0.013970502472049756 0 0.00037536432100058933 0.014282944586662398 0 0.00036527116626579109 0.014298758822860113 0 0.00037976503713871653 0.014303949907720876 0 0.00046165544978199165 0.013992573908575541 0 0.00054192134242606201 0.01396545246108455 0 0.00063007012779729243 0.013869058941833424 0 0.00044788284576726691 0.013970502472049756 0 0.00052689635453482696 0.01393099895601287 0 0.00063672738027162801 0.013897387460812337 0 0.00063735612645838624 0.013919811935771012 0 0.00065075032492451282 0.013902771974270981 0 0.00040815524070178836 0.014154804114227927 0 0.00044788284576726691 0.013970502472049756 0 0.00063007012779729243 0.013869058941833424 0 0.00063735612645838624 0.013919811935771012 0 0.00060247933628961492 0.013956122265884699 0 0.00054192134242606201 0.01396545246108455 0 0.00063007012779729243 0.013869058941833424 0 0.00060247933628961492 0.013956122265884699 0 0.00054192134242606201 0.01396545246108455 0 0.00056036889047531555 0.013988790061677074 0 0.00060247933628961492 0.013956122265884699 0 0.00063735612645838624 0.013919811935771012 0 0.00060247933628961492 0.013956122265884699 0 0.00065077873529122902 0.013940153582864111 0 0.00060247933628961492 0.013956122265884699 0 0.00065077873529122902 0.013940153582864111 0 0.00062405911033493373 0.013978176736455473 0 0.00063735612645838624 0.013919811935771012 0 0.00065077873529122902 0.013940153582864111 0 0.00066772333659400652 0.013903529468970969 0 0.00063735612645838624 0.013919811935771012 0 0.00065075032492451282 0.013902771974270981 0 0.00066772333659400652 0.013903529468970969 0 0.00065846405682965252 0.013892672970682014 0 0.00065075032492451282 0.013902771974270981 0 0.00066772333659400652 0.013903529468970969 0 0.00065077873529122902 0.013940153582864111 0 0.00066772333659400652 0.013903529468970969 0 0.00068014547343709633 0.013927981600590267 0 0.00066772333659400652 0.013903529468970969 0 0.00068014547343709633 0.013927981600590267 0 0.00068032804467514044 0.013902754819335852 0 0.00068014547343709633 0.013927981600590267 0 0.00066425773397624135 0.013965542899579556 0 0.00070218630833376058 0.013940483288200772 0 0.00065077873529122902 0.013940153582864111 0 0.00066425773397624135 0.013965542899579556 0 0.00062405911033493373 0.013978176736455473 0 0.00065077873529122902 0.013940153582864111 0 0.00068014547343709633 0.013927981600590267 0 0.00066425773397624135 0.013965542899579556 0 0.00066425773397624135 0.013965542899579556 0 0.00061605272082907261 0.014015592087556599 0 0.00064000310740375699 0.014020212697046529 0 0.00066425773397624135 0.013965542899579556 0 0.00062405911033493373 0.013978176736455473 0 0.00061605272082907261 0.014015592087556599 0 0.00066425773397624135 0.013965542899579556 0 0.00068238152205993578 0.013987271103984546 0 0.00064000310740375699 0.014020212697046529 0 0.00066425773397624135 0.013965542899579556 0 0.00068238152205993578 0.013987271103984546 0 0.00070218630833376058 0.013940483288200772 0 0.00053778070995832462 0.014036437059736 0 0.00056036889047531555 0.013988790061677074 0 0.00058695378726909809 0.014001096590104765 0 0.00053778070995832462 0.014036437059736 0 0.00058695378726909809 0.014001096590104765 0 0.00057292034343041994 0.014054843174969196 0 0.00056036889047531555 0.013988790061677074 0 0.00060247933628961492 0.013956122265884699 0 0.00058695378726909809 0.014001096590104765 0 0.00058695378726909809 0.014001096590104765 0 0.00062405911033493373 0.013978176736455473 0 0.00061605272082907261 0.014015592087556599 0 0.00060247933628961492 0.013956122265884699 0 0.00058695378726909809 0.014001096590104765 0 0.00062405911033493373 0.013978176736455473 0 0.00061605272082907261 0.014015592087556599 0 0.00057292034343041994 0.014054843174969196 0 0.0005942653390755212 0.014079059915012689 0 0.00058695378726909809 0.014001096590104765 0 0.00061605272082907261 0.014015592087556599 0 0.00057292034343041994 0.014054843174969196 0 0.00052749803850961373 0.014090606262934948 0 0.00053778070995832462 0.014036437059736 0 0.00057292034343041994 0.014054843174969196 0 0.00052749803850961373 0.014090606262934948 0 0.00057292034343041994 0.014054843174969196 0 0.00054808668513074287 0.014115082336915453 0 0.00057292034343041994 0.014054843174969196 0 0.00054808668513074287 0.014115082336915453 0 0.0005942653390755212 0.014079059915012689 0 0.00061605272082907261 0.014015592087556599 0 0.0005942653390755212 0.014079059915012689 0 0.00064000310740375699 0.014020212697046529 0 0.0005942653390755212 0.014079059915012689 0 0.00064000310740375699 0.014020212697046529 0 0.00063397295644771075 0.014061859720172805 0 0.0005942653390755212 0.014079059915012689 0 0.00057128934206355803 0.014142791585746987 0 0.00063397295644771075 0.014061859720172805 0 0.0006282450123984933 0.014124648439328841 0 0.00057128934206355803 0.014142791585746987 0 0.00063397295644771075 0.014061859720172805 0 0.00054808668513074287 0.014115082336915453 0 0.0005942653390755212 0.014079059915012689 0 0.00057128934206355803 0.014142791585746987 0 0.00051902508918868953 0.014174135465163037 0 0.00054808668513074287 0.014115082336915453 0 0.00057128934206355803 0.014142791585746987 0 0.00068238152205993578 0.013987271103984546 0 0.00073451793967409099 0.013944284952770296 0 0.00070218630833376058 0.013940483288200772 0 0.00068238152205993578 0.013987271103984546 0 0.00064000310740375699 0.014020212697046529 0 0.00063397295644771075 0.014061859720172805 0 0.00068238152205993578 0.013987271103984546 0 0.00063397295644771075 0.014061859720172805 0 0.00067297570697649365 0.014036065684148769 0 0.0006282450123984933 0.014124648439328841 0 0.00063397295644771075 0.014061859720172805 0 0.00067297570697649365 0.014036065684148769 0 0.00068238152205993578 0.013987271103984546 0 0.00067297570697649365 0.014036065684148769 0 0.00073451793967409099 0.013944284952770296 0 0.00068365603751978777 0.014091886923963761 0 0.00067297570697649365 0.014036065684148769 0 0.00073451793967409099 0.013944284952770296 0 0.00073451793967409099 0.013944284952770296 0 0.00074062112912369124 0.013893487264381688 0 0.00080623303885267634 0.013781424416524765 0 0.00073451793967409099 0.013944284952770296 0 0.00074062112912369124 0.013893487264381688 0 0.00070218630833376058 0.013940483288200772 0 0.00080623303885267634 0.013781424416524765 0 0.00067334926027339133 0.013852790816713326 0 0.00064061563374920945 0.013554969556259696 0 0.00074062112912369124 0.013893487264381688 0 0.00080623303885267634 0.013781424416524765 0 0.00067334926027339133 0.013852790816713326 0 0.00074062112912369124 0.013893487264381688 0 0.00067334926027339133 0.013852790816713326 0 0.00069445781176576756 0.013895663493404733 0 0.00067334926027339133 0.013852790816713326 0 0.00069445781176576756 0.013895663493404733 0 0.00064620756692158681 0.013892384831631462 0 0.00074062112912369124 0.013893487264381688 0 0.00070218630833376058 0.013940483288200772 0 0.00070234861885438765 0.013911899620279502 0 0.00074062112912369124 0.013893487264381688 0 0.00069445781176576756 0.013895663493404733 0 0.00070234861885438765 0.013911899620279502 0 0.00068014547343709633 0.013927981600590267 0 0.00070218630833376058 0.013940483288200772 0 0.00070234861885438765 0.013911899620279502 0 0.00068014547343709633 0.013927981600590267 0 0.00070234861885438765 0.013911899620279502 0 0.00068032804467514044 0.013902754819335852 0 0.00070234861885438765 0.013911899620279502 0 0.00068032804467514044 0.013902754819335852 0 0.00067426394604496885 0.013894268030445488 0 0.00069445781176576756 0.013895663493404733 0 0.00070234861885438765 0.013911899620279502 0 0.00067426394604496885 0.013894268030445488 0 0.00067426394604496885 0.013894268030445488 0 0.00064186727666777925 0.013876216652270302 0 0.00064620756692158681 0.013892384831631462 0 0.00069445781176576756 0.013895663493404733 0 0.00067426394604496885 0.013894268030445488 0 0.00064620756692158681 0.013892384831631462 0 0.00062968457991711393 0.01385231847749741 0 0.00066819867947607323 0.013885122555732257 0 0.00064186727666777925 0.013876216652270302 0 0.00067426394604496885 0.013894268030445488 0 0.00066819867947607323 0.013885122555732257 0 0.00064186727666777925 0.013876216652270302 0 0.00079508915339750197 0.013194442542119111 0 0.00057510742248966787 0.013559797694691208 0 0.00057510742248966787 0.013559797694691208 0 0.00060036347802511388 0.013524673161991553 0 0.0005731098433144708 0.013117392788686537 0 0.00035691215960832794 0.013277519083540941 0 0.00056851662156943018 0.013150495637244514 0 0.00068032804467514044 0.013902754819335852 0 0.00067426394604496885 0.013894268030445488 0 0.00066819867947607323 0.013885122555732257 0 0.00066772333659400652 0.013903529468970969 0 0.00068032804467514044 0.013902754819335852 0 0.00066819867947607323 0.013885122555732257 0 0.00063022498413929293 0.013861409454397752 0 0.00064623122018185033 0.013846011425042019 0 0.0006232170319158271 0.013869905039123453 0 0.00063022498413929293 0.013861409454397752 0 0.00062975145644763317 0.013880953556331132 0 0.0006232170319158271 0.013869905039123453 0 0.0006405877029915071 0.013822208476497856 0 0.00063022498413929293 0.013861409454397752 0 0.00064623122018185033 0.013846011425042019 0 0.00063022498413929293 0.013861409454397752 0 0.00064186727666777925 0.013876216652270302 0 0.00062975145644763317 0.013880953556331132 0 0.00062968457991711393 0.01385231847749741 0 0.00063022498413929293 0.013861409454397752 0 0.00064186727666777925 0.013876216652270302 0 0.00062968457991711393 0.01385231847749741 0 0.0006405877029915071 0.013822208476497856 0 0.00063022498413929293 0.013861409454397752 0 0.00064186727666777925 0.013876216652270302 0 0.00062975145644763317 0.013880953556331132 0 0.00064620756692158681 0.013892384831631462 0 0.00062975145644763317 0.013880953556331132 0 0.00064620756692158681 0.013892384831631462 0 0.00060805062247189191 0.013880164536265407 0 0.00064620756692158681 0.013892384831631462 0 0.00060805062247189191 0.013880164536265407 0 0.00059286176284175437 0.013867400543702913 0 0.00060805062247189191 0.013880164536265407 0 0.00060978004121843197 0.013877214584701232 0 0.00058312493988149302 0.013872439182515944 0 0.00060805062247189191 0.013880164536265407 0 0.0006232170319158271 0.013869905039123453 0 0.00060978004121843197 0.013877214584701232 0 0.00062975145644763317 0.013880953556331132 0 0.00060805062247189191 0.013880164536265407 0 0.0006232170319158271 0.013869905039123453 0 0.0006232170319158271 0.013869905039123453 0 0.00060978004121843197 0.013877214584701232 0 0.00063923919623031932 0.013881520034505929 0 0.00064623122018185033 0.013846011425042019 0 0.0006232170319158271 0.013869905039123453 0 0.00063923919623031932 0.013881520034505929 0 0.00060978004121843197 0.013877214584701232 0 0.00058312493988149302 0.013872439182515944 0 0.00063923919623031932 0.013881520034505929 0 0.00058312493988149302 0.013872439182515944 0 0.00048991375659100959 0.013836808181513394 0 0.00063923919623031932 0.013881520034505929 0 0.00058312493988149302 0.013872439182515944 0 0.00059286176284175437 0.013867400543702913 0 0.00048991375659100959 0.013836808181513394 0 0.00043791957699982888 0.013181739027908517 0 0.00064811724663372595 0.013096160182414395 0 0.00032282676197910228 0.012738573481905912 0 0.00068663427489698385 0.011616652909123708 0 0.00068099091222253408 0.012800027851431283 0 0.00060805062247189191 0.013880164536265407 0 0.00058312493988149302 0.013872439182515944 0 0.00059286176284175437 0.013867400543702913 0 0.00059286176284175437 0.013867400543702913 0 0.00057748862774292635 0.01381765065601046 0 0.00048991375659100959 0.013836808181513394 0 0.00067334926027339133 0.013852790816713326 0 0.00064620756692158681 0.013892384831631462 0 0.00059286176284175437 0.013867400543702913 0 0.00067334926027339133 0.013852790816713326 0 0.00059286176284175437 0.013867400543702913 0 0.00057748862774292635 0.01381765065601046 0 0.00056411394596377399 0.013691984717676681 0 0.00048991375659100959 0.013836808181513394 0 0.00042178043166913844 0.013336809574655092 0 0.00067334926027339133 0.013852790816713326 0 0.00056411394596377399 0.013691984717676681 0 0.00064061563374920945 0.013554969556259696 0 0.00067334926027339133 0.013852790816713326 0 0.00057748862774292635 0.01381765065601046 0 0.00056411394596377399 0.013691984717676681 0 0.00057748862774292635 0.01381765065601046 0 0.00056411394596377399 0.013691984717676681 0 0.00048991375659100959 0.013836808181513394 0 0.00032282676197910228 0.012738573481905912 0 0.00043211579516547628 0.013057469395821475 0 0.00068099091222253408 0.012800027851431283 0 0.00043791957699982888 0.013181739027908517 0 0.0004151209801117989 0.013346932409730528 0 0.00032282676197910228 0.012738573481905912 0 0.00043211579516547628 0.013057469395821475 0 0.00042178043166913844 0.013336809574655092 0 0.00043211579516547628 0.013057469395821475 0 0.00035877431244051196 0.013261073343228656 0 0.00068099091222253408 0.012800027851431283 0 0.00043211579516547628 0.013057469395821475 0 0.00035877431244051196 0.013261073343228656 0 0.00042178043166913844 0.013336809574655092 0 0.0004062313474400765 0.0088269786937885657 0 0.0003257873207719644 0.0088139495495488333 0 0.00035877431244051196 0.013261073343228656 0 0.00051996628674866514 0.013145171795849269 0 0.00027021173764769745 0.012787491983856227 0 0.00035877431244051196 0.013261073343228656 0 0.00051996628674866514 0.013145171795849269 0 0.00042178043166913844 0.013336809574655092 0 0.00051996628674866514 0.013145171795849269 0 0.00042178043166913844 0.013336809574655092 0 0.00064061563374920945 0.013554969556259696 0 0.00056411394596377399 0.013691984717676681 0 0.00042178043166913844 0.013336809574655092 0 0.00064061563374920945 0.013554969556259696 0 0.00080623303885267634 0.013781424416524765 0 0.00064061563374920945 0.013554969556259696 0 0.00086926728806949725 0.013309960051718129 0 0.00068365603751978777 0.014091886923963761 0 0.00073451793967409099 0.013944284952770296 0 0.00074388492157138127 0.014103621177824108 0 0.00079163012926776195 0.013826856794128643 0 0.0010289668513262724 0.013741100649237755 0 0.00080623303885267634 0.013781424416524765 0 0.0011989127577846665 0.013477961423271654 0 0.00086926728806949725 0.013309960051718129 0 0.00073451793967409099 0.013944284952770296 0 0.00080623303885267634 0.013781424416524765 0 0.00074388492157138127 0.014103621177824108 0 0.0011989127577846665 0.013477961423271654 0 0.00086926728806949725 0.013309960051718129 0 0.0011695777668180886 0.013054521186773763 0 0.00051996628674866514 0.013145171795849269 0 0.00064061563374920945 0.013554969556259696 0 0.00086926728806949725 0.013309960051718129 0 0.00086926728806949725 0.013309960051718129 0 0.00082413851211187719 0.012928530916985531 0 0.0011695777668180886 0.013054521186773763 0 0.00051996628674866514 0.013145171795849269 0 0.00086926728806949725 0.013309960051718129 0 0.00082413851211187719 0.012928530916985531 0 0.00082413851211187719 0.012928530916985531 0 0.0011695777668180886 0.013054521186773763 0 0.0011132193358664945 0.012697843661086543 0 0.0014871345247219575 0.012731232387668627 0 0.0011695777668180886 0.013054521186773763 0 0.0011132193358664945 0.012697843661086543 0 0.0011132193358664945 0.012697843661086543 0 0.00063588296080310813 0.012540381732239378 0 0.00098422802698266152 0.0123297728004516 0 0.00082413851211187719 0.012928530916985531 0 0.0011132193358664945 0.012697843661086543 0 0.00063588296080310813 0.012540381732239378 0 0.00063588296080310813 0.012540381732239378 0 0.00027021173764769745 0.012787491983856227 0 0.00055494979253803791 0.012843593582410238 0 0.00063588296080310813 0.012540381732239378 0 0.00027021173764769745 0.012787491983856227 0 0.00033259582255170837 0.012233167463504625 0 0.00030385378277477385 0.0044348533317853326 0 0.00027625744172082384 0.0044230561292920101 0 0.00023444822991638262 0.004387059960839843 0 0.0003257873207719644 0.0088139495495488333 0 -2.6341633043313544e-05 0.0074258911939944104 0 0.00051996628674866514 0.013145171795849269 0 0.00082413851211187719 0.012928530916985531 0 0.00055494979253803791 0.012843593582410238 0 0.00051996628674866514 0.013145171795849269 0 0.00027021173764769745 0.012787491983856227 0 0.00055494979253803791 0.012843593582410238 0 0.00082413851211187719 0.012928530916985531 0 0.00063588296080310813 0.012540381732239378 0 0.00055494979253803791 0.012843593582410238 0 -0.00016321447087598158 0.0084338793995104022 0 -0.00013091314247170281 0.0082826534148385637 0 -0.00027569512481652697 0.0083764057472215034 0 -0.00016321447087598158 0.0084338793995104022 0 -0.00027569512481652697 0.0083764057472215034 0 -0.00030405812654321195 0.0085063859479431701 0 -2.2687563163037496e-05 0.0046185218870822232 0 2.1824699753240808e-05 0.0044744843735597308 0 0.00015492958625742961 0.0045464000581555411 0 -4.655792593940567e-05 0.0062900733802161019 0 -2.6341633043313544e-05 0.0074258911939944104 0 -2.6341633043313544e-05 0.0074258911939944104 0 0.00053493801913193821 0.0035831005251560698 0 0.00063588296080310813 0.012540381732239378 0 0.00033259582255170837 0.012233167463504625 0 0.0006927306131833419 0.012059244766949022 0 -2.6341633043313544e-05 0.0074258911939944104 0 5.3255318813176641e-05 0.010539447471435374 0 0.00063588296080310813 0.012540381732239378 0 0.00098422802698266152 0.0123297728004516 0 0.0006927306131833419 0.012059244766949022 0 0.00098422802698266152 0.0123297728004516 0 0.001161250352121628 0.012120357485084781 0 0.0013736785226562099 0.012237443651788539 0 0.0014966286478613965 0.012025202023064216 0 0.00033091669424081631 0.013372123007284515 0 0.0011132193358664945 0.012697843661086543 0 0.00098422802698266152 0.0123297728004516 0 0.0014643265030978357 0.012247496763332375 0 0.00098422802698266152 0.0123297728004516 0 0.001161250352121628 0.012120357485084781 0 0.0010277425014264465 0.011895860496290498 0 0.001161250352121628 0.012120357485084781 0 0.0010277425014264465 0.011895860496290498 0 0.0012152647064121818 0.011873495484414725 0 5.3255318813176641e-05 0.010539447471435374 0 0.00047191716578358437 0.0099819665743127711 0 0.00098422802698266152 0.0123297728004516 0 0.0006927306131833419 0.012059244766949022 0 0.0010277425014264465 0.011895860496290498 0 -0.00027569512481652697 0.0083764057472215034 0 -0.00030405812654321195 0.0085063859479431701 0 -0.00039554604665913151 0.00846076559885643 0 -0.00030405812654321195 0.0085063859479431701 0 -0.00039554604665913151 0.00846076559885643 0 -0.0004130261424402653 0.008571390144838785 0 0.00047191716578358437 0.0099819665743127711 0 7.7812409373567021e-05 0.011493431553382812 0 -0.00039554604665913151 0.00846076559885643 0 -0.0004130261424402653 0.008571390144838785 0 -0.00053039116889454837 0.0085756638099775111 0 -0.0004130261424402653 0.008571390144838785 0 -0.00044035169329855513 0.008640786076083316 0 -0.00037310526432294465 0.0086213784811945866 0 -0.0004130261424402653 0.008571390144838785 0 -0.00044035169329855513 0.008640786076083316 0 -0.00053039116889454837 0.0085756638099775111 0 -0.00037310526432294465 0.0086213784811945866 0 -0.00030756252919351127 0.0085799355535856481 0 -0.00034068774057942444 0.008625152921042295 0 -0.00030405812654321195 0.0085063859479431701 0 -0.00037310526432294465 0.0086213784811945866 0 -0.00019457376828643907 0.0085753176226976546 0 -0.00037202395760679049 0.0089843807769283742 0 -0.00042459834325163159 0.0068631379445575095 0 -0.00030405812654321195 0.0085063859479431701 0 -0.0004130261424402653 0.008571390144838785 0 -0.00037310526432294465 0.0086213784811945866 0 -4.655792593940567e-05 0.0062900733802161019 0 -0.00042459834325163159 0.0068631379445575095 0 -0.00016321447087598158 0.0084338793995104022 0 -0.00030405812654321195 0.0085063859479431701 0 -0.00019457376828643907 0.0085753176226976546 0 -2.2687563163037496e-05 0.0046185218870822232 0 -6.1175606449502036e-05 0.0047896214193304393 0 0.00013484746298649805 0.0047105327691848789 0 -2.2687563163037496e-05 0.0046185218870822232 0 0.00015492958625742961 0.0045464000581555411 0 0.00013484746298649805 0.0047105327691848789 0 -0.0010853988188165749 0.0053016345665014529 0 -0.00073518259189362094 0.0056956142801019953 0 -0.00035911704388822145 0.0051298671181436552 0 -0.00042459834325163159 0.0068631379445575095 0 -0.00010890613339311917 0.0046979947800010174 0 -0.00073518259189362094 0.0056956142801019953 0 -0.00080094619711247367 0.0060714884308742398 0 -0.00043450281071224172 0.0061875792391839395 0 -0.00073518259189362094 0.0056956142801019953 0 -0.00080094619711247367 0.0060714884308742398 0 -0.0012252080700265032 0.0059755856342702555 0 -0.0010853988188165749 0.0053016345665014529 0 -0.00073518259189362094 0.0056956142801019953 0 -0.0012252080700265032 0.0059755856342702555 0 -0.00030756252919351127 0.0085799355535856481 0 -0.0003210556473233522 0.0086568541851361307 0 -0.00034068774057942444 0.008625152921042295 0 -0.00042459834325163159 0.0068631379445575095 0 -0.00080625836705044474 0.0073343700794940101 0 -0.0012252080700265032 0.0059755856342702555 0 -0.00089469029998527421 0.0064395161310403766 0 -0.0013565080875871933 0.0066938096114500063 0 -0.00080625836705044474 0.0073343700794940101 0 -0.00075945768149027768 0.0077362384236355384 0 -0.0003210556473233522 0.0086568541851361307 0 -0.00033570357084767102 0.0087220991713557391 0 -0.00036157541002679609 0.0086980748632222906 0 -0.00080094619711247367 0.0060714884308742398 0 -0.0012252080700265032 0.0059755856342702555 0 -0.00089469029998527421 0.0064395161310403766 0 -0.00096613291826339748 0.0065052279188325211 0 -0.00075945768149027768 0.0077362384236355384 0 -0.00096613291826339748 0.0065052279188325211 0 -0.0004815827153298722 0.0062238958320981752 0 -0.00080094619711247367 0.0060714884308742398 0 -0.00089469029998527421 0.0064395161310403766 0 -0.00043450281071224172 0.0061875792391839395 0 -0.0010074292481961156 0.0065432040730266667 0 -0.00060394759543206267 0.0066440353887769477 0 -0.00095186035290013664 0.0068960051273334929 0 -0.0010074292481961156 0.0065432040730266667 0 -0.00060394759543206267 0.0066440353887769477 0 -0.00043450281071224172 0.0061875792391839395 0 -3.4729943735555204e-05 0.007299492833270498 0 -4.4552586821097103e-05 0.0073557956248594533 0 -0.00018901040060487621 0.0068787391283476485 0 -0.00060394759543206267 0.0066440353887769477 0 -0.00095186035290013664 0.0068960051273334929 0 -0.00018901040060487621 0.0068787391283476485 0 -0.00053562276407289396 0.007072359250461892 0 -0.00016628556542819736 0.0069490845527974011 0 -3.4729943735555204e-05 0.007299492833270498 0 -7.5622638218308906e-05 0.0074624244767625319 0 -4.4552586821097103e-05 0.0073557956248594533 0 -3.4729943735555204e-05 0.007299492833270498 0 -0.0003306977775083443 0.0073242047543641345 0 -7.5622638218308906e-05 0.0074624244767625319 0 -0.00095186035290013664 0.0068960051273334929 0 -0.001594329463421436 0.0068696968653341704 0 -0.0016038441047497767 0.0069250235180724528 0 -0.0010074292481961156 0.0065432040730266667 0 -0.00095186035290013664 0.0068960051273334929 0 -0.001594329463421436 0.0068696968653341704 0 -0.000102522370689393 0.0088852114433944258 0 -6.1884522598756715e-05 0.008884536030148469 0 -1.1567741141790678e-07 0.0084990982298415209 0 -0.00053562276407289396 0.007072359250461892 0 -0.00062883030857392697 0.0078376845792502616 0 -0.00075945768149027768 0.0077362384236355384 0 -0.00062883030857392697 0.0078376845792502616 0 -0.00062883030857392697 0.0078376845792502616 0 -0.00047974116951662854 0.008134424777404994 0 -0.00066498768858976823 0.0079579123475562192 0 -0.00065957486995204726 0.0079288045242338952 0 -0.00060463065293001376 0.0079271103538329328 0 -0.00075945768149027768 0.0077362384236355384 0 -0.00047974116951662854 0.008134424777404994 0 -0.0003306977775083443 0.0073242047543641345 0 -7.5622638218308906e-05 0.0074624244767625319 0 -3.3173098714748245e-05 0.0077816701037430446 0 -0.00062883030857392697 0.0078376845792502616 0 9.7395826162785543e-08 0.0084980593057866326 0 -0.0003306977775083443 0.0073242047543641345 0 -3.3173098714748245e-05 0.0077816701037430446 0 -9.3316840658125018e-07 0.0084965392798607587 0 -3.3173098714748245e-05 0.0077816701037430446 0 1.5915765296442593e-07 0.0076658767090935663 0 -9.3316840658125018e-07 0.0084965392798607587 0 1.5915765296442593e-07 0.0076658767090935663 0 -4.4552586821097103e-05 0.0073557956248594533 0 -8.1606849410310037e-05 0.0070942245368995236 0 -3.3173098714748245e-05 0.0077816701037430446 0 1.5915765296442593e-07 0.0076658767090935663 0 -4.4552586821097103e-05 0.0073557956248594533 0 -7.5622638218308906e-05 0.0074624244767625319 0 -3.3173098714748245e-05 0.0077816701037430446 0 -4.4552586821097103e-05 0.0073557956248594533 0 -0.00033802259955981781 0.0093220707313177963 0 -0.0002071572992964255 0.0096692020414080593 0 -0.0011124836048998171 0.010177932992661237 0 -8.8864416367008425e-05 0.0096437405152085386 0 -0.00026843203625122347 0.010040005835942604 0 -1.8508039614386613e-05 0.0092223496028797924 0 3.2059367930278263e-06 0.0090299341540557489 0 -8.8864416367008425e-05 0.0096437405152085386 0 -1.8508039614386613e-05 0.0092223496028797924 0 6.6278155027572585e-06 0.0087783776010641225 0 -2.5370590117050246e-07 0.0093942965996298734 0 -1.8508039614386613e-05 0.0092223496028797924 0 6.6278155027572585e-06 0.0087783776010641225 0 3.2059367930278263e-06 0.0090299341540557489 0 -1.8508039614386613e-05 0.0092223496028797924 0 -8.8864416367008425e-05 0.0096437405152085386 0 -2.5370590117050246e-07 0.0093942965996298734 0 6.6278155027572585e-06 0.0087783776010641225 0 -1.1567741141790678e-07 0.0084990982298415209 0 -2.5370590117050246e-07 0.0093942965996298734 0 -6.1884522598756715e-05 0.008884536030148469 0 6.6278155027572585e-06 0.0087783776010641225 0 -1.1567741141790678e-07 0.0084990982298415209 0 -6.1884522598756715e-05 0.008884536030148469 0 6.6278155027572585e-06 0.0087783776010641225 0 1.9728044869628126e-05 0.008849107823732166 0 -5.8323039243646172e-05 0.0087438368707472187 0 -0.00033802259955981781 0.0093220707313177963 0 -0.00047974116951662854 0.008134424777404994 0 -0.00036888732182557198 0.0094850133921902981 0 -0.00034345347114316248 0.0087271974126176752 0 -0.00039021527437731982 0.0087357122085779983 0 -0.00036157541002679609 0.0086980748632222906 0 -0.00032119955035081509 0.0088827145011764683 0 -0.00045441473863523386 0.0089593884731552359 0 -0.00047286638928460884 0.0088953220071714464 0 -0.00047974116951662854 0.008134424777404994 0 -0.00033802259955981781 0.0093220707313177963 0 -0.00033570357084767102 0.0087220991713557391 0 -0.00034345347114316248 0.0087271974126176752 0 -0.00036157541002679609 0.0086980748632222906 0 -0.0011124836048998171 0.010177932992661237 0 -0.00071653092615182228 0.010271506824055896 0 -0.00026843203625122347 0.010040005835942604 0 -0.00097493356474620335 0.010512397941195933 0 -0.00049580723540049122 0.010338445246466583 0 -2.8732326635468993e-05 0.010433248327435559 0 -4.8749221544806342e-05 0.010173741532840537 0 -0.00036665774943349177 0.0099568160348586978 0 -0.00067355000883021843 0.010206269831362564 0 -0.00036888732182557198 0.0094850133921902981 0 -0.00071932974849859307 0.010619044348053549 0 -0.00097493356474620335 0.010512397941195933 0 -0.00071653092615182228 0.010271506824055896 0 -0.00049580723540049122 0.010338445246466583 0 -0.0011124836048998171 0.010177932992661237 0 -0.00097493356474620335 0.010512397941195933 0 -0.00071653092615182228 0.010271506824055896 0 -0.00033802259955981781 0.0093220707313177963 0 -0.00036888732182557198 0.0094850133921902981 0 -0.00071653092615182228 0.010271506824055896 0 -0.00049580723540049122 0.010338445246466583 0 -0.00026843203625122347 0.010040005835942604 0 -4.8749221544806342e-05 0.010173741532840537 0 -0.00036665774943349177 0.0099568160348586978 0 -0.00020017064065228727 0.0096328212636786342 0 -0.00036888732182557198 0.0094850133921902981 0 -0.00029598990226559522 0.0091590907787884313 0 -0.00036665774943349177 0.0099568160348586978 0 -0.00020017064065228727 0.0096328212636786342 0 -0.00048290718000769937 0.0097929702887849385 0 -0.00039021527437731982 0.0087357122085779983 0 -0.00040787169862375799 0.0086854310755871481 0 -0.00036157541002679609 0.0086980748632222906 0 -0.00040787169862375799 0.0086854310755871481 0 -0.00036157541002679609 0.0086980748632222906 0 -0.00037129069771186959 0.0086579907472208294 0 -0.0003210556473233522 0.0086568541851361307 0 -0.00036157541002679609 0.0086980748632222906 0 -0.00037129069771186959 0.0086579907472208294 0 -0.0003210556473233522 0.0086568541851361307 0 -0.00037129069771186959 0.0086579907472208294 0 -0.00034068774057942444 0.008625152921042295 0 -0.00037310526432294465 0.0086213784811945866 0 -0.00037129069771186959 0.0086579907472208294 0 -0.00034068774057942444 0.008625152921042295 0 -0.00044035169329855513 0.008640786076083316 0 -0.00040787169862375799 0.0086854310755871481 0 -0.00037129069771186959 0.0086579907472208294 0 -0.00044035169329855513 0.008640786076083316 0 -0.00037310526432294465 0.0086213784811945866 0 -0.00037129069771186959 0.0086579907472208294 0 -0.00034552007562065664 0.0090852388397092351 0 -0.00020017064065228727 0.0096328212636786342 0 -0.0006918074549675889 0.0093761671992188753 0 -0.00040254417751079769 0.0088572666080892638 0 -0.00029598990226559522 0.0091590907787884313 0 -0.0010842177507416821 0.012517263493743247 0 -0.00071918925050719644 0.012708931726715608 0 -0.0010661075202611106 0.012984652073504667 0 -0.0010842177507416821 0.012517263493743247 0 -0.0010661075202611106 0.012984652073504667 0 -0.0012696764246814545 0.012772780578451338 0 -0.0016061345928588969 0.0124762674292119 0 -0.0010842177507416821 0.012517263493743247 0 -0.0012696764246814545 0.012772780578451338 0 -0.0016061345928588969 0.0124762674292119 0 -0.0010842177507416821 0.012517263493743247 0 -0.0011015846629055161 0.011857389365011203 0 -0.0010842177507416821 0.012517263493743247 0 -0.00065869002828932192 0.012104701697895784 0 -0.00071918925050719644 0.012708931726715608 0 -0.0010842177507416821 0.012517263493743247 0 -0.0011015846629055161 0.011857389365011203 0 -0.00065869002828932192 0.012104701697895784 0 -0.0011015846629055161 0.011857389365011203 0 -0.00040224846803104606 0.010917058823544845 0 -0.00065869002828932192 0.012104701697895784 0 -0.00020017064065228727 0.0096328212636786342 0 -0.0006918074549675889 0.0093761671992188753 0 -0.00048290718000769937 0.0097929702887849385 0 -0.0013664182613067396 0.010807926575655451 0 -0.00071932974849859307 0.010619044348053549 0 -0.0016061345928588969 0.0124762674292119 0 -0.0011015846629055161 0.011857389365011203 0 -0.0016987822702366356 0.010997883273525081 0 -0.0006918074549675889 0.0093761671992188753 0 -0.00048290718000769937 0.0097929702887849385 0 -0.00067355000883021843 0.010206269831362564 0 -0.00036665774943349177 0.0099568160348586978 0 -0.00048290718000769937 0.0097929702887849385 0 -0.00067355000883021843 0.010206269831362564 0 -0.00049580723540049122 0.010338445246466583 0 -0.00021468085790943609 0.010253262243903907 0 -2.8732326635468993e-05 0.010433248327435559 0 -0.00021468085790943609 0.010253262243903907 0 -0.00010235645912286975 0.010226596422306489 0 -2.8732326635468993e-05 0.010433248327435559 0 -0.00021468085790943609 0.010253262243903907 0 -0.00010235645912286975 0.010226596422306489 0 -0.00026843203625122347 0.010040005835942604 0 -0.00049580723540049122 0.010338445246466583 0 -0.00021468085790943609 0.010253262243903907 0 -0.00026843203625122347 0.010040005835942604 0 -0.00010235645912286975 0.010226596422306489 0 -0.00017831414587549718 0.010386166609201452 0 -8.6518587350160845e-05 0.010090877407087924 0 -0.00010235645912286975 0.010226596422306489 0 -0.00010722566952226977 0.010200227494956247 0 -0.00017831414587549718 0.010386166609201452 0 -0.00052654799751574138 0.010358714511044066 0 -0.00071932974849859307 0.010619044348053549 0 -0.00071932974849859307 0.010619044348053549 0 -0.00045339019391773291 0.010832152742929762 0 -0.00010722566952226977 0.010200227494956247 0 -0.00040224846803104606 0.010917058823544845 0 -0.00017831414587549718 0.010386166609201452 0 -0.0011015846629055161 0.011857389365011203 0 -0.0016987822702366356 0.010997883273525081 0 -0.00040224846803104606 0.010917058823544845 0 -0.00040224846803104606 0.010917058823544845 0 -0.00017831414587549718 0.010386166609201452 0 -7.7627272836298822e-05 0.01016127515288673 0 -0.00040224846803104606 0.010917058823544845 0 -4.2288868031330142e-07 0.01029132319171271 0 -7.7627272836298822e-05 0.01016127515288673 0 -4.2288868031330142e-07 0.01029132319171271 0 -7.7627272836298822e-05 0.01016127515288673 0 -2.5370590117050246e-07 0.0093942965996298734 0 -7.7627272836298822e-05 0.01016127515288673 0 -8.8864416367008425e-05 0.0096437405152085386 0 -2.5370590117050246e-07 0.0093942965996298734 0 -0.00010235645912286975 0.010226596422306489 0 -0.00026843203625122347 0.010040005835942604 0 -8.6518587350160845e-05 0.010090877407087924 0 -8.8864416367008425e-05 0.0096437405152085386 0 -0.00026843203625122347 0.010040005835942604 0 -8.6518587350160845e-05 0.010090877407087924 0 -0.00017831414587549718 0.010386166609201452 0 -7.7627272836298822e-05 0.01016127515288673 0 -8.6518587350160845e-05 0.010090877407087924 0 -7.7627272836298822e-05 0.01016127515288673 0 -8.8864416367008425e-05 0.0096437405152085386 0 -8.6518587350160845e-05 0.010090877407087924 0 2.8704909481819181e-07 0.011186867091338613 0 -5.6664117919410657e-05 0.01091281624946493 0 8.796149092404597e-05 0.011452509716086266 0 -0.00040224846803104606 0.010917058823544845 0 -4.2288868031330142e-07 0.01029132319171271 0 -5.6664117919410657e-05 0.01091281624946493 0 -4.2288868031330142e-07 0.01029132319171271 0 2.8704909481819181e-07 0.011186867091338613 0 -5.6664117919410657e-05 0.01091281624946493 0 -0.00040224846803104606 0.010917058823544845 0 -3.369128642445572e-05 0.0115215777232922 0 -0.00027036149247512497 0.011786181371018108 0 -0.00040224846803104606 0.010917058823544845 0 -5.6664117919410657e-05 0.01091281624946493 0 -3.369128642445572e-05 0.0115215777232922 0 -5.6664117919410657e-05 0.01091281624946493 0 -3.369128642445572e-05 0.0115215777232922 0 8.796149092404597e-05 0.011452509716086266 0 -3.369128642445572e-05 0.0115215777232922 0 -0.00013688049433555367 0.012316211278402942 0 0.00013099089358390841 0.011822655580982345 0 -3.369128642445572e-05 0.0115215777232922 0 -0.00027036149247512497 0.011786181371018108 0 -0.00013688049433555367 0.012316211278402942 0 -0.00040224846803104606 0.010917058823544845 0 -0.00027036149247512497 0.011786181371018108 0 -0.00065869002828932192 0.012104701697895784 0 -0.00027036149247512497 0.011786181371018108 0 -0.00065869002828932192 0.012104701697895784 0 -0.00013688049433555367 0.012316211278402942 0 -0.00071918925050719644 0.012708931726715608 0 -0.00013688049433555367 0.012316211278402942 0 -0.00043446027550874165 0.01298901262978192 0 -0.00065869002828932192 0.012104701697895784 0 -0.00071918925050719644 0.012708931726715608 0 -0.00013688049433555367 0.012316211278402942 0 -0.00013688049433555367 0.012316211278402942 0 -0.00013332341716485038 0.012976748281042455 0 -0.00043446027550874165 0.01298901262978192 0 -0.00013332341716485038 0.012976748281042455 0 -0.00039145526132655119 0.013537689411970904 0 4.1352838836098855e-05 0.01343279613163028 0 -0.00013332341716485038 0.012976748281042455 0 -0.00039145526132655119 0.013537689411970904 0 -0.00043446027550874165 0.01298901262978192 0 -0.00039145526132655119 0.013537689411970904 0 -0.00010327517095058427 0.013839483032632088 0 4.1352838836098855e-05 0.01343279613163028 0 -0.00039145526132655119 0.013537689411970904 0 -0.00077718083560253674 0.01323452437637318 0 -0.00089640847952287672 0.013688815088206361 0 -0.00039145526132655119 0.013537689411970904 0 -0.00089640847952287672 0.013688815088206361 0 -0.00060597741739984077 0.013874971223041151 0 -0.00039145526132655119 0.013537689411970904 0 -0.00077718083560253674 0.01323452437637318 0 -0.00043446027550874165 0.01298901262978192 0 -0.00071918925050719644 0.012708931726715608 0 -0.00077718083560253674 0.01323452437637318 0 -0.00043446027550874165 0.01298901262978192 0 -0.00071918925050719644 0.012708931726715608 0 -0.00077718083560253674 0.01323452437637318 0 -0.0010661075202611106 0.012984652073504667 0 -0.0010661075202611106 0.012984652073504667 0 -0.0012696764246814545 0.012772780578451338 0 -0.0013306531461349201 0.013093511506738043 0 -0.0010661075202611106 0.012984652073504667 0 -0.0013306531461349201 0.013093511506738043 0 -0.0011141353487177342 0.013358606422896843 0 -0.0013306531461349201 0.013093511506738043 0 -0.0013014027894472358 0.013403719494693484 0 -0.0011141353487177342 0.013358606422896843 0 -0.00077718083560253674 0.01323452437637318 0 -0.0010661075202611106 0.012984652073504667 0 -0.0011141353487177342 0.013358606422896843 0 -0.0013664182613067396 0.010807926575655451 0 7.7812409373567021e-05 0.011493431553382812 0 -0.00034552007562065664 0.0090852388397092351 0 -0.00056194807638832941 0.0088360542131915455 0 -0.00053039116889454837 0.0085756638099775111 0 -0.0006918074549675889 0.0093761671992188753 0 -0.00056194807638832941 0.0088360542131915455 0 -0.00061497307899960872 0.0085969480792137693 0 -0.0016061345928588969 0.0124762674292119 0 -0.0013306531461349201 0.013093511506738043 0 -0.0015100299293560114 0.01344160998356092 0 -0.0016061345928588969 0.0124762674292119 0 -0.0012696764246814545 0.012772780578451338 0 -0.0013306531461349201 0.013093511506738043 0 -0.00040254417751079769 0.0088572666080892638 0 -0.00050896387388555038 0.0085968756069443979 0 -0.00034552007562065664 0.0090852388397092351 0 -0.0006918074549675889 0.0093761671992188753 0 -0.00056194807638832941 0.0088360542131915455 0 0.0010277425014264465 0.011895860496290498 0 0.0013392446535424019 0.011730991731398398 0 0.0012152647064121818 0.011873495484414725 0 -0.00039554604665913151 0.00846076559885643 0 -0.00053039116889454837 0.0085756638099775111 0 -0.00061497307899960872 0.0085969480792137693 0 -0.00056194807638832941 0.0088360542131915455 0 -0.00053039116889454837 0.0085756638099775111 0 -0.00061497307899960872 0.0085969480792137693 0 -0.0015100299293560114 0.01344160998356092 0 -0.0013014027894472358 0.013403719494693484 0 -0.0012264639626945223 0.013592435188151666 0 -0.0013306531461349201 0.013093511506738043 0 -0.0015100299293560114 0.01344160998356092 0 -0.0013014027894472358 0.013403719494693484 0 -0.00077718083560253674 0.01323452437637318 0 -0.0011141353487177342 0.013358606422896843 0 -0.00089640847952287672 0.013688815088206361 0 -0.0013014027894472358 0.013403719494693484 0 -0.0011141353487177342 0.013358606422896843 0 -0.0012264639626945223 0.013592435188151666 0 -0.0015100299293560114 0.01344160998356092 0 -0.0012264639626945223 0.013592435188151666 0 -0.0012320313705595368 0.013872727203183905 0 -0.0012264639626945223 0.013592435188151666 0 -0.00089640847952287672 0.013688815088206361 0 -0.0012320313705595368 0.013872727203183905 0 -0.0011141353487177342 0.013358606422896843 0 -0.0012264639626945223 0.013592435188151666 0 -0.00089640847952287672 0.013688815088206361 0 -0.0012320313705595368 0.013872727203183905 0 -0.0014163450811693604 0.014289581275318821 0 -0.00084125671336947815 0.014177231935564029 0 -0.00089640847952287672 0.013688815088206361 0 -0.0012320313705595368 0.013872727203183905 0 -0.00084125671336947815 0.014177231935564029 0 -0.0015100299293560114 0.01344160998356092 0 -0.0012320313705595368 0.013872727203183905 0 -0.0014163450811693604 0.014289581275318821 0 0.0013392446535424019 0.011730991731398398 0 0.0012152647064121818 0.011873495484414725 0 0.0013736785226562099 0.012237443651788539 0 0.001161250352121628 0.012120357485084781 0 0.0012152647064121818 0.011873495484414725 0 0.0013736785226562099 0.012237443651788539 0 7.7812409373567021e-05 0.011493431553382812 0 0.00033091669424081631 0.013372123007284515 0 0.00033091669424081631 0.013372123007284515 0 -0.00063666634192685568 0.014328282249433557 0 3.1721585029055348e-05 0.014291588507835401 0 3.5144114221565645e-05 0.01428545016901204 0 2.2624692607627364e-05 0.014286060130783455 0 3.1721585029055348e-05 0.014291588507835401 0 3.2915990765756715e-05 0.014299400712281456 0 2.2624692607627364e-05 0.014286060130783455 0 3.2915990765756715e-05 0.014299400712281456 0 4.2231312500360837e-05 0.014246549139849993 0 2.2624692607627364e-05 0.014286060130783455 0 5.5009942863501997e-05 0.014332393478798808 0 3.2915990765756715e-05 0.014299400712281456 0 9.4714751118790241e-05 0.014288504450504625 0 3.2915990765756715e-05 0.014299400712281456 0 4.2231312500360837e-05 0.014246549139849993 0 9.4714751118790241e-05 0.014288504450504625 0 -0.00039145526132655119 0.013537689411970904 0 -0.00029728358686074508 0.01409087737402607 0 -0.00010327517095058427 0.013839483032632088 0 -0.00039145526132655119 0.013537689411970904 0 -0.00029728358686074508 0.01409087737402607 0 -0.00060597741739984077 0.013874971223041151 0 -0.00029728358686074508 0.01409087737402607 0 -0.00060597741739984077 0.013874971223041151 0 -0.00084125671336947815 0.014177231935564029 0 -0.00089640847952287672 0.013688815088206361 0 -0.00060597741739984077 0.013874971223041151 0 -0.00084125671336947815 0.014177231935564029 0 -6.4357491611476036e-05 0.014154604694422248 0 -0.00063666634192685568 0.014328282249433557 0 0.0001705906882688376 0.014120477734610944 0 0.00040022767241539096 0.014350046956581484 0 0.0004791650132065038 0.014174998488492361 0 0.0001705906882688376 0.014120477734610944 0 0.0004791650132065038 0.014174998488492361 0 0.00030003771664695132 0.013843810426210204 0 0.0001705906882688376 0.014120477734610944 0 0.00026833838669537274 0.014364964005615492 0 0.00040022767241539096 0.014350046956581484 0 -0.00029728358686074508 0.01409087737402607 0 0.0001705906882688376 0.014120477734610944 0 -0.00010327517095058427 0.013839483032632088 0 -6.4357491611476036e-05 0.014154604694422248 0 0.00014097722710095759 0.01412384018487208 0 4.2231312500360837e-05 0.014246549139849993 0 0.0001705906882688376 0.014120477734610944 0 9.4714751118790241e-05 0.014288504450504625 0 0.0001705906882688376 0.014120477734610944 0 0.00030003771664695132 0.013843810426210204 0 -0.00010327517095058427 0.013839483032632088 0 0.00022017969174621658 0.014392684762784269 0 0.00026579622111106381 0.014366443414600147 0 0.0001705906882688376 0.014120477734610944 0 9.4714751118790241e-05 0.014288504450504625 0 0.00026833838669537274 0.014364964005615492 0 5.5009942863501997e-05 0.014332393478798808 0 9.4714751118790241e-05 0.014288504450504625 0 0.00026833838669537274 0.014364964005615492 0 0.00031586659288121834 0.014496236387856399 0 0.00026833838669537274 0.014364964005615492 0 0.0003519681354268385 0.01445715638717229 0 0.00026833838669537274 0.014364964005615492 0 0.0003519681354268385 0.01445715638717229 0 0.00040022767241539096 0.014350046956581484 0 0.0003519681354268385 0.01445715638717229 0 0.00040022767241539096 0.014350046956581484 0 0.00041315777720889516 0.014502665934478484 0 0.00040022767241539096 0.014350046956581484 0 0.00041315777720889516 0.014502665934478484 0 0.00052639468422646283 0.014385769902666412 0 0.00032688553247986674 0.01462193026800741 0 0.00041315777720889516 0.014502665934478484 0 0.0004167024235438922 0.014535918132854819 0 0.00041315777720889516 0.014502665934478484 0 0.00052639468422646283 0.014385769902666412 0 0.0004167024235438922 0.014535918132854819 0 0.00052639468422646283 0.014385769902666412 0 0.0004791650132065038 0.014174998488492361 0 0.00074398942809607857 0.014262623728554165 0 0.00040022767241539096 0.014350046956581484 0 0.00052639468422646283 0.014385769902666412 0 0.0004791650132065038 0.014174998488492361 0 0.0004791650132065038 0.014174998488492361 0 0.00051377659546137267 0.013809698380254691 0 0.00074398942809607857 0.014262623728554165 0 0.0004791650132065038 0.014174998488492361 0 0.00051377659546137267 0.013809698380254691 0 0.00030003771664695132 0.013843810426210204 0 0.00052639468422646283 0.014385769902666412 0 0.00074398942809607857 0.014262623728554165 0 0.00047149942671365953 0.014480630114270858 0 0.0007813220802587701 0.014208919684118413 0 0.00087312467657937518 0.013924890154906885 0 0.00074398942809607857 0.014262623728554165 0 0.00066388406211050099 0.0132674970797608 0 0.0012205775260325784 0.013061784489679791 0 0.00051377659546137267 0.013809698380254691 0 0.00074398942809607857 0.014262623728554165 0 0.00066388406211050099 0.0132674970797608 0 0.00051377659546137267 0.013809698380254691 0 0.00066388406211050099 0.0132674970797608 0 0.00034495630504792046 0.01337757988040646 0 0.00066388406211050099 0.0132674970797608 0 0.00034495630504792046 0.01337757988040646 0 0.00041658879080463241 0.012858322254297845 0 0.00034495630504792046 0.01337757988040646 0 0.00012964320250618216 0.012874296434884554 0 0.00041658879080463241 0.012858322254297845 0 0.00051377659546137267 0.013809698380254691 0 0.00034495630504792046 0.01337757988040646 0 0.00030003771664695132 0.013843810426210204 0 0.00034495630504792046 0.01337757988040646 0 0.00030003771664695132 0.013843810426210204 0 4.1352838836098855e-05 0.01343279613163028 0 0.00030003771664695132 0.013843810426210204 0 -0.00010327517095058427 0.013839483032632088 0 4.1352838836098855e-05 0.01343279613163028 0 -0.00013332341716485038 0.012976748281042455 0 4.1352838836098855e-05 0.01343279613163028 0 0.00012964320250618216 0.012874296434884554 0 0.00034495630504792046 0.01337757988040646 0 4.1352838836098855e-05 0.01343279613163028 0 0.00012964320250618216 0.012874296434884554 0 -0.00013688049433555367 0.012316211278402942 0 -0.00013332341716485038 0.012976748281042455 0 0.00012964320250618216 0.012874296434884554 0 -0.00013688049433555367 0.012316211278402942 0 0.00012964320250618216 0.012874296434884554 0 0.00024801646832436452 0.012304728096355931 0 0.00012964320250618216 0.012874296434884554 0 0.00041658879080463241 0.012858322254297845 0 0.00024801646832436452 0.012304728096355931 0 0.00041658879080463241 0.012858322254297845 0 0.00024801646832436452 0.012304728096355931 0 0.00071015430697425077 0.012480554083762113 0 0.00024801646832436452 0.012304728096355931 0 0.0002835087420714218 0.011783063665163535 0 0.00050845211250388626 0.012049095914717596 0 0.00024801646832436452 0.012304728096355931 0 0.00050845211250388626 0.012049095914717596 0 0.00071015430697425077 0.012480554083762113 0 -0.00013688049433555367 0.012316211278402942 0 0.00024801646832436452 0.012304728096355931 0 0.00013099089358390841 0.011822655580982345 0 0.00024801646832436452 0.012304728096355931 0 0.00013099089358390841 0.011822655580982345 0 0.0002835087420714218 0.011783063665163535 0 -3.369128642445572e-05 0.0115215777232922 0 0.00013099089358390841 0.011822655580982345 0 8.796149092404597e-05 0.011452509716086266 0 0.0002835087420714218 0.011783063665163535 0 0.00024091800864608354 0.011589658208006098 0 8.796149092404597e-05 0.011452509716086266 0 0.00013099089358390841 0.011822655580982345 0 0.0002835087420714218 0.011783063665163535 0 8.796149092404597e-05 0.011452509716086266 0 0.0002835087420714218 0.011783063665163535 0 0.00050845211250388626 0.012049095914717596 0 0.00048550452680855196 0.011718212501543033 0 0.0002835087420714218 0.011783063665163535 0 0.00048550452680855196 0.011718212501543033 0 0.00024091800864608354 0.011589658208006098 0 0.00024091800864608354 0.011589658208006098 0 1.3215855951148127e-05 0.011556262313038163 0 0.00058323620181692504 0.011406510618157423 0 8.1419282979152564e-08 0.012083784429832272 0 1.3215855951148127e-05 0.011556262313038163 0 6.6527666626729554e-06 0.012340270769696867 0 6.6264030967178543e-05 0.011642127550117507 0 0.0003889210671363204 0.011784016298741366 0 0.00048550452680855196 0.011718212501543033 0 0.00024091800864608354 0.011589658208006098 0 0.00058323620181692504 0.011406510618157423 0 2.8704909481819181e-07 0.011186867091338613 0 8.1419282979152564e-08 0.012083784429832272 0 1.3215855951148127e-05 0.011556262313038163 0 2.8704909481819181e-07 0.011186867091338613 0 1.3215855951148127e-05 0.011556262313038163 0 8.796149092404597e-05 0.011452509716086266 0 0.00024091800864608354 0.011589658208006098 0 1.3215855951148127e-05 0.011556262313038163 0 8.796149092404597e-05 0.011452509716086266 0 -1.2681433170799786e-05 0.012852350708571641 0 -7.0591831318165093e-08 0.012979329746107273 0 6.6527666626729554e-06 0.012340270769696867 0 0.00026274658954199672 0.013234052944147041 0 1.6859176273054574e-07 0.012980020888976467 0 8.1419282979152564e-08 0.012083784429832272 0 -7.0591831318165093e-08 0.012979329746107273 0 6.6527666626729554e-06 0.012340270769696867 0 0.0012387437494262572 0.011508879462521741 0 0.00058323620181692504 0.011406510618157423 0 0.00083654516922923236 0.011839156648164715 0 0.00048550452680855196 0.011718212501543033 0 0.00058323620181692504 0.011406510618157423 0 0.00083654516922923236 0.011839156648164715 0 0.00026274658954199672 0.013234052944147041 0 0.0003889210671363204 0.011784016298741366 0 0.00050845211250388626 0.012049095914717596 0 0.00048550452680855196 0.011718212501543033 0 0.00083654516922923236 0.011839156648164715 0 0.0012387437494262572 0.011508879462521741 0 0.00083654516922923236 0.011839156648164715 0 0.0012592811194895943 0.012205777868071137 0 0.00044569988588708605 0.015101774463510685 0 0.00047058924494507631 0.014979880215680362 0 0.00036339533675080891 0.015023369234035425 0 0.00026274658954199672 0.013234052944147041 0 0.00092743639145219988 0.013607831175031448 0 0.00092743639145219988 0.013607831175031448 0 0.00087312467657937518 0.013924890154906885 0 0.0012592811194895943 0.012205777868071137 0 0.00071015430697425077 0.012480554083762113 0 0.0012205775260325784 0.013061784489679791 0 0.00047058924494507631 0.014979880215680362 0 0.00058397751503290061 0.014827054082586182 0 0.0003591132260101553 0.014970929229751554 0 0.00083654516922923236 0.011839156648164715 0 0.0012592811194895943 0.012205777868071137 0 0.00071015430697425077 0.012480554083762113 0 0.00050845211250388626 0.012049095914717596 0 0.00083654516922923236 0.011839156648164715 0 0.00071015430697425077 0.012480554083762113 0 0.00066388406211050099 0.0132674970797608 0 0.00071015430697425077 0.012480554083762113 0 0.0012205775260325784 0.013061784489679791 0 0.00066388406211050099 0.0132674970797608 0 0.00041658879080463241 0.012858322254297845 0 0.00071015430697425077 0.012480554083762113 0 -4.2160618223473607e-07 0.012981753411951538 0 8.382596484576369e-06 0.013979415863082444 0 2.6390540678720462e-07 0.014999285838694011 0 0.00058397751503290061 0.014827054082586182 0 0.00025759865731547906 0.014884385537287185 0 0.0003591132260101553 0.014970929229751554 0 0.00025759865731547906 0.014884385537287185 0 0.00022588136063494976 0.014984983679898634 0 0.00010499059873609759 0.014967209817647603 0 0.00025759865731547906 0.014884385537287185 0 0.00022588136063494976 0.014984983679898634 0 0.0003591132260101553 0.014970929229751554 0 0.00022588136063494976 0.014984983679898634 0 0.0003591132260101553 0.014970929229751554 0 0.00028760983949063031 0.015013734306026144 0 0.00047058924494507631 0.014979880215680362 0 0.0003591132260101553 0.014970929229751554 0 0.00036339533675080891 0.015023369234035425 0 0.00044569988588708605 0.015101774463510685 0 0.00036339533675080891 0.015023369234035425 0 0.00025534254743668651 0.015070937786197879 0 0.0003591132260101553 0.014970929229751554 0 0.00036339533675080891 0.015023369234035425 0 0.00028760983949063031 0.015013734306026144 0 0.00025733120270208084 0.014996866558001103 0 0.00010695189628544278 0.014955032978560386 0 0.00028760983949063031 0.015013734306026144 0 0.00025534254743668651 0.015070937786197879 0 6.3252429607490014e-05 0.014834032553052403 0 0.00022588136063494976 0.014984983679898634 0 0.00028760983949063031 0.015013734306026144 0 0.0001356146627745967 0.015044207831854232 0 0.00036339533675080891 0.015023369234035425 0 0.00028760983949063031 0.015013734306026144 0 0.00025534254743668651 0.015070937786197879 0 0.00026274658954199672 0.013234052944147041 0 0.00017582695124391723 0.014659794730082169 0 -6.7023431467801522e-05 0.013257816415042896 0 -4.2160618223473607e-07 0.012981753411951538 0 8.382596484576369e-06 0.013979415863082444 0 8.382596484576369e-06 0.013979415863082444 0 2.6390540678720462e-07 0.014999285838694011 0 2.5413252415357779e-05 0.014819106807664373 0 2.6390540678720462e-07 0.014999285838694011 0 2.5413252415357779e-05 0.014819106807664373 0 -5.0992846284830104e-08 0.014999801637358028 0 0.00025534254743668651 0.015070937786197879 0 6.3252429607490014e-05 0.014834032553052403 0 2.5413252415357779e-05 0.014819106807664373 0 0.00017582695124391723 0.014659794730082169 0 8.0351252200975832e-05 0.014745442766345715 0 0.00010695189628544278 0.014955032978560386 0 6.049756472021574e-08 0.014999971673649292 0 6.3252429607490014e-05 0.014834032553052403 0 2.5413252415357779e-05 0.014819106807664373 0 -5.0992846284830104e-08 0.014999801637358028 0 0.0001356146627745967 0.015044207831854232 0 5.6905388404696987e-08 0.015000159459854813 0 0.00010499059873609759 0.014967209817647603 0 0.00022588136063494976 0.014984983679898634 0 0.0001356146627745967 0.015044207831854232 0 0.00010499059873609759 0.014967209817647603 0 0.00025759865731547906 0.014884385537287185 0 0.00010499059873609759 0.014967209817647603 0 0.00012623746631433008 0.01485902660626604 0 5.6905388404696987e-08 0.015000159459854813 0 0.00010499059873609759 0.014967209817647603 0 4.3679215993778946e-08 0.014999864904103209 0 0.00010499059873609759 0.014967209817647603 0 4.3679215993778946e-08 0.014999864904103209 0 0.00012623746631433008 0.01485902660626604 0 4.3679215993778946e-08 0.014999864904103209 0 7.2287815619719621e-08 0.014999800166779738 0 0.00012623746631433008 0.01485902660626604 0 7.2287815619719621e-08 0.014999800166779738 0 0.00012623746631433008 0.01485902660626604 0 0.0001010611256017645 0.014864453680851215 0 0.00012623746631433008 0.01485902660626604 0 0.0002705470585407797 0.014671600855598715 0 0.0001010611256017645 0.014864453680851215 0 0.00025759865731547906 0.014884385537287185 0 0.00012623746631433008 0.01485902660626604 0 0.00032795790074599621 0.014663951201433056 0 0.00058397751503290061 0.014827054082586182 0 0.00025759865731547906 0.014884385537287185 0 0.00032795790074599621 0.014663951201433056 0 0.00074398942809607857 0.014262623728554165 0 0.00058397751503290061 0.014827054082586182 0 0.00032795790074599621 0.014663951201433056 0 0.00074398942809607857 0.014262623728554165 0 0.00032795790074599621 0.014663951201433056 0 0.00047149942671365953 0.014480630114270858 0 0.00012623746631433008 0.01485902660626604 0 0.00032795790074599621 0.014663951201433056 0 0.0002705470585407797 0.014671600855598715 0 0.00032795790074599621 0.014663951201433056 0 0.00047149942671365953 0.014480630114270858 0 0.0002705470585407797 0.014671600855598715 0 0.00047149942671365953 0.014480630114270858 0 0.0002705470585407797 0.014671600855598715 0 0.0004167024235438922 0.014535918132854819 0 0.00052639468422646283 0.014385769902666412 0 0.00047149942671365953 0.014480630114270858 0 0.0004167024235438922 0.014535918132854819 0 0.00032688553247986674 0.01462193026800741 0 0.0004167024235438922 0.014535918132854819 0 0.00026163990109039596 0.014691805655952664 0 0.0002705470585407797 0.014671600855598715 0 0.00026163990109039596 0.014691805655952664 0 0.00013420115265439775 0.01483277554652537 0 0.0002705470585407797 0.014671600855598715 0 0.0004167024235438922 0.014535918132854819 0 0.00026163990109039596 0.014691805655952664 0 0.00013420115265439775 0.01483277554652537 0 9.3006256560681119e-08 0.014999772884024281 0 0.0001010611256017645 0.014864453680851215 0 7.2287815619719621e-08 0.014999800166779738 0 9.3006256560681119e-08 0.014999772884024281 0 0.0001010611256017645 0.014864453680851215 0 0.0002705470585407797 0.014671600855598715 0 0.00013420115265439775 0.01483277554652537 0 0.0001010611256017645 0.014864453680851215 0 0.00047999179959119971 0.0014784786038973899 0 5.2657925132679511e-06 0.0018536149851774331 0 0.00032656704187666608 0.0014878857556298805 0 -7.5673411040100047e-05 0.0018344676494482224 0 0.00016905624746649668 0.0020711161765816703 0 0.00059476317444928553 0.0015108141093448683 0 0.00013150985602371619 0.0012763285968004545 0 9.4360916315209566e-05 0.0018628936847258069 0 0.00059476317444928553 0.0015108141093448683 0 0.00013150985602371619 0.0012763285968004545 0 0.00073334525668950867 0.00089272617739838563 0 0.00013150985602371619 0.0012763285968004545 0 -0.00036303809188062685 0.0013839993547002064 0 -0.00021216705589211334 0.0017205848375545744 0 0.00013150985602371619 0.0012763285968004545 0 -0.00036303809188062685 0.0013839993547002064 0 -0.00021646556332639269 0.00081139181824532421 0 0.00017695425877272981 0.0041425937747649666 0 0.00020835972076259899 0.0041232202689689959 0 0.00021202162962394519 0.0041562945848503041 0 0.00017695425877272981 0.0041425937747649666 0 0.000217936617327818 0.0041710371264312438 0 0.00021202162962394519 0.0041562945848503041 0 0.00020835972076259899 0.0041232202689689959 0 0.00016306688877244319 0.0040348918296876013 0 0.0002386092492376876 0.0040496737290839488 0 -0.00036303809188062685 0.0013839993547002064 0 -0.00021216705589211334 0.0017205848375545744 0 -0.00048522215395214064 0.0019237253658345057 0 -9.4458628083582386e-05 0.0027786655381242843 0 -0.00015693178839395856 0.0028906091573626608 0 0.00017695425877272981 0.0041425937747649666 0 0.00020835972076259899 0.0041232202689689959 0 0.00016306688877244319 0.0040348918296876013 0 0.00013150985602371619 0.0012763285968004545 0 -0.00021216705589211334 0.0017205848375545744 0 9.4360916315209566e-05 0.0018628936847258069 0 -0.00038946147646114893 0.0021661744921261028 0 -0.00016330245159926218 0.0022182441008591629 0 -7.5673411040100047e-05 0.0018344676494482224 0 -0.00021216705589211334 0.0017205848375545744 0 -0.00038946147646114893 0.0021661744921261028 0 9.4360916315209566e-05 0.0018628936847258069 0 -0.00036130392803197434 0.0021401560540061457 0 5.2657925132679511e-06 0.0018536149851774331 0 -0.00048522215395214064 0.0019237253658345057 0 -0.00038946147646114893 0.0021661744921261028 0 -0.00056883375883786834 0.0023712809821282098 0 -0.00015693178839395856 0.0028906091573626608 0 -9.6750845943843574e-05 0.0035337468068690299 0 -0.00021216705589211334 0.0017205848375545744 0 -0.00048522215395214064 0.0019237253658345057 0 -0.00038946147646114893 0.0021661744921261028 0 0.00016306688877244319 0.0040348918296876013 0 0.00019257084794329762 0.0038670431498448832 0 0.0002386092492376876 0.0040496737290839488 0 -0.00038946147646114893 0.0021661744921261028 0 -0.00036679869811855943 0.0023379880216411984 0 -0.00056883375883786834 0.0023712809821282098 0 -0.00036679869811855943 0.0023379880216411984 0 -0.00056883375883786834 0.0023712809821282098 0 -0.0003705536263037964 0.0024937002979757783 0 -9.6750845943843574e-05 0.0035337468068690299 0 -0.00014644215524838494 0.003848976460465971 0 -7.9924056400966108e-05 0.0041380675265847875 0 -1.9203387081392867e-05 0.0041173030148044035 0 -0.00010562046557347076 0.0040700322479221883 0 -0.00016330245159926218 0.0022182441008591629 0 -0.00023277920644002094 0.0024318635573698532 0 2.4205524241647176e-05 0.0024323706625892236 0 -0.00038946147646114893 0.0021661744921261028 0 -0.00036679869811855943 0.0023379880216411984 0 -0.00016330245159926218 0.0022182441008591629 0 -0.00036679869811855943 0.0023379880216411984 0 -0.00016330245159926218 0.0022182441008591629 0 -0.00023277920644002094 0.0024318635573698532 0 -0.00036679869811855943 0.0023379880216411984 0 -0.00023277920644002094 0.0024318635573698532 0 -0.0003705536263037964 0.0024937002979757783 0 -0.00016330245159926218 0.0022182441008591629 0 2.4205524241647176e-05 0.0024323706625892236 0 0.00016905624746649668 0.0020711161765816703 0 -0.00016330245159926218 0.0022182441008591629 0 -7.5673411040100047e-05 0.0018344676494482224 0 0.00016905624746649668 0.0020711161765816703 0 0.00032656704187666608 0.0014878857556298805 0 0.00016905624746649668 0.0020711161765816703 0 0.00051278099732785052 0.0019742510475866224 0 2.4205524241647176e-05 0.0024323706625892236 0 0.00016905624746649668 0.0020711161765816703 0 0.00042431255803810828 0.0024739105091629099 0 0.00016905624746649668 0.0020711161765816703 0 0.00051278099732785052 0.0019742510475866224 0 0.00042431255803810828 0.0024739105091629099 0 0.00068850768088981121 0.0022664695109515633 0 0.00051278099732785052 0.0019742510475866224 0 0.00042431255803810828 0.0024739105091629099 0 0.00068850768088981121 0.0022664695109515633 0 0.00099906999275434856 0.0021109841089337169 0 0.00051278099732785052 0.0019742510475866224 0 0.00068850768088981121 0.0022664695109515633 0 0.00099906999275434856 0.0021109841089337169 0 0.00082026735401724516 0.0025385262082031025 0 0.00099906999275434856 0.0021109841089337169 0 0.00051278099732785052 0.0019742510475866224 0 0.00073382730819584845 0.0015066260342186011 0 0.00078708470882078219 0.0013699232418822301 0 0.00075334286967951552 0.0014252273066648914 0 0.00073382730819584845 0.0015066260342186011 0 0.00097265936199534674 0.0017939530818579675 0 0.00071513025338170995 0.001481576224800535 0 0.00073775302686651082 0.0013266136696249895 0 0.00072455992912074871 0.001275318620524099 0 0.00066746158265869131 0.0013230759355882223 0 0.00073775302686651082 0.0013266136696249895 0 0.00073939644928317492 0.0013870252813512499 0 0.00066746158265869131 0.0013230759355882223 0 0.00097265936199534674 0.0017939530818579675 0 0.0004902718258800819 0.0017518878036642423 0 0.00078708470882078219 0.0013699232418822301 0 0.00073775302686651082 0.0013266136696249895 0 0.00073939644928317492 0.0013870252813512499 0 0.00078708470882078219 0.0013699232418822301 0 0.00073775302686651082 0.0013266136696249895 0 0.00076416613105884958 0.0012506145557897052 0 0.00078708470882078219 0.0013699232418822301 0 0.00073939644928317492 0.0013870252813512499 0 0.00075334286967951552 0.0014252273066648914 0 0.00073939644928317492 0.0013870252813512499 0 0.00066746158265869131 0.0013230759355882223 0 0.00073421593980013352 0.0013899893938875384 0 0.00075961150496858441 0.0013885686838653814 0 0.00078944337041738277 0.0013398964515021537 0 0.00073421593980013352 0.0013899893938875384 0 0.00073939644928317492 0.0013870252813512499 0 0.00075961150496858441 0.0013885686838653814 0 0.00073421593980013352 0.0013899893938875384 0 0.00075961150496858441 0.0013885686838653814 0 0.00075334286967951552 0.0014252273066648914 0 0.00075653498936388629 0.0013842874162141394 0 0.00073939644928317492 0.0013870252813512499 0 0.00075961150496858441 0.0013885686838653814 0 0.00075334286967951552 0.0014252273066648914 0 0.00075961150496858441 0.0013885686838653814 0 0.00075653498936388629 0.0013842874162141394 0 0.0007727776526586759 0.0013468634052710806 0 0.00075961150496858441 0.0013885686838653814 0 0.0007727776526586759 0.0013468634052710806 0 0.00078944337041738277 0.0013398964515021537 0 0.00061137354686152841 -0.001845706882709559 0 0.00021779353366087391 -0.0036695874976711181 0 0.00061137354686152841 -0.001845706882709559 0 0.00056847740281378749 0.00017165273953634842 0 0.00036141273491220198 -0.0046745567941838704 0 0.00038898198617952324 -0.0045802115310029264 0 0.00018971688485777487 -0.0047963211498720697 0 0.00032656704187666608 0.0014878857556298805 0 0.00051278099732785052 0.0019742510475866224 0 0.00073382730819584845 0.0015066260342186011 0 0.00075334286967951552 0.0014252273066648914 0 0.00075653498936388629 0.0013842874162141394 0 0.00073382730819584845 0.0015066260342186011 0 0.00075653498936388629 0.0013842874162141394 0 0.00073382730819584845 0.0015066260342186011 0 0.00066459131608641872 0.0013168555180127735 0 0.00047999179959119971 0.0014784786038973899 0 0.00082134695690713202 0.0013835908251254106 0 0.00032656704187666608 0.0014878857556298805 0 0.00073382730819584845 0.0015066260342186011 0 0.00066459131608641872 0.0013168555180127735 0 0.00059476317444928553 0.0015108141093448683 0 0.0010969741027703195 0.0011487147354728091 0 0.00073334525668950867 0.00089272617739838563 0 0.0010969741027703195 0.0011487147354728091 0 0.001257681850419489 0.00062897006929868763 0 0.00073334525668950867 0.00089272617739838563 0 0.00082134695690713202 0.0013835908251254106 0 0.0011927084925005273 4.3151280784331103e-05 0 0.0010969741027703195 0.0011487147354728091 0 0.001257681850419489 0.00062897006929868763 0 0.0016008023299460287 0.00077638948960427796 0 0.00075653498936388629 0.0013842874162141394 0 0.00066459131608641872 0.0013168555180127735 0 0.00075210847570991995 0.0012787230719093253 0 0.0013987937569605285 0.00065562161109910687 0 0.0018684716102806661 0.00083716059640089057 0 0.0018380686142813567 0.0003041482647774831 0 0.0013987937569605285 0.00065562161109910687 0 0.0009173765565995397 0.00047677029794905622 0 0.0014433811248532587 -6.9654207529249503e-05 0 0.0014404426767368487 0.00067380926743029377 0 0.0011927084925005273 4.3151280784331103e-05 0 0.0014404426767368487 0.00067380926743029377 0 0.00093784901481728307 0.00047957923939812713 0 0.001257681850419489 0.00062897006929868763 0 0.0009173765565995397 0.00047677029794905622 0 0.00073334525668950867 0.00089272617739838563 0 0.0012514820639540109 -0.0048810613076036109 0 0.00083517672362615084 -0.0035560015373873161 0 0.00078422747494097216 -0.0063064756293904223 0 0.00082437833993647444 -0.0060158010161770626 0 0.0010295230044775516 -0.0064313957731268233 0 0.00061137354686152841 -0.001845706882709559 0 0.00083517672362615084 -0.0035560015373873161 0 0.0007727776526586759 0.0013468634052710806 0 0.00079094368118213609 0.0013145235277131455 0 0.00077878002309791103 0.001305150034848538 0 0.00083517672362615084 -0.0035560015373873161 0 0.0011097333325857358 -0.0020697350351785346 0 0.0007727776526586759 0.0013468634052710806 0 0.00078944337041738277 0.0013398964515021537 0 0.00079094368118213609 0.0013145235277131455 0 0.0011385976745916281 -0.0036169078300598385 0 0.0011857587646230887 -0.0032014740913803253 0 0.00084082235477829146 -0.0033494796537551757 0 0.0012514820639540109 -0.0048810613076036109 0 0.0011097333325857358 -0.0020697350351785346 0 0.0007727776526586759 0.0013468634052710806 0 0.00077878002309791103 0.001305150034848538 0 0.00075210847570991995 0.0012787230719093253 0 0.00075653498936388629 0.0013842874162141394 0 0.0007727776526586759 0.0013468634052710806 0 0.00075210847570991995 0.0012787230719093253 0 0.0011097333325857358 -0.0020697350351785346 0 0.0011927084925005273 4.3151280784331103e-05 0 0.0015235453511465702 -0.0022460844140939984 0 0.00093707068545865373 -0.0024903066657890878 0 0.0016224728026524313 -0.0030042704729715828 0 0.0018684716102806661 0.00083716059640089057 0 0.0018380686142813567 0.0003041482647774831 0 0.002374858913850158 0.0004527147468786221 0 0.0011927084925005273 4.3151280784331103e-05 0 0.0018952234017776638 -0.0038350301133081048 0 0.0010671665789861303 -0.0064548811714324975 0 0.0013710143856340057 -0.0064651946616743356 0 0.0016587616472860259 -0.0068940383133859794 0 0.0018316804868566496 -0.0025245684912206614 0 0.0015235453511465702 -0.0022460844140939984 0 0.0016224728026524313 -0.0030042704729715828 0 0.0012098301013810716 -0.0061060124504272789 0 0.0010671665789861303 -0.0064548811714324975 0 0.0011890564642823124 -0.0062369328596460034 0 0.0012514820639540109 -0.0048810613076036109 0 0.0018952234017776638 -0.0038350301133081048 0 0.0012159747462666091 -0.0061063526349455759 0 0.0013710143856340057 -0.0064651946616743356 0 0.0011890564642823124 -0.0062369328596460034 0 0.0010671665789861303 -0.0064548811714324975 0 0.0013710143856340057 -0.0064651946616743356 0 0.0011890564642823124 -0.0062369328596460034 0 0.0012514820639540109 -0.0048810613076036109 0 0.0011681412806981218 -0.0054872623021387894 0 0.0024897283277335782 -0.0069868607103952566 0 0.0024876989838899231 -0.007005854418108551 0 0.0024685019901257285 -0.0070225247940443316 0 0.0018952234017776638 -0.0038350301133081048 0 0.0024368687811657784 -0.0034490515710235044 0 0.0024897283277335782 -0.0069868607103952566 0 0.0024876989838899231 -0.007005854418108551 0 0.002521867838896442 -0.0069891441610782437 0 0.0018952234017776638 -0.0038350301133081048 0 0.0021982285816874577 -0.0073490057668098331 0 0.0018380686142813567 0.0003041482647774831 0 0.0021839403413563005 -0.00026811197496417241 0 0.0014433811248532587 -6.9654207529249503e-05 0 0.0018380686142813567 0.0003041482647774831 0 0.002374858913850158 0.0004527147468786221 0 0.0021839403413563005 -0.00026811197496417241 0 0.0022462050971951658 -0.0042477995971305074 0 0.0024368687811657784 -0.0034490515710235044 0 0.002519995315564556 -0.0069614721784122917 0 0.0025898381824891199 -0.0069193871002118318 0 0.002521867838896442 -0.0069891441610782437 0 0.0019947450693444421 -0.0010453750967113805 0 0.0021839403413563005 -0.00026811197496417241 0 0.0015443941251010523 -0.00063839650446096557 0 0.002519995315564556 -0.0069614721784122917 0 0.002521867838896442 -0.0069891441610782437 0 0.0024904125104690286 -0.0069979104106096335 0 0.0024876989838899231 -0.007005854418108551 0 0.002521867838896442 -0.0069891441610782437 0 0.0024904125104690286 -0.0069979104106096335 0 0.002519995315564556 -0.0069614721784122917 0 0.0024904125104690286 -0.0069979104106096335 0 0.0024757091768307662 -0.0069812715827563734 0 0.0024876989838899231 -0.007005854418108551 0 0.0024904125104690286 -0.0069979104106096335 0 0.0024703727581587612 -0.0070151959836737658 0 0.0009173765565995397 0.00047677029794905622 0 0.00093162871289389137 1.0195318893010588e-05 0 0.0014433811248532587 -6.9654207529249503e-05 0 0.0009173765565995397 0.00047677029794905622 0 0.00093162871289389137 1.0195318893010588e-05 0 0.00049820532765270623 0.00013659571444979622 0 0.0013987937569605285 0.00065562161109910687 0 0.0018380686142813567 0.0003041482647774831 0 0.0014433811248532587 -6.9654207529249503e-05 0 0.0014433811248532587 -6.9654207529249503e-05 0 0.0015443941251010523 -0.00063839650446096557 0 0.0008635636479959912 -0.00055678650710490384 0 0.0021839403413563005 -0.00026811197496417241 0 0.0014433811248532587 -6.9654207529249503e-05 0 0.0015443941251010523 -0.00063839650446096557 0 0.00093162871289389137 1.0195318893010588e-05 0 0.0014433811248532587 -6.9654207529249503e-05 0 0.0008635636479959912 -0.00055678650710490384 0 0.00093162871289389137 1.0195318893010588e-05 0 0.0008635636479959912 -0.00055678650710490384 0 0.00049820532765270623 0.00013659571444979622 0 0.00080564013236099981 -0.0003651192560541447 0 0.00049388783664354571 0.00011635848551281786 0 0.00045441730691484297 -6.7602688971739802e-05 0 0.00027686876387777 0.0001035964006238312 0 0.00049820532765270623 0.00013659571444979622 0 0.00063734421799040717 -4.3812947008080129e-05 0 0.00045441730691484297 -6.7602688971739802e-05 0 0.00049820532765270623 0.00013659571444979622 0 0.00015760580388547816 -0.00011209683718159777 0 0.00027686876387777 0.0001035964006238312 0 -3.2071402246066708e-05 0.00027024072346084303 0 0.00045441730691484297 -6.7602688971739802e-05 0 0.00015760580388547816 -0.00011209683718159777 0 0.00027686876387777 0.0001035964006238312 0 0.00027686876387777 0.0001035964006238312 0 0.00024031481360518265 0.00040332147260298626 0 -3.2071402246066708e-05 0.00027024072346084303 0 0.00027686876387777 0.0001035964006238312 0 0.00049820532765270623 0.00013659571444979622 0 0.00024031481360518265 0.00040332147260298626 0 0.00049820532765270623 0.00013659571444979622 0 0.00053719598201931252 0.00051665538731282567 0 0.00024031481360518265 0.00040332147260298626 0 0.00053719598201931252 0.00051665538731282567 0 0.0002961468895836253 0.00075336192709335404 0 0.00073334525668950867 0.00089272617739838563 0 0.0009173765565995397 0.00047677029794905622 0 0.00053719598201931252 0.00051665538731282567 0 0.00073334525668950867 0.00089272617739838563 0 0.0009173765565995397 0.00047677029794905622 0 0.00049820532765270623 0.00013659571444979622 0 0.00053719598201931252 0.00051665538731282567 0 0.00053719598201931252 0.00051665538731282567 0 0.00024031481360518265 0.00040332147260298626 0 0.0002961468895836253 0.00075336192709335404 0 0.00024031481360518265 0.00040332147260298626 0 0.0002961468895836253 0.00075336192709335404 0 -0.00021646556332639269 0.00081139181824532421 0 0.00013150985602371619 0.0012763285968004545 0 0.0002961468895836253 0.00075336192709335404 0 0.00073334525668950867 0.00089272617739838563 0 0.00013150985602371619 0.0012763285968004545 0 0.0002961468895836253 0.00075336192709335404 0 -0.00021646556332639269 0.00081139181824532421 0 0.00022351073272388862 0.0041943924014714263 0 0.00020811250766467285 0.0041907562065380145 0 0.000217936617327818 0.0041710371264312438 0 0.00017695425877272981 0.0041425937747649666 0 0.00020811250766467285 0.0041907562065380145 0 0.000217936617327818 0.0041710371264312438 0 -9.4458628083582386e-05 0.0027786655381242843 0 1.4784093413407444e-06 0.0024941446875170309 0 1.4784093413407444e-06 0.0024941446875170309 0 9.7144961336246668e-05 0.0022363251684436973 0 0.00020811250766467285 0.0041907562065380145 0 0.00023276095062054939 0.0041954237631497641 0 0.00026217469643110365 0.0041795314184457149 0 0.00024031481360518265 0.00040332147260298626 0 -0.00021646556332639269 0.00081139181824532421 0 -3.2071402246066708e-05 0.00027024072346084303 0 0.00022351073272388862 0.0041943924014714263 0 0.00020811250766467285 0.0041907562065380145 0 0.0002285969515193376 0.0042118316395269853 0 0.00020811250766467285 0.0041907562065380145 0 0.0002285969515193376 0.0042118316395269853 0 0.00023276095062054939 0.0041954237631497641 0 0.00022351073272388862 0.0041943924014714263 0 0.0002285969515193376 0.0042118316395269853 0 0.00023566104144485053 0.0042054450961845312 0 0.00028747344391596654 0.0044207917031953052 0 0.00037987051823976201 0.0042189952373364696 0 0.0002285969515193376 0.0042118316395269853 0 0.00023276095062054939 0.0041954237631497641 0 0.00023963179348157761 0.0042244168548701303 0 0.00023276095062054939 0.0041954237631497641 0 0.00022853600117116844 0.0041482923732123226 0 0.00023963179348157761 0.0042244168548701303 0 0.00056468097886735633 0.0042289601978202042 0 0.00047786865695730605 0.0042120193770334696 0 0.00044108242876263681 0.0042918546050280115 0 0.00023276095062054939 0.0041954237631497641 0 0.00026217469643110365 0.0041795314184457149 0 0.00022853600117116844 0.0041482923732123226 0 0.00038345587048774579 0.0019624247233137196 0 0.00028747344391596654 0.0044207917031953052 0 0.00053979292851272286 0.0041531089920124487 0 0.00067723254823991174 0.0041451088550834196 0 0.00056468097886735633 0.0042289601978202042 0 0.00030463290739764757 0.0040622877868190998 0 0.00026217469643110365 0.0041795314184457149 0 0.00022853600117116844 0.0041482923732123226 0 0.00038345587048774579 0.0019624247233137196 0 9.7144961336246668e-05 0.0022363251684436973 0 0.00044201251279299674 0.0041497588876922443 0 0.00053979292851272286 0.0041531089920124487 0 0.00047786865695730605 0.0042120193770334696 0 0.00053979292851272286 0.0041531089920124487 0 0.00056468097886735633 0.0042289601978202042 0 0.00047786865695730605 0.0042120193770334696 0 0.00044201251279299674 0.0041497588876922443 0 0.00039853024997841288 0.0042238543857163633 0 0.00035949393494477471 0.0041850845589719568 0 0.00044201251279299674 0.0041497588876922443 0 0.00039853024997841288 0.0042238543857163633 0 0.00047786865695730605 0.0042120193770334696 0 0.00037987051823976201 0.0042189952373364696 0 0.00029386279550287179 0.0043047211939633871 0 0.00044108242876263681 0.0042918546050280115 0 0.00034880641685360665 0.004274858726611163 0 0.00029800303414516079 0.0043044610725856223 0 0.00039853024997841288 0.0042238543857163633 0 0.00047786865695730605 0.0042120193770334696 0 0.00044108242876263681 0.0042918546050280115 0 0.00039853024997841288 0.0042238543857163633 0 0.00044108242876263681 0.0042918546050280115 0 0.00034880641685360665 0.004274858726611163 0 0.00034880641685360665 0.004274858726611163 0 0.0002951488219749477 0.0042897956706441165 0 0.00029800303414516079 0.0043044610725856223 0 0.00039853024997841288 0.0042238543857163633 0 0.00034880641685360665 0.004274858726611163 0 0.00034301167288104797 0.0042406395487273492 0 0.00034880641685360665 0.004274858726611163 0 0.00034301167288104797 0.0042406395487273492 0 0.0002951488219749477 0.0042897956706441165 0 0.00034301167288104797 0.0042406395487273492 0 0.00035949393494477471 0.0041850845589719568 0 0.00030649197827475156 0.0042175146677909088 0 0.00039853024997841288 0.0042238543857163633 0 0.00034301167288104797 0.0042406395487273492 0 0.00035949393494477471 0.0041850845589719568 0 0.00030400110749306131 0.0041562452878812564 0 0.00035949393494477471 0.0041850845589719568 0 0.00030649197827475156 0.0042175146677909088 0 0.00030400110749306131 0.0041562452878812564 0 0.00030649197827475156 0.0042175146677909088 0 0.00025876685740658232 0.0042105110034179284 0 0.00030649197827475156 0.0042175146677909088 0 0.00025876685740658232 0.0042105110034179284 0 0.00027130397254694779 0.0042611979177801448 0 0.00025876685740658232 0.0042105110034179284 0 0.0002288718666409138 0.0042640860799608334 0 0.00020527834733475211 0.0042069679644795568 0 0.00025876685740658232 0.0042105110034179284 0 0.0002288718666409138 0.0042640860799608334 0 0.00027130397254694779 0.0042611979177801448 0 0.0002288718666409138 0.0042640860799608334 0 0.00025649499794587282 0.0043005152711965908 0 0.00027130397254694779 0.0042611979177801448 0 0.0002288718666409138 0.0042640860799608334 0 0.00025649499794587282 0.0043005152711965908 0 0.00022927466122882816 0.0043141773320466911 0 0.00030649197827475156 0.0042175146677909088 0 0.00027130397254694779 0.0042611979177801448 0 0.0002951488219749477 0.0042897956706441165 0 0.00034301167288104797 0.0042406395487273492 0 0.00030649197827475156 0.0042175146677909088 0 0.0002951488219749477 0.0042897956706441165 0 0.00025649499794587282 0.0043005152711965908 0 0.00027130397254694779 0.0042611979177801448 0 0.0002951488219749477 0.0042897956706441165 0 0.0002951488219749477 0.0042897956706441165 0 0.0002651439680966827 0.0043224211351122633 0 0.00026966805033506921 0.0043319248887476397 0 0.00025649499794587282 0.0043005152711965908 0 0.0002951488219749477 0.0042897956706441165 0 0.0002651439680966827 0.0043224211351122633 0 0.0002651439680966827 0.0043224211351122633 0 0.00026966805033506921 0.0043319248887476397 0 0.00025410153144523218 0.0043480222302606196 0 0.00022927466122882816 0.0043141773320466911 0 0.00024477573432714307 0.0043359914227212304 0 0.00022456748465841058 0.0043559150785456762 0 0.00025649499794587282 0.0043005152711965908 0 0.00022927466122882816 0.0043141773320466911 0 0.00024477573432714307 0.0043359914227212304 0 0.00025649499794587282 0.0043005152711965908 0 0.0002651439680966827 0.0043224211351122633 0 0.00024477573432714307 0.0043359914227212304 0 0.0002651439680966827 0.0043224211351122633 0 0.00024477573432714307 0.0043359914227212304 0 0.00025410153144523218 0.0043480222302606196 0 0.00024477573432714307 0.0043359914227212304 0 0.00024057545496370303 0.0043612976082193361 0 0.00025410153144523218 0.0043480222302606196 0 0.00024477573432714307 0.0043359914227212304 0 0.00024057545496370303 0.0043612976082193361 0 0.00022456748465841058 0.0043559150785456762 0 0.00024057545496370303 0.0043612976082193361 0 0.00022456748465841058 0.0043559150785456762 0 0.00023104551315571682 0.0043851421269184782 0 0.00024057545496370303 0.0043612976082193361 0 0.00024405087476454321 0.0043718905339594216 0 0.00025410153144523218 0.0043480222302606196 0 0.00024057545496370303 0.0043612976082193361 0 0.00024405087476454321 0.0043718905339594216 0 0.00023104551315571682 0.0043851421269184782 0 0.00026966805033506921 0.0043319248887476397 0 0.00025339562704258263 0.0043556942410549106 0 0.00026862595809673599 0.0043291258711256513 0 0.00026966805033506921 0.0043319248887476397 0 0.00025410153144523218 0.0043480222302606196 0 0.00025339562704258263 0.0043556942410549106 0 0.00024405087476454321 0.0043718905339594216 0 0.00025410153144523218 0.0043480222302606196 0 0.00025339562704258263 0.0043556942410549106 0 0.00025339562704258263 0.0043556942410549106 0 0.00026862595809673599 0.0043291258711256513 0 0.0002548906929499436 0.0043551539942271031 0 0.00026862595809673599 0.0043291258711256513 0 0.00027082327879822713 0.0043110935545557045 0 0.00026680628725847853 0.0043395583806205553 0 0.00026862595809673599 0.0043291258711256513 0 0.00026680628725847853 0.0043395583806205553 0 0.0002548906929499436 0.0043551539942271031 0 0.00027082327879822713 0.0043110935545557045 0 0.00026680628725847853 0.0043395583806205553 0 0.00027828031443160342 0.0043565450059802526 0 0.00026680628725847853 0.0043395583806205553 0 0.00027828031443160342 0.0043565450059802526 0 0.0002548906929499436 0.0043551539942271031 0 0.00024500994290245845 0.0042625572208684279 0 0.0002634853087324736 0.0042528335404783593 0 0.00022835919968628086 0.0041591800408605174 0 0.00023566104144485053 0.0042054450961845312 0 0.00026344178169302514 0.0042499127397172994 0 0.00027082327879822713 0.0043110935545557045 0 0.00027828031443160342 0.0043565450059802526 0 0.00026344178169302514 0.0042499127397172994 0 0.00022351073272388862 0.0041943924014714263 0 0.000217936617327818 0.0041710371264312438 0 0.00022679627285275339 0.0041836629947458138 0 0.00022835919968628086 0.0041591800408605174 0 0.000217936617327818 0.0041710371264312438 0 0.00022679627285275339 0.0041836629947458138 0 0.00022835919968628086 0.0041591800408605174 0 0.00022679627285275339 0.0041836629947458138 0 0.00023566104144485053 0.0042054450961845312 0 0.00022351073272388862 0.0041943924014714263 0 0.00022679627285275339 0.0041836629947458138 0 0.00023566104144485053 0.0042054450961845312 0 0.00023963179348157761 0.0042244168548701303 0 0.00026344178169302514 0.0042499127397172994 0 0.00029800303414516079 0.0043044610725856223 0 0.0002285969515193376 0.0042118316395269853 0 0.00023566104144485053 0.0042054450961845312 0 0.00026344178169302514 0.0042499127397172994 0 0.0002285969515193376 0.0042118316395269853 0 0.00023963179348157761 0.0042244168548701303 0 0.00026344178169302514 0.0042499127397172994 0 0.0002951488219749477 0.0042897956706441165 0 0.00026966805033506921 0.0043319248887476397 0 0.00029800303414516079 0.0043044610725856223 0 0.00026966805033506921 0.0043319248887476397 0 0.00026862595809673599 0.0043291258711256513 0 0.00029800303414516079 0.0043044610725856223 0 0.00026862595809673599 0.0043291258711256513 0 0.00027082327879822713 0.0043110935545557045 0 0.00029800303414516079 0.0043044610725856223 0 0.00027082327879822713 0.0043110935545557045 0 0.00026344178169302514 0.0042499127397172994 0 0.00029800303414516079 0.0043044610725856223 0 0.00066867373500306205 0.010463400039490025 0 0.00071476195675570532 0.0085188277031327409 0 0.0011262511452035634 0.010443681321149924 0 0.00091010968746987355 0.011651673636935676 0 0.00068663427489698385 0.011616652909123708 0 0.00066867373500306205 0.010463400039490025 0 0.00064811724663372595 0.013096160182414395 0 0.00071893276095136988 0.013789498805062113 0 0.00064623122018185033 0.013846011425042019 0 0.00063923919623031932 0.013881520034505929 0 0.00071893276095136988 0.013789498805062113 0 0.0006405877029915071 0.013822208476497856 0 0.00064623122018185033 0.013846011425042019 0 -0.00038602674907870323 0.0072279123550226644 0 0.00029104023625028659 0.0071501126419358822 0 -0.00025550641767956473 0.0062887235189518793 0 0.00029104023625028659 0.0071501126419358822 0 0.00045767732054623704 0.0061358528707157007 0 -0.00025550641767956473 0.0062887235189518793 0 -0.00019047260711696647 0.0055787056223811481 0 -6.5079120712999294e-05 0.0053143428787962299 0 0.00045767732054623704 0.0061358528707157007 0 -0.00025550641767956473 0.0062887235189518793 0 -8.7409145892100554e-05 0.00533956809958134 0 0.00011488070466030887 0.004288787940209841 0 0.00016588481129436357 0.00426169099723609 0 0.00018203305830149705 0.004325800223816503 0 0.00016318319321717979 0.0042023712521465978 0 0.00010692736151927696 0.0041925645648993263 0 0.00016588481129436357 0.00426169099723609 0 0.00010692736151927696 0.0041925645648993263 0 0.00011488070466030887 0.004288787940209841 0 0.00016588481129436357 0.00426169099723609 0 0.0002288718666409138 0.0042640860799608334 0 0.00016588481129436357 0.00426169099723609 0 0.00020527834733475211 0.0042069679644795568 0 0.00016318319321717979 0.0042023712521465978 0 0.00016588481129436357 0.00426169099723609 0 0.00020527834733475211 0.0042069679644795568 0 0.0002288718666409138 0.0042640860799608334 0 0.00016588481129436357 0.00426169099723609 0 0.0001994418818334007 0.0042925637282575828 0 0.00016588481129436357 0.00426169099723609 0 0.0001994418818334007 0.0042925637282575828 0 0.00018203305830149705 0.004325800223816503 0 0.00022927466122882816 0.0043141773320466911 0 0.0001994418818334007 0.0042925637282575828 0 0.00018203305830149705 0.004325800223816503 0 0.0002288718666409138 0.0042640860799608334 0 0.00022927466122882816 0.0043141773320466911 0 0.0001994418818334007 0.0042925637282575828 0 0.00022927466122882816 0.0043141773320466911 0 0.00022456748465841058 0.0043559150785456762 0 0.00018203305830149705 0.004325800223816503 0 0.00022456748465841058 0.0043559150785456762 0 0.00020693501486291347 0.0043890799934311556 0 0.00018203305830149705 0.004325800223816503 0 0.00022456748465841058 0.0043559150785456762 0 0.00023104551315571682 0.0043851421269184782 0 0.00020693501486291347 0.0043890799934311556 0 0.00023104551315571682 0.0043851421269184782 0 0.00020693501486291347 0.0043890799934311556 0 0.00022132750544573318 0.0044163979097103937 0 0.00020693501486291347 0.0043890799934311556 0 0.00012795944769725031 0.004377555068883543 0 0.00019494074220728437 0.0044551714814710453 0 0.00020693501486291347 0.0043890799934311556 0 0.00019494074220728437 0.0044551714814710453 0 0.00022132750544573318 0.0044163979097103937 0 0.00020693501486291347 0.0043890799934311556 0 0.00018203305830149705 0.004325800223816503 0 0.00012795944769725031 0.004377555068883543 0 0.00011488070466030887 0.004288787940209841 0 0.00018203305830149705 0.004325800223816503 0 0.00012795944769725031 0.004377555068883543 0 -6.5079120712999294e-05 0.0053143428787962299 0 2.825018468475709e-05 0.0048539235454683298 0 0.00012795944769725031 0.004377555068883543 0 0.00016133204213040567 0.0045521820677056702 0 0.00019494074220728437 0.0044551714814710453 0 2.825018468475709e-05 0.0048539235454683298 0 0.00014059586492805694 0.0045716023575444161 0 -8.7409145892100554e-05 0.00533956809958134 0 0.00054898402707864236 0.0051346007758531547 0 0.00016133204213040567 0.0045521820677056702 0 0.00045767732054623704 0.0061358528707157007 0 -8.7409145892100554e-05 0.00533956809958134 0 0.00054898402707864236 0.0051346007758531547 0 0.00071476195675570532 0.0085188277031327409 0 0.00058977084723330791 0.0090592699717294955 0 0.00091010968746987355 0.011651673636935676 0 0.00068663427489698385 0.011616652909123708 0 0.00068099091222253408 0.012800027851431283 0 0.00043568296333960498 0.0045290407581922961 0 0.00016133204213040567 0.0045521820677056702 0 0.00028296992856198397 0.0044287013328501695 0 0.00043568296333960498 0.0045290407581922961 0 0.00054898402707864236 0.0051346007758531547 0 0.00016133204213040567 0.0045521820677056702 0 0.0004062313474400765 0.0088269786937885657 0 0.00058977084723330791 0.0090592699717294955 0 0.00016133204213040567 0.0045521820677056702 0 0.00020646367935874972 0.0044645907153020919 0 0.00019494074220728437 0.0044551714814710453 0 0.00016133204213040567 0.0045521820677056702 0 0.00020646367935874972 0.0044645907153020919 0 0.00028296992856198397 0.0044287013328501695 0 0.00020646367935874972 0.0044645907153020919 0 0.00021944733041470431 0.0044356588851969759 0 0.00024100632661815458 0.0044045251457574359 0 0.00020646367935874972 0.0044645907153020919 0 0.00019494074220728437 0.0044551714814710453 0 0.00021944733041470431 0.0044356588851969759 0 0.00019494074220728437 0.0044551714814710453 0 0.00021944733041470431 0.0044356588851969759 0 0.00022132750544573318 0.0044163979097103937 0 0.00021944733041470431 0.0044356588851969759 0 0.00022132750544573318 0.0044163979097103937 0 0.00023273778038598059 0.0044084397855044012 0 0.00023104551315571682 0.0043851421269184782 0 0.00022132750544573318 0.0044163979097103937 0 0.00023766820727155741 0.0043933972059045654 0 0.00022132750544573318 0.0044163979097103937 0 0.00023273778038598059 0.0044084397855044012 0 0.00023766820727155741 0.0043933972059045654 0 0.00023273778038598059 0.0044084397855044012 0 0.00024100632661815458 0.0044045251457574359 0 0.00024571990148391446 0.0043823782496195552 0 0.00023273778038598059 0.0044084397855044012 0 0.00023766820727155741 0.0043933972059045654 0 0.00024571990148391446 0.0043823782496195552 0 0.00021944733041470431 0.0044356588851969759 0 0.00023273778038598059 0.0044084397855044012 0 0.00024100632661815458 0.0044045251457574359 0 0.00025953688716794218 0.0043645237013387869 0 0.00024100632661815458 0.0044045251457574359 0 0.00024571990148391446 0.0043823782496195552 0 0.00025953688716794218 0.0043645237013387869 0 0.00029272299518433683 0.0043469560526034441 0 0.00024100632661815458 0.0044045251457574359 0 0.00029272299518433683 0.0043469560526034441 0 0.00026565321574109402 0.0043106694269800854 0 0.00026750789692186973 0.0042576546116933952 0 0.00025953688716794218 0.0043645237013387869 0 0.00029272299518433683 0.0043469560526034441 0 0.00026565321574109402 0.0043106694269800854 0 0.00029272299518433683 0.0043469560526034441 0 0.00025592290264101793 0.0043900534563615975 0 0.000279226923693656 0.004364551929135891 0 0.00029272299518433683 0.0043469560526034441 0 0.000279226923693656 0.004364551929135891 0 0.00034361191068523844 0.0043225343982364944 0 0.00029272299518433683 0.0043469560526034441 0 0.00024100632661815458 0.0044045251457574359 0 0.00025592290264101793 0.0043900534563615975 0 0.00020646367935874972 0.0044645907153020919 0 0.00024100632661815458 0.0044045251457574359 0 0.00025592290264101793 0.0043900534563615975 0 0.00025592290264101793 0.0043900534563615975 0 0.00023444822991638262 0.004387059960839843 0 0.00028296992856198397 0.0044287013328501695 0 0.00020646367935874972 0.0044645907153020919 0 0.00025592290264101793 0.0043900534563615975 0 0.00028296992856198397 0.0044287013328501695 0 0.00025592290264101793 0.0043900534563615975 0 0.000279226923693656 0.004364551929135891 0 0.00023444822991638262 0.004387059960839843 0 0.00043568296333960498 0.0045290407581922961 0 0.00030385378277477385 0.0044348533317853326 0 0.00028296992856198397 0.0044287013328501695 0 0.00030385378277477385 0.0044348533317853326 0 0.00023444822991638262 0.004387059960839843 0 0.00028296992856198397 0.0044287013328501695 0 0.00022318120600556331 0.0043597603682190983 0 0.00019437058735156403 0.0043644772001495673 0 0.00023582136600844143 0.0043676458164902286 0 0.00022318120600556331 0.0043597603682190983 0 0.00023582136600844143 0.0043676458164902286 0 0.0002364533938517657 0.0043715237792618612 0 0.00022318120600556331 0.0043597603682190983 0 0.00019437058735156403 0.0043644772001495673 0 0.00021349291350733181 0.0043171852202782733 0 0.00019393407384111835 0.0041261358256846964 0 0.00019341067059914957 0.0042615633795133091 0 0.00020835972076259899 0.0041232202689689959 0 0.00021775516704719607 0.0041804788903231516 0 0.0002386092492376876 0.0040496737290839488 0 0.00011164406089013864 0.0042697859842314332 0 0.00021775516704719607 0.0041804788903231516 0 8.9235054466080499e-05 0.0042769604286642098 0 0.00024500994290245845 0.0042625572208684279 0 0.00015989533033855172 0.0043094700654281674 0 0.00022835919968628086 0.0041591800408605174 0 0.00011164406089013864 0.0042697859842314332 0 0.00021775516704719607 0.0041804788903231516 0 0.00020835972076259899 0.0041232202689689959 0 0.00021202162962394519 0.0041562945848503041 0 0.00021775516704719607 0.0041804788903231516 0 0.000217936617327818 0.0041710371264312438 0 0.00021202162962394519 0.0041562945848503041 0 0.00021775516704719607 0.0041804788903231516 0 0.00022835919968628086 0.0041591800408605174 0 0.000217936617327818 0.0041710371264312438 0 0.00021775516704719607 0.0041804788903231516 0 0.00027828031443160342 0.0043565450059802526 0 0.00019437058735156403 0.0043644772001495673 0 0.00023582136600844143 0.0043676458164902286 0 0.00027828031443160342 0.0043565450059802526 0 0.00023582136600844143 0.0043676458164902286 0 0.0002548906929499436 0.0043551539942271031 0 0.00023582136600844143 0.0043676458164902286 0 0.0002548906929499436 0.0043551539942271031 0 0.00024545832779682933 0.0043662126620575489 0 0.00025339562704258263 0.0043556942410549106 0 0.0002548906929499436 0.0043551539942271031 0 0.00024545832779682933 0.0043662126620575489 0 0.00025339562704258263 0.0043556942410549106 0 0.00024545832779682933 0.0043662126620575489 0 0.00024224725687575649 0.0043759696592524386 0 0.00024405087476454321 0.0043718905339594216 0 0.00025339562704258263 0.0043556942410549106 0 0.00024224725687575649 0.0043759696592524386 0 0.00024224725687575649 0.0043759696592524386 0 0.00024091748803486298 0.0043773870701331544 0 0.0002364533938517657 0.0043715237792618612 0 0.00023582136600844143 0.0043676458164902286 0 0.00024545832779682933 0.0043662126620575489 0 0.0002364533938517657 0.0043715237792618612 0 0.00024545832779682933 0.0043662126620575489 0 0.00024224725687575649 0.0043759696592524386 0 0.0002364533938517657 0.0043715237792618612 0 0.00024405087476454321 0.0043718905339594216 0 0.00023104551315571682 0.0043851421269184782 0 0.00023766820727155741 0.0043933972059045654 0 0.00024405087476454321 0.0043718905339594216 0 0.00024224725687575649 0.0043759696592524386 0 0.00023766820727155741 0.0043933972059045654 0 0.00024224725687575649 0.0043759696592524386 0 0.00023766820727155741 0.0043933972059045654 0 0.00024091748803486298 0.0043773870701331544 0 0.00024091748803486298 0.0043773870701331544 0 0.00024571990148391446 0.0043823782496195552 0 0.00023850158104612792 0.004354677609550839 0 0.00023766820727155741 0.0043933972059045654 0 0.00024091748803486298 0.0043773870701331544 0 0.00024571990148391446 0.0043823782496195552 0 0.00024091748803486298 0.0043773870701331544 0 0.0002364533938517657 0.0043715237792618612 0 0.00023850158104612792 0.004354677609550839 0 0.00022318120600556331 0.0043597603682190983 0 0.0002364533938517657 0.0043715237792618612 0 0.00023850158104612792 0.004354677609550839 0 0.00023850158104612792 0.004354677609550839 0 0.00023328134427195746 0.0043111086415420722 0 0.00021349291350733181 0.0043171852202782733 0 0.00022318120600556331 0.0043597603682190983 0 0.00023850158104612792 0.004354677609550839 0 0.00021349291350733181 0.0043171852202782733 0 0.00023850158104612792 0.004354677609550839 0 0.00023328134427195746 0.0043111086415420722 0 0.00024997134449755644 0.0043366892448306006 0 0.00023328134427195746 0.0043111086415420722 0 0.00024997134449755644 0.0043366892448306006 0 0.00024195407144274802 0.0042758520921827312 0 0.00023328134427195746 0.0043111086415420722 0 0.00020557824742953749 0.0042547073311972362 0 0.00021349291350733181 0.0043171852202782733 0 0.00024571990148391446 0.0043823782496195552 0 0.00023850158104612792 0.004354677609550839 0 0.00024997134449755644 0.0043366892448306006 0 0.00025953688716794218 0.0043645237013387869 0 0.00024571990148391446 0.0043823782496195552 0 0.00024997134449755644 0.0043366892448306006 0 0.00025953688716794218 0.0043645237013387869 0 0.00024997134449755644 0.0043366892448306006 0 0.00026565321574109402 0.0043106694269800854 0 0.00025136962324815825 0.0042483733376204435 0 0.00026565321574109402 0.0043106694269800854 0 0.00024195407144274802 0.0042758520921827312 0 0.00024997134449755644 0.0043366892448306006 0 0.00026565321574109402 0.0043106694269800854 0 0.00024195407144274802 0.0042758520921827312 0 0.00020557824742953749 0.0042547073311972362 0 0.00024195407144274802 0.0042758520921827312 0 0.00020937493330887291 0.00413199261638363 0 0.00025136962324815825 0.0042483733376204435 0 0.00024195407144274802 0.0042758520921827312 0 0.00020937493330887291 0.00413199261638363 0 0.00023328134427195746 0.0043111086415420722 0 0.00020557824742953749 0.0042547073311972362 0 0.00024195407144274802 0.0042758520921827312 0 0.00020557824742953749 0.0042547073311972362 0 0.00013967345047974396 0.0042062299524656364 0 0.00020937493330887291 0.00413199261638363 0 0.00020557824742953749 0.0042547073311972362 0 0.00013967345047974396 0.0042062299524656364 0 0.00021349291350733181 0.0043171852202782733 0 0.00015989533033855172 0.0043094700654281674 0 0.00014247353931786248 0.0042092428103331567 0 0.00019437058735156403 0.0043644772001495673 0 0.00013967345047974396 0.0042062299524656364 0 0.00021349291350733181 0.0043171852202782733 0 -9.6750845943843574e-05 0.0035337468068690299 0 0.00019341067059914957 0.0042615633795133091 0 0.00011164406089013864 0.0042697859842314332 0 8.9235054466080499e-05 0.0042769604286642098 0 5.8730690840907574e-05 0.0042119785396824124 0 -7.9924056400966108e-05 0.0041380675265847875 0 8.9235054466080499e-05 0.0042769604286642098 0 5.8730690840907574e-05 0.0042119785396824124 0 0.00011164406089013864 0.0042697859842314332 0 0.00013967345047974396 0.0042062299524656364 0 5.8730690840907574e-05 0.0042119785396824124 0 0.00013967345047974396 0.0042062299524656364 0 3.8785721515504781e-05 0.0041328547142797448 0 7.5846027046378097e-06 0.0039305202273363571 0 0.00013967345047974396 0.0042062299524656364 0 5.8730690840907574e-05 0.0042119785396824124 0 3.8785721515504781e-05 0.0041328547142797448 0 5.8730690840907574e-05 0.0042119785396824124 0 3.8785721515504781e-05 0.0041328547142797448 0 -1.9203387081392867e-05 0.0041173030148044035 0 3.8785721515504781e-05 0.0041328547142797448 0 -1.9203387081392867e-05 0.0041173030148044035 0 7.5846027046378097e-06 0.0039305202273363571 0 -7.9924056400966108e-05 0.0041380675265847875 0 5.8730690840907574e-05 0.0042119785396824124 0 -1.9203387081392867e-05 0.0041173030148044035 0 -1.9203387081392867e-05 0.0041173030148044035 0 7.5846027046378097e-06 0.0039305202273363571 0 -0.00010562046557347076 0.0040700322479221883 0 7.5846027046378097e-06 0.0039305202273363571 0 -3.5604819228624499e-05 0.0035027047701891166 0 0.00020636148794860729 0.0037065287990118243 0 -3.5604819228624499e-05 0.0035027047701891166 0 0.00020636148794860729 0.0037065287990118243 0 0.00010593486199838584 0.0033817858227541769 0 0.00026589581859039581 0.0035654999595570742 0 0.00020636148794860729 0.0037065287990118243 0 0.00041429037029902174 0.0037589869980657912 0 0.00020636148794860729 0.0037065287990118243 0 0.00039511948980862566 0.0039619487875506981 0 0.00041429037029902174 0.0037589869980657912 0 0.00026589581859039581 0.0035654999595570742 0 0.00041429037029902174 0.0037589869980657912 0 0.00033032711823169337 0.0034116807489832702 0 0.00026589581859039581 0.0035654999595570742 0 0.00020636148794860729 0.0037065287990118243 0 0.00010593486199838584 0.0033817858227541769 0 7.5846027046378097e-06 0.0039305202273363571 0 0.00020636148794860729 0.0037065287990118243 0 0.00039511948980862566 0.0039619487875506981 0 0.00013967345047974396 0.0042062299524656364 0 7.5846027046378097e-06 0.0039305202273363571 0 0.00020937493330887291 0.00413199261638363 0 1.4965899317583786e-05 0.0039523065957571806 0 0.0002949524474698966 0.0040474205050885096 0 0.0002949524474698966 0.0040474205050885096 0 0.00048167074468007391 0.0041962720150355856 0 0.00025136962324815825 0.0042483733376204435 0 0.00020937493330887291 0.00413199261638363 0 0.00026750789692186973 0.0042576546116933952 0 0.00039511948980862566 0.0039619487875506981 0 0.00070601293819540938 0.0041347365619007585 0 0.00061757057211557563 0.0039433048008423758 0 0.00025136962324815825 0.0042483733376204435 0 0.00026565321574109402 0.0043106694269800854 0 0.00026750789692186973 0.0042576546116933952 0 0.00070601293819540938 0.0041347365619007585 0 0.00061757057211557563 0.0039433048008423758 0 0.00066299204285002545 0.0042803791168761502 0 0.00076235655710742069 0.0049104701916766911 0 0.00066299204285002545 0.0042803791168761502 0 0.00057737583196212439 0.0047312997651517861 0 0.00065674700629060037 0.0042042570780173628 0 0.00064541495374112901 0.0042376923291364173 0 0.00061757057211557563 0.0039433048008423758 0 0.00064375604613516383 0.0035377829368563869 0 0.00066299204285002545 0.0042803791168761502 0 0.00039511948980862566 0.0039619487875506981 0 0.00061757057211557563 0.0039433048008423758 0 0.00041429037029902174 0.0037589869980657912 0 0.00061757057211557563 0.0039433048008423758 0 0.00041429037029902174 0.0037589869980657912 0 0.00064375604613516383 0.0035377829368563869 0 0.00041429037029902174 0.0037589869980657912 0 0.00064375604613516383 0.0035377829368563869 0 0.00033032711823169337 0.0034116807489832702 0 0.00065674700629060037 0.0042042570780173628 0 0.00032436643788429407 0.0039791577340355204 0 0.00064375604613516383 0.0035377829368563869 0 0.00027865054399563643 0.0030644768712656009 0 0.00033032711823169337 0.0034116807489832702 0 0.00076235655710742069 0.0049104701916766911 0 0.00068901188268166941 0.0050351783680811224 0 0.00057737583196212439 0.0047312997651517861 0 0.00068901188268166941 0.0050351783680811224 0 0.00058000779673273372 0.0049044206011370122 0 0.00075845380584452606 0.0054051352555043522 0 0.00076235655710742069 0.0049104701916766911 0 0.00068901188268166941 0.0050351783680811224 0 0.00058000779673273372 0.0049044206011370122 0 0.00055842152644886857 0.0049573481902960683 0 0.00051320504858665301 0.005146403369143935 0 0.00076235655710742069 0.0049104701916766911 0 0.00058000779673273372 0.0049044206011370122 0 0.00035897108047131378 0.0049010101357584669 0 0.00058000779673273372 0.0049044206011370122 0 0.00035897108047131378 0.0049010101357584669 0 0.00041348395811022069 0.0047534064395172004 0 0.00027865054399563643 0.0030644768712656009 0 6.0776886393883669e-05 0.0031168689490929072 0 -0.00010776977336939393 0.0029446796289239736 0 0.00027865054399563643 0.0030644768712656009 0 6.0776886393883669e-05 0.0031168689490929072 0 0.00033032711823169337 0.0034116807489832702 0 -6.2369197321175457e-05 0.0029844152511060182 0 6.0776886393883669e-05 0.0031168689490929072 0 -8.1032509935761456e-05 0.0031345398999786988 0 -6.2369197321175457e-05 0.0029844152511060182 0 6.0776886393883669e-05 0.0031168689490929072 0 -0.00010776977336939393 0.0029446796289239736 0 -3.5604819228624499e-05 0.0035027047701891166 0 -8.1032509935761456e-05 0.0031345398999786988 0 0.00010593486199838584 0.0033817858227541769 0 6.0776886393883669e-05 0.0031168689490929072 0 -8.1032509935761456e-05 0.0031345398999786988 0 0.00010593486199838584 0.0033817858227541769 0 0.00026589581859039581 0.0035654999595570742 0 0.00010593486199838584 0.0033817858227541769 0 0.00033032711823169337 0.0034116807489832702 0 6.0776886393883669e-05 0.0031168689490929072 0 0.00010593486199838584 0.0033817858227541769 0 0.00033032711823169337 0.0034116807489832702 0 2.1824699753240808e-05 0.0044744843735597308 0 0.00023444822991638262 0.004387059960839843 0 0.00015492958625742961 0.0045464000581555411 0 0.00023444822991638262 0.004387059960839843 0 0.00015492958625742961 0.0045464000581555411 0 0.00026281791615631676 0.0044404839779270833 0 0.000279226923693656 0.004364551929135891 0 0.00023444822991638262 0.004387059960839843 0 0.00026281791615631676 0.0044404839779270833 0 0.00015492958625742961 0.0045464000581555411 0 0.00026281791615631676 0.0044404839779270833 0 0.00027324065628664645 0.0046568291226145152 0 0.00026281791615631676 0.0044404839779270833 0 0.00037773106400952855 0.0045031857545760109 0 0.00034361191068523844 0.0043225343982364944 0 0.00026281791615631676 0.0044404839779270833 0 0.00037773106400952855 0.0045031857545760109 0 0.00027324065628664645 0.0046568291226145152 0 0.000279226923693656 0.004364551929135891 0 0.00026281791615631676 0.0044404839779270833 0 0.00034361191068523844 0.0043225343982364944 0 0.00029272299518433683 0.0043469560526034441 0 0.00026750789692186973 0.0042576546116933952 0 0.00034361191068523844 0.0043225343982364944 0 0.00048167074468007391 0.0041962720150355856 0 0.00036099948800712888 0.0042996955670959623 0 0.00070601293819540938 0.0041347365619007585 0 0.00034361191068523844 0.0043225343982364944 0 0.00066299204285002545 0.0042803791168761502 0 0.00037773106400952855 0.0045031857545760109 0 0.00034361191068523844 0.0043225343982364944 0 0.00066299204285002545 0.0042803791168761502 0 0.00037773106400952855 0.0045031857545760109 0 0.00066299204285002545 0.0042803791168761502 0 0.00057737583196212439 0.0047312997651517861 0 0.00068901188268166941 0.0050351783680811224 0 0.00057737583196212439 0.0047312997651517861 0 0.00049384265561324878 0.005248058306740677 0 0.00068901188268166941 0.0050351783680811224 0 0.00049384265561324878 0.005248058306740677 0 0.00075845380584452606 0.0054051352555043522 0 0.00049384265561324878 0.005248058306740677 0 0.00021758416518130748 0.0049599081787298658 0 0.00011764508934734814 0.0055435369274490793 0 0.00057860316020013475 0.0047242981452529451 0 0.00024930326047483417 0.0048367893420201372 0 0.00057737583196212439 0.0047312997651517861 0 0.00049384265561324878 0.005248058306740677 0 0.00021758416518130748 0.0049599081787298658 0 0.00037773106400952855 0.0045031857545760109 0 0.00057737583196212439 0.0047312997651517861 0 0.00027324065628664645 0.0046568291226145152 0 0.00024930326047483417 0.0048367893420201372 0 -0.00010890613339311917 0.0046979947800010174 0 0.00021758416518130748 0.0049599081787298658 0 -0.00035911704388822145 0.0051298671181436552 0 0.00011764508934734814 0.0055435369274490793 0 -0.00035911704388822145 0.0051298671181436552 0 -0.0002810848552190654 0.0057227496190030607 0 0.00011764508934734814 0.0055435369274490793 0 -0.00073518259189362094 0.0056956142801019953 0 -0.00035911704388822145 0.0051298671181436552 0 -0.0002810848552190654 0.0057227496190030607 0 0.00015492958625742961 0.0045464000581555411 0 0.00027324065628664645 0.0046568291226145152 0 0.00013484746298649805 0.0047105327691848789 0 -0.00060394759543206267 0.0066440353887769477 0 -0.00043450281071224172 0.0061875792391839395 0 -0.00018901040060487621 0.0068787391283476485 0 -0.00043450281071224172 0.0061875792391839395 0 1.7964195167495059e-05 0.0061602690836772946 0 -0.00018901040060487621 0.0068787391283476485 0 -0.00043450281071224172 0.0061875792391839395 0 -0.0002810848552190654 0.0057227496190030607 0 1.7964195167495059e-05 0.0061602690836772946 0 -0.00073518259189362094 0.0056956142801019953 0 -0.00043450281071224172 0.0061875792391839395 0 -0.0002810848552190654 0.0057227496190030607 0 0.00011764508934734814 0.0055435369274490793 0 1.7964195167495059e-05 0.0061602690836772946 0 0.00056314599201174134 0.0060101977484651112 0 -0.0002810848552190654 0.0057227496190030607 0 0.00011764508934734814 0.0055435369274490793 0 1.7964195167495059e-05 0.0061602690836772946 0 1.7964195167495059e-05 0.0061602690836772946 0 0.000206099652169925 0.0066960747205091001 0 -0.00018901040060487621 0.0068787391283476485 0 1.7964195167495059e-05 0.0061602690836772946 0 0.00056314599201174134 0.0060101977484651112 0 0.000206099652169925 0.0066960747205091001 0 0.00030119769531420645 0.005631655529873208 0 5.9755282085791039e-05 0.0063309927810946505 0 0.00049384265561324878 0.005248058306740677 0 0.00011764508934734814 0.0055435369274490793 0 0.00056314599201174134 0.0060101977484651112 0 0.00049384265561324878 0.005248058306740677 0 0.00056314599201174134 0.0060101977484651112 0 0.00075845380584452606 0.0054051352555043522 0 0.00030119769531420645 0.005631655529873208 0 0.00051320504858665301 0.005146403369143935 0 3.3028440107244922e-05 0.0052291724565187193 0 0.00031142416259084116 0.0048354142458511733 0 0.00019888056736867363 0.0051960384354078036 0 3.3028440107244922e-05 0.0052291724565187193 0 4.8661304213335336e-05 0.0057267441849356976 0 0.00019888056736867363 0.0051960384354078036 0 1.8495751599629193e-07 0.0060016876663126781 0 4.8661304213335336e-05 0.0057267441849356976 0 0.00019888056736867363 0.0051960384354078036 0 1.8495751599629193e-07 0.0060016876663126781 0 -2.1133014012744458e-05 0.0062615308494366907 0 4.8661304213335336e-05 0.0057267441849356976 0 1.8495751599629193e-07 0.0060016876663126781 0 -2.1133014012744458e-05 0.0062615308494366907 0 -2.7401276699745449e-07 0.0068336132382617251 0 3.3028440107244922e-05 0.0052291724565187193 0 4.8661304213335336e-05 0.0057267441849356976 0 -0.00015101667516291732 0.005952104789461855 0 -2.1133014012744458e-05 0.0062615308494366907 0 4.8661304213335336e-05 0.0057267441849356976 0 -0.00015101667516291732 0.005952104789461855 0 -2.1133014012744458e-05 0.0062615308494366907 0 -0.00015101667516291732 0.005952104789461855 0 -8.1606849410310037e-05 0.0070942245368995236 0 5.9755282085791039e-05 0.0063309927810946505 0 -8.720125353838417e-05 0.0069512928038271892 0 -2.1133014012744458e-05 0.0062615308494366907 0 -2.7401276699745449e-07 0.0068336132382617251 0 -8.1606849410310037e-05 0.0070942245368995236 0 1.5915765296442593e-07 0.0076658767090935663 0 -2.7401276699745449e-07 0.0068336132382617251 0 -8.1606849410310037e-05 0.0070942245368995236 0 -4.4552586821097103e-05 0.0073557956248594533 0 -8.1606849410310037e-05 0.0070942245368995236 0 -0.00018901040060487621 0.0068787391283476485 0 0.000206099652169925 0.0066960747205091001 0 -8.1606849410310037e-05 0.0070942245368995236 0 -0.00018901040060487621 0.0068787391283476485 0 0.00010088377320698768 0.0044739613402650031 0 0.00033728835491572559 0.0046924158618882831 0 0.00012618565798290239 0.004218828328256252 0 0.00010088377320698768 0.0044739613402650031 0 0.00012618565798290239 0.004218828328256252 0 -6.5533307008241757e-05 0.0034587393912430321 0 3.4731031891149454e-05 0.0037216163717983769 0 -4.2796942484304381e-05 0.003523744916026372 0 -6.2369197321175457e-05 0.0029844152511060182 0 -0.00010776977336939393 0.0029446796289239736 0 -3.7770887373749777e-05 0.0028945656716769796 0 0.00035897108047131378 0.0049010101357584669 0 0.00010088377320698768 0.0044739613402650031 0 0.00041348395811022069 0.0047534064395172004 0 0.00032436643788429407 0.0039791577340355204 0 3.4731031891149454e-05 0.0037216163717983769 0 0.00010088377320698768 0.0044739613402650031 0 0.00041348395811022069 0.0047534064395172004 0 0.00033728835491572559 0.0046924158618882831 0 0.00041348395811022069 0.0047534064395172004 0 0.00031142416259084116 0.0048354142458511733 0 0.00033728835491572559 0.0046924158618882831 0 0.00058000779673273372 0.0049044206011370122 0 0.00041348395811022069 0.0047534064395172004 0 0.00031142416259084116 0.0048354142458511733 0 0.00031142416259084116 0.0048354142458511733 0 0.00033728835491572559 0.0046924158618882831 0 0.00019888056736867363 0.0051960384354078036 0 0.00033728835491572559 0.0046924158618882831 0 0.00015286548372299677 0.0047354129356185276 0 0.00012618565798290239 0.004218828328256252 0 0.00033728835491572559 0.0046924158618882831 0 0.00015286548372299677 0.0047354129356185276 0 0.00019888056736867363 0.0051960384354078036 0 1.8495751599629193e-07 0.0060016876663126781 0 0.00019888056736867363 0.0051960384354078036 0 2.9770280380502792e-07 0.0051698421839449738 0 0.00015286548372299677 0.0047354129356185276 0 0.00019888056736867363 0.0051960384354078036 0 2.9770280380502792e-07 0.0051698421839449738 0 0.00015286548372299677 0.0047354129356185276 0 2.9770280380502792e-07 0.0051698421839449738 0 1.2950847971027258e-07 0.0043377860079321442 0 0.00015286548372299677 0.0047354129356185276 0 1.2950847971027258e-07 0.0043377860079321442 0 0.00012618565798290239 0.004218828328256252 0 0.00012618565798290239 0.004218828328256252 0 4.2740702468227859e-06 0.0037689475676658253 0 -6.5533307008241757e-05 0.0034587393912430321 0 1.2950847971027258e-07 0.0043377860079321442 0 4.2740702468227859e-06 0.0037689475676658253 0 5.2975090016870286e-09 0.0035059081784133465 0 1.2950847971027258e-07 0.0043377860079321442 0 0.00012618565798290239 0.004218828328256252 0 4.2740702468227859e-06 0.0037689475676658253 0 4.2740702468227859e-06 0.0037689475676658253 0 5.2975090016870286e-09 0.0035059081784133465 0 3.4165374444554433e-05 0.0029756700364995899 0 5.2975090016870286e-09 0.0035059081784133465 0 3.4165374444554433e-05 0.0029756700364995899 0 1.0953700200414275e-07 0.0026739962642626119 0 4.2740702468227859e-06 0.0037689475676658253 0 3.4165374444554433e-05 0.0029756700364995899 0 -6.5533307008241757e-05 0.0034587393912430321 0 6.8252588413829227e-05 0.0023251870863573876 0 1.0953700200414275e-07 0.0026739962642626119 0 1.712807698243441e-07 0.0018420408043555467 0 3.4165374444554433e-05 0.0029756700364995899 0 6.8252588413829227e-05 0.0023251870863573876 0 1.0953700200414275e-07 0.0026739962642626119 0 3.4165374444554433e-05 0.0029756700364995899 0 6.8252588413829227e-05 0.0023251870863573876 0 0.00015033730870383141 0.0022917120341005254 0 6.8252588413829227e-05 0.0023251870863573876 0 0.00015033730870383141 0.0022917120341005254 0 0.00011544294308948355 0.0017103877079547502 0 3.4165374444554433e-05 0.0029756700364995899 0 0.00015033730870383141 0.0022917120341005254 0 6.598675931293527e-05 0.0027928704536195276 0 0.00015033730870383141 0.0022917120341005254 0 0.00019184318856512583 0.0023118326763331173 0 6.598675931293527e-05 0.0027928704536195276 0 0.00019184318856512583 0.0023118326763331173 0 6.598675931293527e-05 0.0027928704536195276 0 -2.3746691432789681e-05 0.0026998554868979951 0 -6.5533307008241757e-05 0.0034587393912430321 0 6.598675931293527e-05 0.0027928704536195276 0 -3.7770887373749777e-05 0.0028945656716769796 0 3.4165374444554433e-05 0.0029756700364995899 0 -6.5533307008241757e-05 0.0034587393912430321 0 6.598675931293527e-05 0.0027928704536195276 0 6.598675931293527e-05 0.0027928704536195276 0 -3.7770887373749777e-05 0.0028945656716769796 0 -2.3746691432789681e-05 0.0026998554868979951 0 -0.00010776977336939393 0.0029446796289239736 0 -6.5533307008241757e-05 0.0034587393912430321 0 -3.7770887373749777e-05 0.0028945656716769796 0 -6.2369197321175457e-05 0.0029844152511060182 0 -3.7770887373749777e-05 0.0028945656716769796 0 -0.00010698941223905477 0.0029217502716645826 0 -6.2369197321175457e-05 0.0029844152511060182 0 -8.1032509935761456e-05 0.0031345398999786988 0 -0.00010698941223905477 0.0029217502716645826 0 -8.1032509935761456e-05 0.0031345398999786988 0 -0.00010698941223905477 0.0029217502716645826 0 -0.00025455012825424835 0.003065161778972867 0 -3.5604819228624499e-05 0.0035027047701891166 0 -8.1032509935761456e-05 0.0031345398999786988 0 -0.00025455012825424835 0.003065161778972867 0 -0.00025455012825424835 0.003065161778972867 0 -8.5747839082811849e-05 0.0028977208712247676 0 -8.5152618482547241e-05 0.0027537883466717964 0 -0.00010698941223905477 0.0029217502716645826 0 -0.00025455012825424835 0.003065161778972867 0 -8.5747839082811849e-05 0.0028977208712247676 0 -0.00010698941223905477 0.0029217502716645826 0 -2.3746691432789681e-05 0.0026998554868979951 0 -8.5747839082811849e-05 0.0028977208712247676 0 -3.7770887373749777e-05 0.0028945656716769796 0 -0.00010698941223905477 0.0029217502716645826 0 -2.3746691432789681e-05 0.0026998554868979951 0 -2.3746691432789681e-05 0.0026998554868979951 0 -2.93687967134762e-06 0.0028693461652325872 0 -8.5747839082811849e-05 0.0028977208712247676 0 -4.0186635703786813e-06 0.0026671670074470306 0 0.00010879795683771764 0.0025226906148541066 0 0.00019184318856512583 0.0023118326763331173 0 -2.3746691432789681e-05 0.0026998554868979951 0 0.00019504273431262357 0.0021715452374054022 0 0.00019184318856512583 0.0023118326763331173 0 0.00019504273431262357 0.0021715452374054022 0 0.00026134422875055696 0.0020821358323705116 0 -2.93687967134762e-06 0.0028693461652325872 0 6.5561783353983044e-05 0.002692487854308374 0 0.000214011516736847 0.0026695535537184898 0 0.00010879795683771764 0.0025226906148541066 0 0.00023367110700325906 0.0024197430567187285 0 -2.93687967134762e-06 0.0028693461652325872 0 -8.5747839082811849e-05 0.0028977208712247676 0 6.5561783353983044e-05 0.002692487854308374 0 -8.5747839082811849e-05 0.0028977208712247676 0 -8.5152618482547241e-05 0.0027537883466717964 0 6.5561783353983044e-05 0.002692487854308374 0 4.409353703321604e-05 0.0024381744062727901 0 0.00026596780738260726 0.0024852052560405359 0 6.5561783353983044e-05 0.002692487854308374 0 0.00014958165447499891 0.0025161403797346565 0 0.00017224476051962872 0.0025971562521779736 0 2.4205524241647176e-05 0.0024323706625892236 0 6.5561783353983044e-05 0.002692487854308374 0 0.00014958165447499891 0.0025161403797346565 0 2.4205524241647176e-05 0.0024323706625892236 0 -8.5152618482547241e-05 0.0027537883466717964 0 -0.00023069952232598906 0.0026540796949651216 0 2.4205524241647176e-05 0.0024323706625892236 0 -8.5152618482547241e-05 0.0027537883466717964 0 6.5561783353983044e-05 0.002692487854308374 0 -0.00023277920644002094 0.0024318635573698532 0 2.4205524241647176e-05 0.0024323706625892236 0 -0.00023069952232598906 0.0026540796949651216 0 -0.00023277920644002094 0.0024318635573698532 0 -0.00023069952232598906 0.0026540796949651216 0 -0.0003705536263037964 0.0024937002979757783 0 -9.6750845943843574e-05 0.0035337468068690299 0 -0.00036836283099698954 0.003142951780329385 0 -0.00012808950060992652 0.00418429821982216 0 -0.00010562046557347076 0.0040700322479221883 0 -0.00027873409072677358 0.003741144964924802 0 -0.00056883375883786834 0.0023712809821282098 0 -0.0003705536263037964 0.0024937002979757783 0 -0.00045951225708324995 0.0026766812760202698 0 7.5846027046378097e-06 0.0039305202273363571 0 -0.00010562046557347076 0.0040700322479221883 0 -0.00027873409072677358 0.003741144964924802 0 7.5846027046378097e-06 0.0039305202273363571 0 -3.5604819228624499e-05 0.0035027047701891166 0 -0.00027873409072677358 0.003741144964924802 0 -0.00023069952232598906 0.0026540796949651216 0 -0.0003705536263037964 0.0024937002979757783 0 -0.00045951225708324995 0.0026766812760202698 0 -0.00028644526354647471 0.003117344061260741 0 -0.00036836283099698954 0.003142951780329385 0 -3.5604819228624499e-05 0.0035027047701891166 0 -0.00025455012825424835 0.003065161778972867 0 -0.00027873409072677358 0.003741144964924802 0 -0.00025455012825424835 0.003065161778972867 0 -0.00023069952232598906 0.0026540796949651216 0 -0.00045951225708324995 0.0026766812760202698 0 -0.00025455012825424835 0.003065161778972867 0 -8.5152618482547241e-05 0.0027537883466717964 0 -0.00023069952232598906 0.0026540796949651216 0 0.00012319668371263182 0.0022760640789403555 0 7.2284336845265481e-05 0.0024046865523500121 0 -8.648380953330277e-05 0.0020940579735191731 0 0.00012319668371263182 0.0022760640789403555 0 7.2284336845265481e-05 0.0024046865523500121 0 0.00014037539054135594 0.0024453873269484842 0 -0.0002089095941264776 0.00068807592368674592 0 -0.00021700086569669474 0.00067824372366077251 0 -0.00021658720349632474 0.00066903397174397552 0 0.0004902718258800819 0.0017518878036642423 0 -0.00022946734301173427 0.001325372398288844 0 -0.0002089095941264776 0.00068807592368674592 0 -0.00018877953462362838 0.00070135121316568152 0 -0.00021700086569669474 0.00067824372366077251 0 0.00069859395530751632 0.0012219645641464007 0 0.00072455992912074871 0.001275318620524099 0 0.00066746158265869131 0.0013230759355882223 0 0.00073775302686651082 0.0013266136696249895 0 0.00072455992912074871 0.001275318620524099 0 0.00076416613105884958 0.0012506145557897052 0 0.00069859395530751632 0.0012219645641464007 0 0.00072455992912074871 0.001275318620524099 0 0.00076416613105884958 0.0012506145557897052 0 0.00023815948446287213 0.00094929547565179091 0 0.0004902718258800819 0.0017518878036642423 0 7.2284336845265481e-05 0.0024046865523500121 0 0.00014037539054135594 0.0024453873269484842 0 0.00021480795647694343 0.0025302302129586551 0 0.0004902718258800819 0.0017518878036642423 0 0.00056884272288139435 0.0025905477068672404 0 0.00099906999275434856 0.0021109841089337169 0 0.0011999610985237365 0.002615993340019016 0 0.00082026735401724516 0.0025385262082031025 0 0.00014958165447499891 0.0025161403797346565 0 0.00021480795647694343 0.0025302302129586551 0 0.00017224476051962872 0.0025971562521779736 0 0.00026596780738260726 0.0024852052560405359 0 0.00056884272288139435 0.0025905477068672404 0 0.00068850768088981121 0.0022664695109515633 0 0.00042431255803810828 0.0024739105091629099 0 0.00082026735401724516 0.0025385262082031025 0 0.00021480795647694343 0.0025302302129586551 0 0.000214011516736847 0.0026695535537184898 0 0.00017224476051962872 0.0025971562521779736 0 6.5561783353983044e-05 0.002692487854308374 0 0.000214011516736847 0.0026695535537184898 0 0.00017224476051962872 0.0025971562521779736 0 0.00013762013384911433 0.0024575553088304939 0 0.00023367110700325906 0.0024197430567187285 0 0.00012319668371263182 0.0022760640789403555 0 0.00029579352747400147 0.0021539018892202388 0 0.00014192105021814091 0.0021545003554179713 0 0.00012319668371263182 0.0022760640789403555 0 0.00014037539054135594 0.0024453873269484842 0 0.00029579352747400147 0.0021539018892202388 0 0.00014037539054135594 0.0024453873269484842 0 0.00021480795647694343 0.0025302302129586551 0 0.000214011516736847 0.0026695535537184898 0 0.00029579352747400147 0.0021539018892202388 0 0.00022725811010716371 0.0020766910460670511 0 0.00014192105021814091 0.0021545003554179713 0 0.00022725811010716371 0.0020766910460670511 0 0.00014831761878235505 0.001883726680517726 0 0.00014192105021814091 0.0021545003554179713 0 0.00029579352747400147 0.0021539018892202388 0 0.00022725811010716371 0.0020766910460670511 0 0.00026134422875055696 0.0020821358323705116 0 0.00019504273431262357 0.0021715452374054022 0 0.00029579352747400147 0.0021539018892202388 0 0.00026134422875055696 0.0020821358323705116 0 0.00022725811010716371 0.0020766910460670511 0 0.00026134422875055696 0.0020821358323705116 0 0.00014831761878235505 0.001883726680517726 0 0.00026134422875055696 0.0020821358323705116 0 0.00014831761878235505 0.001883726680517726 0 0.00020654415337561217 0.0018024834744651615 0 0.00014831761878235505 0.001883726680517726 0 0.00014192105021814091 0.0021545003554179713 0 -8.648380953330277e-05 0.0020940579735191731 0 0.00012319668371263182 0.0022760640789403555 0 0.00014192105021814091 0.0021545003554179713 0 -8.648380953330277e-05 0.0020940579735191731 0 -0.00021700086569669474 0.00067824372366077251 0 -0.00022228275478570139 0.0006956365922472337 0 -0.00022680305494071011 0.00070573819481551672 0 0.00014831761878235505 0.001883726680517726 0 -8.648380953330277e-05 0.0020940579735191731 0 -0.00020257556659456917 0.0016427155280783522 0 -0.00022946734301173427 0.001325372398288844 0 -0.0001785895812144353 0.0011826089380728244 0 6.4855867060129331e-05 0.0014268833748548283 0 -0.00014958808404489168 0.00073761937127861724 0 -0.00020257556659456917 0.0016427155280783522 0 0.00014831761878235505 0.001883726680517726 0 6.4855867060129331e-05 0.0014268833748548283 0 -0.00020257556659456917 0.0016427155280783522 0 0.00014831761878235505 0.001883726680517726 0 6.4855867060129331e-05 0.0014268833748548283 0 0.00020654415337561217 0.0018024834744651615 0 6.4855867060129331e-05 0.0014268833748548283 0 0.00020654415337561217 0.0018024834744651615 0 8.3849400726489334e-05 0.0010124033565902951 0 6.4855867060129331e-05 0.0014268833748548283 0 8.3849400726489334e-05 0.0010124033565902951 0 -0.00014958808404489168 0.00073761937127861724 0 0.00020654415337561217 0.0018024834744651615 0 0.00011544294308948355 0.0017103877079547502 0 8.3849400726489334e-05 0.0010124033565902951 0 0.00019184318856512583 0.0023118326763331173 0 0.00026134422875055696 0.0020821358323705116 0 0.00020654415337561217 0.0018024834744651615 0 0.00015033730870383141 0.0022917120341005254 0 0.00019184318856512583 0.0023118326763331173 0 0.00020654415337561217 0.0018024834744651615 0 0.00015033730870383141 0.0022917120341005254 0 0.00020654415337561217 0.0018024834744651615 0 0.00011544294308948355 0.0017103877079547502 0 0.00011544294308948355 0.0017103877079547502 0 2.0587396281295136e-07 0.0010100668381543844 0 8.3849400726489334e-05 0.0010124033565902951 0 6.8252588413829227e-05 0.0023251870863573876 0 0.00011544294308948355 0.0017103877079547502 0 1.712807698243441e-07 0.0018420408043555467 0 0.00011544294308948355 0.0017103877079547502 0 2.0587396281295136e-07 0.0010100668381543844 0 1.712807698243441e-07 0.0018420408043555467 0 2.0587396281295136e-07 0.0010100668381543844 0 8.3849400726489334e-05 0.0010124033565902951 0 -2.5879374255741561e-09 0.00017828063711006122 0 8.3849400726489334e-05 0.0010124033565902951 0 -2.5879374255741561e-09 0.00017828063711006122 0 -3.3029293315211155e-05 0.00020751432024390069 0 -2.5879374255741561e-09 0.00017828063711006122 0 -3.3029293315211155e-05 0.00020751432024390069 0 2.0218586066977304e-07 -0.0006537446053611032 0 8.3849400726489334e-05 0.0010124033565902951 0 -3.3029293315211155e-05 0.00020751432024390069 0 -0.00014958808404489168 0.00073761937127861724 0 -3.3029293315211155e-05 0.00020751432024390069 0 -0.00013630642309182998 -0.00025904721947427853 0 -0.00014958808404489168 0.00073761937127861724 0 -0.00013630642309182998 -0.00025904721947427853 0 -0.00043553103271957798 0.00029003925751484107 0 -0.00014958808404489168 0.00073761937127861724 0 -3.3029293315211155e-05 0.00020751432024390069 0 -0.00013630642309182998 -0.00025904721947427853 0 2.0218586066977304e-07 -0.0006537446053611032 0 -0.00013630642309182998 -0.00025904721947427853 0 -0.00012469845247402707 -0.0010535130623719837 0 -0.00021089563240365709 -0.0010146000264030786 0 2.0218586066977304e-07 -0.0006537446053611032 0 -0.00012469845247402707 -0.0010535130623719837 0 -1.4051895467931338e-06 -0.0014847045536259783 0 -0.00013630642309182998 -0.00025904721947427853 0 2.0218586066977304e-07 -0.0006537446053611032 0 -0.00012469845247402707 -0.0010535130623719837 0 -0.00066382395105489469 -0.0044024548706110191 0 -0.00068510204681209873 -0.0044014383089504379 0 -0.00065931332109476668 -0.0043949330670184491 0 -1.8241612246159725e-07 -0.0014867400624786794 0 -1.9752554593947003e-05 -0.0015517736727451666 0 -3.3013309393694336e-06 -0.0024234943756299377 0 -4.2892852507128996e-07 -0.0014863819951177663 0 -0.0004369269675894868 -0.002360012894619336 0 -0.00012469845247402707 -0.0010535130623719837 0 -1.4051895467931338e-06 -0.0014847045536259783 0 -0.00017139006471728714 -0.0010789030749532038 0 -0.00040588821810501362 -0.0022966288183423351 0 -0.0004369269675894868 -0.002360012894619336 0 -0.00066382395105489469 -0.0044024548706110191 0 -0.00068510204681209873 -0.0044014383089504379 0 -0.00060430991389375476 -0.0043421384011789561 0 -0.0004369269675894868 -0.002360012894619336 0 -0.00050087671927147488 -0.0021078011465047496 0 -0.00013630642309182998 -0.00025904721947427853 0 -0.00021089563240365709 -0.0010146000264030786 0 -0.00043553103271957798 0.00029003925751484107 0 -0.00050087671927147488 -0.0021078011465047496 0 -0.00045661803535141884 -0.0017049587610460408 0 -0.00068510204681209873 -0.0044014383089504379 0 -0.00060430991389375476 -0.0043421384011789561 0 -0.00065674901090240516 -0.0042796503820870619 0 -0.00060430991389375476 -0.0043421384011789561 0 -0.00065674901090240516 -0.0042796503820870619 0 -0.00057101192616519311 -0.0042337912542904131 0 -0.00065674901090240516 -0.0042796503820870619 0 -0.00057101192616519311 -0.0042337912542904131 0 -0.00061680470548862107 -0.004213961796637934 0 -0.00028642127155832073 0.0006979852499088687 0 -0.00021364478419292062 0.00070934571946979473 0 -0.00014958808404489168 0.00073761937127861724 0 -0.00018111818654726139 0.0007889352525935916 0 -0.0001785895812144353 0.0011826089380728244 0 -0.00021364478419292062 0.00070934571946979473 0 -0.00014958808404489168 0.00073761937127861724 0 -0.00022680305494071011 0.00070573819481551672 0 -0.00043553103271957798 0.00029003925751484107 0 -0.00028642127155832073 0.0006979852499088687 0 -0.00014958808404489168 0.00073761937127861724 0 -0.00026862035643645567 -0.0044927433478400055 0 -0.00042249085483722252 -0.0043968774952975222 0 -5.8708775911098055e-05 -0.0043583388604888145 0 -0.00036747549009320802 -0.004509873372032229 0 -0.00048198110398085711 -0.004501261348106092 0 -0.00029457308282866245 -0.00465403319792289 0 -0.00018542097685949436 -0.0038741549194219647 0 -6.5115102395355008e-06 -0.0043000210573539126 0 -0.00026862035643645567 -0.0044927433478400055 0 -0.00029457308282866245 -0.00465403319792289 0 -0.00015522091891749588 -0.0045242879764138067 0 -0.00026862035643645567 -0.0044927433478400055 0 -0.00036747549009320802 -0.004509873372032229 0 -0.00029457308282866245 -0.00465403319792289 0 -0.00026862035643645567 -0.0044927433478400055 0 -0.00036747549009320802 -0.004509873372032229 0 -0.00042249085483722252 -0.0043968774952975222 0 -2.7115119539927524e-05 -0.0038505869488229781 0 -1.4518906671639396e-05 -0.0035894274302366311 0 -1.5135710010800922e-05 -0.0033436068250501305 0 -2.7115119539927524e-05 -0.0038505869488229781 0 -1.5135710010800922e-05 -0.0033436068250501305 0 -5.8708775911098055e-05 -0.0043583388604888145 0 -1.4518906671639396e-05 -0.0035894274302366311 0 -5.4331813022160979e-08 -0.0031546167160679981 0 -7.0233199205719605e-08 -0.0039888120464875035 0 -2.7115119539927524e-05 -0.0038505869488229781 0 -1.4518906671639396e-05 -0.0035894274302366311 0 -7.0233199205719605e-08 -0.0039888120464875035 0 -1.4518906671639396e-05 -0.0035894274302366311 0 -1.5135710010800922e-05 -0.0033436068250501305 0 -5.4331813022160979e-08 -0.0031546167160679981 0 -1.5135710010800922e-05 -0.0033436068250501305 0 -5.4331813022160979e-08 -0.0031546167160679981 0 -3.3013309393694336e-06 -0.0024234943756299377 0 -0.00042249085483722252 -0.0043968774952975222 0 -0.00048198110398085711 -0.004501261348106092 0 -0.00056117214178483222 -0.0044694570113101087 0 -0.00036747549009320802 -0.004509873372032229 0 -0.00042249085483722252 -0.0043968774952975222 0 -0.00048198110398085711 -0.004501261348106092 0 -0.00064551904623107723 -0.0044848718033707975 0 -0.00056117214178483222 -0.0044694570113101087 0 -0.00057607835866016889 -0.0045865664106346958 0 -0.00048198110398085711 -0.004501261348106092 0 -0.00056117214178483222 -0.0044694570113101087 0 -0.00057607835866016889 -0.0045865664106346958 0 -0.00064551904623107723 -0.0044848718033707975 0 -0.00056117214178483222 -0.0044694570113101087 0 -0.00065931332109476668 -0.0043949330670184491 0 -0.00018542097685949436 -0.0038741549194219647 0 -0.00025442849545997232 -0.0035076674520851986 0 -5.4331813022160979e-08 -0.0031546167160679981 0 -3.3013309393694336e-06 -0.0024234943756299377 0 4.4945748057340792e-08 -0.0023202487161191011 0 -0.00042249085483722252 -0.0043968774952975222 0 -0.00056117214178483222 -0.0044694570113101087 0 -0.00065931332109476668 -0.0043949330670184491 0 -1.8241612246159725e-07 -0.0014867400624786794 0 -3.3013309393694336e-06 -0.0024234943756299377 0 4.4945748057340792e-08 -0.0023202487161191011 0 -0.0004369269675894868 -0.002360012894619336 0 -0.00025442849545997232 -0.0035076674520851986 0 -0.00068510204681209873 -0.0044014383089504379 0 -0.00064551904623107723 -0.0044848718033707975 0 -0.00065931332109476668 -0.0043949330670184491 0 -0.00068510204681209873 -0.0044014383089504379 0 -0.00064551904623107723 -0.0044848718033707975 0 -0.00067809265189943974 -0.0046532594941599498 0 -0.00068510204681209873 -0.0044014383089504379 0 -0.00065674901090240516 -0.0042796503820870619 0 -0.00070927717515530651 -0.0043108622485976749 0 -0.00068362877094608251 -0.004421972421367641 0 -0.00068339857103159971 -0.0044843947110432799 0 -0.00065674901090240516 -0.0042796503820870619 0 -0.00069452188670250463 -0.0042625256168542444 0 -0.0006686170418629217 -0.0042296874072482752 0 -0.00065674901090240516 -0.0042796503820870619 0 -0.00069452188670250463 -0.0042625256168542444 0 -0.00070927717515530651 -0.0043108622485976749 0 -0.00068339857103159971 -0.0044843947110432799 0 -0.00061102533258818221 -0.0046056329537727675 0 -0.00069452188670250463 -0.0042625256168542444 0 -0.00070927717515530651 -0.0043108622485976749 0 -0.00071017904319541742 -0.0042612058209898756 0 -0.00064551904623107723 -0.0044848718033707975 0 -0.00067809265189943974 -0.0046532594941599498 0 -0.00057607835866016889 -0.0045865664106346958 0 -0.00067809265189943974 -0.0046532594941599498 0 -0.00057607835866016889 -0.0045865664106346958 0 -0.00052524596705913083 -0.0049254094679825689 0 -0.00057093371785510048 -0.0045985822723916157 0 -0.00031585041621369096 -0.004715212008597063 0 -0.00057607835866016889 -0.0045865664106346958 0 -0.00052524596705913083 -0.0049254094679825689 0 -0.00032088328064117702 -0.0047838493104358087 0 -0.00048198110398085711 -0.004501261348106092 0 -0.00057607835866016889 -0.0045865664106346958 0 -0.00029457308282866245 -0.00465403319792289 0 -0.00035160339647289577 -0.0049691399139418918 0 -0.00032088328064117702 -0.0047838493104358087 0 -0.00023636671210664379 -0.0049665912653679093 0 -0.00052524596705913083 -0.0049254094679825689 0 -0.00035160339647289577 -0.0049691399139418918 0 -0.00032088328064117702 -0.0047838493104358087 0 -0.00053580626157377512 -0.0046152009814824238 0 -0.00066568118754984165 -0.0052620793617374623 0 -0.00070404568147887749 -0.0042446623252283067 0 -0.00070689574276859926 -0.0042438701255175662 0 -0.00069955072179810637 -0.0042507093477749461 0 -0.00070404568147887749 -0.0042446623252283067 0 -0.00070689574276859926 -0.0042438701255175662 0 -0.00070397809805017363 -0.0042401462784768945 0 -0.00070404568147887749 -0.0042446623252283067 0 -0.00070397809805017363 -0.0042401462784768945 0 -0.00070234787226431837 -0.0042386806153910401 0 -0.00035160339647289577 -0.0049691399139418918 0 -0.0003726106785787424 -0.0051239244472226194 0 -0.00023316711626277721 -0.0050930661897307375 0 -0.00061102533258818221 -0.0046056329537727675 0 -0.00053580626157377512 -0.0046152009814824238 0 -0.00052524596705913083 -0.0049254094679825689 0 -0.00035160339647289577 -0.0049691399139418918 0 -0.0003726106785787424 -0.0051239244472226194 0 -0.00071017904319541742 -0.0042612058209898756 0 -0.00070689574276859926 -0.0042438701255175662 0 -0.00070073601095593276 -0.00423941799797298 0 -0.00070689574276859926 -0.0042438701255175662 0 -0.00070397809805017363 -0.0042401462784768945 0 -0.00070073601095593276 -0.00423941799797298 0 -0.00070397809805017363 -0.0042401462784768945 0 -0.00069888963363012055 -0.0042320248075268857 0 -0.00070073601095593276 -0.00423941799797298 0 -0.00070397809805017363 -0.0042401462784768945 0 -0.00070234787226431837 -0.0042386806153910401 0 -0.00069888963363012055 -0.0042320248075268857 0 -0.00069888963363012055 -0.0042320248075268857 0 -0.00070073601095593276 -0.00423941799797298 0 -0.00068453653089595341 -0.0042110583521515477 0 -0.00070073601095593276 -0.00423941799797298 0 -0.0006686170418629217 -0.0042296874072482752 0 -0.00068453653089595341 -0.0042110583521515477 0 -0.00069452188670250463 -0.0042625256168542444 0 -0.00070073601095593276 -0.00423941799797298 0 -0.0006686170418629217 -0.0042296874072482752 0 -0.00069452188670250463 -0.0042625256168542444 0 -0.00071017904319541742 -0.0042612058209898756 0 -0.00070073601095593276 -0.00423941799797298 0 -0.0006686170418629217 -0.0042296874072482752 0 -0.00068453653089595341 -0.0042110583521515477 0 -0.00063068182407639828 -0.004180812434718165 0 -0.00023378631551576631 -0.0044740120637921463 0 -0.00015721101072409474 -0.0048948103318650895 0 0.0002638014428378748 -0.0049685357861140051 0 0.00030283291571139777 -0.0049282775672162046 0 0.00023759635964781467 -0.0048829352208954813 0 0.0002638014428378748 -0.0049685357861140051 0 0.00031796766162920802 -0.0050031927529007999 0 0.00030283291571139777 -0.0049282775672162046 0 0.00031796766162920802 -0.0050031927529007999 0 0.00030283291571139777 -0.0049282775672162046 0 0.00036334081254455326 -0.0049871636480263732 0 0.00030283291571139777 -0.0049282775672162046 0 0.00036334081254455326 -0.0049871636480263732 0 0.00039606135690261463 -0.0049707258876893973 0 -0.00069888963363012055 -0.0042320248075268857 0 -0.00068453653089595341 -0.0042110583521515477 0 -0.00070164461175841028 -0.0042379908825271864 0 -0.00023378631551576631 -0.0044740120637921463 0 -3.3106631348687459e-05 -0.0048973261381258055 0 -0.00070234787226431837 -0.0042386806153910401 0 -0.00069888963363012055 -0.0042320248075268857 0 -0.00070164461175841028 -0.0042379908825271864 0 0.0003850425801974671 -0.0048896674354736358 0 -3.3106631348687459e-05 -0.0048973261381258055 0 0.00036334081254455326 -0.0049871636480263732 0 0.00040390009566949935 -0.0050417668681984129 0 0.00039150318366783986 -0.0049816626690037044 0 0.00031796766162920802 -0.0050031927529007999 0 0.00036334081254455326 -0.0049871636480263732 0 0.00036690538416703797 -0.005041692281408567 0 0.00036334081254455326 -0.0049871636480263732 0 0.00036690538416703797 -0.005041692281408567 0 0.00040390009566949935 -0.0050417668681984129 0 0.00040390009566949935 -0.0050417668681984129 0 0.00039150318366783986 -0.0049816626690037044 0 0.0004459493218097349 -0.0050043731187023027 0 0.00040390009566949935 -0.0050417668681984129 0 0.00044278654310136041 -0.0050851235873080403 0 0.0004459493218097349 -0.0050043731187023027 0 -0.000686405132715715 -0.0050911763757044053 0 -0.0003908384912420715 -0.0056952636397555748 0 -3.3106631348687459e-05 -0.0048973261381258055 0 -0.0003908384912420715 -0.0056952636397555748 0 -0.00029572251334146157 -0.0052400104175306661 0 -0.00036443341402160405 -0.0052786967234802352 0 -0.00041374999013606123 -0.0052219051222095938 0 -0.00070404568147887749 -0.0042446623252283067 0 -0.00070164461175841028 -0.0042379908825271864 0 -0.00070530639629837405 -0.0042444494424189313 0 -3.3106631348687459e-05 -0.0048973261381258055 0 -0.000686405132715715 -0.0050911763757044053 0 -0.00070404568147887749 -0.0042446623252283067 0 -0.00070234787226431837 -0.0042386806153910401 0 -0.00070164461175841028 -0.0042379908825271864 0 -0.00088876528564987172 -0.0045755134860981355 0 -0.000686405132715715 -0.0050911763757044053 0 -0.00070404568147887749 -0.0042446623252283067 0 -0.00070272926399318086 -0.0042503542411343499 0 -0.00069955072179810637 -0.0042507093477749461 0 -0.00022573899131383198 0.00069257233277062011 0 -0.00022193708380948785 0.00068653105076566586 0 -0.00023322511391441717 0.00069979329301904445 0 -0.00015056348345222093 -0.0020192418848033874 0 -0.00040796965783651854 0.00039292036072048891 0 -0.00022573899131383198 0.00069257233277062011 0 -0.00022193708380948785 0.00068653105076566586 0 -0.00022289782292559657 0.00068532879932959082 0 0.00016846877919095155 -0.0048257261448617916 0 0.00020232266888139375 -0.0048794822347688676 0 0.00017902340774184677 -0.0048660748419289057 0 -6.8453101374273373e-05 0.00066760380972756778 0 -0.00019961500737303642 0.00064786129547148106 0 -0.00010926733294680531 0.00043522642938843137 0 -6.8453101374273373e-05 0.00066760380972756778 0 -0.00019961500737303642 0.00064786129547148106 0 -0.00022289782292559657 0.00068532879932959082 0 -0.00019961500737303642 0.00064786129547148106 0 -0.00022289782292559657 0.00068532879932959082 0 -0.00021658720349632474 0.00066903397174397552 0 -0.00021700086569669474 0.00067824372366077251 0 -0.00022289782292559657 0.00068532879932959082 0 -0.00021658720349632474 0.00066903397174397552 0 -0.00021700086569669474 0.00067824372366077251 0 -0.00022289782292559657 0.00068532879932959082 0 -0.00022228275478570139 0.0006956365922472337 0 -0.00022573899131383198 0.00069257233277062011 0 -0.00022289782292559657 0.00068532879932959082 0 -0.00022228275478570139 0.0006956365922472337 0 -0.00022573899131383198 0.00069257233277062011 0 -0.00022228275478570139 0.0006956365922472337 0 -0.00023322511391441717 0.00069979329301904445 0 -0.00021364478419292062 0.00070934571946979473 0 -0.00022228275478570139 0.0006956365922472337 0 -0.00022680305494071011 0.00070573819481551672 0 -0.00021364478419292062 0.00070934571946979473 0 -0.00022228275478570139 0.0006956365922472337 0 -0.00023322511391441717 0.00069979329301904445 0 -0.00028642127155832073 0.0006979852499088687 0 -0.00021364478419292062 0.00070934571946979473 0 -0.00023322511391441717 0.00069979329301904445 0 -0.00028642127155832073 0.0006979852499088687 0 -0.00022193708380948785 0.00068653105076566586 0 -0.00023322511391441717 0.00069979329301904445 0 -0.00045661803535141884 -0.0017049587610460408 0 -0.00015056348345222093 -0.0020192418848033874 0 -0.00057101192616519311 -0.0042337912542904131 0 -0.00055053780406315441 -0.0041554466353239785 0 -0.00061680470548862107 -0.004213961796637934 0 -0.00065674901090240516 -0.0042796503820870619 0 -0.0006686170418629217 -0.0042296874072482752 0 -0.00061680470548862107 -0.004213961796637934 0 -0.0006686170418629217 -0.0042296874072482752 0 -0.00061680470548862107 -0.004213961796637934 0 -0.00063068182407639828 -0.004180812434718165 0 -0.00055053780406315441 -0.0041554466353239785 0 -0.00061680470548862107 -0.004213961796637934 0 -0.00063068182407639828 -0.004180812434718165 0 0.00016846877919095155 -0.0048257261448617916 0 0.00023759635964781467 -0.0048829352208954813 0 0.00020232266888139375 -0.0048794822347688676 0 -0.00015056348345222093 -0.0020192418848033874 0 -0.00015721101072409474 -0.0048948103318650895 0 0.00020232266888139375 -0.0048794822347688676 0 0.00018244110558233339 -0.0048835461505550093 0 0.00017902340774184677 -0.0048660748419289057 0 0.00020232266888139375 -0.0048794822347688676 0 0.00022795208189623208 -0.004933331043504601 0 0.00018576975818952613 -0.0049116306993778622 0 0.00023759635964781467 -0.0048829352208954813 0 0.00020232266888139375 -0.0048794822347688676 0 0.00022795208189623208 -0.004933331043504601 0 0.00020232266888139375 -0.0048794822347688676 0 0.00018576975818952613 -0.0049116306993778622 0 0.00018244110558233339 -0.0048835461505550093 0 0.0002638014428378748 -0.0049685357861140051 0 0.00023759635964781467 -0.0048829352208954813 0 0.00022795208189623208 -0.004933331043504601 0 0.0002638014428378748 -0.0049685357861140051 0 0.00022795208189623208 -0.004933331043504601 0 0.00024988838089849973 -0.0049756766672098508 0 0.00022795208189623208 -0.004933331043504601 0 0.00020570731268064059 -0.0049666994102746586 0 0.00024988838089849973 -0.0049756766672098508 0 0.00022795208189623208 -0.004933331043504601 0 0.00018576975818952613 -0.0049116306993778622 0 0.00020570731268064059 -0.0049666994102746586 0 0.00018576975818952613 -0.0049116306993778622 0 0.00015002108717789784 -0.0049625580317825589 0 0.00020570731268064059 -0.0049666994102746586 0 0.00018576975818952613 -0.0049116306993778622 0 0.00015841155984639265 -0.0048770145982969309 0 0.00015002108717789784 -0.0049625580317825589 0 0.00021894379841236043 -0.0023123015973308997 0 0.00026378898907719405 -0.0034530715299518509 0 0.00018576975818952613 -0.0049116306993778622 0 0.00018244110558233339 -0.0048835461505550093 0 0.00015841155984639265 -0.0048770145982969309 0 -0.00015056348345222093 -0.0020192418848033874 0 0.00021894379841236043 -0.0023123015973308997 0 0.00016846877919095155 -0.0048257261448617916 0 0.00015841155984639265 -0.0048770145982969309 0 0.00017902340774184677 -0.0048660748419289057 0 0.00018244110558233339 -0.0048835461505550093 0 0.00015841155984639265 -0.0048770145982969309 0 0.00017902340774184677 -0.0048660748419289057 0 0.00023815948446287213 0.00094929547565179091 0 8.7553454047814897e-05 -4.2140679959438396e-06 0 -0.0002089095941264776 0.00068807592368674592 0 -0.00021658720349632474 0.00066903397174397552 0 -0.00021790220785226439 0.00067240828997983029 0 -0.00019961500737303642 0.00064786129547148106 0 -0.00010926733294680531 0.00043522642938843137 0 -0.00025108665092796927 0.00040026122928146502 0 -0.00014702999220474305 0.00076425579017917365 0 8.7553454047814897e-05 -4.2140679959438396e-06 0 -0.00019961500737303642 0.00064786129547148106 0 -0.00021658720349632474 0.00066903397174397552 0 -0.00021790220785226439 0.00067240828997983029 0 0.00021894379841236043 -0.0023123015973308997 0 8.7553454047814897e-05 -4.2140679959438396e-06 0 0.00035616150850000964 -0.0015713628804938523 0 0.00036826257647140436 -0.0016788080039382451 0 0.0003500867130775582 -0.0016804071486708084 0 8.7553454047814897e-05 -4.2140679959438396e-06 0 0.00055200142163073737 -0.0002900543925789672 0 0.00069859395530751632 0.0012219645641464007 0 0.0006234478210300281 0.0011933048286850015 0 0.00066746158265869131 0.0013230759355882223 0 0.00038978499524956506 -0.0015669705795136736 0 0.00035616150850000964 -0.0015713628804938523 0 0.00036826257647140436 -0.0016788080039382451 0 0.00036826257647140436 -0.0016788080039382451 0 0.0003500867130775582 -0.0016804071486708084 0 0.00036852317787411262 -0.0017663857174121762 0 0.00015002108717789784 -0.0049625580317825589 0 0.00017146083923740794 -0.0050087147082388287 0 0.00020570731268064059 -0.0049666994102746586 0 0.00015002108717789784 -0.0049625580317825589 0 0.00017146083923740794 -0.0050087147082388287 0 0.00018241856851524823 -0.0050339528868365993 0 0.00026378898907719405 -0.0034530715299518509 0 0.00021779353366087391 -0.0036695874976711181 0 0.00055200142163073737 -0.0002900543925789672 0 0.00056847740281378749 0.00017165273953634842 0 0.0003500867130775582 -0.0016804071486708084 0 0.00036852317787411262 -0.0017663857174121762 0 0.0003633625070915699 -0.0017666618519388878 0 0.00017146083923740794 -0.0050087147082388287 0 0.00018241856851524823 -0.0050339528868365993 0 0.00015185184413939358 -0.0050172811549551496 0 0.00040031067159277523 -0.0018308106644765823 0 0.00036852317787411262 -0.0017663857174121762 0 0.0003633625070915699 -0.0017666618519388878 0 0.00018241856851524823 -0.0050339528868365993 0 0.00013830848069908049 -0.0049941073140651743 0 0.00018971688485777487 -0.0047963211498720697 0 0.00018241856851524823 -0.0050339528868365993 0 0.00013830848069908049 -0.0049941073140651743 0 0.00015185184413939358 -0.0050172811549551496 0 0.00017146083923740794 -0.0050087147082388287 0 0.00015185184413939358 -0.0050172811549551496 0 0.00018866331930855282 -0.005042136151308549 0 0.00013830848069908049 -0.0049941073140651743 0 0.00015366736862687571 -0.0050599430310635969 0 0.00013853059029159148 -0.0051444454049665855 0 0.00015185184413939358 -0.0050172811549551496 0 0.00018866331930855282 -0.005042136151308549 0 0.00015366736862687571 -0.0050599430310635969 0 0.00018866331930855282 -0.005042136151308549 0 0.00018623903451092102 -0.0050868006310935384 0 0.00015366736862687571 -0.0050599430310635969 0 0.00013830848069908049 -0.0049941073140651743 0 0.00015185184413939358 -0.0050172811549551496 0 0.00015366736862687571 -0.0050599430310635969 0 0.00015366736862687571 -0.0050599430310635969 0 0.00015958673912378101 -0.0051039592481661317 0 0.00013853059029159148 -0.0051444454049665855 0 1.4808079614096921e-05 -0.0048471078392554557 0 0.00052188487333097429 -0.0052896269840225184 0 0.00018623903451092102 -0.0050868006310935384 0 0.00015366736862687571 -0.0050599430310635969 0 0.00015958673912378101 -0.0051039592481661317 0 0.00018623903451092102 -0.0050868006310935384 0 0.00015559946601105952 -0.0051376560619837723 0 0.0002089679865919108 -0.0051292389868557225 0 0.00018623903451092102 -0.0050868006310935384 0 0.00015958673912378101 -0.0051039592481661317 0 0.00015559946601105952 -0.0051376560619837723 0 0.00015958673912378101 -0.0051039592481661317 0 0.00015559946601105952 -0.0051376560619837723 0 0.00013853059029159148 -0.0051444454049665855 0 0.00015559946601105952 -0.0051376560619837723 0 0.00012976178044934254 -0.0051499598214463805 0 0.00022996047799722982 -0.0051824804402588048 0 0.00042059239095063576 -0.0053012278123776698 0 0.00052188487333097429 -0.0052896269840225184 0 0.00013830848069908049 -0.0049941073140651743 0 -1.1481402089017398e-05 -0.0047656907438345828 0 0.00018971688485777487 -0.0047963211498720697 0 0.00038898198617952324 -0.0045802115310029264 0 -1.1481402089017398e-05 -0.0047656907438345828 0 0.00018971688485777487 -0.0047963211498720697 0 0.00036141273491220198 -0.0046745567941838704 0 0.00018241856851524823 -0.0050339528868365993 0 0.00018971688485777487 -0.0047963211498720697 0 0.00083517672362615084 -0.0035560015373873161 0 0.00052188487333097429 -0.0052896269840225184 0 0.00025818886920347218 -0.0051881738354460118 0 0.00027555905710931211 -0.0050648231375729725 0 0.00033651928999788245 -0.0051028850556334628 0 0.00021602825683439509 -0.0050590674875889557 0 0.00029790567454368827 -0.0051641066986879815 0 0.00025818886920347218 -0.0051881738354460118 0 0.00024725169416267074 -0.0050935847419750317 0 0.00027555905710931211 -0.0050648231375729725 0 0.00039239389109788384 -0.0052188648778121929 0 0.00022996047799722982 -0.0051824804402588048 0 0.00024725169416267074 -0.0050935847419750317 0 0.00015559946601105952 -0.0051376560619837723 0 0.00022996047799722982 -0.0051824804402588048 0 0.0002089679865919108 -0.0051292389868557225 0 0.00018623903451092102 -0.0050868006310935384 0 0.0002089679865919108 -0.0051292389868557225 0 0.00024725169416267074 -0.0050935847419750317 0 0.00022996047799722982 -0.0051824804402588048 0 0.0002089679865919108 -0.0051292389868557225 0 0.00024725169416267074 -0.0050935847419750317 0 0.00018866331930855282 -0.005042136151308549 0 0.00024725169416267074 -0.0050935847419750317 0 0.00023579232154770911 -0.0050181206383125808 0 0.00018866331930855282 -0.005042136151308549 0 0.00018623903451092102 -0.0050868006310935384 0 0.00024725169416267074 -0.0050935847419750317 0 0.00024725169416267074 -0.0050935847419750317 0 0.00027555905710931211 -0.0050648231375729725 0 0.00023579232154770911 -0.0050181206383125808 0 0.00027555905710931211 -0.0050648231375729725 0 0.00023579232154770911 -0.0050181206383125808 0 0.00030066759862210578 -0.0050033292976266481 0 0.00017146083923740794 -0.0050087147082388287 0 0.00023579232154770911 -0.0050181206383125808 0 0.00020570731268064059 -0.0049666994102746586 0 0.00017146083923740794 -0.0050087147082388287 0 0.00018866331930855282 -0.005042136151308549 0 0.00023579232154770911 -0.0050181206383125808 0 0.00023579232154770911 -0.0050181206383125808 0 0.00020570731268064059 -0.0049666994102746586 0 0.00024988838089849973 -0.0049756766672098508 0 0.00023579232154770911 -0.0050181206383125808 0 0.00024988838089849973 -0.0049756766672098508 0 0.00030066759862210578 -0.0050033292976266481 0 0.0002638014428378748 -0.0049685357861140051 0 0.00031796766162920802 -0.0050031927529007999 0 0.00026529802012544289 -0.0051095596566860723 0 0.0002638014428378748 -0.0049685357861140051 0 0.00024988838089849973 -0.0049756766672098508 0 0.00030066759862210578 -0.0050033292976266481 0 0.00026583445878398596 -0.0049759158978957465 0 0.00028412352510888325 -0.0050569237373900584 0 0.00031796766162920802 -0.0050031927529007999 0 0.00034346871862134319 -0.0050831380998103857 0 0.00026529802012544289 -0.0051095596566860723 0 0.00031796766162920802 -0.0050031927529007999 0 0.00036690538416703797 -0.005041692281408567 0 0.00034346871862134319 -0.0050831380998103857 0 0.00026529802012544289 -0.0051095596566860723 0 0.00035241669251985492 -0.0051679340173014267 0 0.00029544892408671949 -0.0052111528173322498 0 0.00034346871862134319 -0.0050831380998103857 0 0.00026529802012544289 -0.0051095596566860723 0 0.00035241669251985492 -0.0051679340173014267 0 0.00028412352510888325 -0.0050569237373900584 0 0.00031486629974829077 -0.0051570810264819937 0 0.00040390009566949935 -0.0050417668681984129 0 0.00039958441205696882 -0.0051102816006276452 0 0.00044278654310136041 -0.0050851235873080403 0 0.00039958441205696882 -0.0051102816006276452 0 0.00044878273254097211 -0.0051451364070489933 0 0.00044278654310136041 -0.0050851235873080403 0 0.00036690538416703797 -0.005041692281408567 0 0.00040390009566949935 -0.0050417668681984129 0 0.00039958441205696882 -0.0051102816006276452 0 0.00036690538416703797 -0.005041692281408567 0 0.00034346871862134319 -0.0050831380998103857 0 0.00039958441205696882 -0.0051102816006276452 0 0.00039958441205696882 -0.0051102816006276452 0 0.00035241669251985492 -0.0051679340173014267 0 0.00042181565867254687 -0.0051952289917673866 0 0.00034346871862134319 -0.0050831380998103857 0 0.00039958441205696882 -0.0051102816006276452 0 0.00035241669251985492 -0.0051679340173014267 0 0.00039958441205696882 -0.0051102816006276452 0 0.00042181565867254687 -0.0051952289917673866 0 0.00044878273254097211 -0.0051451364070489933 0 0.00042181565867254687 -0.0051952289917673866 0 0.00041664324859765105 -0.0052436570258756138 0 0.0004573890311297084 -0.00525917047442921 0 0.00042181565867254687 -0.0051952289917673866 0 0.00038336768269597464 -0.0052250162161065405 0 0.00041664324859765105 -0.0052436570258756138 0 0.00035241669251985492 -0.0051679340173014267 0 0.00042181565867254687 -0.0051952289917673866 0 0.00038336768269597464 -0.0052250162161065405 0 0.00035241669251985492 -0.0051679340173014267 0 0.00038336768269597464 -0.0052250162161065405 0 0.00034024722872594515 -0.0052263296417345969 0 0.00038336768269597464 -0.0052250162161065405 0 0.00036905880741635384 -0.0052533086234031632 0 0.00034024722872594515 -0.0052263296417345969 0 0.00036905880741635384 -0.0052533086234031632 0 0.00039949562738119087 -0.0052653125374211816 0 0.00038916925896827101 -0.0052820546417513973 0 0.00038336768269597464 -0.0052250162161065405 0 0.00036905880741635384 -0.0052533086234031632 0 0.00039949562738119087 -0.0052653125374211816 0 0.00038336768269597464 -0.0052250162161065405 0 0.00039949562738119087 -0.0052653125374211816 0 0.00041664324859765105 -0.0052436570258756138 0 0.00039949562738119087 -0.0052653125374211816 0 0.00042740711901202998 -0.0052812717749442665 0 0.00041383596229658572 -0.0052936421932945196 0 0.00039949562738119087 -0.0052653125374211816 0 0.00042740711901202998 -0.0052812717749442665 0 0.00041664324859765105 -0.0052436570258756138 0 0.00027555905710931211 -0.0050648231375729725 0 0.00030066759862210578 -0.0050033292976266481 0 0.00033651928999788245 -0.0051028850556334628 0 0.00035241669251985492 -0.0051679340173014267 0 0.00029544892408671949 -0.0052111528173322498 0 0.00034024722872594515 -0.0052263296417345969 0 0.00034024722872594515 -0.0052263296417345969 0 0.00033586482553310315 -0.0052538450920055525 0 0.00035181372937627289 -0.0052555718079006844 0 0.00029544892408671949 -0.0052111528173322498 0 0.00034024722872594515 -0.0052263296417345969 0 0.00033586482553310315 -0.0052538450920055525 0 0.00036905880741635384 -0.0052533086234031632 0 0.00034024722872594515 -0.0052263296417345969 0 0.00035181372937627289 -0.0052555718079006844 0 0.00025818886920347218 -0.0051881738354460118 0 0.00033651928999788245 -0.0051028850556334628 0 0.00033586482553310315 -0.0052538450920055525 0 0.00031486629974829077 -0.0051570810264819937 0 0.00033378599270479458 -0.0052453822797581418 0 0.00025818886920347218 -0.0051881738354460118 0 0.00033586482553310315 -0.0052538450920055525 0 0.00030429632742093034 -0.0052762094844938006 0 0.00033586482553310315 -0.0052538450920055525 0 0.00036130311450362142 -0.0052874619064744626 0 0.00030429632742093034 -0.0052762094844938006 0 0.00043982709054504098 -0.0052835917740263107 0 0.001019956048579873 -0.0060106808030219987 0 0.00035181372937627289 -0.0052555718079006844 0 0.00035389432365770979 -0.0052687132244932941 0 0.00036936278487008817 -0.0052776002146780274 0 0.00033586482553310315 -0.0052538450920055525 0 0.00035181372937627289 -0.0052555718079006844 0 0.00035389432365770979 -0.0052687132244932941 0 0.00035389432365770979 -0.0052687132244932941 0 0.00036130311450362142 -0.0052874619064744626 0 0.00036936278487008817 -0.0052776002146780274 0 0.00033586482553310315 -0.0052538450920055525 0 0.00035389432365770979 -0.0052687132244932941 0 0.00036130311450362142 -0.0052874619064744626 0 0.00098811810047094674 -0.0073803719353473293 0 0.0007874638834362319 -0.0071742827711892164 0 0.0012660958529614509 -0.0070842762562638171 0 0.00065934349580142146 -0.0054389005572113803 0 0.000653960706124303 -0.0054019320349340868 0 0.0010210074797716313 -0.0054250802575999523 0 0.00098811810047094674 -0.0073803719353473293 0 0.0014673617942982612 -0.0073650638842264549 0 0.0012660958529614509 -0.0070842762562638171 0 0.0007600995137850634 -0.0063124765259002626 0 0.001541583485155001 -0.0070973174682645293 0 0.00065934349580142146 -0.0054389005572113803 0 0.0010515913051924741 -0.0054707388542951183 0 0.0010210074797716313 -0.0054250802575999523 0 0.002237582669179733 -0.0079981047987373408 0 0.0022246018441190295 -0.0080114384623987123 0 0.0022037814228025861 -0.0079830055088235003 0 0.001541583485155001 -0.0070973174682645293 0 0.0016935331249678725 -0.0079595092456831006 0 0.0022471361278447073 -0.0080021319658081305 0 0.002243308943026026 -0.007996992933667145 0 0.0022617990470433125 -0.0080052152357403001 0 0.001019956048579873 -0.0060106808030219987 0 0.001541583485155001 -0.0070973174682645293 0 0.00065934349580142146 -0.0054389005572113803 0 0.00042146461105413234 -0.005333367186718843 0 0.00042662156212574723 -0.0053235421142227663 0 0.00042146461105413234 -0.005333367186718843 0 0.00042662156212574723 -0.0053235421142227663 0 0.00044125485917322717 -0.0053273927181026626 0 0.00042146461105413234 -0.005333367186718843 0 0.00043210256347987123 -0.0053090652597391 0 0.00041383596229658572 -0.0052936421932945196 0 0.00042146461105413234 -0.005333367186718843 0 0.00043210256347987123 -0.0053090652597391 0 0.00044125485917322717 -0.0053273927181026626 0 0.00042740711901202998 -0.0052812717749442665 0 0.00043210256347987123 -0.0053090652597391 0 0.00041383596229658572 -0.0052936421932945196 0 0.00042146461105413234 -0.005333367186718843 0 0.00041383596229658572 -0.0052936421932945196 0 0.00038916925896827101 -0.0052820546417513973 0 0.00039949562738119087 -0.0052653125374211816 0 0.00041383596229658572 -0.0052936421932945196 0 0.00038916925896827101 -0.0052820546417513973 0 0.00042146461105413234 -0.005333367186718843 0 0.00038916925896827101 -0.0052820546417513973 0 0.00036936278487008817 -0.0052776002146780274 0 0.00036130311450362142 -0.0052874619064744626 0 0.00042146461105413234 -0.005333367186718843 0 0.00036936278487008817 -0.0052776002146780274 0 0.00043982709054504098 -0.0052835917740263107 0 0.00046628608181806507 -0.0053571192618560104 0 0.00036905880741635384 -0.0052533086234031632 0 0.00038916925896827101 -0.0052820546417513973 0 0.00036936278487008817 -0.0052776002146780274 0 0.00036905880741635384 -0.0052533086234031632 0 0.00035181372937627289 -0.0052555718079006844 0 0.00036936278487008817 -0.0052776002146780274 0 0.0007600995137850634 -0.0063124765259002626 0 0.00046231847137111404 -0.006385790481996792 0 0.00098811810047094674 -0.0073803719353473293 0 0.0007874638834362319 -0.0071742827711892164 0 0.00050578365542659808 -0.007395797292052037 0 0.00065934349580142146 -0.0054389005572113803 0 0.000653960706124303 -0.0054019320349340868 0 0.00042662156212574723 -0.0053235421142227663 0 0.0007874638834362319 -0.0071742827711892164 0 0.00050578365542659808 -0.007395797292052037 0 0.00030685080273547835 -0.0072660797817692049 0 0.00083891422911975795 -0.0079330026290990521 0 0.00020923607965345941 -0.0081468023450998583 0 0.00068030039161349207 -0.0081236295060151623 0 1.7687032709629132e-05 -0.0078733961559171225 0 7.603311862589636e-05 -0.0090230168481349494 0 0.00095311101274719845 -0.0087205906702488012 0 0.00068030039161349207 -0.0081236295060151623 0 7.603311862589636e-05 -0.0090230168481349494 0 0.00095311101274719845 -0.0087205906702488012 0 0.00068030039161349207 -0.0081236295060151623 0 0.0015110989103052459 -0.0079562820187431098 0 0.00068030039161349207 -0.0081236295060151623 0 0.0010793904198479083 -0.0075698069652205702 0 0.00065279696843787013 -0.0075446746255899214 0 0.00068030039161349207 -0.0081236295060151623 0 0.0010793904198479083 -0.0075698069652205702 0 0.0015110989103052459 -0.0079562820187431098 0 0.00068030039161349207 -0.0081236295060151623 0 1.7687032709629132e-05 -0.0078733961559171225 0 0.00065279696843787013 -0.0075446746255899214 0 0.0022037814228025861 -0.0079830055088235003 0 0.0022399227761063043 -0.0079800255815538346 0 0.0022364063175069229 -0.00798848557239085 0 0.0016935331249678725 -0.0079595092456831006 0 0.0023188150393975118 -0.0079957738136052468 0 0.0019283838453379315 -0.0078313070754211529 0 0.0017345129715836522 -0.0081426977679966046 0 0.0022399227761063043 -0.0079800255815538346 0 0.002237582669179733 -0.0079981047987373408 0 0.0022037814228025861 -0.0079830055088235003 0 0.0022364063175069229 -0.00798848557239085 0 0.0019283838453379315 -0.0078313070754211529 0 0.0017345129715836522 -0.0081426977679966046 0 0.0015110989103052459 -0.0079562820187431098 0 0.00095311101274719845 -0.0087205906702488012 0 0.0018759212427858392 -0.0084659866445896074 0 0.0015110989103052459 -0.0079562820187431098 0 0.00083891422911975795 -0.0079330026290990521 0 0.0016935331249678725 -0.0079595092456831006 0 0.0016935331249678725 -0.0079595092456831006 0 0.0016199416665716739 -0.0080715792557748342 0 0.0010793904198479083 -0.0075698069652205702 0 0.0017645979684383782 -0.0076209019531383445 0 0.0018737058656526761 -0.0072388753540453083 0 0.0010793904198479083 -0.0075698069652205702 0 0.0015110989103052459 -0.0079562820187431098 0 0.0017645979684383782 -0.0076209019531383445 0 0.0019283838453379315 -0.0078313070754211529 0 0.0015110989103052459 -0.0079562820187431098 0 0.0017645979684383782 -0.0076209019531383445 0 0.0017645979684383782 -0.0076209019531383445 0 0.0021027561772490725 -0.007400744670311701 0 0.0018737058656526761 -0.0072388753540453083 0 0.0019283838453379315 -0.0078313070754211529 0 0.0021027561772490725 -0.007400744670311701 0 0.0022399227761063043 -0.0079800255815538346 0 0.0019283838453379315 -0.0078313070754211529 0 0.0017645979684383782 -0.0076209019531383445 0 0.0021027561772490725 -0.007400744670311701 0 0.0021027561772490725 -0.007400744670311701 0 0.0021657184170743768 -0.0072689077154964926 0 0.0021376472416164646 -0.007256292192366628 0 0.0021027561772490725 -0.007400744670311701 0 0.0021619536328084466 -0.0072161192199583649 0 0.0022342277239103467 -0.0070392959802230252 0 0.0021027561772490725 -0.007400744670311701 0 0.0021657184170743768 -0.0072689077154964926 0 0.0021619536328084466 -0.0072161192199583649 0 0.0020667524426636421 -0.0073157199596809042 0 0.0023795760016313769 -0.0076493219664381116 0 0.0021657184170743768 -0.0072689077154964926 0 0.0021619536328084466 -0.0072161192199583649 0 0.0021741901103091168 -0.0072326075731419508 0 0.0021619536328084466 -0.0072161192199583649 0 0.0021317840959218918 -0.0071826132503176737 0 0.0021741901103091168 -0.0072326075731419508 0 0.0021619536328084466 -0.0072161192199583649 0 0.0021359147098909065 -0.0071268898419105933 0 0.0021317840959218918 -0.0071826132503176737 0 0.0021027561772490725 -0.007400744670311701 0 0.0023253607294037933 -0.0079801462039381273 0 0.0022399227761063043 -0.0079800255815538346 0 0.0021619536328084466 -0.0072161192199583649 0 0.0022342277239103467 -0.0070392959802230252 0 0.0021359147098909065 -0.0071268898419105933 0 0.0023253607294037933 -0.0079801462039381273 0 0.0022399227761063043 -0.0079800255815538346 0 0.0022769381238182634 -0.0080002525118825201 0 0.0022399227761063043 -0.0079800255815538346 0 0.0022364063175069229 -0.00798848557239085 0 0.0022769381238182634 -0.0080002525118825201 0 0.0019982242425230887 -0.0068543145812797208 0 0.0019431599753769865 -0.0070108679703319559 0 0.0020749077425567669 -0.0070399154055616787 0 0.0019982242425230887 -0.0068543145812797208 0 0.0019431599753769865 -0.0070108679703319559 0 0.0017776608686129564 -0.0068004980520635491 0 0.0022342277239103467 -0.0070392959802230252 0 0.0019982242425230887 -0.0068543145812797208 0 0.0020749077425567669 -0.0070399154055616787 0 0.0022342277239103467 -0.0070392959802230252 0 0.0020749077425567669 -0.0070399154055616787 0 0.0021359147098909065 -0.0071268898419105933 0 0.0019431599753769865 -0.0070108679703319559 0 0.0020749077425567669 -0.0070399154055616787 0 0.0020460110968956889 -0.0071328398622227855 0 0.0020749077425567669 -0.0070399154055616787 0 0.0021359147098909065 -0.0071268898419105933 0 0.0020460110968956889 -0.0071328398622227855 0 0.0019431599753769865 -0.0070108679703319559 0 0.0020460110968956889 -0.0071328398622227855 0 0.0017934734201292307 -0.0071306249894781647 0 0.0021741901103091168 -0.0072326075731419508 0 0.0020722482445201672 -0.0071853561405062702 0 0.002079048729864814 -0.0070164881912576065 0 0.0021741901103091168 -0.0072326075731419508 0 0.0020722482445201672 -0.0071853561405062702 0 0.002227658310721465 -0.0071825765814493734 0 0.0021702430861364344 -0.0070548601238802295 0 0.0022434580900313342 -0.0071870267875687828 0 0.0020460110968956889 -0.0071328398622227855 0 0.0021741901103091168 -0.0072326075731419508 0 0.0017934734201292307 -0.0071306249894781647 0 0.0021512111646152673 -0.007225831946774776 0 0.0019099631691266823 -0.0070324021167504054 0 0.0020460110968956889 -0.0071328398622227855 0 0.0021317840959218918 -0.0071826132503176737 0 0.0021741901103091168 -0.0072326075731419508 0 0.0021359147098909065 -0.0071268898419105933 0 0.0020460110968956889 -0.0071328398622227855 0 0.0021317840959218918 -0.0071826132503176737 0 0.0023874219955981584 -0.0070555188147624825 0 0.0023924238962476398 -0.0070672678203950673 0 0.0023399047024481637 -0.0070840010338083939 0 0.0021702430861364344 -0.0070548601238802295 0 0.0021982285816874577 -0.0073490057668098331 0 0.0023924238962476398 -0.0070672678203950673 0 0.0024398935880791256 -0.0070312045011586919 0 0.0024685019901257285 -0.0070225247940443316 0 0.0023874219955981584 -0.0070555188147624825 0 0.0024116367929695741 -0.0070413023000328477 0 0.0023924238962476398 -0.0070672678203950673 0 0.0024116367929695741 -0.0070413023000328477 0 0.0023924238962476398 -0.0070672678203950673 0 0.0024398935880791256 -0.0070312045011586919 0 0.0024626722551173274 -0.0070094135840957283 0 0.002440831629674014 -0.0070116587721181694 0 0.0024757091768307662 -0.0069812715827563734 0 0.0024904125104690286 -0.0069979104106096335 0 0.0024626722551173274 -0.0070094135840957283 0 0.0024757091768307662 -0.0069812715827563734 0 0.0024626722551173274 -0.0070094135840957283 0 0.002440831629674014 -0.0070116587721181694 0 0.0024398935880791256 -0.0070312045011586919 0 0.0024116367929695741 -0.0070413023000328477 0 0.002440831629674014 -0.0070116587721181694 0 0.0024398935880791256 -0.0070312045011586919 0 0.0024398935880791256 -0.0070312045011586919 0 0.0024703727581587612 -0.0070151959836737658 0 0.0024685019901257285 -0.0070225247940443316 0 0.0024626722551173274 -0.0070094135840957283 0 0.0024398935880791256 -0.0070312045011586919 0 0.0024703727581587612 -0.0070151959836737658 0 0.0024904125104690286 -0.0069979104106096335 0 0.0024626722551173274 -0.0070094135840957283 0 0.0024703727581587612 -0.0070151959836737658 0 0.0016587616472860259 -0.0068940383133859794 0 0.002079048729864814 -0.0070164881912576065 0 0.0017225101801840034 -0.0066032051320399857 0 0.0024876989838899231 -0.007005854418108551 0 0.0024703727581587612 -0.0070151959836737658 0 0.0024685019901257285 -0.0070225247940443316 0 0.0013710143856340057 -0.0064651946616743356 0 0.0016587616472860259 -0.0068940383133859794 0 0.0017225101801840034 -0.0066032051320399857 0 0.0019099631691266823 -0.0070324021167504054 0 0.0015561399249224149 -0.0068450419446225014 0 0.0020722482445201672 -0.0071853561405062702 0 0.0016587616472860259 -0.0068940383133859794 0 0.002079048729864814 -0.0070164881912576065 0 0.0017934734201292307 -0.0071306249894781647 0 0.0017776608686129564 -0.0068004980520635491 0 0.0013112427332138427 -0.0067756054212482113 0 0.0019431599753769865 -0.0070108679703319559 0 0.0017934734201292307 -0.0071306249894781647 0 0.0017776608686129564 -0.0068004980520635491 0 0.0015586683319082128 -0.006474313108753159 0 0.0017776608686129564 -0.0068004980520635491 0 0.0020002975593297182 -0.0065060404596041024 0 0.0015586683319082128 -0.006474313108753159 0 0.0017776608686129564 -0.0068004980520635491 0 0.0013112427332138427 -0.0067756054212482113 0 0.0016326918353427088 -0.0064309654646821091 0 0.0015188293261856394 -0.0065949341753990358 0 0.00078422747494097216 -0.0063064756293904223 0 0.0013112427332138427 -0.0067756054212482113 0 0.0010295230044775516 -0.0064313957731268233 0 0.0012159747462666091 -0.0061063526349455759 0 0.0013710143856340057 -0.0064651946616743356 0 0.0017225101801840034 -0.0066032051320399857 0 0.0015586683319082128 -0.006474313108753159 0 0.0013112427332138427 -0.0067756054212482113 0 0.0010295230044775516 -0.0064313957731268233 0 0.0012514820639540109 -0.0048810613076036109 0 0.0015561399249224149 -0.0068450419446225014 0 0.0016326918353427088 -0.0064309654646821091 0 0.0010488670265011561 -0.0064384751179494618 0 0.00082437833993647444 -0.0060158010161770626 0 0.0015496251533206413 -0.0063984067132435889 0 0.0010295230044775516 -0.0064313957731268233 0 0.00082437833993647444 -0.0060158010161770626 0 0.0016209058864262505 -0.005668638132223818 0 0.0015496251533206413 -0.0063984067132435889 0 0.0016209058864262505 -0.005668638132223818 0 0.0015496251533206413 -0.0063984067132435889 0 0.0020657583231502058 -0.0063775131287114343 0 0.00052188487333097429 -0.0052896269840225184 0 0.0015188293261856394 -0.0065949341753990358 0 0.00012976178044934254 -0.0051499598214463805 0 0.00022996047799722982 -0.0051824804402588048 0 0.0002462946765689591 -0.0053816909501803248 0 0.00039239389109788384 -0.0052188648778121929 0 0.00022996047799722982 -0.0051824804402588048 0 0.0002462946765689591 -0.0053816909501803248 0 0.00021602825683439509 -0.0050590674875889557 0 0.001019956048579873 -0.0060106808030219987 0 0.00039239389109788384 -0.0052188648778121929 0 0.00051296766977887019 -0.0053813709594161948 0 0.0002462946765689591 -0.0053816909501803248 0 0.0022471361278447073 -0.0080021319658081305 0 0.0022617990470433125 -0.0080052152357403001 0 0.0022743391114913073 -0.0080054690876663198 0 0.0023253607294037933 -0.0079801462039381273 0 0.0022769381238182634 -0.0080002525118825201 0 0.0022743391114913073 -0.0080054690876663198 0 0.0022617990470433125 -0.0080052152357403001 0 0.0022769381238182634 -0.0080002525118825201 0 0.0022743391114913073 -0.0080054690876663198 0 0.001019956048579873 -0.0060106808030219987 0 0.0015188293261856394 -0.0065949341753990358 0 0.001541583485155001 -0.0070973174682645293 0 0.0024272923742705362 -0.0078699431974531865 0 0.002237582669179733 -0.0079981047987373408 0 0.0022246018441190295 -0.0080114384623987123 0 0.0022617990470433125 -0.0080052152357403001 0 0.002237582669179733 -0.0079981047987373408 0 0.0022617990470433125 -0.0080052152357403001 0 0.0022769381238182634 -0.0080002525118825201 0 0.002237582669179733 -0.0079981047987373408 0 0.0022364063175069229 -0.00798848557239085 0 0.0022769381238182634 -0.0080002525118825201 0 0.0023795760016313769 -0.0076493219664381116 0 0.0015188293261856394 -0.0065949341753990358 0 0.0022342277239103467 -0.0070392959802230252 0 0.0019982242425230887 -0.0068543145812797208 0 0.0020002975593297182 -0.0065060404596041024 0 0.0019982242425230887 -0.0068543145812797208 0 0.0017776608686129564 -0.0068004980520635491 0 0.0020002975593297182 -0.0065060404596041024 0 -0.00060574314268199692 -0.0077618328637180248 0 -0.0020342365242445779 -0.0098616475006860979 0 -0.0017574286277439132 -0.009371264113361687 0 -0.001761543317659152 -0.0094295577428268728 0 -0.0017451393230880237 -0.0093962222469931647 0 -0.0017447669024492709 -0.0093248992769983177 0 -0.0017574286277439132 -0.009371264113361687 0 -0.0016871205347286475 -0.0094157850840384076 0 -0.0017447669024492709 -0.0093248992769983177 0 -0.0017574286277439132 -0.009371264113361687 0 -0.0017451393230880237 -0.0093962222469931647 0 0.00061852253872060788 -0.0053810989066054252 0 0.00055899744917804696 -0.005373762879287947 0 0.00058717570824756129 -0.0052907925846329956 0 -0.00060574314268199692 -0.0077618328637180248 0 -0.00052717040986739077 -0.0073469301582692915 0 -0.0019199327511059644 -0.0092090942631223062 0 -0.0017320940372656051 -0.0091746349055768107 0 -0.001761543317659152 -0.0094295577428268728 0 -0.00060574314268199692 -0.0077618328637180248 0 -0.00062322225031811952 -0.0084231199193575412 0 0.0003156403824596307 -0.0076171492786086641 0 0.00061617492106382497 -0.0075533720329911914 0 0.00043031370110450468 -0.0073562426484600615 0 -0.0015342303574619612 -0.0091075504539576274 0 -0.00162657584731962 -0.0093167678053816712 0 -0.0014567663824947138 -0.0092513390919625495 0 -0.0017320940372656051 -0.0091746349055768107 0 -0.0015342303574619612 -0.0091075504539576274 0 -0.00162657584731962 -0.0093167678053816712 0 -0.00062322225031811952 -0.0084231199193575412 0 -0.00025809747394078114 -0.0082456218182183696 0 -0.00162657584731962 -0.0093167678053816712 0 -0.0016514070424907181 -0.0095286232999218044 0 -0.0014825887629386024 -0.009430796909326189 0 -0.00162657584731962 -0.0093167678053816712 0 -0.001761543317659152 -0.0094295577428268728 0 -0.0016514070424907181 -0.0095286232999218044 0 -0.0017320940372656051 -0.0091746349055768107 0 -0.00162657584731962 -0.0093167678053816712 0 -0.001761543317659152 -0.0094295577428268728 0 -0.001761543317659152 -0.0094295577428268728 0 -0.0017324445758078915 -0.0095811671216182621 0 -0.0016514070424907181 -0.0095286232999218044 0 -0.001761543317659152 -0.0094295577428268728 0 -0.0017324445758078915 -0.0095811671216182621 0 -0.0017439224992550286 -0.0095148934166202643 0 -0.0017324445758078915 -0.0095811671216182621 0 -0.0016514070424907181 -0.0095286232999218044 0 -0.0017155251866062986 -0.00972145424968523 0 -0.0016514070424907181 -0.0095286232999218044 0 -0.0017155251866062986 -0.00972145424968523 0 -0.0015611227777259701 -0.0096707797614054673 0 -0.0017155251866062986 -0.00972145424968523 0 -0.0015611227777259701 -0.0096707797614054673 0 -0.001698276424086315 -0.0099407286048485387 0 -0.0017155251866062986 -0.00972145424968523 0 -0.0017318006312309255 -0.009650202381536549 0 -0.0017252462666998349 -0.0098087066888448166 0 -0.001698276424086315 -0.0099407286048485387 0 -0.0017200880775874226 -0.0099385665356386647 0 -0.0017252462666998349 -0.0098087066888448166 0 -0.0017155251866062986 -0.00972145424968523 0 -0.001698276424086315 -0.0099407286048485387 0 -0.0017252462666998349 -0.0098087066888448166 0 -0.0017324445758078915 -0.0095811671216182621 0 -0.0017318006312309255 -0.009650202381536549 0 -0.0017439224992550286 -0.0095148934166202643 0 -0.0017324445758078915 -0.0095811671216182621 0 -0.0017155251866062986 -0.00972145424968523 0 -0.0017318006312309255 -0.009650202381536549 0 -0.0017318006312309255 -0.009650202381536549 0 -0.0017439224992550286 -0.0095148934166202643 0 -0.0017164683234338878 -0.0095123126860972695 0 -0.0017439224992550286 -0.0095148934166202643 0 -0.0017250595629799204 -0.0094523147017625663 0 -0.0017164683234338878 -0.0095123126860972695 0 -0.0017439224992550286 -0.0095148934166202643 0 -0.0017451393230880237 -0.0093962222469931647 0 -0.0017250595629799204 -0.0094523147017625663 0 -0.001761543317659152 -0.0094295577428268728 0 -0.0017439224992550286 -0.0095148934166202643 0 -0.0017451393230880237 -0.0093962222469931647 0 -0.0017451393230880237 -0.0093962222469931647 0 -0.0017250595629799204 -0.0094523147017625663 0 -0.0017218360931660615 -0.0093740374681826957 0 -0.0017447669024492709 -0.0093248992769983177 0 -0.0017451393230880237 -0.0093962222469931647 0 -0.0017218360931660615 -0.0093740374681826957 0 -0.0017250595629799204 -0.0094523147017625663 0 -0.0017218360931660615 -0.0093740374681826957 0 -0.0017235837084379946 -0.009457497881787685 0 -0.0017712014908033982 -0.0094096963805034659 0 -0.0017218360931660615 -0.0093740374681826957 0 -0.0017235837084379946 -0.009457497881787685 0 -0.0015449985329700098 -0.0087734192306082575 0 -0.0017164336794501091 -0.0091537099541239269 0 -0.0013293689881160918 -0.0080764693055376535 0 -0.0011292554652592678 -0.0087945844872628128 0 -0.0017275106822208955 -0.0092041317928612601 0 -0.0013293689881160918 -0.0080764693055376535 0 -0.0011292554652592678 -0.0087945844872628128 0 -0.00060720777822536774 -0.0085035229593417253 0 -0.0017712014908033982 -0.0094096963805034659 0 -0.0017218360931660615 -0.0093740374681826957 0 -0.0017275106822208955 -0.0092041317928612601 0 -0.0017447669024492709 -0.0093248992769983177 0 -0.0017218360931660615 -0.0093740374681826957 0 -0.0017275106822208955 -0.0092041317928612601 0 -0.0013293689881160918 -0.0080764693055376535 0 -0.00064240725391923189 -0.0078033318916653927 0 -0.00060720777822536774 -0.0085035229593417253 0 -0.0013293689881160918 -0.0080764693055376535 0 -0.00064240725391923189 -0.0078033318916653927 0 -0.00086519994896454581 -0.0071811018613340619 0 1.7687032709629132e-05 -0.0078733961559171225 0 -0.00064240725391923189 -0.0078033318916653927 0 -0.00060720777822536774 -0.0085035229593417253 0 -0.0011292554652592678 -0.0087945844872628128 0 -0.00060720777822536774 -0.0085035229593417253 0 -0.00088176944919816089 -0.0093245243245588926 0 1.7687032709629132e-05 -0.0078733961559171225 0 -0.00060720777822536774 -0.0085035229593417253 0 7.603311862589636e-05 -0.0090230168481349494 0 0.00046231847137111404 -0.006385790481996792 0 0.00033507218478121074 -0.0062654081998668246 0 0.00050578365542659808 -0.007395797292052037 0 0.00030685080273547835 -0.0072660797817692049 0 2.3767543455149e-05 -0.0074106314892514414 0 2.3767543455149e-05 -0.0074106314892514414 0 -0.00017225304558170698 -0.0073569433183020639 0 -0.00046064314726247918 -0.0074116570966423706 0 0.00030685080273547835 -0.0072660797817692049 0 2.3767543455149e-05 -0.0074106314892514414 0 -0.00017225304558170698 -0.0073569433183020639 0 0.00020923607965345941 -0.0081468023450998583 0 -0.00063206972070090062 -0.008321682057986864 0 -0.00060720777822536774 -0.0085035229593417253 0 7.603311862589636e-05 -0.0090230168481349494 0 -0.00088176944919816089 -0.0093245243245588926 0 0.00033507218478121074 -0.0062654081998668246 0 -0.00036783437237851842 -0.0073762579295799588 0 0.00047377948031754682 -0.0053511915109717735 0 0.00045252969668105683 -0.0053082756673432695 0 0.0004837545871987501 -0.005300419251562466 0 0.00047377948031754682 -0.0053511915109717735 0 0.00050865438947359691 -0.0053314172261735475 0 0.0004837545871987501 -0.005300419251562466 0 0.00050865438947359691 -0.0053314172261735475 0 0.00051449697727169589 -0.0052981831391422764 0 0.0004837545871987501 -0.005300419251562466 0 0.00042662156212574723 -0.0053235421142227663 0 0.00047377948031754682 -0.0053511915109717735 0 0.00044125485917322717 -0.0053273927181026626 0 0.00047377948031754682 -0.0053511915109717735 0 0.00045252969668105683 -0.0053082756673432695 0 0.00044125485917322717 -0.0053273927181026626 0 0.00042740711901202998 -0.0052812717749442665 0 0.00043210256347987123 -0.0053090652597391 0 0.00045252969668105683 -0.0053082756673432695 0 0.00043210256347987123 -0.0053090652597391 0 0.00045252969668105683 -0.0053082756673432695 0 0.00044125485917322717 -0.0053273927181026626 0 -0.0017275106822208955 -0.0092041317928612601 0 -0.0014320138708680083 -0.0094587478267703952 0 -0.0016871205347286475 -0.0094157850840384076 0 -0.0017447669024492709 -0.0093248992769983177 0 -0.0017275106822208955 -0.0092041317928612601 0 -0.0016871205347286475 -0.0094157850840384076 0 -0.0011292554652592678 -0.0087945844872628128 0 -0.00088176944919816089 -0.0093245243245588926 0 -0.0017275106822208955 -0.0092041317928612601 0 -0.00088176944919816089 -0.0093245243245588926 0 -0.0017275106822208955 -0.0092041317928612601 0 -0.0014320138708680083 -0.0094587478267703952 0 -0.00063206972070090062 -0.008321682057986864 0 -0.00036783437237851842 -0.0073762579295799588 0 0.00053549236095918457 -0.005371701180595905 0 0.00050865438947359691 -0.0053314172261735475 0 0.00054050722517538406 -0.0053232679503989865 0 0.00047377948031754682 -0.0053511915109717735 0 0.00053549236095918457 -0.005371701180595905 0 0.00050865438947359691 -0.0053314172261735475 0 0.00050865438947359691 -0.0053314172261735475 0 0.00054050722517538406 -0.0053232679503989865 0 0.00051449697727169589 -0.0052981831391422764 0 0.00054050722517538406 -0.0053232679503989865 0 0.00055899744917804696 -0.005373762879287947 0 0.00058717570824756129 -0.0052907925846329956 0 0.00053549236095918457 -0.005371701180595905 0 0.00054050722517538406 -0.0053232679503989865 0 0.00055899744917804696 -0.005373762879287947 0 -0.00036783437237851842 -0.0073762579295799588 0 -0.00052717040986739077 -0.0073469301582692915 0 0.00054050722517538406 -0.0053232679503989865 0 0.00058717570824756129 -0.0052907925846329956 0 0.00053906179892943776 -0.0052687262449649204 0 0.00054050722517538406 -0.0053232679503989865 0 0.00053906179892943776 -0.0052687262449649204 0 0.00051449697727169589 -0.0052981831391422764 0 0.00053906179892943776 -0.0052687262449649204 0 0.00051449697727169589 -0.0052981831391422764 0 0.00049864589190675487 -0.0052498700252287976 0 0.00053906179892943776 -0.0052687262449649204 0 0.00049864589190675487 -0.0052498700252287976 0 0.00055040900491338499 -0.0051966318632044985 0 0.00058717570824756129 -0.0052907925846329956 0 0.00053906179892943776 -0.0052687262449649204 0 0.00055040900491338499 -0.0051966318632044985 0 0.00045239044122830915 -0.0060946577366481876 0 0.00012680574756139963 -0.0061078392311264941 0 4.8355386442398603e-05 -0.0072982085867084254 0 -0.00025382732314758858 -0.0069569297953818573 0 0.00022998111716720569 -0.0070128843675514941 0 0.00045252969668105683 -0.0053082756673432695 0 0.0004573890311297084 -0.00525917047442921 0 0.0004837545871987501 -0.005300419251562466 0 0.00042740711901202998 -0.0052812717749442665 0 0.00041664324859765105 -0.0052436570258756138 0 0.0004573890311297084 -0.00525917047442921 0 0.00042740711901202998 -0.0052812717749442665 0 0.00045252969668105683 -0.0053082756673432695 0 0.0004573890311297084 -0.00525917047442921 0 0.0004573890311297084 -0.00525917047442921 0 0.0004837545871987501 -0.005300419251562466 0 0.00049864589190675487 -0.0052498700252287976 0 0.00051449697727169589 -0.0052981831391422764 0 0.0004837545871987501 -0.005300419251562466 0 0.00049864589190675487 -0.0052498700252287976 0 0.0004573890311297084 -0.00525917047442921 0 0.00049864589190675487 -0.0052498700252287976 0 0.00048539833666298677 -0.0051929038076192228 0 0.00049864589190675487 -0.0052498700252287976 0 0.00048539833666298677 -0.0051929038076192228 0 0.00055040900491338499 -0.0051966318632044985 0 0.00042181565867254687 -0.0051952289917673866 0 0.0004573890311297084 -0.00525917047442921 0 0.00048539833666298677 -0.0051929038076192228 0 0.00042181565867254687 -0.0051952289917673866 0 0.00044878273254097211 -0.0051451364070489933 0 0.00048539833666298677 -0.0051929038076192228 0 0.00044878273254097211 -0.0051451364070489933 0 0.00048539833666298677 -0.0051929038076192228 0 0.00050395307673586649 -0.0050992193789465064 0 0.00048539833666298677 -0.0051929038076192228 0 0.00050395307673586649 -0.0050992193789465064 0 0.00055040900491338499 -0.0051966318632044985 0 0.00044878273254097211 -0.0051451364070489933 0 0.00050395307673586649 -0.0050992193789465064 0 0.00044278654310136041 -0.0050851235873080403 0 -0.00025382732314758858 -0.0069569297953818573 0 -3.7602333172104289e-05 -0.0066556585989398622 0 0.00022998111716720569 -0.0070128843675514941 0 -0.00025382732314758858 -0.0069569297953818573 0 -0.0003144172957225936 -0.0065919745863469541 0 -3.7602333172104289e-05 -0.0066556585989398622 0 -0.00056383467352658686 -0.0065868441257848805 0 -0.00025382732314758858 -0.0069569297953818573 0 -0.0003144172957225936 -0.0065919745863469541 0 8.2159303307147214e-07 -0.0058292930645579746 0 0.00012680574756139963 -0.0061078392311264941 0 -0.0003144172957225936 -0.0065919745863469541 0 -3.7602333172104289e-05 -0.0066556585989398622 0 -0.00024737474186575711 -0.006349391682484805 0 -3.7602333172104289e-05 -0.0066556585989398622 0 0.0002818766205927421 -0.0066464018642040179 0 0.00022998111716720569 -0.0070128843675514941 0 -3.7602333172104289e-05 -0.0066556585989398622 0 0.0002818766205927421 -0.0066464018642040179 0 0.00011993134507800515 -0.0063578786990628119 0 0.0002818766205927421 -0.0066464018642040179 0 0.00054617494518834509 -0.0068268318512978952 0 0.00050981171877187913 -0.0065368081292500168 0 0.00054617494518834509 -0.0068268318512978952 0 0.00022998111716720569 -0.0070128843675514941 0 0.00054414878999202605 -0.0071157738841907594 0 0.0002818766205927421 -0.0066464018642040179 0 0.00054617494518834509 -0.0068268318512978952 0 0.00022998111716720569 -0.0070128843675514941 0 4.8355386442398603e-05 -0.0072982085867084254 0 0.00022998111716720569 -0.0070128843675514941 0 0.00043031370110450468 -0.0073562426484600615 0 0.00022998111716720569 -0.0070128843675514941 0 0.00054414878999202605 -0.0071157738841907594 0 0.00043031370110450468 -0.0073562426484600615 0 0.0003156403824596307 -0.0076171492786086641 0 4.8355386442398603e-05 -0.0072982085867084254 0 0.00043031370110450468 -0.0073562426484600615 0 -0.00060574314268199692 -0.0077618328637180248 0 0.00045239044122830915 -0.0060946577366481876 0 0.00090006634466938693 -0.0074886634109360244 0 0.0007467428359058092 -0.0072594307307375571 0 0.00098190393990447945 -0.0072564852672781744 0 0.00061617492106382497 -0.0075533720329911914 0 0.00090006634466938693 -0.0074886634109360244 0 0.0007467428359058092 -0.0072594307307375571 0 0.00061617492106382497 -0.0075533720329911914 0 0.00043031370110450468 -0.0073562426484600615 0 0.0007467428359058092 -0.0072594307307375571 0 0.00054414878999202605 -0.0071157738841907594 0 0.0007467428359058092 -0.0072594307307375571 0 0.00073389263889316427 -0.0070079419835348856 0 0.00054414878999202605 -0.0071157738841907594 0 0.00043031370110450468 -0.0073562426484600615 0 0.0007467428359058092 -0.0072594307307375571 0 0.0007467428359058092 -0.0072594307307375571 0 0.00092128374189913876 -0.0070346435333992485 0 0.00098190393990447945 -0.0072564852672781744 0 0.0007467428359058092 -0.0072594307307375571 0 0.00092128374189913876 -0.0070346435333992485 0 0.00073389263889316427 -0.0070079419835348856 0 0.00092128374189913876 -0.0070346435333992485 0 0.00081417550375735537 -0.0067884474946440353 0 0.00098366795076638459 -0.0069437424398850053 0 0.00092128374189913876 -0.0070346435333992485 0 0.00073389263889316427 -0.0070079419835348856 0 0.00081417550375735537 -0.0067884474946440353 0 0.00054617494518834509 -0.0068268318512978952 0 0.00054414878999202605 -0.0071157738841907594 0 0.00073389263889316427 -0.0070079419835348856 0 0.00054617494518834509 -0.0068268318512978952 0 0.00073389263889316427 -0.0070079419835348856 0 0.00081417550375735537 -0.0067884474946440353 0 0.00054617494518834509 -0.0068268318512978952 0 0.0006898673108784258 -0.0066255755388405424 0 0.00081417550375735537 -0.0067884474946440353 0 0.00054617494518834509 -0.0068268318512978952 0 0.0006898673108784258 -0.0066255755388405424 0 0.00050981171877187913 -0.0065368081292500168 0 0.0006898673108784258 -0.0066255755388405424 0 0.00081417550375735537 -0.0067884474946440353 0 0.0008762065676125308 -0.0065334343698703118 0 0.00081417550375735537 -0.0067884474946440353 0 0.00099985226130662442 -0.0066641225581380043 0 0.0011103979178126136 -0.0067154648347275137 0 0.00081677318720789905 -0.0067963710837697939 0 0.0010337111632786984 -0.006825328624123112 0 0.00081417550375735537 -0.0067884474946440353 0 0.00099985226130662442 -0.0066641225581380043 0 0.0008762065676125308 -0.0065334343698703118 0 0.0008762065676125308 -0.0065334343698703118 0 0.00091762206896157407 -0.0063265574002576005 0 0.0010761445954837318 -0.0064166790994631961 0 0.00091762206896157407 -0.0063265574002576005 0 0.0010761445954837318 -0.0064166790994631961 0 0.00110103462738832 -0.0062795609245243121 0 0.00091762206896157407 -0.0063265574002576005 0 0.00087471066583108754 -0.0060760383417404785 0 0.00110103462738832 -0.0062795609245243121 0 0.00070637891486189123 -0.0061879196595976856 0 0.00061901727622739916 -0.0059505287074476006 0 0.00087471066583108754 -0.0060760383417404785 0 0.00091762206896157407 -0.0063265574002576005 0 0.00070637891486189123 -0.0061879196595976856 0 0.00087471066583108754 -0.0060760383417404785 0 0.00091762206896157407 -0.0063265574002576005 0 0.00070637891486189123 -0.0061879196595976856 0 0.00070713807281208075 -0.0064099053006855264 0 0.00070637891486189123 -0.0061879196595976856 0 0.00070713807281208075 -0.0064099053006855264 0 0.00051565959311143108 -0.0062539863848410093 0 0.0008762065676125308 -0.0065334343698703118 0 0.00091762206896157407 -0.0063265574002576005 0 0.00070713807281208075 -0.0064099053006855264 0 0.0006898673108784258 -0.0066255755388405424 0 0.0008762065676125308 -0.0065334343698703118 0 0.00070713807281208075 -0.0064099053006855264 0 0.0006898673108784258 -0.0066255755388405424 0 0.00070713807281208075 -0.0064099053006855264 0 0.00050981171877187913 -0.0065368081292500168 0 0.00070713807281208075 -0.0064099053006855264 0 0.00050981171877187913 -0.0065368081292500168 0 0.00051565959311143108 -0.0062539863848410093 0 0.0002818766205927421 -0.0066464018642040179 0 0.00050981171877187913 -0.0065368081292500168 0 0.00035287278241508314 -0.0063726175668196708 0 0.00050981171877187913 -0.0065368081292500168 0 0.00035287278241508314 -0.0063726175668196708 0 0.00051565959311143108 -0.0062539863848410093 0 0.0002818766205927421 -0.0066464018642040179 0 0.00035287278241508314 -0.0063726175668196708 0 0.00011993134507800515 -0.0063578786990628119 0 0.00035287278241508314 -0.0063726175668196708 0 0.00011993134507800515 -0.0063578786990628119 0 0.0003311971941387593 -0.0060411892325267832 0 0.00011993134507800515 -0.0063578786990628119 0 0.0003311971941387593 -0.0060411892325267832 0 8.9528110324970934e-05 -0.0060876110420096099 0 0.0003311971941387593 -0.0060411892325267832 0 0.00019043606155109009 -0.0058361775009742834 0 8.9528110324970934e-05 -0.0060876110420096099 0 0.0003311971941387593 -0.0060411892325267832 0 0.00051565959311143108 -0.0062539863848410093 0 0.00061901727622739916 -0.0059505287074476006 0 0.00035287278241508314 -0.0063726175668196708 0 0.0003311971941387593 -0.0060411892325267832 0 0.00051565959311143108 -0.0062539863848410093 0 0.00070637891486189123 -0.0061879196595976856 0 0.00051565959311143108 -0.0062539863848410093 0 0.00061901727622739916 -0.0059505287074476006 0 0.0003311971941387593 -0.0060411892325267832 0 0.00061901727622739916 -0.0059505287074476006 0 0.00036971920311701465 -0.0056686754063525781 0 0.00061901727622739916 -0.0059505287074476006 0 0.00036971920311701465 -0.0056686754063525781 0 0.00067157915761883547 -0.0056092149497021446 0 0.0003311971941387593 -0.0060411892325267832 0 0.00019043606155109009 -0.0058361775009742834 0 0.00036971920311701465 -0.0056686754063525781 0 0.00019043606155109009 -0.0058361775009742834 0 0.00036971920311701465 -0.0056686754063525781 0 5.9641092813692469e-05 -0.0056116270858198956 0 0.00036971920311701465 -0.0056686754063525781 0 0.0002238219727577094 -0.0053742224138730588 0 5.9641092813692469e-05 -0.0056116270858198956 0 0.00036971920311701465 -0.0056686754063525781 0 0.0002238219727577094 -0.0053742224138730588 0 0.00041575602898757209 -0.0053678507140131849 0 0.00041575602898757209 -0.0053678507140131849 0 0.00067157915761883547 -0.0056092149497021446 0 0.00068419192617304116 -0.00532424796363301 0 0.00036971920311701465 -0.0056686754063525781 0 0.00041575602898757209 -0.0053678507140131849 0 0.00067157915761883547 -0.0056092149497021446 0 0.00075718744665808258 -0.0062816727665702 0 0.00031602772872507456 -0.0060421968424898814 0 0.00067157915761883547 -0.0056092149497021446 0 0.0011159063233228861 -0.0055980680545739949 0 0.00068419192617304116 -0.00532424796363301 0 0.00067157915761883547 -0.0056092149497021446 0 0.0011159063233228861 -0.0055980680545739949 0 0.00087324873154667781 -0.0057919147080543231 0 -1.7308165355578596e-05 -0.006758051151090942 0 -1.9325997584866942e-05 -0.0068098959236099653 0 -3.0173003778226695e-05 -0.0067699945559714057 0 0.00091744406107848201 -0.0065230061963690517 0 0.00088539167652956178 -0.006507486090528882 0 0.00088582429800072144 -0.0065485041059266686 0 0.00075718744665808258 -0.0062816727665702 0 0.00062832619921946266 -0.0071690808229312643 0 0.0010871310200614387 -0.0056247273061073395 0 0.0010258629929877085 -0.0058731698709542143 0 0.0011838833923329358 -0.0056603846745530029 0 0.00075718744665808258 -0.0062816727665702 0 0.0011185003590437361 -0.0065330667059890378 0 0.00075718744665808258 -0.0062816727665702 0 0.0010788298844098792 -0.0056583806031866423 0 0.0010871310200614387 -0.0056247273061073395 0 0.0010258629929877085 -0.0058731698709542143 0 0.00087324873154667781 -0.0057919147080543231 0 0.0010258629929877085 -0.0058731698709542143 0 0.00087471066583108754 -0.0060760383417404785 0 0.00087324873154667781 -0.0057919147080543231 0 0.0010258629929877085 -0.0058731698709542143 0 0.00087471066583108754 -0.0060760383417404785 0 0.00110103462738832 -0.0062795609245243121 0 0.0010258629929877085 -0.0058731698709542143 0 0.00110103462738832 -0.0062795609245243121 0 0.0011838833923329358 -0.0056603846745530029 0 0.00061901727622739916 -0.0059505287074476006 0 0.00087471066583108754 -0.0060760383417404785 0 0.00087324873154667781 -0.0057919147080543231 0 0.00061901727622739916 -0.0059505287074476006 0 0.00067157915761883547 -0.0056092149497021446 0 0.00087324873154667781 -0.0057919147080543231 0 -0.0003908384912420715 -0.0056952636397555748 0 -0.00067692411005284929 -0.0062860805018796545 0 -0.00079948514910206919 -0.0060500306150167125 0 -0.00099931712776239116 -0.0061744498306571327 0 -0.00063977671688789236 -0.0062620383822328991 0 -0.000686405132715715 -0.0050911763757044053 0 -0.00066568118754984165 -0.0052620793617374623 0 -0.0011309032499309708 -0.0060082190051023677 0 -0.00096796678248562155 -0.0060346704494632884 0 -0.00099931712776239116 -0.0061744498306571327 0 -0.0011309032499309708 -0.0060082190051023677 0 -0.00096796678248562155 -0.0060346704494632884 0 -0.00094174856505482765 -0.0059059322353448469 0 -0.00096796678248562155 -0.0060346704494632884 0 -0.00079948514910206919 -0.0060500306150167125 0 -0.00094174856505482765 -0.0059059322353448469 0 -0.00065947938142786263 -0.0058872695211312498 0 -0.00066568118754984165 -0.0052620793617374623 0 -0.00096796678248562155 -0.0060346704494632884 0 -0.00079948514910206919 -0.0060500306150167125 0 -0.00099931712776239116 -0.0061744498306571327 0 0.00050395307673586649 -0.0050992193789465064 0 0.00044278654310136041 -0.0050851235873080403 0 0.0004459493218097349 -0.0050043731187023027 0 8.2159303307147214e-07 -0.0058292930645579746 0 -0.0003908384912420715 -0.0056952636397555748 0 -0.00056383467352658686 -0.0065868441257848805 0 -0.0003144172957225936 -0.0065919745863469541 0 -0.00054983473166468036 -0.0062875530655638135 0 -0.00056383467352658686 -0.0065868441257848805 0 -0.00085379345452570943 -0.0062209495181334276 0 -0.00054983473166468036 -0.0062875530655638135 0 -0.00079948514910206919 -0.0060500306150167125 0 -0.00063977671688789236 -0.0062620383822328991 0 -0.00046564073370607096 -0.0060434167627489242 0 -0.00063977671688789236 -0.0062620383822328991 0 -0.00046564073370607096 -0.0060434167627489242 0 -0.00024737474186575711 -0.006349391682484805 0 -0.00046564073370607096 -0.0060434167627489242 0 -0.00024737474186575711 -0.006349391682484805 0 -0.00013865384678803829 -0.0059183781712348884 0 -0.0003144172957225936 -0.0065919745863469541 0 -0.00054983473166468036 -0.0062875530655638135 0 -0.00024737474186575711 -0.006349391682484805 0 -0.00067692411005284929 -0.0062860805018796545 0 -0.0002470771429595118 -0.0063449713044734851 0 0.00011993134507800515 -0.0063578786990628119 0 -0.00024737474186575711 -0.006349391682484805 0 8.9528110324970934e-05 -0.0060876110420096099 0 -3.7602333172104289e-05 -0.0066556585989398622 0 0.00011993134507800515 -0.0063578786990628119 0 -0.00024737474186575711 -0.006349391682484805 0 -0.00024737474186575711 -0.006349391682484805 0 8.9528110324970934e-05 -0.0060876110420096099 0 -0.00013865384678803829 -0.0059183781712348884 0 0.00019043606155109009 -0.0058361775009742834 0 -0.00013865384678803829 -0.0059183781712348884 0 5.9641092813692469e-05 -0.0056116270858198956 0 0.00019043606155109009 -0.0058361775009742834 0 8.9528110324970934e-05 -0.0060876110420096099 0 -0.00013865384678803829 -0.0059183781712348884 0 5.9641092813692469e-05 -0.0056116270858198956 0 6.1256819891706676e-05 -0.0052760011642229388 0 -0.00049339645762768174 -0.0056362811074385961 0 0.0002238219727577094 -0.0053742224138730588 0 5.9641092813692469e-05 -0.0056116270858198956 0 6.1256819891706676e-05 -0.0052760011642229388 0 5.2846137902039799e-05 -0.0052576708017422437 0 -0.00027205176830305322 -0.0054592818454105357 0 6.1256819891706676e-05 -0.0052760011642229388 0 -7.479782209113854e-05 -0.0051860370528052568 0 -6.4980381761626277e-05 -0.0050963097402292193 0 -0.00013865384678803829 -0.0059183781712348884 0 5.9641092813692469e-05 -0.0056116270858198956 0 -0.00049339645762768174 -0.0056362811074385961 0 -0.00046564073370607096 -0.0060434167627489242 0 -0.00013865384678803829 -0.0059183781712348884 0 -0.00049339645762768174 -0.0056362811074385961 0 -0.00079948514910206919 -0.0060500306150167125 0 -0.00046564073370607096 -0.0060434167627489242 0 -0.00049339645762768174 -0.0056362811074385961 0 -0.00027205176830305322 -0.0054592818454105357 0 -0.00066568118754984165 -0.0052620793617374623 0 -0.00079948514910206919 -0.0060500306150167125 0 -0.00049339645762768174 -0.0056362811074385961 0 -0.00094902335231129018 -0.0059024601560200337 0 -7.479782209113854e-05 -0.0051860370528052568 0 -0.00023316711626277721 -0.0050930661897307375 0 -0.00014494932217867546 -0.0050495789660936511 0 -7.479782209113854e-05 -0.0051860370528052568 0 -0.00014494932217867546 -0.0050495789660936511 0 -6.4980381761626277e-05 -0.0050963097402292193 0 -0.0003726106785787424 -0.0051239244472226194 0 -0.00023316711626277721 -0.0050930661897307375 0 -0.0002403989200252525 -0.0052581680377070412 0 -7.479782209113854e-05 -0.0051860370528052568 0 -0.00023316711626277721 -0.0050930661897307375 0 -0.0002403989200252525 -0.0052581680377070412 0 -0.00029457308282866245 -0.00465403319792289 0 -7.9333841694334287e-05 -0.0046182327509733997 0 -0.00015522091891749588 -0.0045242879764138067 0 -0.00031585041621369096 -0.004715212008597063 0 -6.0839580062344191e-05 -0.004871591254868848 0 -0.00029457308282866245 -0.00465403319792289 0 -7.9333841694334287e-05 -0.0046182327509733997 0 1.1039470643486408e-05 -0.0047755126552434428 0 -0.00032088328064117702 -0.0047838493104358087 0 -0.00023636671210664379 -0.0049665912653679093 0 -0.00013383612761274776 -0.004947073101639228 0 -0.00035160339647289577 -0.0049691399139418918 0 -0.00023316711626277721 -0.0050930661897307375 0 -0.00023636671210664379 -0.0049665912653679093 0 -0.00023316711626277721 -0.0050930661897307375 0 -0.00023636671210664379 -0.0049665912653679093 0 -0.00014494932217867546 -0.0050495789660936511 0 -0.00023636671210664379 -0.0049665912653679093 0 -0.00014494932217867546 -0.0050495789660936511 0 -0.00013383612761274776 -0.004947073101639228 0 -0.00014494932217867546 -0.0050495789660936511 0 -0.00013383612761274776 -0.004947073101639228 0 -6.4980381761626277e-05 -0.0050963097402292193 0 -7.9333841694334287e-05 -0.0046182327509733997 0 1.1039470643486408e-05 -0.0047755126552434428 0 2.2997301551673758e-05 -0.0046406623436783881 0 1.1039470643486408e-05 -0.0047755126552434428 0 2.2997301551673758e-05 -0.0046406623436783881 0 7.3713033975787858e-05 -0.0047618987455252393 0 7.3713033975787858e-05 -0.0047618987455252393 0 6.2530051283830033e-05 -0.0050586745235872768 0 8.2809669459416016e-05 -0.0049402911333490743 0 2.2997301551673758e-05 -0.0046406623436783881 0 0.000192095966074845 -0.0047088268086574632 0 7.3713033975787858e-05 -0.0047618987455252393 0 0.000192095966074845 -0.0047088268086574632 0 7.3713033975787858e-05 -0.0047618987455252393 0 0.00026553576858117322 -0.0048041494775492256 0 1.1039470643486408e-05 -0.0047755126552434428 0 7.3713033975787858e-05 -0.0047618987455252393 0 6.2530051283830033e-05 -0.0050586745235872768 0 6.8327099494648683e-05 -0.0047898442363945295 0 0.00016762796885159972 -0.0048545676679109043 0 -0.00013383612761274776 -0.004947073101639228 0 -6.4980381761626277e-05 -0.0050963097402292193 0 6.2530051283830033e-05 -0.0050586745235872768 0 -6.0839580062344191e-05 -0.004871591254868848 0 7.2512382591731624e-05 -0.0050335204001399035 0 6.2530051283830033e-05 -0.0050586745235872768 0 0.00014585867357117853 -0.0050482514459925364 0 8.2809669459416016e-05 -0.0049402911333490743 0 6.1256819891706676e-05 -0.0052760011642229388 0 -6.4980381761626277e-05 -0.0050963097402292193 0 6.2530051283830033e-05 -0.0050586745235872768 0 0.0002238219727577094 -0.0053742224138730588 0 6.1256819891706676e-05 -0.0052760011642229388 0 0.00012465486038323628 -0.0051507799506693396 0 6.1256819891706676e-05 -0.0052760011642229388 0 6.2530051283830033e-05 -0.0050586745235872768 0 0.00012465486038323628 -0.0051507799506693396 0 0.00012465486038323628 -0.0051507799506693396 0 0.00014585867357117853 -0.0050482514459925364 0 0.0002170664581913791 -0.0050830510884167851 0 6.2530051283830033e-05 -0.0050586745235872768 0 0.00012465486038323628 -0.0051507799506693396 0 0.00014585867357117853 -0.0050482514459925364 0 0.000192095966074845 -0.0047088268086574632 0 0.00026553576858117322 -0.0048041494775492256 0 0.00045362822743484925 -0.0048476562616960525 0 0.00016762796885159972 -0.0048545676679109043 0 0.00033091932419542663 -0.005221028117447046 0 0.00022517269410175493 -0.0046111473726488418 0 0.00033091932419542663 -0.005221028117447046 0 0.00023136344740598796 -0.0046428243386175206 0 0.00033147524426426698 -0.0046514770750219507 0 0.00047337688232429762 -0.0048018380030145124 0 0.00014585867357117853 -0.0050482514459925364 0 8.2809669459416016e-05 -0.0049402911333490743 0 0.00026642509653296206 -0.0050045061875080904 0 8.2447375501071784e-05 -0.0053039114894675062 0 6.6364835780909464e-05 -0.0053249777369267209 0 7.0548576457730105e-05 -0.0052204614943453095 0 8.2447375501071784e-05 -0.0053039114894675062 0 6.6364835780909464e-05 -0.0053249777369267209 0 9.2112130750957148e-06 -0.0054097850083973378 0 7.0548576457730105e-05 -0.0052204614943453095 0 5.2190028273082464e-08 -0.0048228044259910497 0 4.6058297704247628e-07 -0.0056571875990909072 0 6.6364835780909464e-05 -0.0053249777369267209 0 7.0548576457730105e-05 -0.0052204614943453095 0 4.6058297704247628e-07 -0.0056571875990909072 0 7.0548576457730105e-05 -0.0052204614943453095 0 5.2190028273082464e-08 -0.0048228044259910497 0 2.9779145419157785e-05 -0.0049397246481069235 0 5.2190028273082464e-08 -0.0048228044259910497 0 2.9779145419157785e-05 -0.0049397246481069235 0 9.9016618399500768e-06 -0.0046867031769423388 0 0.00022517269410175493 -0.0046111473726488418 0 7.8792297318395158e-06 -0.0044893689815173983 0 8.2447375501071784e-05 -0.0053039114894675062 0 7.0548576457730105e-05 -0.0052204614943453095 0 3.1114015323837015e-05 -0.0050196965265788982 0 0.00023136344740598796 -0.0046428243386175206 0 0.00033147524426426698 -0.0046514770750219507 0 0.00014397565943457464 -0.0045273258138893192 0 7.0548576457730105e-05 -0.0052204614943453095 0 2.9779145419157785e-05 -0.0049397246481069235 0 3.1114015323837015e-05 -0.0050196965265788982 0 0.00020064974950746085 -0.0048957782531469755 0 0.00011703229935277111 -0.0047619470075642096 0 2.9779145419157785e-05 -0.0049397246481069235 0 3.1114015323837015e-05 -0.0050196965265788982 0 9.9016618399500768e-06 -0.0046867031769423388 0 0.00023136344740598796 -0.0046428243386175206 0 0.00014397565943457464 -0.0045273258138893192 0 9.4844893420108319e-06 -0.0044513304370034541 0 0.00011703229935277111 -0.0047619470075642096 0 -1.1203332788219868e-05 -0.004477497159159175 0 3.1114015323837015e-05 -0.0050196965265788982 0 9.9016618399500768e-06 -0.0046867031769423388 0 -2.7570491708966236e-05 -0.0043837422633646603 0 2.2997301551673758e-05 -0.0046406623436783881 0 0.000192095966074845 -0.0047088268086574632 0 9.4844893420108319e-06 -0.0044513304370034541 0 0.00014397565943457464 -0.0045273258138893192 0 9.4844893420108319e-06 -0.0044513304370034541 0 -2.7570491708966236e-05 -0.0043837422633646603 0 -7.9333841694334287e-05 -0.0046182327509733997 0 2.2997301551673758e-05 -0.0046406623436783881 0 -4.0528480261227883e-05 -0.0045092987605119834 0 2.2997301551673758e-05 -0.0046406623436783881 0 9.4844893420108319e-06 -0.0044513304370034541 0 -4.0528480261227883e-05 -0.0045092987605119834 0 9.4844893420108319e-06 -0.0044513304370034541 0 -2.5759871407315509e-05 -0.0044183790204090729 0 -4.0528480261227883e-05 -0.0045092987605119834 0 9.4844893420108319e-06 -0.0044513304370034541 0 -2.7570491708966236e-05 -0.0043837422633646603 0 -2.5759871407315509e-05 -0.0044183790204090729 0 5.2190028273082464e-08 -0.0048228044259910497 0 9.9016618399500768e-06 -0.0046867031769423388 0 -7.0233199205719605e-08 -0.0039888120464875035 0 9.9016618399500768e-06 -0.0046867031769423388 0 -7.0233199205719605e-08 -0.0039888120464875035 0 -2.7570491708966236e-05 -0.0043837422633646603 0 -2.8080333918825776e-05 -0.0041008298067952394 0 -5.8708775911098055e-05 -0.0043583388604888145 0 -2.7570491708966236e-05 -0.0043837422633646603 0 -7.0233199205719605e-08 -0.0039888120464875035 0 -2.8080333918825776e-05 -0.0041008298067952394 0 -2.7570491708966236e-05 -0.0043837422633646603 0 -2.7115119539927524e-05 -0.0038505869488229781 0 -7.0233199205719605e-08 -0.0039888120464875035 0 -2.8080333918825776e-05 -0.0041008298067952394 0 -2.7115119539927524e-05 -0.0038505869488229781 0 -2.8080333918825776e-05 -0.0041008298067952394 0 -5.8708775911098055e-05 -0.0043583388604888145 0 -0.00026862035643645567 -0.0044927433478400055 0 -5.8708775911098055e-05 -0.0043583388604888145 0 -0.00015522091891749588 -0.0045242879764138067 0 -5.8708775911098055e-05 -0.0043583388604888145 0 -2.7570491708966236e-05 -0.0043837422633646603 0 -2.5759871407315509e-05 -0.0044183790204090729 0 -5.8708775911098055e-05 -0.0043583388604888145 0 -2.5759871407315509e-05 -0.0044183790204090729 0 -4.0528480261227883e-05 -0.0045092987605119834 0 -5.8708775911098055e-05 -0.0043583388604888145 0 -4.0528480261227883e-05 -0.0045092987605119834 0 -0.00015522091891749588 -0.0045242879764138067 0 -7.9333841694334287e-05 -0.0046182327509733997 0 -4.0528480261227883e-05 -0.0045092987605119834 0 -0.00015522091891749588 -0.0045242879764138067 0 1.3033532843675289e-05 -0.0068615027851057046 0 -2.4525079114296242e-06 -0.0068480784992444492 0 1.5282367650107813e-05 -0.0068592487462072567 0 1.3179393117717058e-05 -0.0068696045312300795 0 1.3033532843675289e-05 -0.0068615027851057046 0 1.5282367650107813e-05 -0.0068592487462072567 0 1.3179393117717058e-05 -0.0068696045312300795 0 1.3033532843675289e-05 -0.0068615027851057046 0 3.6824598121627007e-05 -0.0068841898929949356 0 1.3179393117717058e-05 -0.0068696045312300795 0 -4.3428503578378712e-06 -0.0068787257768069066 0 3.6824598121627007e-05 -0.0068841898929949356 0 1.3033532843675289e-05 -0.0068615027851057046 0 -2.4525079114296242e-06 -0.0068480784992444492 0 3.6824598121627007e-05 -0.0068841898929949356 0 -2.4294555121310886e-05 -0.0068677663900150983 0 -2.4525079114296242e-06 -0.0068480784992444492 0 3.6824598121627007e-05 -0.0068841898929949356 0 -2.4294555121310886e-05 -0.0068677663900150983 0 -3.8773899443336993e-05 -0.0068411430303377766 0 -8.2367495027782294e-05 -0.0069130040531009693 0 -8.4078442205798119e-05 -0.0076143050690432737 0 -6.7189612707202801e-05 -0.0074854875418990247 0 -2.4294555121310886e-05 -0.0068677663900150983 0 -2.0097957613401987e-05 -0.0068412207394136521 0 -3.8773899443336993e-05 -0.0068411430303377766 0 -2.4294555121310886e-05 -0.0068677663900150983 0 -2.0097957613401987e-05 -0.0068412207394136521 0 -2.4525079114296242e-06 -0.0068480784992444492 0 -8.4078442205798119e-05 -0.0076143050690432737 0 0.00062832619921946266 -0.0071690808229312643 0 -1.7308165355578596e-05 -0.006758051151090942 0 -1.9325997584866942e-05 -0.0068098959236099653 0 6.2079638801293668e-05 -0.0067800071493069099 0 -3.8773899443336993e-05 -0.0068411430303377766 0 -1.9325997584866942e-05 -0.0068098959236099653 0 -3.0173003778226695e-05 -0.0067699945559714057 0 -2.0097957613401987e-05 -0.0068412207394136521 0 -2.4525079114296242e-06 -0.0068480784992444492 0 -1.9325997584866942e-05 -0.0068098959236099653 0 -2.0097957613401987e-05 -0.0068412207394136521 0 -3.8773899443336993e-05 -0.0068411430303377766 0 -1.9325997584866942e-05 -0.0068098959236099653 0 -1.9325997584866942e-05 -0.0068098959236099653 0 6.2079638801293668e-05 -0.0067800071493069099 0 6.2763636197575234e-05 -0.0068005308012859438 0 -1.0339922645074429e-05 -0.0067925054655265009 0 3.0017717503896572e-06 -0.0069302466499483644 0 -2.4525079114296242e-06 -0.0068480784992444492 0 -1.9325997584866942e-05 -0.0068098959236099653 0 1.5282367650107813e-05 -0.0068592487462072567 0 0.00041575602898757209 -0.0053678507140131849 0 0.00068419192617304116 -0.00532424796363301 0 0.00031142057141518603 -0.0050567718039630982 0 3.0017717503896572e-06 -0.0069302466499483644 0 0.00031986412002434886 -0.0057672911757223342 0 6.2079638801293668e-05 -0.0067800071493069099 0 6.2763636197575234e-05 -0.0068005308012859438 0 0.00012725283151434247 -0.0067859631794262741 0 0.00031602772872507456 -0.0060421968424898814 0 0.00031986412002434886 -0.0057672911757223342 0 0.00041575602898757209 -0.0053678507140131849 0 0.00025055434532951965 -0.0052039913801861697 0 0.00031142057141518603 -0.0050567718039630982 0 0.0002238219727577094 -0.0053742224138730588 0 0.00012465486038323628 -0.0051507799506693396 0 0.00025055434532951965 -0.0052039913801861697 0 0.0002238219727577094 -0.0053742224138730588 0 0.00041575602898757209 -0.0053678507140131849 0 0.00025055434532951965 -0.0052039913801861697 0 0.00038167693952734417 -0.0050811814607703443 0 0.00031986412002434886 -0.0057672911757223342 0 0.00014585867357117853 -0.0050482514459925364 0 0.0002170664581913791 -0.0050830510884167851 0 0.00026642509653296206 -0.0050045061875080904 0 0.00025055434532951965 -0.0052039913801861697 0 0.0002170664581913791 -0.0050830510884167851 0 0.00031996272665714355 -0.0050108267830602628 0 0.00012465486038323628 -0.0051507799506693396 0 0.00025055434532951965 -0.0052039913801861697 0 0.0002170664581913791 -0.0050830510884167851 0 8.2447375501071784e-05 -0.0053039114894675062 0 -4.2063026050853078e-05 -0.0052891966464171268 0 9.2112130750957148e-06 -0.0054097850083973378 0 0.00020064974950746085 -0.0048957782531469755 0 6.901219922909589e-05 -0.0059426641955517938 0 0.00033147524426426698 -0.0046514770750219507 0 0.00047337688232429762 -0.0048018380030145124 0 0.00052840594844866804 -0.0047586156424542919 0 0.0002170664581913791 -0.0050830510884167851 0 0.00026642509653296206 -0.0050045061875080904 0 0.00031996272665714355 -0.0050108267830602628 0 0.00031986412002434886 -0.0057672911757223342 0 6.901219922909589e-05 -0.0059426641955517938 0 0.00033091932419542663 -0.005221028117447046 0 0.00031986412002434886 -0.0057672911757223342 0 0.00047337688232429762 -0.0048018380030145124 0 0.00050658696824371996 -0.0048100729340045112 0 0.00052840594844866804 -0.0047586156424542919 0 5.1460115265139652e-06 -0.0068705352354181091 0 -4.3428503578378712e-06 -0.0068787257768069066 0 -4.8456888699371646e-05 -0.0068795442085636486 0 1.5282367650107813e-05 -0.0068592487462072567 0 1.9657914872608097e-07 -0.0068588123664161975 0 8.550987861510034e-06 -0.0068620584800019018 0 1.3179393117717058e-05 -0.0068696045312300795 0 1.5282367650107813e-05 -0.0068592487462072567 0 8.550987861510034e-06 -0.0068620584800019018 0 1.3179393117717058e-05 -0.0068696045312300795 0 8.550987861510034e-06 -0.0068620584800019018 0 -4.3428503578378712e-06 -0.0068787257768069066 0 6.901219922909589e-05 -0.0059426641955517938 0 0.00012149951390160775 -0.0067751937676793694 0 1.9657914872608097e-07 -0.0068588123664161975 0 1.3825874727882766e-06 -0.0068538532848176825 0 8.550987861510034e-06 -0.0068620584800019018 0 5.1460115265139652e-06 -0.0068705352354181091 0 8.550987861510034e-06 -0.0068620584800019018 0 -4.3428503578378712e-06 -0.0068787257768069066 0 6.901219922909589e-05 -0.0059426641955517938 0 -5.5019539951568689e-05 -0.0062624613921206749 0 -4.3428503578378712e-06 -0.0068787257768069066 0 -4.8456888699371646e-05 -0.0068795442085636486 0 3.6824598121627007e-05 -0.0068841898929949356 0 -4.2063026050853078e-05 -0.0052891966464171268 0 -8.2678040145467283e-05 -0.0056241331002782457 0 9.2112130750957148e-06 -0.0054097850083973378 0 6.6364835780909464e-05 -0.0053249777369267209 0 9.2112130750957148e-06 -0.0054097850083973378 0 4.6058297704247628e-07 -0.0056571875990909072 0 -8.2678040145467283e-05 -0.0056241331002782457 0 9.2112130750957148e-06 -0.0054097850083973378 0 4.6058297704247628e-07 -0.0056571875990909072 0 -8.2678040145467283e-05 -0.0056241331002782457 0 4.6058297704247628e-07 -0.0056571875990909072 0 -8.1380464103524795e-07 -0.0064897650584523651 0 -5.5019539951568689e-05 -0.0062624613921206749 0 1.1447761089972038e-10 -0.0064910041678192835 0 -4.8456888699371646e-05 -0.0068795442085636486 0 -3.0334807998913055e-07 -0.0064921616090940102 0 5.5786330978689643e-05 -0.0068625271097580787 0 -3.0334807998913055e-07 -0.0064921616090940102 0 3.7091351838954916e-07 -0.0069668100557919417 0 5.5786330978689643e-05 -0.0068625271097580787 0 3.7091351838954916e-07 -0.0069668100557919417 0 5.5786330978689643e-05 -0.0068625271097580787 0 4.4472589549350253e-05 -0.0070117084894895714 0 5.5786330978689643e-05 -0.0068625271097580787 0 3.6824598121627007e-05 -0.0068841898929949356 0 4.4472589549350253e-05 -0.0070117084894895714 0 -4.8456888699371646e-05 -0.0068795442085636486 0 5.5786330978689643e-05 -0.0068625271097580787 0 3.6824598121627007e-05 -0.0068841898929949356 0 -2.4294555121310886e-05 -0.0068677663900150983 0 3.6824598121627007e-05 -0.0068841898929949356 0 4.4472589549350253e-05 -0.0070117084894895714 0 -2.4294555121310886e-05 -0.0068677663900150983 0 -8.2367495027782294e-05 -0.0069130040531009693 0 4.4472589549350253e-05 -0.0070117084894895714 0 -8.2367495027782294e-05 -0.0069130040531009693 0 -4.1785010071199243e-07 -0.0074416315221982115 0 4.4472589549350253e-05 -0.0070117084894895714 0 3.7091351838954916e-07 -0.0069668100557919417 0 -4.1785010071199243e-07 -0.0074416315221982115 0 4.4472589549350253e-05 -0.0070117084894895714 0 -6.7189612707202801e-05 -0.0074854875418990247 0 -4.5697477338866197e-08 -0.0074425622956972902 0 -5.4351851460248415e-07 -0.0074434389623228726 0 6.9358728066310266e-05 -0.0079754937281769252 0 5.7979734799957802e-07 -0.0080530158421836581 0 -9.2990643689566061e-05 -0.0080857830749009509 0 -5.4351851460248415e-07 -0.0074434389623228726 0 6.9358728066310266e-05 -0.0079754937281769252 0 5.7979734799957802e-07 -0.0080530158421836581 0 0.00013296932347417519 -0.0081299682534636559 0 -6.0174633403944859e-07 -0.0086621371634123447 0 6.9358728066310266e-05 -0.0079754937281769252 0 5.7979734799957802e-07 -0.0080530158421836581 0 0.00013296932347417519 -0.0081299682534636559 0 5.6838663030387064e-05 -0.0076486154385793943 0 -0.00014114292027234793 -0.0093417820509292104 0 0.00013296932347417519 -0.0081299682534636559 0 7.5100354737314822e-05 -0.008178685609926923 0 0.0001682507933715631 -0.0082186990771974805 0 6.9358728066310266e-05 -0.0079754937281769252 0 0.00013296932347417519 -0.0081299682534636559 0 7.5100354737314822e-05 -0.008178685609926923 0 -9.2990643689566061e-05 -0.0080857830749009509 0 6.9358728066310266e-05 -0.0079754937281769252 0 7.5100354737314822e-05 -0.008178685609926923 0 -2.3846292119366015e-05 -0.008241731825413599 0 -9.2990643689566061e-05 -0.0080857830749009509 0 7.5100354737314822e-05 -0.008178685609926923 0 -2.3846292119366015e-05 -0.008241731825413599 0 7.5100354737314822e-05 -0.008178685609926923 0 8.3754340361078295e-05 -0.0082797325100441941 0 7.5100354737314822e-05 -0.008178685609926923 0 8.3754340361078295e-05 -0.0082797325100441941 0 0.0001682507933715631 -0.0082186990771974805 0 0.0011229523491256455 -0.0077881772580825027 0 -0.00014114292027234793 -0.0093417820509292104 0 -2.3846292119366015e-05 -0.008241731825413599 0 8.3754340361078295e-05 -0.0082797325100441941 0 -1.4526342048682654e-06 -0.0083293134192617621 0 0.0011229523491256455 -0.0077881772580825027 0 0.00062832619921946266 -0.0071690808229312643 0 -0.0016850003977274303 -0.012331405784275074 0 -0.0014982280689889635 -0.012258592400513912 0 -0.001456459353893301 -0.012442641979860298 0 -0.0016850003977274303 -0.012331405784275074 0 -0.0016125482277870586 -0.012075994445221944 0 -0.0014982280689889635 -0.012258592400513912 0 -0.0016850003977274303 -0.012331405784275074 0 -0.001804794677094018 -0.012042723667118225 0 -0.0016125482277870586 -0.012075994445221944 0 -0.00023760804442963748 -0.0099936410850030247 0 -0.00014114292027234793 -0.0093417820509292104 0 0.0017013246422926159 -0.0075995744711040971 0 0.0011753771769709832 -0.0074274142886159534 0 0.0013506781147416002 -0.0078860721069041913 0 -0.00014114292027234793 -0.0093417820509292104 0 -0.00074281119546332328 -0.009753353584412457 0 -0.001804794677094018 -0.012042723667118225 0 -0.0016125482277870586 -0.012075994445221944 0 -0.0015587402651296585 -0.011852173105542034 0 -0.0016125482277870586 -0.012075994445221944 0 -0.0014304212346761167 -0.01208117255925893 0 -0.0014982280689889635 -0.012258592400513912 0 -0.00074281119546332328 -0.009753353584412457 0 -0.0008962691846977766 -0.011704126976915374 0 -0.0016125482277870586 -0.012075994445221944 0 -0.0015587402651296585 -0.011852173105542034 0 -0.0014304212346761167 -0.01208117255925893 0 -0.00074281119546332328 -0.009753353584412457 0 -1.722507034973324e-05 -0.0096376226029644355 0 0.00013296932347417519 -0.0081299682534636559 0 -5.2396623444398189e-05 -0.0077796987638355632 0 -0.00043673424173455152 -0.0080806810065909701 0 0.00013296932347417519 -0.0081299682534636559 0 -0.00043673424173455152 -0.0080806810065909701 0 -6.0174633403944859e-07 -0.0086621371634123447 0 -5.2151166985866237e-07 -0.0086644736020288545 0 1.1676998295717993e-07 -0.0094880434200581201 0 -1.4003837953137144e-05 -0.0097470565076867108 0 -0.00074281119546332328 -0.009753353584412457 0 2.9527258379943931e-08 -0.0086626079776519292 0 -0.00011085241409910192 -0.0097436082013259741 0 -5.2151166985866237e-07 -0.0086644736020288545 0 -1.4003837953137144e-05 -0.0097470565076867108 0 1.1676998295717993e-07 -0.0094880434200581201 0 -1.4003837953137144e-05 -0.0097470565076867108 0 9.7569199474175635e-05 -0.010096050787338214 0 1.1676998295717993e-07 -0.0094880434200581201 0 9.7569199474175635e-05 -0.010096050787338214 0 3.5506583463644122e-07 -0.010313190867674911 0 9.7569199474175635e-05 -0.010096050787338214 0 0.00011846508658882686 -0.010222237853004534 0 -1.5187977381258271e-05 -0.010207391826213382 0 -0.00024316527310355325 -0.0099972043675332876 0 -1.9952698882411729e-05 -0.010026299758834133 0 -1.5187977381258271e-05 -0.010207391826213382 0 -1.4003837953137144e-05 -0.0097470565076867108 0 9.7569199474175635e-05 -0.010096050787338214 0 -1.9952698882411729e-05 -0.010026299758834133 0 9.7569199474175635e-05 -0.010096050787338214 0 -1.9952698882411729e-05 -0.010026299758834133 0 -1.5187977381258271e-05 -0.010207391826213382 0 -0.00024316527310355325 -0.0099972043675332876 0 -1.4003837953137144e-05 -0.0097470565076867108 0 -1.9952698882411729e-05 -0.010026299758834133 0 -4.256592468787262e-07 -0.011136525534777536 0 5.0520115609753715e-05 -0.010568484965568642 0 -7.2087645147533529e-05 -0.010596133645889348 0 9.7569199474175635e-05 -0.010096050787338214 0 5.0520115609753715e-05 -0.010568484965568642 0 3.5506583463644122e-07 -0.010313190867674911 0 -4.256592468787262e-07 -0.011136525534777536 0 5.0520115609753715e-05 -0.010568484965568642 0 3.5506583463644122e-07 -0.010313190867674911 0 9.7569199474175635e-05 -0.010096050787338214 0 5.0520115609753715e-05 -0.010568484965568642 0 0.00011846508658882686 -0.010222237853004534 0 5.0520115609753715e-05 -0.010568484965568642 0 -7.2087645147533529e-05 -0.010596133645889348 0 0.00011846508658882686 -0.010222237853004534 0 -0.0004316699078264925 -0.011139454659470865 0 -0.00050995284937423234 -0.010992716287684046 0 -0.00083719418666084583 -0.011665466397353446 0 -0.00080301236438536539 -0.012152449855765765 0 -0.0012298963311927391 -0.011913534845013138 0 -0.00080301236438536539 -0.012152449855765765 0 -0.0012298963311927391 -0.011913534845013138 0 -0.001132953839898551 -0.012286529483774887 0 -0.00080301236438536539 -0.012152449855765765 0 -0.001132953839898551 -0.012286529483774887 0 -0.00089716898205340859 -0.012702165484356103 0 -0.00080301236438536539 -0.012152449855765765 0 -0.00089716898205340859 -0.012702165484356103 0 -0.00044659426528901821 -0.012685516645577072 0 -0.00050995284937423234 -0.010992716287684046 0 -0.0008962691846977766 -0.011704126976915374 0 -0.0012298963311927391 -0.011913534845013138 0 -0.0015710978068365713 -0.012069497177001429 0 -0.0013170227906092933 -0.012154786479434871 0 -0.0012298963311927391 -0.011913534845013138 0 -0.001132953839898551 -0.012286529483774887 0 -0.0013170227906092933 -0.012154786479434871 0 -0.001132953839898551 -0.012286529483774887 0 -0.0013423829754848381 -0.012345879962700035 0 -0.0011686984910656969 -0.012562226049742551 0 -0.001132953839898551 -0.012286529483774887 0 -0.0013170227906092933 -0.012154786479434871 0 -0.0013423829754848381 -0.012345879962700035 0 -0.0015710978068365713 -0.012069497177001429 0 -0.0013170227906092933 -0.012154786479434871 0 -0.0013423829754848381 -0.012345879962700035 0 -0.0013423829754848381 -0.012345879962700035 0 -0.0014982280689889635 -0.012258592400513912 0 -0.001456459353893301 -0.012442641979860298 0 -0.0008962691846977766 -0.011704126976915374 0 -0.0014689255086219638 -0.012375162887145939 0 -0.0014304212346761167 -0.01208117255925893 0 -0.0013423829754848381 -0.012345879962700035 0 -0.0014982280689889635 -0.012258592400513912 0 -0.0013423829754848381 -0.012345879962700035 0 -0.001456459353893301 -0.012442641979860298 0 -0.0013269268072097242 -0.012612013427521879 0 -0.0013423829754848381 -0.012345879962700035 0 -0.0013269268072097242 -0.012612013427521879 0 -0.0011686984910656969 -0.012562226049742551 0 -0.0013269268072097242 -0.012612013427521879 0 -0.0011686984910656969 -0.012562226049742551 0 -0.0011243350787807308 -0.012719689613631596 0 -0.0013269268072097242 -0.012612013427521879 0 -0.0014266010571887483 -0.012769365125832949 0 -0.0015542967908610159 -0.012584019678317414 0 -0.001456459353893301 -0.012442641979860298 0 -0.0013269268072097242 -0.012612013427521879 0 -0.0015542967908610159 -0.012584019678317414 0 -0.001132953839898551 -0.012286529483774887 0 -0.00089716898205340859 -0.012702165484356103 0 -0.0011686984910656969 -0.012562226049742551 0 -0.00092905848440767843 -0.012751607801099333 0 -0.0010103595682182424 -0.01286741282488882 0 -0.00089716898205340859 -0.012702165484356103 0 -0.0011686984910656969 -0.012562226049742551 0 -0.0011243350787807308 -0.012719689613631596 0 -0.00089716898205340859 -0.012702165484356103 0 -0.00079124311475810445 -0.01320185919933598 0 -0.00045671832868077493 -0.013200689557371199 0 -0.00089716898205340859 -0.012702165484356103 0 -0.0010686818906535753 -0.013277155230872346 0 -0.00079124311475810445 -0.01320185919933598 0 -0.00095020214479123253 -0.01358497338200312 0 -0.00068673877508136682 -0.013791047098657177 0 -0.00058357674719151551 -0.013552168015952363 0 -0.00079124311475810445 -0.01320185919933598 0 -0.00095020214479123253 -0.01358497338200312 0 -0.00058357674719151551 -0.013552168015952363 0 -0.0010686818906535753 -0.013277155230872346 0 -0.00095020214479123253 -0.01358497338200312 0 -0.0011886346085237657 -0.013642557366456972 0 -0.0010103595682182424 -0.01286741282488882 0 -0.0015074678023178922 -0.013764119369689951 0 -0.0010686818906535753 -0.013277155230872346 0 -0.00079124311475810445 -0.01320185919933598 0 -0.00095020214479123253 -0.01358497338200312 0 -0.00095020214479123253 -0.01358497338200312 0 -0.0010063150971635624 -0.013821817039647898 0 -0.00068673877508136682 -0.013791047098657177 0 -0.00095020214479123253 -0.01358497338200312 0 -0.0010063150971635624 -0.013821817039647898 0 -0.0011886346085237657 -0.013642557366456972 0 -0.0010063150971635624 -0.013821817039647898 0 -0.00068673877508136682 -0.013791047098657177 0 -0.00077302052954658911 -0.013927684009981791 0 -0.0013269268072097242 -0.012612013427521879 0 -0.0011243350787807308 -0.012719689613631596 0 -0.0012570248227817165 -0.012812118049727346 0 -0.0013269268072097242 -0.012612013427521879 0 -0.0014266010571887483 -0.012769365125832949 0 -0.0012570248227817165 -0.012812118049727346 0 -0.0010063150971635624 -0.013821817039647898 0 -0.0011886346085237657 -0.013642557366456972 0 -0.0011690670755350205 -0.013904592670696689 0 -0.0015074678023178922 -0.013764119369689951 0 -0.0004112651334470516 -0.010548226169900017 0 -0.0011886346085237657 -0.013642557366456972 0 -0.0013535188055112954 -0.013916582970956286 0 -0.0011690670755350205 -0.013904592670696689 0 0.0010002123341071928 -0.0065477786256005182 0 0.0010378276551220016 -0.0065467582354963435 0 0.001052875056759888 -0.0065810812120087195 0 -0.00021488527522895749 -0.0095231589328558432 0 -0.0004112651334470516 -0.010548226169900017 0 -0.0014266010571887483 -0.012769365125832949 0 -0.0012570248227817165 -0.012812118049727346 0 -0.001340810510840174 -0.012888544387011721 0 0.0010378276551220016 -0.0065467582354963435 0 0.0010594679215994985 -0.0065358593574288927 0 0.0010692236285825885 -0.0065389320662320406 0 0.0010378276551220016 -0.0065467582354963435 0 0.0010594679215994985 -0.0065358593574288927 0 0.0010497463399603529 -0.0065524871506812479 0 0.0010594679215994985 -0.0065358593574288927 0 0.001087727894811529 -0.0065183266418884353 0 0.0010852247445182655 -0.006503811684431488 0 0.0010594679215994985 -0.0065358593574288927 0 0.0010692236285825885 -0.0065389320662320406 0 0.001087727894811529 -0.0065183266418884353 0 0.0010692236285825885 -0.0065389320662320406 0 0.0011050328388854966 -0.0065135735599775677 0 0.001087727894811529 -0.0065183266418884353 0 0.0010002123341071928 -0.0065477786256005182 0 0.0010378276551220016 -0.0065467582354963435 0 0.0010692236285825885 -0.0065389320662320406 0 0.0010002123341071928 -0.0065477786256005182 0 0.0010505768819079097 -0.0066527480248558743 0 0.0010398174730685342 -0.0069503735733634324 0 0.0010505768819079097 -0.0066527480248558743 0 0.001102238147286024 -0.0065398844347024539 0 0.0011213731157458404 -0.0064743250446134722 0 0.0010615524994231371 -0.006640988248043397 0 0.0011827987994655134 -0.006654526128429759 0 -0.00021488527522895749 -0.0095231589328558432 0 -0.0002522869527894057 -0.0097741329908989788 0 0.0010002123341071928 -0.0065477786256005182 0 0.0010692236285825885 -0.0065389320662320406 0 0.0010505768819079097 -0.0066527480248558743 0 0.0010692236285825885 -0.0065389320662320406 0 0.001102238147286024 -0.0065398844347024539 0 0.0011050328388854966 -0.0065135735599775677 0 0.0010692236285825885 -0.0065389320662320406 0 0.0010505768819079097 -0.0066527480248558743 0 0.001102238147286024 -0.0065398844347024539 0 0.0011136342612373794 -0.0064717730470800197 0 0.001102238147286024 -0.0065398844347024539 0 0.0011213731157458404 -0.0064743250446134722 0 0.0011136342612373794 -0.0064717730470800197 0 0.001102238147286024 -0.0065398844347024539 0 0.0011050328388854966 -0.0065135735599775677 0 0.0011136342612373794 -0.0064717730470800197 0 0.0011050328388854966 -0.0065135735599775677 0 0.0011171397127888408 -0.0064785779525476251 0 0.0011050328388854966 -0.0065135735599775677 0 0.001111174584883414 -0.00649905351971348 0 0.0011171397127888408 -0.0064785779525476251 0 0.001087727894811529 -0.0065183266418884353 0 0.001111174584883414 -0.00649905351971348 0 0.0010852247445182655 -0.006503811684431488 0 0.0011050328388854966 -0.0065135735599775677 0 0.001087727894811529 -0.0065183266418884353 0 0.001111174584883414 -0.00649905351971348 0 0.001111174584883414 -0.00649905351971348 0 0.0011205484460915522 -0.0064714867584383991 0 0.0011285987987874984 -0.0065021068065300378 0 0.001111174584883414 -0.00649905351971348 0 0.0011205484460915522 -0.0064714867584383991 0 0.0011171397127888408 -0.0064785779525476251 0 0.0011205484460915522 -0.0064714867584383991 0 0.0011171397127888408 -0.0064785779525476251 0 0.0011122390714500615 -0.0064105942772428376 0 0.00088340802557607503 -0.0065351344599341886 0 0.0011257739806965921 -0.0065780748592407165 0 0.0008762065676125308 -0.0065334343698703118 0 0.0010761445954837318 -0.0064166790994631961 0 0.0011285987987874984 -0.0065021068065300378 0 0.0011205484460915522 -0.0064714867584383991 0 0.0010761445954837318 -0.0064166790994631961 0 0.0011122390714500615 -0.0064105942772428376 0 0.0011205484460915522 -0.0064714867584383991 0 0.0010761445954837318 -0.0064166790994631961 0 0.0011285987987874984 -0.0065021068065300378 0 0.0010761445954837318 -0.0064166790994631961 0 0.00110103462738832 -0.0062795609245243121 0 0.0011122390714500615 -0.0064105942772428376 0 0.00110103462738832 -0.0062795609245243121 0 0.0011122390714500615 -0.0064105942772428376 0 0.0010896708458740256 -0.0063799373780843516 0 0.0011136342612373794 -0.0064717730470800197 0 0.0011122390714500615 -0.0064105942772428376 0 0.0010896708458740256 -0.0063799373780843516 0 0.0011136342612373794 -0.0064717730470800197 0 0.0011171397127888408 -0.0064785779525476251 0 0.0011122390714500615 -0.0064105942772428376 0 0.0014716617252079835 -0.0067691501302017077 0 0.0011827987994655134 -0.006654526128429759 0 0.0016619796388630914 -0.0070512518272421824 0 0.0014397680947851757 -0.0071951046641758323 0 0.0013136037374486588 -0.0068571868847524323 0 0.0011136342612373794 -0.0064717730470800197 0 0.0010896708458740256 -0.0063799373780843516 0 0.0011213731157458404 -0.0064743250446134722 0 0.00110103462738832 -0.0062795609245243121 0 0.0010896708458740256 -0.0063799373780843516 0 0.0011351112673894138 -0.0063946631353729898 0 0.0011188600867613845 -0.0060478919630753769 0 0.0011185003590437361 -0.0065330667059890378 0 0.0017013246422926159 -0.0075995744711040971 0 0.0017727373553323991 -0.0072906155099409474 0 0.0020237347597332742 -0.0073292098020571695 0 0.0014716617252079835 -0.0067691501302017077 0 0.0011185003590437361 -0.0065330667059890378 0 0.0016619796388630914 -0.0070512518272421824 0 0.0020202367748069828 -0.0072337867464608956 0 0.0017727373553323991 -0.0072906155099409474 0 0.0020202367748069828 -0.0072337867464608956 0 0.0017727373553323991 -0.0072906155099409474 0 0.0020237347597332742 -0.0073292098020571695 0 0.0011185003590437361 -0.0065330667059890378 0 0.00062832619921946266 -0.0071690808229312643 0 0.0016619796388630914 -0.0070512518272421824 0 0.0017727373553323991 -0.0072906155099409474 0 0.0014397680947851757 -0.0071951046641758323 0 0.0017013246422926159 -0.0075995744711040971 0 0.0017727373553323991 -0.0072906155099409474 0 0.0014397680947851757 -0.0071951046641758323 0 0.0011753771769709832 -0.0074274142886159534 0 0.0014397680947851757 -0.0071951046641758323 0 0.0010398174730685342 -0.0069503735733634324 0 0.0017013246422926159 -0.0075995744711040971 0 0.0011753771769709832 -0.0074274142886159534 0 0.0014397680947851757 -0.0071951046641758323 0 -0.0016850003977274303 -0.012331405784275074 0 -0.001456459353893301 -0.012442641979860298 0 -0.0015542967908610159 -0.012584019678317414 0 -0.00023760804442963748 -0.0099936410850030247 0 -0.0002522869527894057 -0.0097741329908989788 0 0.0010505768819079097 -0.0066527480248558743 0 0.0010398174730685342 -0.0069503735733634324 0 0.0013136037374486588 -0.0068571868847524323 0 0.0014397680947851757 -0.0071951046641758323 0 0.0010398174730685342 -0.0069503735733634324 0 0.0013136037374486588 -0.0068571868847524323 0 -1.148486597559412e-07 -0.015000385320077352 0 -2.0573704152625874e-05 -0.014959578467255543 0 3.8884106491052713e-05 -0.014891749554619534 0 -1.2478453020233147e-08 -0.015000005572016036 0 3.0337061763553478e-05 -0.015035668343086306 0 -1.148486597559412e-07 -0.015000385320077352 0 -2.5171254078162701e-05 -0.014993792257034072 0 -2.0573704152625874e-05 -0.014959578467255543 0 8.9897428675352007e-05 -0.015045339794927722 0 4.4541129208947082e-05 -0.015055129037773791 0 0.00010043962098556704 -0.015087053794812587 0 8.9897428675352007e-05 -0.015045339794927722 0 4.4541129208947082e-05 -0.015055129037773791 0 6.986319035384627e-05 -0.015010685600693768 0 -2.5171254078162701e-05 -0.014993792257034072 0 -5.4909766899913418e-05 -0.014975526574991231 0 -9.3690250144190523e-05 -0.014989439264820614 0 3.0337061763553478e-05 -0.015035668343086306 0 7.6126817441666937e-05 -0.01455543342080667 0 -5.4909766899913418e-05 -0.014975526574991231 0 -2.0573704152625874e-05 -0.014959578467255543 0 -0.00010297037806031734 -0.014963980628494095 0 -2.5171254078162701e-05 -0.014993792257034072 0 -5.4909766899913418e-05 -0.014975526574991231 0 -2.0573704152625874e-05 -0.014959578467255543 0 -2.0573704152625874e-05 -0.014959578467255543 0 -0.00010297037806031734 -0.014963980628494095 0 -6.7712344431042029e-05 -0.014853719012541802 0 -9.6707220825232185e-05 -0.014999490816989595 0 7.6126817441666937e-05 -0.01455543342080667 0 -5.4909766899913418e-05 -0.014975526574991231 0 -0.00010297037806031734 -0.014963980628494095 0 -9.3690250144190523e-05 -0.014989439264820614 0 -1.148486597559412e-07 -0.015000385320077352 0 3.8884106491052713e-05 -0.014891749554619534 0 3.4504271935279165e-07 -0.014998779248652554 0 3.8884106491052713e-05 -0.014891749554619534 0 3.4504271935279165e-07 -0.014998779248652554 0 -5.6382863911955947e-07 -0.014109841589203174 0 -5.6382863911955947e-07 -0.014109841589203174 0 -6.7712344431042029e-05 -0.014853719012541802 0 -0.00027019823100841696 -0.014755847711341159 0 3.8884106491052713e-05 -0.014891749554619534 0 -5.6382863911955947e-07 -0.014109841589203174 0 -6.7712344431042029e-05 -0.014853719012541802 0 -0.00010297037806031734 -0.014963980628494095 0 -6.7712344431042029e-05 -0.014853719012541802 0 -0.00027019823100841696 -0.014755847711341159 0 -2.0573704152625874e-05 -0.014959578467255543 0 3.8884106491052713e-05 -0.014891749554619534 0 -6.7712344431042029e-05 -0.014853719012541802 0 -0.00020558281944160742 -0.014158658224676383 0 0.0003712404315376904 -0.013418227767045944 0 -5.7022785847023716e-05 -0.013285918638841213 0 3.2578219897261308e-05 -0.013123993520561724 0 -1.6081694993933596e-05 -0.013062898435616713 0 -8.141481736859257e-07 -0.014106343876180847 0 -5.7022785847023716e-05 -0.013285918638841213 0 5.5874621407254771e-07 -0.013312201701106672 0 -1.6070072331304639e-05 -0.014018220800332982 0 -0.00020558281944160742 -0.014158658224676383 0 5.5874621407254771e-07 -0.013312201701106672 0 3.2578219897261308e-05 -0.013123993520561724 0 6.6584416697554837e-05 -0.012883402094315216 0 -5.7022785847023716e-05 -0.013285918638841213 0 5.5874621407254771e-07 -0.013312201701106672 0 3.2578219897261308e-05 -0.013123993520561724 0 3.2578219897261308e-05 -0.013123993520561724 0 -1.6081694993933596e-05 -0.013062898435616713 0 6.7291803771926393e-05 -0.01303909469371204 0 0.0003712404315376904 -0.013418227767045944 0 0.00039268144313113593 -0.012313438610455413 0 0.001229815094829303 -0.012059349570456046 0 0.00067017217801902272 -0.012325797265583076 0 0.00069345527217204732 -0.011779675221235649 0 -0.00010297037806031734 -0.014963980628494095 0 -0.00027019823100841696 -0.014755847711341159 0 -0.0003076694553451998 -0.014989407923677913 0 -0.00010297037806031734 -0.014963980628494095 0 -0.0003076694553451998 -0.014989407923677913 0 -0.00014170376726362589 -0.015070489622030454 0 0.0003712404315376904 -0.013418227767045944 0 7.6126817441666937e-05 -0.01455543342080667 0 0.00057669886987170597 -0.013610160238267287 0 0.00060994313036770117 -0.013587240954783798 0 0.00059616634095365417 -0.013671894842204822 0 8.9897428675352007e-05 -0.015045339794927722 0 0.00010043962098556704 -0.015087053794812587 0 0.00015113589615205642 -0.015023756856032371 0 0.00057669886987170597 -0.013610160238267287 0 0.00053821234183916314 -0.013634914979962711 0 0.00059616634095365417 -0.013671894842204822 0 0.00056950828726166068 -0.013563801441622798 0 0.00057669886987170597 -0.013610160238267287 0 0.00060994313036770117 -0.013587240954783798 0 7.6126817441666937e-05 -0.01455543342080667 0 0.00041862754348052862 -0.014292622555669774 0 0.00056950828726166068 -0.013563801441622798 0 0.00057669886987170597 -0.013610160238267287 0 0.00053821234183916314 -0.013634914979962711 0 0.001229815094829303 -0.012059349570456046 0 0.0010337767902540143 -0.012615995891428221 0 0.00067017217801902272 -0.012325797265583076 0 0.0010337767902540143 -0.012615995891428221 0 0.00067017217801902272 -0.012325797265583076 0 0.00065484604543223105 -0.012771519279730564 0 0.0003712404315376904 -0.013418227767045944 0 0.00085963488229935485 -0.012986639255384449 0 0.00067017217801902272 -0.012325797265583076 0 0.00036269664669127445 -0.012677131155132781 0 0.00065484604543223105 -0.012771519279730564 0 0.00067017217801902272 -0.012325797265583076 0 0.00024930529032964353 -0.012147423706714618 0 0.00036269664669127445 -0.012677131155132781 0 0.00024930529032964353 -0.012147423706714618 0 -5.616703541460949e-05 -0.012671671099648285 0 0.00036269664669127445 -0.012677131155132781 0 0.00024930529032964353 -0.012147423706714618 0 0.0001445655635236885 -0.011820528279618681 0 0.00069345527217204732 -0.011779675221235649 0 0.00024930529032964353 -0.012147423706714618 0 0.0001445655635236885 -0.011820528279618681 0 -0.00016250271361121978 -0.011813307176329061 0 0.00067017217801902272 -0.012325797265583076 0 0.00024930529032964353 -0.012147423706714618 0 0.00069345527217204732 -0.011779675221235649 0 5.5874621407254771e-07 -0.013312201701106672 0 6.6584416697554837e-05 -0.012883402094315216 0 -2.9100288388098947e-08 -0.012062811228270144 0 6.7291803771926393e-05 -0.01303909469371204 0 6.6584416697554837e-05 -0.012883402094315216 0 1.4957406597105886e-05 -0.012703865656545642 0 3.2578219897261308e-05 -0.013123993520561724 0 6.7291803771926393e-05 -0.01303909469371204 0 6.6584416697554837e-05 -0.012883402094315216 0 0.00039268144313113593 -0.012313438610455413 0 0.00011404900318900293 -0.012084460688202989 0 6.6584416697554837e-05 -0.012883402094315216 0 1.4957406597105886e-05 -0.012703865656545642 0 -2.9100288388098947e-08 -0.012062811228270144 0 0.0001445655635236885 -0.011820528279618681 0 0.00069345527217204732 -0.011779675221235649 0 0.00017062270616429329 -0.011466447387626897 0 0.0001445655635236885 -0.011820528279618681 0 0.00017062270616429329 -0.011466447387626897 0 -7.8382724954262077e-05 -0.011584148855072003 0 0.00017062270616429329 -0.011466447387626897 0 -7.8382724954262077e-05 -0.011584148855072003 0 -0.00026519512228896479 -0.01122252886327455 0 0.0001445655635236885 -0.011820528279618681 0 -7.8382724954262077e-05 -0.011584148855072003 0 -0.00016250271361121978 -0.011813307176329061 0 -7.8382724954262077e-05 -0.011584148855072003 0 -0.00027708549615632874 -0.011565219451484223 0 -0.00016250271361121978 -0.011813307176329061 0 -0.00027708549615632874 -0.011565219451484223 0 -0.00050905421103592788 -0.011672155686619463 0 -0.00016250271361121978 -0.011813307176329061 0 -0.00027708549615632874 -0.011565219451484223 0 -0.00026519512228896479 -0.01122252886327455 0 -0.00050905421103592788 -0.011672155686619463 0 -7.8382724954262077e-05 -0.011584148855072003 0 -0.00027708549615632874 -0.011565219451484223 0 -0.00026519512228896479 -0.01122252886327455 0 0.00011404900318900293 -0.012084460688202989 0 -0.00012660023683477639 -0.011580334639144776 0 1.4957406597105886e-05 -0.012703865656545642 0 -2.9100288388098947e-08 -0.012062811228270144 0 -4.6330612193775794e-05 -0.012028093330262985 0 0.00017062270616429329 -0.011466447387626897 0 -0.000314738731904973 -0.011106472546971361 0 -0.00026519512228896479 -0.01122252886327455 0 -2.4183786218967934e-07 -0.011138279150779843 0 -2.9100288388098947e-08 -0.012062811228270144 0 -4.6330612193775794e-05 -0.012028093330262985 0 -4.256592468787262e-07 -0.011136525534777536 0 -7.2087645147533529e-05 -0.010596133645889348 0 -0.000314738731904973 -0.011106472546971361 0 9.9772384120736611e-09 -0.011137990642918956 0 -0.00012660023683477639 -0.011580334639144776 0 -0.00083719418666084583 -0.011665466397353446 0 -0.00026519512228896479 -0.01122252886327455 0 -0.00050905421103592788 -0.011672155686619463 0 -7.2087645147533529e-05 -0.010596133645889348 0 -0.000314738731904973 -0.011106472546971361 0 -0.00026519512228896479 -0.01122252886327455 0 -0.0004316699078264925 -0.011139454659470865 0 -0.00023946674666760833 -0.011184888372259817 0 -0.00080301236438536539 -0.012152449855765765 0 -0.00050905421103592788 -0.011672155686619463 0 -0.00029761361812467575 -0.012221990929966117 0 -0.00083719418666084583 -0.011665466397353446 0 -0.00080301236438536539 -0.012152449855765765 0 -0.00050905421103592788 -0.011672155686619463 0 0.00024930529032964353 -0.012147423706714618 0 -0.00016250271361121978 -0.011813307176329061 0 -0.00029761361812467575 -0.012221990929966117 0 -0.00050905421103592788 -0.011672155686619463 0 -0.00016250271361121978 -0.011813307176329061 0 -0.00029761361812467575 -0.012221990929966117 0 0.00024930529032964353 -0.012147423706714618 0 -0.00029761361812467575 -0.012221990929966117 0 -5.616703541460949e-05 -0.012671671099648285 0 -0.00029761361812467575 -0.012221990929966117 0 -0.00044659426528901821 -0.012685516645577072 0 -5.616703541460949e-05 -0.012671671099648285 0 -0.00080301236438536539 -0.012152449855765765 0 -0.00029761361812467575 -0.012221990929966117 0 -0.00044659426528901821 -0.012685516645577072 0 -0.00089716898205340859 -0.012702165484356103 0 -0.00044659426528901821 -0.012685516645577072 0 -0.00045671832868077493 -0.013200689557371199 0 -0.00044659426528901821 -0.012685516645577072 0 -5.616703541460949e-05 -0.012671671099648285 0 -7.1528093434536187e-05 -0.013143054242851596 0 -0.00044659426528901821 -0.012685516645577072 0 -7.1528093434536187e-05 -0.013143054242851596 0 -0.00045671832868077493 -0.013200689557371199 0 -7.1528093434536187e-05 -0.013143054242851596 0 -0.00045671832868077493 -0.013200689557371199 0 -0.00011628619179324702 -0.013498370361894654 0 -0.00079124311475810445 -0.01320185919933598 0 -0.00045671832868077493 -0.013200689557371199 0 -0.00058357674719151551 -0.013552168015952363 0 -0.00045671832868077493 -0.013200689557371199 0 -0.00058357674719151551 -0.013552168015952363 0 -0.00029771942812983161 -0.01366600967636147 0 -0.00068673877508136682 -0.013791047098657177 0 -0.00058357674719151551 -0.013552168015952363 0 -0.00029749410412466368 -0.01392721256224147 0 -0.00058357674719151551 -0.013552168015952363 0 -0.00029749410412466368 -0.01392721256224147 0 -0.00029771942812983161 -0.01366600967636147 0 -0.00068673877508136682 -0.013791047098657177 0 -0.00029749410412466368 -0.01392721256224147 0 -0.00039052112682103616 -0.014080143997919058 0 -0.00029749410412466368 -0.01392721256224147 0 -0.00029771942812983161 -0.01366600967636147 0 -3.5535525443376537e-05 -0.014027837958592311 0 -0.00029749410412466368 -0.01392721256224147 0 -3.5535525443376537e-05 -0.014027837958592311 0 -0.00015404902963477265 -0.014115119504653769 0 -0.00029771942812983161 -0.01366600967636147 0 4.9329450194011757e-05 -0.013827372798715456 0 -3.5535525443376537e-05 -0.014027837958592311 0 -0.00045671832868077493 -0.013200689557371199 0 -0.00029771942812983161 -0.01366600967636147 0 -0.00011628619179324702 -0.013498370361894654 0 -0.00029771942812983161 -0.01366600967636147 0 -0.00011628619179324702 -0.013498370361894654 0 4.9329450194011757e-05 -0.013827372798715456 0 -0.00011628619179324702 -0.013498370361894654 0 4.9329450194011757e-05 -0.013827372798715456 0 0.00023866233138122056 -0.01340033344412294 0 4.9329450194011757e-05 -0.013827372798715456 0 -3.5535525443376537e-05 -0.014027837958592311 0 0.00013502599809700304 -0.014146192459965883 0 4.9329450194011757e-05 -0.013827372798715456 0 0.00027706808494684003 -0.014142600894139436 0 0.00036748285460552624 -0.013928298507887439 0 4.9329450194011757e-05 -0.013827372798715456 0 0.00013502599809700304 -0.014146192459965883 0 0.00027706808494684003 -0.014142600894139436 0 0.00027706808494684003 -0.014142600894139436 0 0.00036748285460552624 -0.013928298507887439 0 0.00039906661943135311 -0.014292939932213311 0 0.00041308446494037063 -0.013879531198972518 0 0.00061251412250869263 -0.013517730317146997 0 4.9329450194011757e-05 -0.013827372798715456 0 0.00036748285460552624 -0.013928298507887439 0 0.00023866233138122056 -0.01340033344412294 0 0.00023866233138122056 -0.01340033344412294 0 0.00042487436392149922 -0.013023492847305527 0 0.00079699492851049048 -0.013222956010907181 0 0.00036748285460552624 -0.013928298507887439 0 0.00023866233138122056 -0.01340033344412294 0 0.00079699492851049048 -0.013222956010907181 0 -7.1528093434536187e-05 -0.013143054242851596 0 -0.00011628619179324702 -0.013498370361894654 0 0.00023866233138122056 -0.01340033344412294 0 -7.1528093434536187e-05 -0.013143054242851596 0 0.00023866233138122056 -0.01340033344412294 0 0.00016610363119671587 -0.012969952258273349 0 0.00023866233138122056 -0.01340033344412294 0 0.00016610363119671587 -0.012969952258273349 0 0.00042487436392149922 -0.013023492847305527 0 -5.616703541460949e-05 -0.012671671099648285 0 -7.1528093434536187e-05 -0.013143054242851596 0 0.00016610363119671587 -0.012969952258273349 0 -5.616703541460949e-05 -0.012671671099648285 0 0.00016610363119671587 -0.012969952258273349 0 0.00036269664669127445 -0.012677131155132781 0 0.00065484604543223105 -0.012771519279730564 0 0.00042487436392149922 -0.013023492847305527 0 0.00079699492851049048 -0.013222956010907181 0 0.00036269664669127445 -0.012677131155132781 0 0.00065484604543223105 -0.012771519279730564 0 0.00042487436392149922 -0.013023492847305527 0 0.00016610363119671587 -0.012969952258273349 0 0.00036269664669127445 -0.012677131155132781 0 0.00042487436392149922 -0.013023492847305527 0 0.00085963488229935485 -0.012986639255384449 0 0.00061251412250869263 -0.013517730317146997 0 0.00053821234183916314 -0.013634914979962711 0 0.00059616634095365417 -0.013671894842204822 0 0.00048306039428961945 -0.013741828850728308 0 0.0010337767902540143 -0.012615995891428221 0 0.00065484604543223105 -0.012771519279730564 0 0.00079699492851049048 -0.013222956010907181 0 0.00015113589615205642 -0.015023756856032371 0 0.0001311442244431713 -0.014954063619667288 0 6.986319035384627e-05 -0.015010685600693768 0 0.00041862754348052862 -0.014292622555669774 0 0.00041384971837200011 -0.014362188470506795 0 0.00015113589615205642 -0.015023756856032371 0 0.0001311442244431713 -0.014954063619667288 0 0.00028662822330515164 -0.01489211270779953 0 0.0001311442244431713 -0.014954063619667288 0 0.00028662822330515164 -0.01489211270779953 0 0.00011710643205157874 -0.014828916937743937 0 0.00059616634095365417 -0.013671894842204822 0 0.00057727143722716232 -0.013817292041621 0 0.00048306039428961945 -0.013741828850728308 0 0.00028662822330515164 -0.01489211270779953 0 0.00039906661943135311 -0.014292939932213311 0 0.00022085080814092064 -0.014613807226650455 0 0.00036748285460552624 -0.013928298507887439 0 0.00057727143722716232 -0.013817292041621 0 0.00048306039428961945 -0.013741828850728308 0 0.00036748285460552624 -0.013928298507887439 0 0.00057727143722716232 -0.013817292041621 0 0.00039906661943135311 -0.014292939932213311 0 0.00041384971837200011 -0.014362188470506795 0 0.00041047597159497005 -0.014300322634843621 0 0.00039906661943135311 -0.014292939932213311 0 0.00026289390105562626 -0.014409341073088586 0 0.00022085080814092064 -0.014613807226650455 0 0.00027706808494684003 -0.014142600894139436 0 0.00039906661943135311 -0.014292939932213311 0 0.00024146231551394612 -0.014303412940320455 0 0.00026289390105562626 -0.014409341073088586 0 0.00011841039269185852 -0.014674677326712257 0 0.00022085080814092064 -0.014613807226650455 0 0.00026289390105562626 -0.014409341073088586 0 0.00011841039269185852 -0.014674677326712257 0 0.00014836650866765166 -0.014543526951095403 0 0.00011841039269185852 -0.014674677326712257 0 0.00022085080814092064 -0.014613807226650455 0 0.00011710643205157874 -0.014828916937743937 0 0.00028662822330515164 -0.01489211270779953 0 0.00022085080814092064 -0.014613807226650455 0 0.00011710643205157874 -0.014828916937743937 0 1.9838918301674359e-05 -0.014862424452661397 0 7.9730044251361809e-06 -0.014951630908374272 0 6.1178282271642451e-05 -0.014935752925667988 0 0.00011841039269185852 -0.014674677326712257 0 0.00011710643205157874 -0.014828916937743937 0 1.9838918301674359e-05 -0.014862424452661397 0 0.00011710643205157874 -0.014828916937743937 0 1.9838918301674359e-05 -0.014862424452661397 0 6.1178282271642451e-05 -0.014935752925667988 0 0.00011841039269185852 -0.014674677326712257 0 1.9838918301674359e-05 -0.014862424452661397 0 -2.4065023358421738e-05 -0.014804035549825192 0 0.00011841039269185852 -0.014674677326712257 0 -2.4065023358421738e-05 -0.014804035549825192 0 0.00014836650866765166 -0.014543526951095403 0 1.9838918301674359e-05 -0.014862424452661397 0 -2.4065023358421738e-05 -0.014804035549825192 0 -7.2885865360518301e-08 -0.014999897867820805 0 -2.4065023358421738e-05 -0.014804035549825192 0 -7.2885865360518301e-08 -0.014999897867820805 0 1.2274326109310988e-07 -0.014999423872621896 0 1.9838918301674359e-05 -0.014862424452661397 0 -7.2885865360518301e-08 -0.014999897867820805 0 7.9730044251361809e-06 -0.014951630908374272 0 -7.2885865360518301e-08 -0.014999897867820805 0 7.9730044251361809e-06 -0.014951630908374272 0 2.1367332341603099e-08 -0.014999908295465091 0 7.9730044251361809e-06 -0.014951630908374272 0 6.1178282271642451e-05 -0.014935752925667988 0 1.6574175873982333e-05 -0.014997182754178967 0 7.9730044251361809e-06 -0.014951630908374272 0 2.1367332341603099e-08 -0.014999908295465091 0 1.6574175873982333e-05 -0.014997182754178967 0 0.0001311442244431713 -0.014954063619667288 0 6.1178282271642451e-05 -0.014935752925667988 0 6.986319035384627e-05 -0.015010685600693768 0 6.1178282271642451e-05 -0.014935752925667988 0 6.986319035384627e-05 -0.015010685600693768 0 1.6574175873982333e-05 -0.014997182754178967 0 0.0001311442244431713 -0.014954063619667288 0 0.00011710643205157874 -0.014828916937743937 0 6.1178282271642451e-05 -0.014935752925667988 0 4.4541129208947082e-05 -0.015055129037773791 0 6.986319035384627e-05 -0.015010685600693768 0 1.6574175873982333e-05 -0.014997182754178967 0 8.9897428675352007e-05 -0.015045339794927722 0 0.00015113589615205642 -0.015023756856032371 0 6.986319035384627e-05 -0.015010685600693768 0 -8.7235509306337863e-10 -0.015000127833761128 0 4.4541129208947082e-05 -0.015055129037773791 0 1.6574175873982333e-05 -0.014997182754178967 0 -8.7235509306337863e-10 -0.015000127833761128 0 2.1367332341603099e-08 -0.014999908295465091 0 1.6574175873982333e-05 -0.014997182754178967 0 2.67362911488039e-07 -0.014998379407018408 0 -4.5992140035308253e-09 -0.014999985022027151 0 1.6777599184522138e-09 -0.014999999812207192 0 9.7156290678455118e-05 -0.014444215358932729 0 7.3617811438937876e-05 -0.014435806927100191 0 7.3183088878500636e-05 -0.014468559690383459 0 1.7806137045708303e-05 -0.014700720609718347 0 0.00012622700843721509 -0.014336359793807102 0 9.7156290678455118e-05 -0.014444215358932729 0 9.2526848411631356e-05 -0.014420620193507708 0 7.3617811438937876e-05 -0.014435806927100191 0 5.2896368667986726e-05 -0.014724003721213096 0 1.7806137045708303e-05 -0.014700720609718347 0 2.67362911488039e-07 -0.014998379407018408 0 1.6777599184522138e-09 -0.014999999812207192 0 3.4746365173520022e-07 -0.014998438017455575 0 1.6777599184522138e-09 -0.014999999812207192 0 3.4746365173520022e-07 -0.014998438017455575 0 -5.1082635418440537e-10 -0.014999997250824787 0 1.7806137045708303e-05 -0.014700720609718347 0 -1.7531808735597415e-07 -0.01500026591308184 0 -3.08042136363016e-05 -0.014793984587729464 0 1.7806137045708303e-05 -0.014700720609718347 0 -2.4065023358421738e-05 -0.014804035549825192 0 -4.6284263424635877e-05 -0.014993767777992099 0 1.2274326109310988e-07 -0.014999423872621896 0 -2.4065023358421738e-05 -0.014804035549825192 0 -4.6622125561219527e-06 -0.014377627215699993 0 0.00011433894175282465 -0.014476278538256159 0 -2.4065023358421738e-05 -0.014804035549825192 0 0.00011433894175282465 -0.014476278538256159 0 0.00014836650866765166 -0.014543526951095403 0 -4.6622125561219527e-06 -0.014377627215699993 0 0.00015260192139451999 -0.014380925045153956 0 0.00015619209593979009 -0.01434686631975631 0 -4.6622125561219527e-06 -0.014377627215699993 0 0.00011433894175282465 -0.014476278538256159 0 0.00015260192139451999 -0.014380925045153956 0 0.00015260192139451999 -0.014380925045153956 0 0.00016957873729088008 -0.01435545357921037 0 0.00015619209593979009 -0.01434686631975631 0 0.00015260192139451999 -0.014380925045153956 0 0.0002019186921811487 -0.014391882543662421 0 0.00016957873729088008 -0.01435545357921037 0 0.00011433894175282465 -0.014476278538256159 0 0.00015260192139451999 -0.014380925045153956 0 0.0002019186921811487 -0.014391882543662421 0 0.00011433894175282465 -0.014476278538256159 0 0.0002019186921811487 -0.014391882543662421 0 0.00014836650866765166 -0.014543526951095403 0 0.00026289390105562626 -0.014409341073088586 0 0.0002019186921811487 -0.014391882543662421 0 0.00014836650866765166 -0.014543526951095403 0 0.00039906661943135311 -0.014292939932213311 0 0.00026289390105562626 -0.014409341073088586 0 0.00024146231551394612 -0.014303412940320455 0 0.00026289390105562626 -0.014409341073088586 0 0.0002019186921811487 -0.014391882543662421 0 0.00024146231551394612 -0.014303412940320455 0 0.00024146231551394612 -0.014303412940320455 0 0.00016957873729088008 -0.01435545357921037 0 0.00010775174997930046 -0.014347128615794874 0 0.0002019186921811487 -0.014391882543662421 0 0.00024146231551394612 -0.014303412940320455 0 0.00016957873729088008 -0.01435545357921037 0 0.00016957873729088008 -0.01435545357921037 0 0.00010124763276964823 -0.014377105845731031 0 0.00010775174997930046 -0.014347128615794874 0 0.00016957873729088008 -0.01435545357921037 0 0.00010124763276964823 -0.014377105845731031 0 0.00015619209593979009 -0.01434686631975631 0 0.00010124763276964823 -0.014377105845731031 0 0.00015619209593979009 -0.01434686631975631 0 5.185286040228891e-05 -0.014448495877116285 0 0.00012622700843721509 -0.014336359793807102 0 4.7293866144308175e-05 -0.014466388485283933 0 7.3617811438937876e-05 -0.014435806927100191 0 5.185286040228891e-05 -0.014448495877116285 0 7.3183088878500636e-05 -0.014468559690383459 0 0.00010124763276964823 -0.014377105845731031 0 5.185286040228891e-05 -0.014448495877116285 0 1.9974490342387946e-06 -0.014410616141373393 0 5.185286040228891e-05 -0.014448495877116285 0 1.9974490342387946e-06 -0.014410616141373393 0 -6.805001032669096e-05 -0.01445396864742093 0 1.9974490342387946e-06 -0.014410616141373393 0 -8.4087643574423672e-06 -0.014371347216601965 0 -0.00013317706496951488 -0.01442771657830616 0 1.9974490342387946e-06 -0.014410616141373393 0 -0.00013317706496951488 -0.01442771657830616 0 -6.805001032669096e-05 -0.01445396864742093 0 -8.4087643574423672e-06 -0.014371347216601965 0 -0.00011777781645326931 -0.014360195884473249 0 -0.00013317706496951488 -0.01442771657830616 0 1.9974490342387946e-06 -0.014410616141373393 0 -8.4087643574423672e-06 -0.014371347216601965 0 0.00010775174997930046 -0.014347128615794874 0 0.00010124763276964823 -0.014377105845731031 0 1.9974490342387946e-06 -0.014410616141373393 0 0.00010775174997930046 -0.014347128615794874 0 -8.4087643574423672e-06 -0.014371347216601965 0 0.00010775174997930046 -0.014347128615794874 0 2.1757722954696575e-05 -0.014265457240444033 0 0.00024146231551394612 -0.014303412940320455 0 0.00010775174997930046 -0.014347128615794874 0 2.1757722954696575e-05 -0.014265457240444033 0 0.00013502599809700304 -0.014146192459965883 0 0.00024146231551394612 -0.014303412940320455 0 2.1757722954696575e-05 -0.014265457240444033 0 0.00013502599809700304 -0.014146192459965883 0 0.00027706808494684003 -0.014142600894139436 0 0.00024146231551394612 -0.014303412940320455 0 -3.5535525443376537e-05 -0.014027837958592311 0 0.00013502599809700304 -0.014146192459965883 0 2.1757722954696575e-05 -0.014265457240444033 0 -3.5535525443376537e-05 -0.014027837958592311 0 2.1757722954696575e-05 -0.014265457240444033 0 -0.00015404902963477265 -0.014115119504653769 0 -8.4087643574423672e-06 -0.014371347216601965 0 2.1757722954696575e-05 -0.014265457240444033 0 -0.00011777781645326931 -0.014360195884473249 0 2.1757722954696575e-05 -0.014265457240444033 0 -0.00024282366092549476 -0.014281108908912299 0 -0.00011777781645326931 -0.014360195884473249 0 2.1757722954696575e-05 -0.014265457240444033 0 -0.00024282366092549476 -0.014281108908912299 0 -0.00015404902963477265 -0.014115119504653769 0 -0.00029749410412466368 -0.01392721256224147 0 -0.00015404902963477265 -0.014115119504653769 0 -0.00039052112682103616 -0.014080143997919058 0 -0.00024282366092549476 -0.014281108908912299 0 -0.00015404902963477265 -0.014115119504653769 0 -0.00039052112682103616 -0.014080143997919058 0 -0.00039052112682103616 -0.014080143997919058 0 -0.00043917683476191584 -0.014219976964099521 0 -0.000604201030462401 -0.014051028750108821 0 -0.00024282366092549476 -0.014281108908912299 0 -0.00043917683476191584 -0.014219976964099521 0 -0.00039815897817635639 -0.014396021076921311 0 -0.00024282366092549476 -0.014281108908912299 0 -0.00039052112682103616 -0.014080143997919058 0 -0.00043917683476191584 -0.014219976964099521 0 -0.00024282366092549476 -0.014281108908912299 0 -0.00024889732108373939 -0.014402614769773926 0 -0.00039815897817635639 -0.014396021076921311 0 -0.00024889732108373939 -0.014402614769773926 0 -0.00039815897817635639 -0.014396021076921311 0 -0.00031270594074059776 -0.014397051042379542 0 -0.00024889732108373939 -0.014402614769773926 0 -0.00011777781645326931 -0.014360195884473249 0 -0.00013317706496951488 -0.01442771657830616 0 -0.00024282366092549476 -0.014281108908912299 0 -0.00024889732108373939 -0.014402614769773926 0 -0.00011777781645326931 -0.014360195884473249 0 -0.00024889732108373939 -0.014402614769773926 0 -0.00013317706496951488 -0.01442771657830616 0 -0.00024011006955602799 -0.014417408918633707 0 -0.00024889732108373939 -0.014402614769773926 0 -0.00024011006955602799 -0.014417408918633707 0 -0.00031270594074059776 -0.014397051042379542 0 -0.00024011006955602799 -0.014417408918633707 0 -0.00016847844082147894 -0.014441916930969502 0 -0.00020773608803207011 -0.014424694591947493 0 -0.00013317706496951488 -0.01442771657830616 0 -0.00024011006955602799 -0.014417408918633707 0 -0.00016847844082147894 -0.014441916930969502 0 -0.00016847844082147894 -0.014441916930969502 0 -0.00020773608803207011 -0.014424694591947493 0 -0.00012324488611432902 -0.014476216960181386 0 -0.00024011006955602799 -0.014417408918633707 0 -0.00020773608803207011 -0.014424694591947493 0 -0.00025033972286971843 -0.014383318946606534 0 -0.00020773608803207011 -0.014424694591947493 0 -0.00020289012601698808 -0.014413068537787508 0 -0.00023674394199066468 -0.014354234938368619 0 -0.00020289012601698808 -0.014413068537787508 0 -0.00014558841869393688 -0.014495364543027594 0 -0.00015063541939897422 -0.014517279591100517 0 -0.00020773608803207011 -0.014424694591947493 0 -0.00020289012601698808 -0.014413068537787508 0 -0.00014558841869393688 -0.014495364543027594 0 -0.00020773608803207011 -0.014424694591947493 0 -0.00014558841869393688 -0.014495364543027594 0 -0.00012324488611432902 -0.014476216960181386 0 -0.00014558841869393688 -0.014495364543027594 0 -7.4609630444294361e-05 -0.014539666070255274 0 -0.00012324488611432902 -0.014476216960181386 0 -0.00014558841869393688 -0.014495364543027594 0 -8.5494784384816192e-05 -0.014614895060984514 0 -0.00015063541939897422 -0.014517279591100517 0 -0.00014558841869393688 -0.014495364543027594 0 -7.4609630444294361e-05 -0.014539666070255274 0 -8.5494784384816192e-05 -0.014614895060984514 0 -7.4609630444294361e-05 -0.014539666070255274 0 -3.0126270605864779e-05 -0.01460518263686855 0 -8.5494784384816192e-05 -0.014614895060984514 0 -7.4609630444294361e-05 -0.014539666070255274 0 -3.9633785123928427e-05 -0.014492394006848574 0 -0.00012324488611432902 -0.014476216960181386 0 -3.9633785123928427e-05 -0.014492394006848574 0 -0.00012324488611432902 -0.014476216960181386 0 -6.805001032669096e-05 -0.01445396864742093 0 -0.00013317706496951488 -0.01442771657830616 0 -0.00016847844082147894 -0.014441916930969502 0 -6.805001032669096e-05 -0.01445396864742093 0 -0.00016847844082147894 -0.014441916930969502 0 -0.00012324488611432902 -0.014476216960181386 0 -6.805001032669096e-05 -0.01445396864742093 0 5.185286040228891e-05 -0.014448495877116285 0 -3.9633785123928427e-05 -0.014492394006848574 0 -6.805001032669096e-05 -0.01445396864742093 0 5.185286040228891e-05 -0.014448495877116285 0 -3.9633785123928427e-05 -0.014492394006848574 0 1.680098093803655e-05 -0.014533579610751135 0 5.185286040228891e-05 -0.014448495877116285 0 1.680098093803655e-05 -0.014533579610751135 0 7.3183088878500636e-05 -0.014468559690383459 0 1.680098093803655e-05 -0.014533579610751135 0 3.2496431311251521e-05 -0.014598469508606627 0 7.1807863943849836e-05 -0.014542104634745798 0 1.680098093803655e-05 -0.014533579610751135 0 7.1807863943849836e-05 -0.014542104634745798 0 7.3183088878500636e-05 -0.014468559690383459 0 -7.4609630444294361e-05 -0.014539666070255274 0 -3.9633785123928427e-05 -0.014492394006848574 0 1.680098093803655e-05 -0.014533579610751135 0 -7.4609630444294361e-05 -0.014539666070255274 0 1.680098093803655e-05 -0.014533579610751135 0 -3.0126270605864779e-05 -0.01460518263686855 0 -3.0126270605864779e-05 -0.01460518263686855 0 -3.3132371515078203e-05 -0.014682334800246026 0 -8.5494784384816192e-05 -0.014614895060984514 0 -3.3132371515078203e-05 -0.014682334800246026 0 8.3064849937182595e-06 -0.014697072712144908 0 2.1891027287660556e-05 -0.0148213823487047 0 -3.0126270605864779e-05 -0.01460518263686855 0 -3.3132371515078203e-05 -0.014682334800246026 0 8.3064849937182595e-06 -0.014697072712144908 0 -3.0126270605864779e-05 -0.01460518263686855 0 8.3064849937182595e-06 -0.014697072712144908 0 3.2496431311251521e-05 -0.014598469508606627 0 1.680098093803655e-05 -0.014533579610751135 0 -3.0126270605864779e-05 -0.01460518263686855 0 3.2496431311251521e-05 -0.014598469508606627 0 8.3064849937182595e-06 -0.014697072712144908 0 3.2496431311251521e-05 -0.014598469508606627 0 0.00012462632923066979 -0.014628798382894654 0 3.2496431311251521e-05 -0.014598469508606627 0 0.00012462632923066979 -0.014628798382894654 0 7.1807863943849836e-05 -0.014542104634745798 0 0.00012462632923066979 -0.014628798382894654 0 5.6591777696098465e-05 -0.014911425329781495 0 2.1891027287660556e-05 -0.0148213823487047 0 8.3064849937182595e-06 -0.014697072712144908 0 0.00012462632923066979 -0.014628798382894654 0 2.1891027287660556e-05 -0.0148213823487047 0 -1.0423432919630226e-08 -0.014999921986132097 0 1.2957275869363121e-05 -0.015010254923988565 0 5.6591777696098465e-05 -0.014911425329781495 0 6.6440513929047858e-05 -0.014818191108915921 0 5.9269395727180345e-05 -0.014899867079485698 0 -1.0423432919630226e-08 -0.014999921986132097 0 1.2957275869363121e-05 -0.015010254923988565 0 1.8977756227236505e-08 -0.015000042517392051 0 1.2957275869363121e-05 -0.015010254923988565 0 1.8977756227236505e-08 -0.015000042517392051 0 3.2849339373022215e-07 -0.014998698455283364 0 6.6440513929047858e-05 -0.014818191108915921 0 5.7489166205102393e-05 -0.014748690146334231 0 0.00012462632923066979 -0.014628798382894654 0 7.1807863943849836e-05 -0.014542104634745798 0 0.00011483609882448253 -0.014496420270254771 0 7.1807863943849836e-05 -0.014542104634745798 0 7.3183088878500636e-05 -0.014468559690383459 0 0.00011483609882448253 -0.014496420270254771 0 9.7156290678455118e-05 -0.014444215358932729 0 7.3183088878500636e-05 -0.014468559690383459 0 0.00011483609882448253 -0.014496420270254771 0 -4.5992140035308253e-09 -0.014999985022027151 0 1.8977756227236505e-08 -0.015000042517392051 0 3.2849339373022215e-07 -0.014998698455283364 0 5.2896368667986726e-05 -0.014724003721213096 0 5.7489166205102393e-05 -0.014748690146334231 0 2.67362911488039e-07 -0.014998379407018408 0 -4.5992140035308253e-09 -0.014999985022027151 0 3.2849339373022215e-07 -0.014998698455283364 0 -0.00022054053951997823 -0.0093689076150002704 0 0.00016613940551773462 -0.0090099077312616183 0 -0.00065802932864989535 -0.0089597245738771182 0 -0.00022054053951997823 -0.0093689076150002704 0 0.00016613940551773462 -0.0090099077312616183 0 0.00038578215550668168 -0.0093930077041743908 0 0.00016613940551773462 -0.0090099077312616183 0 0.00038578215550668168 -0.0093930077041743908 0 0.00099083046218718766 -0.0090555834820332387 0 0.00018464068635506425 -0.0097371469028988446 0 0.00074382106826978781 -0.0096510574965829026 0 0.00049410977364113472 -0.010248114802491992 0 0.00038578215550668168 -0.0093930077041743908 0 0.00018464068635506425 -0.0097371469028988446 0 0.00074382106826978781 -0.0096510574965829026 0 0.00018464068635506425 -0.0097371469028988446 0 -0.00016957394190780131 -0.0097945353546449992 0 6.7928404300002335e-05 -0.0099757679776067958 0 -0.00022054053951997823 -0.0093689076150002704 0 0.00038578215550668168 -0.0093930077041743908 0 0.00018464068635506425 -0.0097371469028988446 0 -0.00022054053951997823 -0.0093689076150002704 0 0.00018464068635506425 -0.0097371469028988446 0 -0.00016957394190780131 -0.0097945353546449992 0 -0.00057578150547297612 -0.0097603751530512782 0 -0.00064763774841197254 -0.0097734299790137452 0 -0.00065802932864989535 -0.0089597245738771182 0 -0.00033858900905607076 -0.0088846253106352902 0 -0.00022146559443854348 -0.0088025565110603204 0 -0.00022054053951997823 -0.0093689076150002704 0 -0.00016957394190780131 -0.0097945353546449992 0 -0.00057578150547297612 -0.0097603751530512782 0 -0.00025809747394078114 -0.0082456218182183696 0 -0.00022146559443854348 -0.0088025565110603204 0 0.00090006634466938693 -0.0074886634109360244 0 0.0011684722236463051 -0.0074373215425944219 0 0.00098190393990447945 -0.0072564852672781744 0 0.00092128374189913876 -0.0070346435333992485 0 0.00098190393990447945 -0.0072564852672781744 0 0.0011658356719323015 -0.0070633230766495572 0 0.0011684722236463051 -0.0074373215425944219 0 0.00098190393990447945 -0.0072564852672781744 0 0.0011658356719323015 -0.0070633230766495572 0 -0.00022146559443854348 -0.0088025565110603204 0 0.00045856934713376637 -0.0077365909100548125 0 -0.00022054053951997823 -0.0093689076150002704 0 -0.00057578150547297612 -0.0097603751530512782 0 -0.00065802932864989535 -0.0089597245738771182 0 0.0010052946965657117 -0.0070163648520306056 0 0.00098366795076638459 -0.0069437424398850053 0 0.0010197117096388548 -0.0070497056225828462 0 0.001006127619527975 -0.0070368295461447081 0 0.0010052946965657117 -0.0070163648520306056 0 0.0010197117096388548 -0.0070497056225828462 0 0.00045856934713376637 -0.0077365909100548125 0 0.00072422581966429163 -0.0070306774972298631 0 0.00092128374189913876 -0.0070346435333992485 0 0.0010052946965657117 -0.0070163648520306056 0 0.00098366795076638459 -0.0069437424398850053 0 0.0011603000140356016 -0.0069813613229927083 0 0.00045856934713376637 -0.0077365909100548125 0 0.00092128374189913876 -0.0070346435333992485 0 0.001004449022905499 -0.0070514436277372061 0 0.0010052946965657117 -0.0070163648520306056 0 0.00099985226130662442 -0.0066641225581380043 0 0.0008762065676125308 -0.0065334343698703118 0 0.0011483908462297772 -0.006659023063026126 0 0.00099985226130662442 -0.0066641225581380043 0 0.0011103979178126136 -0.0067154648347275137 0 0.0011483908462297772 -0.006659023063026126 0 0.0010337111632786984 -0.006825328624123112 0 0.0010482474752454109 -0.0068757728971645081 0 0.0011103979178126136 -0.0067154648347275137 0 0.0011483908462297772 -0.006659023063026126 0 0.0011531964874063462 -0.0066597507224248967 0 0.0011257739806965921 -0.0065780748592407165 0 0.00111443485026543 -0.0065844260761246829 0 0.0011483908462297772 -0.006659023063026126 0 0.0011531964874063462 -0.0066597507224248967 0 0.0011356101826868587 -0.0066575955998736105 0 0.0010482474752454109 -0.0068757728971645081 0 0.0012025325095521627 -0.006627343653431741 0 0.0011531964874063462 -0.0066597507224248967 0 0.0011356101826868587 -0.0066575955998736105 0 0.0011004907919744608 -0.0066205552130650285 0 0.001111174584883414 -0.00649905351971348 0 0.0011285987987874984 -0.0065021068065300378 0 0.0010852247445182655 -0.006503811684431488 0 0.0010130535714363963 -0.0071006158800635587 0 0.0010197117096388548 -0.0070497056225828462 0 0.001011390171100444 -0.0071147647135181812 0 0.00059347578474338517 -0.007949836145549477 0 0.00045856934713376637 -0.0077365909100548125 0 0.0010130535714363963 -0.0071006158800635587 0 0.001006127619527975 -0.0070368295461447081 0 0.0010197117096388548 -0.0070497056225828462 0 0.0010130535714363963 -0.0071006158800635587 0 0.001011390171100444 -0.0071147647135181812 0 0.001010795233924347 -0.0071420050612924528 0 0.0010594679215994985 -0.0065358593574288927 0 0.0010852247445182655 -0.006503811684431488 0 0.0010497463399603529 -0.0065524871506812479 0 0.0010852247445182655 -0.006503811684431488 0 0.0010497463399603529 -0.0065524871506812479 0 0.0010431546568736151 -0.0065959868006652831 0 0.00111443485026543 -0.0065844260761246829 0 0.0010494855613444479 -0.0065991414548262819 0 0.0011356101826868587 -0.0066575955998736105 0 0.0011004907919744608 -0.0066205552130650285 0 0.0010392801090096356 -0.0066033062617597022 0 0.0012025325095521627 -0.006627343653431741 0 0.00026016638370820642 -0.0094402372896431833 0 0.0010497463399603529 -0.0065524871506812479 0 0.0010431546568736151 -0.0065959868006652831 0 0.001052875056759888 -0.0065810812120087195 0 0.0010852247445182655 -0.006503811684431488 0 0.0010392801090096356 -0.0066033062617597022 0 0.0010431546568736151 -0.0065959868006652831 0 0.0011004907919744608 -0.0066205552130650285 0 0.0010392801090096356 -0.0066033062617597022 0 0.0010186591675885475 -0.0065943646559285347 0 0.0010378276551220016 -0.0065467582354963435 0 0.0010497463399603529 -0.0065524871506812479 0 0.001052875056759888 -0.0065810812120087195 0 0.0010392801090096356 -0.0066033062617597022 0 0.0010292791416083567 -0.0066339909695202152 0 0.0010186591675885475 -0.0065943646559285347 0 -0.0004112651334470516 -0.010548226169900017 0 0.00026016638370820642 -0.0094402372896431833 0 0.0010392801090096356 -0.0066033062617597022 0 0.0010431546568736151 -0.0065959868006652831 0 0.0010292791416083567 -0.0066339909695202152 0 0.0010865561027476936 -0.0078386073792618347 0 -0.0004112651334470516 -0.010548226169900017 0 0.00026016638370820642 -0.0094402372896431833 0 -0.0010357704603848801 -0.013393144555756107 0 -0.0013535188055112954 -0.013916582970956286 0 -0.0011690670755350205 -0.013904592670696689 0 -0.0012860546214436481 -0.014069555761762246 0 -0.0011032050267033903 -0.014013575922412848 0 -0.0012860546214436481 -0.014069555761762246 0 -0.0010141447325223932 -0.014111896298070291 0 -0.0011690670755350205 -0.013904592670696689 0 -0.0011032050267033903 -0.014013575922412848 0 -0.0010373542868671798 -0.013942616549304379 0 -0.0011690670755350205 -0.013904592670696689 0 -0.0011032050267033903 -0.014013575922412848 0 -0.0012860546214436481 -0.014069555761762246 0 -0.00026616378756059723 -0.011559932568613762 0 -0.00031390272210242177 -0.011572779456671012 0 -0.00028617509258438791 -0.011523795126916316 0 -0.00031390272210242177 -0.011572779456671012 0 -0.00029622656962286593 -0.011525524768095811 0 -0.00028617509258438791 -0.011523795126916316 0 0.00026016638370820642 -0.0094402372896431833 0 0.00042950554756338071 -0.010797987898979523 0 0.0010132634945224563 -0.0071547778534486505 0 0.0010148974156071891 -0.0071799155994953807 0 0.0010403138347639231 -0.0072113793059594665 0 0.0010132634945224563 -0.0071547778534486505 0 0.0010148974156071891 -0.0071799155994953807 0 0.0010121027091670697 -0.0071607578003016386 0 0.0010148974156071891 -0.0071799155994953807 0 0.0010016642230400027 -0.0072116139851195506 0 0.0010403138347639231 -0.0072113793059594665 0 0.0011237665559305052 -0.0077641590240544872 0 0.0007023402727441919 -0.0091176715578131784 0 0.001010795233924347 -0.0071420050612924528 0 0.0010121027091670697 -0.0071607578003016386 0 0.0010108710273517376 -0.0071736575967274946 0 0.0010148974156071891 -0.0071799155994953807 0 0.0010121027091670697 -0.0071607578003016386 0 0.0010108710273517376 -0.0071736575967274946 0 0.0010130535714363963 -0.0071006158800635587 0 0.001010795233924347 -0.0071420050612924528 0 0.0010108710273517376 -0.0071736575967274946 0 0.001011390171100444 -0.0071147647135181812 0 0.0010132634945224563 -0.0071547778534486505 0 0.001010795233924347 -0.0071420050612924528 0 0.0010132634945224563 -0.0071547778534486505 0 0.001010795233924347 -0.0071420050612924528 0 0.0010121027091670697 -0.0071607578003016386 0 -0.00068673877508136682 -0.013791047098657177 0 -0.00039052112682103616 -0.014080143997919058 0 -0.000604201030462401 -0.014051028750108821 0 -0.00068673877508136682 -0.013791047098657177 0 -0.000604201030462401 -0.014051028750108821 0 -0.00077302052954658911 -0.013927684009981791 0 -0.00043917683476191584 -0.014219976964099521 0 -0.000604201030462401 -0.014051028750108821 0 -0.00068151068565023719 -0.014160271497910031 0 -0.000604201030462401 -0.014051028750108821 0 -0.00077302052954658911 -0.013927684009981791 0 -0.00080633108835612036 -0.014045665320050809 0 -0.000604201030462401 -0.014051028750108821 0 -0.00080633108835612036 -0.014045665320050809 0 -0.00068151068565023719 -0.014160271497910031 0 -0.00080633108835612036 -0.014045665320050809 0 -0.001019060190778379 -0.014168095873069157 0 -0.00068151068565023719 -0.014160271497910031 0 -0.00080633108835612036 -0.014045665320050809 0 -0.00098190073571435875 -0.014044344134065672 0 -0.001019060190778379 -0.014168095873069157 0 -0.00080633108835612036 -0.014045665320050809 0 -0.00092000975382939382 -0.013952524838900492 0 -0.00098190073571435875 -0.014044344134065672 0 -0.0010063150971635624 -0.013821817039647898 0 -0.00077302052954658911 -0.013927684009981791 0 -0.00092000975382939382 -0.013952524838900492 0 -0.00077302052954658911 -0.013927684009981791 0 -0.00080633108835612036 -0.014045665320050809 0 -0.00092000975382939382 -0.013952524838900492 0 -0.0010063150971635624 -0.013821817039647898 0 -0.0011690670755350205 -0.013904592670696689 0 -0.0010373542868671798 -0.013942616549304379 0 -0.0010063150971635624 -0.013821817039647898 0 -0.00092000975382939382 -0.013952524838900492 0 -0.0010373542868671798 -0.013942616549304379 0 -0.00092000975382939382 -0.013952524838900492 0 -0.0010373542868671798 -0.013942616549304379 0 -0.00098190073571435875 -0.014044344134065672 0 -0.0011032050267033903 -0.014013575922412848 0 -0.0010373542868671798 -0.013942616549304379 0 -0.00098190073571435875 -0.014044344134065672 0 -0.0011069235197808656 -0.013820645131959906 0 -0.0010357704603848801 -0.013393144555756107 0 -0.0011032050267033903 -0.014013575922412848 0 -0.00098190073571435875 -0.014044344134065672 0 -0.0010141447325223932 -0.014111896298070291 0 -0.00071452460800772535 -0.014261528919493845 0 -0.00039815897817635639 -0.014396021076921311 0 -0.00094473012500991644 -0.014401748454907782 0 -0.00082956963805447346 -0.014125976902677967 0 -0.00071452460800772535 -0.014261528919493845 0 -0.00094473012500991644 -0.014401748454907782 0 -0.0010357704603848801 -0.013393144555756107 0 -0.0001819695040711683 -0.012617218794620074 0 -0.0010357704603848801 -0.013393144555756107 0 -0.00069363601619934728 -0.014014548335432343 0 -0.00082956963805447346 -0.014125976902677967 0 -0.00071452460800772535 -0.014261528919493845 0 -0.00068151068565023719 -0.014160271497910031 0 -0.00071452460800772535 -0.014261528919493845 0 -0.00068151068565023719 -0.014160271497910031 0 -0.00039815897817635639 -0.014396021076921311 0 -0.00043917683476191584 -0.014219976964099521 0 -0.00068151068565023719 -0.014160271497910031 0 -0.00039815897817635639 -0.014396021076921311 0 -0.00039815897817635639 -0.014396021076921311 0 -0.00029847926080989905 -0.014395827301257118 0 -0.00031270594074059776 -0.014397051042379542 0 -0.00039815897817635639 -0.014396021076921311 0 -0.00029847926080989905 -0.014395827301257118 0 -0.00023527384706024999 -0.014436374411726162 0 -0.00057216701617411993 -0.014896253618556685 0 -0.0001819695040711683 -0.012617218794620074 0 -0.00029847926080989905 -0.014395827301257118 0 -0.00026576463839705612 -0.014396670842457868 0 -0.00027596505126779684 -0.014390866439689402 0 -0.00029847926080989905 -0.014395827301257118 0 -0.00025364645911665236 -0.01440868413200559 0 -0.00023527384706024999 -0.014436374411726162 0 -0.00029847926080989905 -0.014395827301257118 0 -0.00025364645911665236 -0.01440868413200559 0 -0.00026576463839705612 -0.014396670842457868 0 -0.00025364645911665236 -0.01440868413200559 0 -0.00026576463839705612 -0.014396670842457868 0 -0.00024840519271188149 -0.014401481202041771 0 -0.00026576463839705612 -0.014396670842457868 0 -0.00024840519271188149 -0.014401481202041771 0 -0.00025148525542087257 -0.014394049236149524 0 -0.00025148525542087257 -0.014394049236149524 0 -0.00024603284319942535 -0.014388143698170429 0 -0.00027596505126779684 -0.014390866439689402 0 -0.00026576463839705612 -0.014396670842457868 0 -0.00025148525542087257 -0.014394049236149524 0 -0.00027596505126779684 -0.014390866439689402 0 -0.00025148525542087257 -0.014394049236149524 0 -0.00024603284319942535 -0.014388143698170429 0 -0.00024113626029538705 -0.014391743918746263 0 -0.00024603284319942535 -0.014388143698170429 0 -0.00025587734367403634 -0.014383513539450514 0 -0.00027596505126779684 -0.014390866439689402 0 -0.00024603284319942535 -0.014388143698170429 0 -0.00025587734367403634 -0.014383513539450514 0 -0.00023217203317874016 -0.014380167854258758 0 -0.00025587734367403634 -0.014383513539450514 0 -0.00027596505126779684 -0.014390866439689402 0 -0.00027532300029868133 -0.014387610873536254 0 -0.00029847926080989905 -0.014395827301257118 0 -0.00027596505126779684 -0.014390866439689402 0 -0.00031270594074059776 -0.014397051042379542 0 -0.00024011006955602799 -0.014417408918633707 0 -0.00027532300029868133 -0.014387610873536254 0 -0.00031270594074059776 -0.014397051042379542 0 -0.00027596505126779684 -0.014390866439689402 0 -0.00027532300029868133 -0.014387610873536254 0 -0.00031270594074059776 -0.014397051042379542 0 0.00059347578474338517 -0.007949836145549477 0 0.0007023402727441919 -0.0091176715578131784 0 0.00038578215550668168 -0.0093930077041743908 0 0.00099083046218718766 -0.0090555834820332387 0 0.00074382106826978781 -0.0096510574965829026 0 0.00036535645255878537 -0.011793363540213819 0 0.00041514040123520444 -0.012334710196045586 0 9.2333077295580904e-05 -0.012509494301762014 0 0.0007023402727441919 -0.0091176715578131784 0 0.00037361050310326843 -0.011245573938834021 0 0.00036535645255878537 -0.011793363540213819 0 0.0007168690462891899 -0.011810981386349497 0 0.00063486938482535033 -0.011933733211382077 0 0.0007023402727441919 -0.0091176715578131784 0 0.00042950554756338071 -0.010797987898979523 0 0.00036535645255878537 -0.011793363540213819 0 0.00055354390779820779 -0.012033232779541993 0 0.00041514040123520444 -0.012334710196045586 0 0.00036535645255878537 -0.011793363540213819 0 0.00063486938482535033 -0.011933733211382077 0 0.00055354390779820779 -0.012033232779541993 0 0.00064598409645186315 -0.011725351262159787 0 0.00035009764624630349 -0.011711378938926079 0 0.00052465576826953031 -0.012104395345952413 0 -0.0001819695040711683 -0.012617218794620074 0 0.00042950554756338071 -0.010797987898979523 0 0.0007168690462891899 -0.011810981386349497 0 0.00063486938482535033 -0.011933733211382077 0 0.00079219328599212458 -0.011984489258346763 0 0.00042950554756338071 -0.010797987898979523 0 0.00024588781298674094 -0.0126796054234731 0 0.00063486938482535033 -0.011933733211382077 0 0.00079219328599212458 -0.011984489258346763 0 0.00064259214071776165 -0.012050992342749355 0 -0.00025364645911665236 -0.01440868413200559 0 -0.00023527384706024999 -0.014436374411726162 0 -0.00023684641600119343 -0.014410453270976674 0 -0.0001819695040711683 -0.012617218794620074 0 0.00024588781298674094 -0.0126796054234731 0 -0.00024840519271188149 -0.014401481202041771 0 -0.00023684641600119343 -0.014410453270976674 0 -0.00023471794329150267 -0.014398389373280227 0 0.00079219328599212458 -0.011984489258346763 0 0.00064259214071776165 -0.012050992342749355 0 0.00058972560693092005 -0.012251141818447045 0 -0.00025364645911665236 -0.01440868413200559 0 -0.00024840519271188149 -0.014401481202041771 0 -0.00023684641600119343 -0.014410453270976674 0 0.00055354390779820779 -0.012033232779541993 0 0.00058972560693092005 -0.012251141818447045 0 0.00041514040123520444 -0.012334710196045586 0 0.00064259214071776165 -0.012050992342749355 0 0.00055354390779820779 -0.012033232779541993 0 0.00058972560693092005 -0.012251141818447045 0 0.00063486938482535033 -0.011933733211382077 0 0.00064259214071776165 -0.012050992342749355 0 0.00055354390779820779 -0.012033232779541993 0 -0.00023471794329150267 -0.014398389373280227 0 -0.00023196142357121061 -0.014387077054173081 0 -0.00020934653422405571 -0.014377498224491782 0 0.00058972560693092005 -0.012251141818447045 0 0.00041514040123520444 -0.012334710196045586 0 0.00048222249060525139 -0.012860079874261554 0 0.00079219328599212458 -0.011984489258346763 0 0.00058972560693092005 -0.012251141818447045 0 0.00048222249060525139 -0.012860079874261554 0 -0.00023684641600119343 -0.014410453270976674 0 -0.00023471794329150267 -0.014398389373280227 0 -0.00020934653422405571 -0.014377498224491782 0 0.00041514040123520444 -0.012334710196045586 0 0.00033152140416344732 -0.012688937465753555 0 0.00048222249060525139 -0.012860079874261554 0 0.00024588781298674094 -0.0126796054234731 0 0.00012984846784258727 -0.013727481893329065 0 -0.00023471794329150267 -0.014398389373280227 0 -0.00024113626029538705 -0.014391743918746263 0 -0.00023196142357121061 -0.014387077054173081 0 -0.00024840519271188149 -0.014401481202041771 0 -0.00025148525542087257 -0.014394049236149524 0 -0.00023471794329150267 -0.014398389373280227 0 -0.00025148525542087257 -0.014394049236149524 0 -0.00023471794329150267 -0.014398389373280227 0 -0.00024113626029538705 -0.014391743918746263 0 -0.00024603284319942535 -0.014388143698170429 0 -0.00024113626029538705 -0.014391743918746263 0 -0.00023196142357121061 -0.014387077054173081 0 -0.00023196142357121061 -0.014387077054173081 0 -0.00023217203317874016 -0.014380167854258758 0 -0.00020934653422405571 -0.014377498224491782 0 -0.00024603284319942535 -0.014388143698170429 0 -0.00023196142357121061 -0.014387077054173081 0 -0.00023217203317874016 -0.014380167854258758 0 0.00041514040123520444 -0.012334710196045586 0 0.00033152140416344732 -0.012688937465753555 0 9.2333077295580904e-05 -0.012509494301762014 0 0.00033152140416344732 -0.012688937465753555 0 9.2333077295580904e-05 -0.012509494301762014 0 -0.00014686652411327044 -0.013104172947992784 0 0.00033152140416344732 -0.012688937465753555 0 0.00048222249060525139 -0.012860079874261554 0 -0.00011403489061720656 -0.01317455175601784 0 0.00048222249060525139 -0.012860079874261554 0 0.00019027072511097274 -0.013590126514156533 0 -0.00011403489061720656 -0.01317455175601784 0 0.00037361050310326843 -0.011245573938834021 0 0.00022182122908464874 -0.012078659217103212 0 8.0780826453017373e-05 -0.013049916807178827 0 0.00022182122908464874 -0.012078659217103212 0 -0.00023217203317874016 -0.014380167854258758 0 -0.00022304129250180134 -0.014370014205348182 0 -0.00024443230065711606 -0.014370788815565107 0 -0.00023217203317874016 -0.014380167854258758 0 -0.00020934653422405571 -0.014377498224491782 0 -0.00022304129250180134 -0.014370014205348182 0 -0.00020934653422405571 -0.014377498224491782 0 -0.00022304129250180134 -0.014370014205348182 0 -0.00020564221785153509 -0.01434862258410069 0 -0.00022304129250180134 -0.014370014205348182 0 -0.00020564221785153509 -0.01434862258410069 0 -0.00024443230065711606 -0.014370788815565107 0 -0.00020934653422405571 -0.014377498224491782 0 -0.00020564221785153509 -0.01434862258410069 0 -0.00013023690698272717 -0.014313997947822881 0 -0.00020564221785153509 -0.01434862258410069 0 -0.00023528628467160589 -0.014342079528543043 0 -0.0002050402518103777 -0.014296454072745683 0 -0.00020564221785153509 -0.01434862258410069 0 -0.00013023690698272717 -0.014313997947822881 0 -0.0002050402518103777 -0.014296454072745683 0 0.00012984846784258727 -0.013727481893329065 0 2.6717133975165341e-05 -0.013911794391448344 0 -0.00024011006955602799 -0.014417408918633707 0 -0.00027532300029868133 -0.014387610873536254 0 -0.00025033972286971843 -0.014383318946606534 0 -0.00027532300029868133 -0.014387610873536254 0 -0.00024443230065711606 -0.014370788815565107 0 -0.00025033972286971843 -0.014383318946606534 0 -0.00025587734367403634 -0.014383513539450514 0 -0.00027532300029868133 -0.014387610873536254 0 -0.00024443230065711606 -0.014370788815565107 0 -0.00025587734367403634 -0.014383513539450514 0 -0.00023217203317874016 -0.014380167854258758 0 -0.00024443230065711606 -0.014370788815565107 0 -0.00024443230065711606 -0.014370788815565107 0 -0.00023528628467160589 -0.014342079528543043 0 -0.00025033972286971843 -0.014383318946606534 0 -0.00020564221785153509 -0.01434862258410069 0 -0.00024443230065711606 -0.014370788815565107 0 -0.00023528628467160589 -0.014342079528543043 0 -0.00023528628467160589 -0.014342079528543043 0 -0.00025033972286971843 -0.014383318946606534 0 -0.00023674394199066468 -0.014354234938368619 0 -0.00020773608803207011 -0.014424694591947493 0 -0.00025033972286971843 -0.014383318946606534 0 -0.00023674394199066468 -0.014354234938368619 0 -0.00023674394199066468 -0.014354234938368619 0 -0.00022640684212753593 -0.01426842205855453 0 -0.00022628648466547233 -0.014306056657068536 0 -0.00023528628467160589 -0.014342079528543043 0 -0.00023674394199066468 -0.014354234938368619 0 -0.00022640684212753593 -0.01426842205855453 0 -0.00023528628467160589 -0.014342079528543043 0 -0.00022640684212753593 -0.01426842205855453 0 -0.0002050402518103777 -0.014296454072745683 0 -0.00022640684212753593 -0.01426842205855453 0 -0.00022628648466547233 -0.014306056657068536 0 -0.00020779623832374125 -0.014149630239962428 0 -0.00020289012601698808 -0.014413068537787508 0 -0.00023674394199066468 -0.014354234938368619 0 -0.00022628648466547233 -0.014306056657068536 0 -0.00020289012601698808 -0.014413068537787508 0 -0.00022628648466547233 -0.014306056657068536 0 -0.0001974627311223126 -0.014409444669806322 0 2.6717133975165341e-05 -0.013911794391448344 0 -7.6312125682335006e-05 -0.013985722459731014 0 0.00019027072511097274 -0.013590126514156533 0 -9.4745447806174386e-05 -0.013970998063025966 0 -0.0001494941916028503 -0.013840576770245651 0 -0.00013023690698272717 -0.014313997947822881 0 -0.00017986917267273883 -0.014166980143580985 0 -9.4745447806174386e-05 -0.013970998063025966 0 -0.00022640684212753593 -0.01426842205855453 0 -0.00017986917267273883 -0.014166980143580985 0 -0.0002050402518103777 -0.014296454072745683 0 -0.00013023690698272717 -0.014313997947822881 0 -0.00017986917267273883 -0.014166980143580985 0 -0.0002050402518103777 -0.014296454072745683 0 -0.00022640684212753593 -0.01426842205855453 0 -0.00017986917267273883 -0.014166980143580985 0 -0.00020779623832374125 -0.014149630239962428 0 -0.00017986917267273883 -0.014166980143580985 0 -0.00020779623832374125 -0.014149630239962428 0 -9.4745447806174386e-05 -0.013970998063025966 0 -0.00015127717209264535 -0.013846648545889953 0 -0.0001494941916028503 -0.013840576770245651 0 -0.00014130004027922878 -0.013811326675969514 0 -9.4745447806174386e-05 -0.013970998063025966 0 -0.0001494941916028503 -0.013840576770245651 0 -0.00014130004027922878 -0.013811326675969514 0 -5.9789893914324052e-06 -0.012951829687257606 0 -0.00029564434411349466 -0.013151212409554731 0 -0.00043826889384593191 -0.012945531752203223 0 -5.9789893914324052e-06 -0.012951829687257606 0 -0.00029564434411349466 -0.013151212409554731 0 -0.00011683568502415314 -0.013483193634916721 0 -7.6587076754130155e-05 -0.01336859507357043 0 -0.00012339881325669128 -0.013503772745287171 0 -5.9789893914324052e-06 -0.012951829687257606 0 -6.7196462535837348e-05 -0.01255917848354678 0 -0.00043826889384593191 -0.012945531752203223 0 -5.9789893914324052e-06 -0.012951829687257606 0 0.0001464395146440104 -0.012585969038964667 0 -6.7196462535837348e-05 -0.01255917848354678 0 -0.00015127717209264535 -0.013846648545889953 0 -0.0001494941916028503 -0.013840576770245651 0 -0.00022485078650106224 -0.013658234433847937 0 -7.6587076754130155e-05 -0.01336859507357043 0 -7.0968732599208567e-05 -0.013227352128030933 0 0.00019027072511097274 -0.013590126514156533 0 -0.0001494941916028503 -0.013840576770245651 0 -0.00022485078650106224 -0.013658234433847937 0 -7.0968732599208567e-05 -0.013227352128030933 0 0.00022182122908464874 -0.012078659217103212 0 5.1637063297457488e-06 -0.011670304178010089 0 0.00022182122908464874 -0.012078659217103212 0 0.0001464395146440104 -0.012585969038964667 0 -6.7196462535837348e-05 -0.01255917848354678 0 0.00029802334311975122 -0.012214855750463724 0 0.00019027072511097274 -0.013590126514156533 0 -0.00022485078650106224 -0.013658234433847937 0 -0.00011403489061720656 -0.01317455175601784 0 -5.9530573666705787e-05 -0.010752817094410493 0 -0.00023707306197900385 -0.010123694703886596 0 0.00049410977364113472 -0.010248114802491992 0 -0.00023707306197900385 -0.010123694703886596 0 6.7928404300002335e-05 -0.0099757679776067958 0 0.00049410977364113472 -0.010248114802491992 0 -0.00016957394190780131 -0.0097945353546449992 0 -0.00023707306197900385 -0.010123694703886596 0 6.7928404300002335e-05 -0.0099757679776067958 0 0.00018464068635506425 -0.0097371469028988446 0 6.7928404300002335e-05 -0.0099757679776067958 0 0.00049410977364113472 -0.010248114802491992 0 -0.0015342303574619612 -0.0091075504539576274 0 -0.0012960558780172572 -0.0090493883442922442 0 -0.0014567663824947138 -0.0092513390919625495 0 -0.0012960558780172572 -0.0090493883442922442 0 -0.0014567663824947138 -0.0092513390919625495 0 -0.0012869603656095855 -0.0093255548955437414 0 -0.00022146559443854348 -0.0088025565110603204 0 -0.0010520446470903238 -0.0099285256668190137 0 -0.00064898556194398519 -0.0097740874432705668 0 -0.00023707306197900385 -0.010123694703886596 0 -0.00063611874497989393 -0.010520960708017 0 -0.00016957394190780131 -0.0097945353546449992 0 -0.00057578150547297612 -0.0097603751530512782 0 -0.00023707306197900385 -0.010123694703886596 0 -0.00057578150547297612 -0.0097603751530512782 0 -0.00064898556194398519 -0.0097740874432705668 0 -0.00023707306197900385 -0.010123694703886596 0 -5.9530573666705787e-05 -0.010752817094410493 0 -0.00023707306197900385 -0.010123694703886596 0 -0.00063611874497989393 -0.010520960708017 0 -0.00162657584731962 -0.0093167678053816712 0 -0.0014567663824947138 -0.0092513390919625495 0 -0.0014825887629386024 -0.009430796909326189 0 -0.0014567663824947138 -0.0092513390919625495 0 -0.0012869603656095855 -0.0093255548955437414 0 -0.0014825887629386024 -0.009430796909326189 0 -0.0014825887629386024 -0.009430796909326189 0 -0.0011402633564087895 -0.0096322045708891243 0 -0.0015611227777259701 -0.0096707797614054673 0 -0.0012869603656095855 -0.0093255548955437414 0 -0.0014825887629386024 -0.009430796909326189 0 -0.0011402633564087895 -0.0096322045708891243 0 -0.0016514070424907181 -0.0095286232999218044 0 -0.0014825887629386024 -0.009430796909326189 0 -0.0015611227777259701 -0.0096707797614054673 0 -0.0010520446470903238 -0.0099285256668190137 0 -0.00080062544987167389 -0.011045196180469318 0 -5.9530573666705787e-05 -0.010752817094410493 0 -0.00063611874497989393 -0.010520960708017 0 -0.00061795880897363216 -0.011260722613960399 0 5.1637063297457488e-06 -0.011670304178010089 0 -0.00080062544987167389 -0.011045196180469318 0 -0.00062307479354369857 -0.0091785854103283472 0 -0.0011855186179820767 -0.0096906991355152888 0 -0.00057746209715841071 -0.013244830227306634 0 -0.00080062544987167389 -0.011045196180469318 0 -0.00063567222019946857 -0.010458296210615907 0 -0.0015611227777259701 -0.0096707797614054673 0 -0.0014708873267488822 -0.0098099218275701644 0 -0.001698276424086315 -0.0099407286048485387 0 -0.0011402633564087895 -0.0096322045708891243 0 -0.0011855186179820767 -0.0096906991355152888 0 -0.0014708873267488822 -0.0098099218275701644 0 -0.0011402633564087895 -0.0096322045708891243 0 -0.0015611227777259701 -0.0096707797614054673 0 -0.0014708873267488822 -0.0098099218275701644 0 -0.0011855186179820767 -0.0096906991355152888 0 -0.0014708873267488822 -0.0098099218275701644 0 -0.0017105700665048114 -0.010335339154192071 0 -0.0017105700665048114 -0.010335339154192071 0 -0.001698276424086315 -0.0099407286048485387 0 -0.0017200880775874226 -0.0099385665356386647 0 -0.0014708873267488822 -0.0098099218275701644 0 -0.0017105700665048114 -0.010335339154192071 0 -0.001698276424086315 -0.0099407286048485387 0 -0.0017105700665048114 -0.010335339154192071 0 -0.0020836380097185997 -0.01261433361896057 0 -0.00057746209715841071 -0.013244830227306634 0 -0.0017105700665048114 -0.010335339154192071 0 -0.0017200880775874226 -0.0099385665356386647 0 -0.0018476289524931107 -0.0097323464075701541 0 -0.0017524201547522798 -0.010420729348399677 0 -0.0019017680947219003 -0.011129974634368756 0 -0.0017200880775874226 -0.0099385665356386647 0 -0.0018476289524931107 -0.0097323464075701541 0 -0.0017416728138841865 -0.0096921337529524108 0 -0.00080062544987167389 -0.011045196180469318 0 -0.00048827110907159282 -0.013168431148729032 0 -0.00029564434411349466 -0.013151212409554731 0 -0.00057746209715841071 -0.013244830227306634 0 -0.00011683568502415314 -0.013483193634916721 0 -0.0011855186179820767 -0.0096906991355152888 0 -0.0017105700665048114 -0.010335339154192071 0 -0.00057746209715841071 -0.013244830227306634 0 -0.00029564434411349466 -0.013151212409554731 0 -0.00043826889384593191 -0.012945531752203223 0 -0.00057746209715841071 -0.013244830227306634 0 -0.00057746209715841071 -0.013244830227306634 0 -5.8638899860338665e-05 -0.013710233160374804 0 -0.00011683568502415314 -0.013483193634916721 0 -0.00057746209715841071 -0.013244830227306634 0 -0.002061147135236805 -0.014080116948662114 0 -5.8638899860338665e-05 -0.013710233160374804 0 -0.00076146267951207873 -0.014208583169871371 0 -0.00061858087225672342 -0.014286932603180695 0 -0.00060112009305074833 -0.014228289926930064 0 -0.0016201255653491582 -0.011824374163798444 0 -0.00032511959224952846 -0.014307660394249725 0 -0.0020836380097185997 -0.01261433361896057 0 -0.00057746209715841071 -0.013244830227306634 0 -0.002061147135236805 -0.014080116948662114 0 -0.0018476289524931107 -0.0097323464075701541 0 -0.0018423070976827812 -0.009588356405672337 0 -0.0017416728138841865 -0.0096921337529524108 0 -0.0019017680947219003 -0.011129974634368756 0 -0.0016201255653491582 -0.011824374163798444 0 -0.00076146267951207873 -0.014208583169871371 0 -0.00070868012703297469 -0.01435393162014947 0 -0.0007831214465884842 -0.01433774650996191 0 -0.0016201255653491582 -0.011824374163798444 0 -0.0013506258254284839 -0.011822434432760274 0 -0.00076146267951207873 -0.014208583169871371 0 -0.00067594435912087577 -0.014308413292081374 0 -0.00070868012703297469 -0.01435393162014947 0 -0.00076146267951207873 -0.014208583169871371 0 -0.00061858087225672342 -0.014286932603180695 0 -0.00067594435912087577 -0.014308413292081374 0 -0.00061858087225672342 -0.014286932603180695 0 -0.0006411305838269376 -0.014374445723098865 0 -0.00057036224347383716 -0.014335758106655704 0 -0.00061858087225672342 -0.014286932603180695 0 -0.00067594435912087577 -0.014308413292081374 0 -0.0006411305838269376 -0.014374445723098865 0 -0.00067594435912087577 -0.014308413292081374 0 -0.0006411305838269376 -0.014374445723098865 0 -0.00070868012703297469 -0.01435393162014947 0 -0.0006411305838269376 -0.014374445723098865 0 -0.00070868012703297469 -0.01435393162014947 0 -0.00069672731101133839 -0.014418069878763162 0 -0.00070868012703297469 -0.01435393162014947 0 -0.00069672731101133839 -0.014418069878763162 0 -0.0007831214465884842 -0.01433774650996191 0 -0.00069672731101133839 -0.014418069878763162 0 -0.00074915485751858926 -0.014435563599971992 0 -0.0007831214465884842 -0.01433774650996191 0 -0.00043953969899911263 -0.014385963237853589 0 -0.00057036224347383716 -0.014335758106655704 0 -0.00048532372579584179 -0.01446540402472502 0 -0.00057036224347383716 -0.014335758106655704 0 -0.00057276755657724844 -0.014444886668846767 0 -0.00048532372579584179 -0.01446540402472502 0 -0.0006411305838269376 -0.014374445723098865 0 -0.00057036224347383716 -0.014335758106655704 0 -0.00057276755657724844 -0.014444886668846767 0 -0.00061858087225672342 -0.014286932603180695 0 -0.00057036224347383716 -0.014335758106655704 0 -0.00060112009305074833 -0.014228289926930064 0 -0.00057036224347383716 -0.014335758106655704 0 -0.00049532147408083834 -0.014305990709278538 0 -0.00060112009305074833 -0.014228289926930064 0 -0.00043953969899911263 -0.014385963237853589 0 -0.00057036224347383716 -0.014335758106655704 0 -0.00049532147408083834 -0.014305990709278538 0 -0.00026087067126803244 -0.014006820460083639 0 -0.00032511959224952846 -0.014307660394249725 0 -0.00049532147408083834 -0.014305990709278538 0 -0.0004476978979658397 -0.014232990877177179 0 -0.00060112009305074833 -0.014228289926930064 0 -9.9142259279010527e-05 -0.013861005833048697 0 -5.8638899860338665e-05 -0.013710233160374804 0 -0.00011683568502415314 -0.013483193634916721 0 -0.00015127717209264535 -0.013846648545889953 0 -0.00011683568502415314 -0.013483193634916721 0 -0.00014130004027922878 -0.013811326675969514 0 -9.9142259279010527e-05 -0.013861005833048697 0 -0.00011683568502415314 -0.013483193634916721 0 -0.00014130004027922878 -0.013811326675969514 0 -9.9142259279010527e-05 -0.013861005833048697 0 -0.00014130004027922878 -0.013811326675969514 0 -0.00014716021979854183 -0.013997152858647529 0 -0.00020779623832374125 -0.014149630239962428 0 -9.4745447806174386e-05 -0.013970998063025966 0 -0.00014716021979854183 -0.013997152858647529 0 -9.4745447806174386e-05 -0.013970998063025966 0 -0.00014130004027922878 -0.013811326675969514 0 -0.00014716021979854183 -0.013997152858647529 0 -0.00020779623832374125 -0.014149630239962428 0 -0.00014716021979854183 -0.013997152858647529 0 -0.00023727826565219127 -0.01419695671105789 0 -9.9142259279010527e-05 -0.013861005833048697 0 -0.00014716021979854183 -0.013997152858647529 0 -0.00023727826565219127 -0.01419695671105789 0 -0.0004476978979658397 -0.014232990877177179 0 -0.00023727826565219127 -0.01419695671105789 0 -0.00035776064438428664 -0.014326584746478003 0 -0.00026087067126803244 -0.014006820460083639 0 -0.00022436194989308353 -0.014183877530993023 0 -0.00022628648466547233 -0.014306056657068536 0 -0.00021392608138433227 -0.014268475174794074 0 -0.0001974627311223126 -0.014409444669806322 0 -0.00020779623832374125 -0.014149630239962428 0 -0.00023727826565219127 -0.01419695671105789 0 -0.00021392608138433227 -0.014268475174794074 0 -0.00022628648466547233 -0.014306056657068536 0 -0.00020779623832374125 -0.014149630239962428 0 -0.00021392608138433227 -0.014268475174794074 0 -0.00023727826565219127 -0.01419695671105789 0 -0.00021392608138433227 -0.014268475174794074 0 -0.00019442484168989723 -0.014337441116638905 0 -0.00023727826565219127 -0.01419695671105789 0 -0.00019442484168989723 -0.014337441116638905 0 -0.00025074900590197453 -0.01433736623727915 0 -0.00021392608138433227 -0.014268475174794074 0 -0.00019442484168989723 -0.014337441116638905 0 -0.0001974627311223126 -0.014409444669806322 0 -0.00019222629979395283 -0.01436152065001149 0 -0.00013620941655312496 -0.01448128169351782 0 -0.00019442484168989723 -0.014337441116638905 0 -0.0001974627311223126 -0.014409444669806322 0 -0.0001873222282466637 -0.014497003520467545 0 -0.00019442484168989723 -0.014337441116638905 0 -0.00015976485939982128 -0.014492442926925515 0 -0.00010606400275487179 -0.014515270211672119 0 -0.00019442484168989723 -0.014337441116638905 0 -8.7020982398322105e-05 -0.014472371309508854 0 -0.00010606400275487179 -0.014515270211672119 0 -0.00019442484168989723 -0.014337441116638905 0 -0.00021831391528960117 -0.014415822544351704 0 -0.00025074900590197453 -0.01433736623727915 0 -0.00019442484168989723 -0.014337441116638905 0 -0.00021831391528960117 -0.014415822544351704 0 -0.00015976485939982128 -0.014492442926925515 0 -0.00021831391528960117 -0.014415822544351704 0 -0.00021929889992129041 -0.014495561733009647 0 -0.00027817130187484128 -0.014423293122543689 0 -0.00021929889992129041 -0.014495561733009647 0 -0.00015976485939982128 -0.014492442926925515 0 -0.00016731706374688066 -0.014545096967182007 0 -0.00021929889992129041 -0.014495561733009647 0 -0.00016731706374688066 -0.014545096967182007 0 -0.00021143167627029071 -0.014536975913860557 0 -0.00021831391528960117 -0.014415822544351704 0 -0.00021929889992129041 -0.014495561733009647 0 -0.00015976485939982128 -0.014492442926925515 0 -0.00015976485939982128 -0.014492442926925515 0 -0.00012007315105507626 -0.014549914865997758 0 -0.00016731706374688066 -0.014545096967182007 0 -0.00015976485939982128 -0.014492442926925515 0 -0.00012007315105507626 -0.014549914865997758 0 -0.00010606400275487179 -0.014515270211672119 0 -0.00043953969899911263 -0.014385963237853589 0 -0.00049532147408083834 -0.014305990709278538 0 -0.00035776064438428664 -0.014326584746478003 0 -0.00049532147408083834 -0.014305990709278538 0 -0.0004476978979658397 -0.014232990877177179 0 -0.00035776064438428664 -0.014326584746478003 0 -0.00023727826565219127 -0.01419695671105789 0 -0.00035776064438428664 -0.014326584746478003 0 -0.00025074900590197453 -0.01433736623727915 0 -0.00035776064438428664 -0.014326584746478003 0 -0.00025074900590197453 -0.01433736623727915 0 -0.00027817130187484128 -0.014423293122543689 0 -0.00021831391528960117 -0.014415822544351704 0 -0.00025074900590197453 -0.01433736623727915 0 -0.00027817130187484128 -0.014423293122543689 0 -0.00021929889992129041 -0.014495561733009647 0 -0.00027817130187484128 -0.014423293122543689 0 -0.00029863075114105331 -0.014518443941970011 0 -0.00027817130187484128 -0.014423293122543689 0 -0.00036107708584447824 -0.014449760059982296 0 -0.00029863075114105331 -0.014518443941970011 0 -0.00035776064438428664 -0.014326584746478003 0 -0.00027817130187484128 -0.014423293122543689 0 -0.00036107708584447824 -0.014449760059982296 0 -0.00043953969899911263 -0.014385963237853589 0 -0.00035776064438428664 -0.014326584746478003 0 -0.00036107708584447824 -0.014449760059982296 0 -0.00043953969899911263 -0.014385963237853589 0 -0.00036107708584447824 -0.014449760059982296 0 -0.00048532372579584179 -0.01446540402472502 0 -0.00036107708584447824 -0.014449760059982296 0 -0.00038669076808558583 -0.014553308559101148 0 -0.00029863075114105331 -0.014518443941970011 0 -0.00036107708584447824 -0.014449760059982296 0 -0.00038669076808558583 -0.014553308559101148 0 -0.00048532372579584179 -0.01446540402472502 0 -0.00038669076808558583 -0.014553308559101148 0 -0.00029863075114105331 -0.014518443941970011 0 -0.00021410865154749306 -0.014572481522013236 0 -0.00038669076808558583 -0.014553308559101148 0 -0.00030768145212098336 -0.0146305813781461 0 -0.00025761596417605014 -0.01461131752529045 0 -0.00038096773401094584 -0.014559709119252874 0 -0.0002395180026712767 -0.014591871101517516 0 -0.00030768145212098336 -0.0146305813781461 0 -0.00035894274284796349 -0.014655706299943989 0 -0.00026707268965273285 -0.014695272802086327 0 -0.00038669076808558583 -0.014553308559101148 0 -0.00030768145212098336 -0.0146305813781461 0 -0.00035894274284796349 -0.014655706299943989 0 -0.00038669076808558583 -0.014553308559101148 0 -0.00035894274284796349 -0.014655706299943989 0 -0.00051214688303466936 -0.014566724099124517 0 -0.00012007315105507626 -0.014549914865997758 0 -0.00016731706374688066 -0.014545096967182007 0 -9.6072360206953916e-05 -0.014602613221796767 0 -0.00025761596417605014 -0.01461131752529045 0 -0.00024542809096497672 -0.014647846803805242 0 -0.00011535929381356798 -0.014683543025437352 0 -0.0002395180026712767 -0.014591871101517516 0 -0.00010739825916086631 -0.014643821810657019 0 -0.00016731706374688066 -0.014545096967182007 0 -0.00021410865154749306 -0.014572481522013236 0 -9.6072360206953916e-05 -0.014602613221796767 0 -0.00016731706374688066 -0.014545096967182007 0 -0.00021143167627029071 -0.014536975913860557 0 -0.00021410865154749306 -0.014572481522013236 0 -0.00021143167627029071 -0.014536975913860557 0 -0.00023564878019945073 -0.014531283046738669 0 -0.00021410865154749306 -0.014572481522013236 0 -0.00021929889992129041 -0.014495561733009647 0 -0.00029863075114105331 -0.014518443941970011 0 -0.00023564878019945073 -0.014531283046738669 0 -0.00029863075114105331 -0.014518443941970011 0 -0.00023564878019945073 -0.014531283046738669 0 -0.00021410865154749306 -0.014572481522013236 0 -0.00021929889992129041 -0.014495561733009647 0 -0.00021143167627029071 -0.014536975913860557 0 -0.00023564878019945073 -0.014531283046738669 0 -0.00030768145212098336 -0.0146305813781461 0 -0.00024542809096497672 -0.014647846803805242 0 -0.00026707268965273285 -0.014695272802086327 0 -0.00024542809096497672 -0.014647846803805242 0 -0.00020379579743913208 -0.014706568221815614 0 -0.00026707268965273285 -0.014695272802086327 0 -0.00030768145212098336 -0.0146305813781461 0 -0.00025761596417605014 -0.01461131752529045 0 -0.00024542809096497672 -0.014647846803805242 0 -0.00024542809096497672 -0.014647846803805242 0 -0.00020379579743913208 -0.014706568221815614 0 -0.00015108415934405692 -0.014682988499099634 0 -0.00024542809096497672 -0.014647846803805242 0 -0.00011535929381356798 -0.014683543025437352 0 -0.00012155487782194836 -0.014734457787152426 0 -0.00023690607605328227 -0.014658075413276845 0 -0.00013672153416795994 -0.014706524815756137 0 -0.00020379579743913208 -0.014706568221815614 0 -0.00026707268965273285 -0.014695272802086327 0 -0.00018818005423315841 -0.014775576110065183 0 -0.00020379579743913208 -0.014706568221815614 0 -0.00018818005423315841 -0.014775576110065183 0 -0.00014647847320290177 -0.014743427349013133 0 -0.00026707268965273285 -0.014695272802086327 0 -0.00018818005423315841 -0.014775576110065183 0 -0.00029263523348965433 -0.014749842405910808 0 -0.00056816705481129326 -0.014143185991574827 0 -0.00061263670402218068 -0.014138497851245489 0 -0.00056686240571637056 -0.014074897279611882 0 -0.00041761216415742039 -0.014493725485196432 0 -0.0004325781743620931 -0.01444795722114978 0 -0.00064441652746421714 -0.014209098470028192 0 -0.00056816705481129326 -0.014143185991574827 0 -0.00061263670402218068 -0.014138497851245489 0 -0.00064441652746421714 -0.014209098470028192 0 -0.00066880160957340858 -0.014226242744242857 0 -0.00061263670402218068 -0.014138497851245489 0 -0.00035894274284796349 -0.014655706299943989 0 -0.00041841831123801728 -0.014727167038380997 0 -0.00051214688303466936 -0.014566724099124517 0 -0.00035894274284796349 -0.014655706299943989 0 -0.00026707268965273285 -0.014695272802086327 0 -0.00029263523348965433 -0.014749842405910808 0 -0.00035894274284796349 -0.014655706299943989 0 -0.00029263523348965433 -0.014749842405910808 0 -0.00041841831123801728 -0.014727167038380997 0 -0.0004325781743620931 -0.01444795722114978 0 -0.00042453847214837207 -0.014427661875153789 0 -0.00056816705481129326 -0.014143185991574827 0 -0.00054132472116726049 -0.014071290027172063 0 -0.00049282835576124333 -0.014061349026663764 0 -0.00056816705481129326 -0.014143185991574827 0 -0.00054132472116726049 -0.014071290027172063 0 -0.00056686240571637056 -0.014074897279611882 0 -0.00044726351852294018 -0.014121153417114467 0 -0.00049282835576124333 -0.014061349026663764 0 -0.00041945993955125804 -0.013981586253047708 0 -0.00056816705481129326 -0.014143185991574827 0 -0.00044726351852294018 -0.014121153417114467 0 -0.00049282835576124333 -0.014061349026663764 0 -0.00044726351852294018 -0.014121153417114467 0 -0.00021327987601970613 -0.014094454241522355 0 -0.00041945993955125804 -0.013981586253047708 0 -0.00042453847214837207 -0.014427661875153789 0 -0.00041520747424946268 -0.014362013448689155 0 -0.00041841831123801728 -0.014727167038380997 0 -0.00055929464756073095 -0.014697676665533847 0 -0.00051214688303466936 -0.014566724099124517 0 -0.00055929464756073095 -0.014697676665533847 0 -0.00063973394024053525 -0.014566351910874067 0 -0.00051214688303466936 -0.014566724099124517 0 -0.00041520747424946268 -0.014362013448689155 0 -0.00017917946450681071 -0.014648736164211848 0 -0.00021327987601970613 -0.014094454241522355 0 6.5136701628406356e-05 -0.014076375485729497 0 -4.8141549493101674e-05 -0.01390520370465481 0 -0.00069875994715488108 -0.014664524893286625 0 -0.0007241560998951322 -0.014554571297824401 0 -0.00081261003078580095 -0.014552935365325242 0 -0.00069875994715488108 -0.014664524893286625 0 -0.00063973394024053525 -0.014566351910874067 0 -0.0007241560998951322 -0.014554571297824401 0 -0.00055929464756073095 -0.014697676665533847 0 -0.00069875994715488108 -0.014664524893286625 0 -0.00063973394024053525 -0.014566351910874067 0 -0.00063973394024053525 -0.014566351910874067 0 -0.00069469973034540547 -0.014494608333244214 0 -0.00064184769819698696 -0.014469702324886312 0 -0.00063973394024053525 -0.014566351910874067 0 -0.0007241560998951322 -0.014554571297824401 0 -0.00069469973034540547 -0.014494608333244214 0 -0.0007241560998951322 -0.014554571297824401 0 -0.00069469973034540547 -0.014494608333244214 0 -0.00076930273863436822 -0.014470456426388511 0 -0.00069469973034540547 -0.014494608333244214 0 -0.00074915485751858926 -0.014435563599971992 0 -0.00076930273863436822 -0.014470456426388511 0 -0.00069469973034540547 -0.014494608333244214 0 -0.00069672731101133839 -0.014418069878763162 0 -0.00074915485751858926 -0.014435563599971992 0 -0.0006411305838269376 -0.014374445723098865 0 -0.00064184769819698696 -0.014469702324886312 0 -0.00057276755657724844 -0.014444886668846767 0 -0.0006411305838269376 -0.014374445723098865 0 -0.00069672731101133839 -0.014418069878763162 0 -0.00064184769819698696 -0.014469702324886312 0 -0.00069469973034540547 -0.014494608333244214 0 -0.00069672731101133839 -0.014418069878763162 0 -0.00064184769819698696 -0.014469702324886312 0 -0.00064184769819698696 -0.014469702324886312 0 -0.00057276755657724844 -0.014444886668846767 0 -0.00051214688303466936 -0.014566724099124517 0 -0.00057276755657724844 -0.014444886668846767 0 -0.00048532372579584179 -0.01446540402472502 0 -0.00051214688303466936 -0.014566724099124517 0 -0.00038669076808558583 -0.014553308559101148 0 -0.00048532372579584179 -0.01446540402472502 0 -0.00051214688303466936 -0.014566724099124517 0 -0.00063973394024053525 -0.014566351910874067 0 -0.00064184769819698696 -0.014469702324886312 0 -0.00051214688303466936 -0.014566724099124517 0 -4.8242090446350364e-06 -0.014934377209332635 0 -1.3629468541099176e-05 -0.014879364596580128 0 2.4628542490842157e-09 -0.014999903803081855 0 -4.8242090446350364e-06 -0.014934377209332635 0 -6.0893578853807017e-09 -0.014999918989130301 0 2.4628542490842157e-09 -0.014999903803081855 0 -4.8242090446350364e-06 -0.014934377209332635 0 -1.2802708638833887e-05 -0.014874798552736787 0 -1.3629468541099176e-05 -0.014879364596580128 0 -4.8242090446350364e-06 -0.014934377209332635 0 -1.2802708638833887e-05 -0.014874798552736787 0 -3.6452049144678549e-06 -0.014914379625905874 0 -1.2802708638833887e-05 -0.014874798552736787 0 -3.6452049144678549e-06 -0.014914379625905874 0 -1.9814525672500301e-05 -0.014826879126078857 0 -3.6452049144678549e-06 -0.014914379625905874 0 -5.9629268356981611e-06 -0.014864299926693471 0 -1.9814525672500301e-05 -0.014826879126078857 0 -4.8242090446350364e-06 -0.014934377209332635 0 -3.6452049144678549e-06 -0.014914379625905874 0 -6.0893578853807017e-09 -0.014999918989130301 0 -3.6452049144678549e-06 -0.014914379625905874 0 -6.0893578853807017e-09 -0.014999918989130301 0 1.470085821156575e-08 -0.01499983933087992 0 -3.6452049144678549e-06 -0.014914379625905874 0 1.470085821156575e-08 -0.01499983933087992 0 -5.9629268356981611e-06 -0.014864299926693471 0 1.1871469047090776e-07 -0.014999754440262567 0 5.6591777696098465e-05 -0.014911425329781495 0 3.5090004423964665e-05 -0.014883822799248742 0 8.0667084255140701e-09 -0.014999947940371398 0 1.1734361672285961e-05 -0.014872576324302555 0 -1.0423432919630226e-08 -0.014999921986132097 0 1.1871469047090776e-07 -0.014999754440262567 0 5.6591777696098465e-05 -0.014911425329781495 0 5.6591777696098465e-05 -0.014911425329781495 0 2.1891027287660556e-05 -0.0148213823487047 0 3.5090004423964665e-05 -0.014883822799248742 0 1.1734361672285961e-05 -0.014872576324302555 0 -2.81076747532181e-05 -0.014775864377548832 0 -5.9629268356981611e-06 -0.014864299926693471 0 -3.0478447966746128e-05 -0.014751326810988567 0 -1.9814525672500301e-05 -0.014826879126078857 0 2.1891027287660556e-05 -0.0148213823487047 0 3.5090004423964665e-05 -0.014883822799248742 0 -3.0478447966746128e-05 -0.014751326810988567 0 -3.3132371515078203e-05 -0.014682334800246026 0 2.1891027287660556e-05 -0.0148213823487047 0 -3.0478447966746128e-05 -0.014751326810988567 0 -3.3132371515078203e-05 -0.014682334800246026 0 -3.0478447966746128e-05 -0.014751326810988567 0 -8.5494784384816192e-05 -0.014614895060984514 0 -3.0478447966746128e-05 -0.014751326810988567 0 -4.4423006341543147e-05 -0.014743159945025949 0 -9.2279693354523361e-05 -0.014641420404786729 0 -3.0478447966746128e-05 -0.014751326810988567 0 -1.9814525672500301e-05 -0.014826879126078857 0 -4.4423006341543147e-05 -0.014743159945025949 0 -1.9814525672500301e-05 -0.014826879126078857 0 -2.5657706905724934e-05 -0.014814910669207884 0 -4.4423006341543147e-05 -0.014743159945025949 0 -1.2802708638833887e-05 -0.014874798552736787 0 -2.5657706905724934e-05 -0.014814910669207884 0 -1.3629468541099176e-05 -0.014879364596580128 0 -1.2802708638833887e-05 -0.014874798552736787 0 -1.9814525672500301e-05 -0.014826879126078857 0 -2.5657706905724934e-05 -0.014814910669207884 0 -2.5657706905724934e-05 -0.014814910669207884 0 -4.4423006341543147e-05 -0.014743159945025949 0 -3.3136198626219485e-05 -0.014760938640915109 0 -3.5994670235811669e-05 -0.014699480664805756 0 -4.4423006341543147e-05 -0.014743159945025949 0 -3.3136198626219485e-05 -0.014760938640915109 0 -3.5994670235811669e-05 -0.014699480664805756 0 -4.2156464215729022e-05 -0.014641492883285357 0 -3.6269290159889972e-05 -0.01460898873443664 0 -3.5994670235811669e-05 -0.014699480664805756 0 -4.2156464215729022e-05 -0.014641492883285357 0 -3.9513764781342597e-05 -0.014662433154871443 0 -3.5994670235811669e-05 -0.014699480664805756 0 -3.6269290159889972e-05 -0.01460898873443664 0 -4.4423006341543147e-05 -0.014743159945025949 0 -0.00012624529814304628 -0.01464241818037355 0 -4.4423006341543147e-05 -0.014743159945025949 0 -9.2279693354523361e-05 -0.014641420404786729 0 -8.2255635739476339e-05 -0.014626632701839072 0 -4.6549242600207858e-05 -0.014724033365726174 0 -3.0478447966746128e-05 -0.014751326810988567 0 -9.2279693354523361e-05 -0.014641420404786729 0 -8.5494784384816192e-05 -0.014614895060984514 0 -9.2279693354523361e-05 -0.014641420404786729 0 -8.5494784384816192e-05 -0.014614895060984514 0 -0.00015063541939897422 -0.014517279591100517 0 -9.2279693354523361e-05 -0.014641420404786729 0 -0.00015431830056939015 -0.014539597860599052 0 -0.00015063541939897422 -0.014517279591100517 0 -0.00012624529814304628 -0.01464241818037355 0 -9.2279693354523361e-05 -0.014641420404786729 0 -0.00015431830056939015 -0.014539597860599052 0 -0.00015431830056939015 -0.014539597860599052 0 -0.00015063541939897422 -0.014517279591100517 0 -0.0001974627311223126 -0.014409444669806322 0 -0.00020289012601698808 -0.014413068537787508 0 -0.00015063541939897422 -0.014517279591100517 0 -0.0001974627311223126 -0.014409444669806322 0 -0.00015431830056939015 -0.014539597860599052 0 -0.0001974627311223126 -0.014409444669806322 0 -0.0001873222282466637 -0.014497003520467545 0 -8.7020982398322105e-05 -0.014472371309508854 0 -6.0434513724974687e-05 -0.014588298602767769 0 -0.00010606400275487179 -0.014515270211672119 0 -0.00012624529814304628 -0.01464241818037355 0 -0.00015431830056939015 -0.014539597860599052 0 -0.0001873222282466637 -0.014497003520467545 0 -8.2255635739476339e-05 -0.014626632701839072 0 -0.00013620941655312496 -0.01448128169351782 0 -3.6269290159889972e-05 -0.01460898873443664 0 -8.7020982398322105e-05 -0.014472371309508854 0 -6.0434513724974687e-05 -0.014588298602767769 0 -4.2156464215729022e-05 -0.014641492883285357 0 -3.6269290159889972e-05 -0.01460898873443664 0 -6.0434513724974687e-05 -0.014588298602767769 0 -4.2156464215729022e-05 -0.014641492883285357 0 -6.0434513724974687e-05 -0.014588298602767769 0 -3.9513764781342597e-05 -0.014662433154871443 0 -6.0434513724974687e-05 -0.014588298602767769 0 -7.9791793145715699e-05 -0.014587507226948295 0 -3.9513764781342597e-05 -0.014662433154871443 0 -6.0434513724974687e-05 -0.014588298602767769 0 -7.9791793145715699e-05 -0.014587507226948295 0 -0.00010606400275487179 -0.014515270211672119 0 -0.00012007315105507626 -0.014549914865997758 0 -7.9791793145715699e-05 -0.014587507226948295 0 -0.00010606400275487179 -0.014515270211672119 0 -0.00012007315105507626 -0.014549914865997758 0 -7.9791793145715699e-05 -0.014587507226948295 0 -9.6072360206953916e-05 -0.014602613221796767 0 -0.00010739825916086631 -0.014643821810657019 0 -2.5069678711746855e-05 -0.014707584877910875 0 -7.9791793145715699e-05 -0.014587507226948295 0 -9.6072360206953916e-05 -0.014602613221796767 0 -3.9513764781342597e-05 -0.014662433154871443 0 -0.00011535929381356798 -0.014683543025437352 0 -6.9989344747895525e-05 -0.014738098654243815 0 -9.8102063469928129e-06 -0.014751245857799144 0 -5.3048175695089138e-05 -0.014734111246986918 0 -0.00015108415934405692 -0.014682988499099634 0 -0.00010622511528418956 -0.014743548609388328 0 -6.9989344747895525e-05 -0.014738098654243815 0 -2.6626091028425173e-05 -0.014781402081728432 0 -0.00012155487782194836 -0.014734457787152426 0 -6.9989344747895525e-05 -0.014738098654243815 0 -2.6626091028425173e-05 -0.014781402081728432 0 -9.8102063469928129e-06 -0.014751245857799144 0 -4.1188384510484257e-05 -0.014759211188181307 0 -0.00013672153416795994 -0.014706524815756137 0 -0.00015108415934405692 -0.014682988499099634 0 -0.00014647847320290177 -0.014743427349013133 0 -0.00010622511528418956 -0.014743548609388328 0 -0.00011535929381356798 -0.014683543025437352 0 -6.9989344747895525e-05 -0.014738098654243815 0 -0.00012155487782194836 -0.014734457787152426 0 -0.00020379579743913208 -0.014706568221815614 0 -0.00015108415934405692 -0.014682988499099634 0 -0.00014647847320290177 -0.014743427349013133 0 -0.00014647847320290177 -0.014743427349013133 0 -8.3676564279493767e-05 -0.014805075152144409 0 -0.00010622511528418956 -0.014743548609388328 0 -0.00018818005423315841 -0.014775576110065183 0 -0.00014647847320290177 -0.014743427349013133 0 -8.3676564279493767e-05 -0.014805075152144409 0 -0.00064441652746421714 -0.014209098470028192 0 -0.00066880160957340858 -0.014226242744242857 0 -0.00062139106828975298 -0.014309513200827616 0 -0.00041761216415742039 -0.014493725485196432 0 -0.0003546891302713852 -0.014558821288044086 0 -0.00066880160957340858 -0.014226242744242857 0 -0.00062139106828975298 -0.014309513200827616 0 -0.00052814256327254493 -0.014532780201399972 0 -5.3048175695089138e-05 -0.014734111246986918 0 -8.3676564279493767e-05 -0.014805075152144409 0 -1.8564797454625274e-05 -0.014788910176620085 0 -5.3048175695089138e-05 -0.014734111246986918 0 -8.3676564279493767e-05 -0.014805075152144409 0 -0.00010622511528418956 -0.014743548609388328 0 -8.3676564279493767e-05 -0.014805075152144409 0 -1.8564797454625274e-05 -0.014788910176620085 0 4.9095999514046479e-06 -0.014825870047515637 0 -0.0003546891302713852 -0.014558821288044086 0 -0.00019089515716071417 -0.014642378606053498 0 -0.00062139106828975298 -0.014309513200827616 0 -0.00037248603904956588 -0.014456329231292602 0 -0.00052814256327254493 -0.014532780201399972 0 -0.00035758636034646937 -0.01458655223138536 0 -0.00037248603904956588 -0.014456329231292602 0 -0.00052814256327254493 -0.014532780201399972 0 -0.00025017478123861799 -0.014621061346770553 0 -0.00037248603904956588 -0.014456329231292602 0 -0.00011565703777706863 -0.014624901642715236 0 -0.00025017478123861799 -0.014621061346770553 0 -0.00035758636034646937 -0.01458655223138536 0 -0.00037248603904956588 -0.014456329231292602 0 -1.8564797454625274e-05 -0.014788910176620085 0 4.9095999514046479e-06 -0.014825870047515637 0 2.0966530230006415e-05 -0.014807471839825068 0 4.9095999514046479e-06 -0.014825870047515637 0 2.0966530230006415e-05 -0.014807471839825068 0 4.0576262398912602e-05 -0.014839981833436528 0 -2.6626091028425173e-05 -0.014781402081728432 0 2.0966530230006415e-05 -0.014807471839825068 0 -9.8102063469928129e-06 -0.014751245857799144 0 -4.1188384510484257e-05 -0.014759211188181307 0 1.5951048785679805e-05 -0.014798730837445989 0 -5.3048175695089138e-05 -0.014734111246986918 0 -1.8564797454625274e-05 -0.014788910176620085 0 2.0966530230006415e-05 -0.014807471839825068 0 2.0966530230006415e-05 -0.014807471839825068 0 -9.8102063469928129e-06 -0.014751245857799144 0 3.2520921951383503e-05 -0.014813430421560633 0 -2.5069678711746855e-05 -0.014707584877910875 0 1.5349292583350985e-06 -0.01478835333482627 0 -3.5994670235811669e-05 -0.014699480664805756 0 -3.9513764781342597e-05 -0.014662433154871443 0 -3.3136198626219485e-05 -0.014760938640915109 0 3.2520921951383503e-05 -0.014813430421560633 0 3.8636760592754964e-05 -0.014841309981926943 0 3.7650285640660925e-05 -0.014896733560059666 0 1.5349292583350985e-06 -0.01478835333482627 0 1.2813027119230126e-05 -0.014888551972583569 0 -2.5657706905724934e-05 -0.014814910669207884 0 -3.3136198626219485e-05 -0.014760938640915109 0 -1.3629468541099176e-05 -0.014879364596580128 0 3.8636760592754964e-05 -0.014841309981926943 0 3.6165513284537815e-05 -0.014866098431170075 0 3.7650285640660925e-05 -0.014896733560059666 0 2.0966530230006415e-05 -0.014807471839825068 0 3.2520921951383503e-05 -0.014813430421560633 0 3.8636760592754964e-05 -0.014841309981926943 0 2.0966530230006415e-05 -0.014807471839825068 0 3.8636760592754964e-05 -0.014841309981926943 0 4.0576262398912602e-05 -0.014839981833436528 0 -0.00019089515716071417 -0.014642378606053498 0 -4.915341121228255e-05 -0.014726874911761528 0 -0.00011565703777706863 -0.014624901642715236 0 -0.00015896209145926653 -0.014711052585855314 0 -7.9963798151242533e-05 -0.014757814611635863 0 -0.00025017478123861799 -0.014621061346770553 0 -0.00011565703777706863 -0.014624901642715236 0 -0.00015896209145926653 -0.014711052585855314 0 -0.00011565703777706863 -0.014624901642715236 0 -3.5043586591252395e-05 -0.014784771492984355 0 -1.4928634586029388e-05 -0.014800448720834844 0 -0.00011565703777706863 -0.014624901642715236 0 1.0977238973223739e-05 -0.014829726838970552 0 -1.4928634586029388e-05 -0.014800448720834844 0 -3.5043586591252395e-05 -0.014784771492984355 0 -7.9963798151242533e-05 -0.014757814611635863 0 -4.3143077574016353e-05 -0.014794871167631864 0 -3.5043586591252395e-05 -0.014784771492984355 0 -1.6292718195041276e-05 -0.014815947940258055 0 -2.7273263696206673e-05 -0.014808434326974037 0 -0.00011565703777706863 -0.014624901642715236 0 -3.5043586591252395e-05 -0.014784771492984355 0 -7.9963798151242533e-05 -0.014757814611635863 0 3.8636760592754964e-05 -0.014841309981926943 0 4.0576262398912602e-05 -0.014839981833436528 0 3.6165513284537815e-05 -0.014866098431170075 0 -4.915341121228255e-05 -0.014726874911761528 0 1.3832824992522895e-05 -0.014892826827492506 0 4.0576262398912602e-05 -0.014839981833436528 0 2.4557486024037682e-05 -0.014846194696567457 0 3.6165513284537815e-05 -0.014866098431170075 0 2.4557486024037682e-05 -0.014846194696567457 0 5.9645484336915169e-06 -0.014879655418624535 0 3.6165513284537815e-05 -0.014866098431170075 0 1.3832824992522895e-05 -0.014892826827492506 0 8.9340132909048667e-06 -0.014943212859321185 0 1.0977238973223739e-05 -0.014829726838970552 0 -1.4928634586029388e-05 -0.014800448720834844 0 6.7943542788011255e-06 -0.014846384218278757 0 1.0977238973223739e-05 -0.014829726838970552 0 6.7943542788011255e-06 -0.014846384218278757 0 8.7656167285343627e-06 -0.014900120565406388 0 -1.4928634586029388e-05 -0.014800448720834844 0 6.7943542788011255e-06 -0.014846384218278757 0 7.4047341681043569e-06 -0.014850538147082435 0 6.7943542788011255e-06 -0.014846384218278757 0 7.4047341681043569e-06 -0.014850538147082435 0 8.7656167285343627e-06 -0.014900120565406388 0 -3.5043586591252395e-05 -0.014784771492984355 0 -6.4415631060504646e-06 -0.014824375404159353 0 -1.6292718195041276e-05 -0.014815947940258055 0 -3.5043586591252395e-05 -0.014784771492984355 0 -1.4928634586029388e-05 -0.014800448720834844 0 -6.4415631060504646e-06 -0.014824375404159353 0 -1.4928634586029388e-05 -0.014800448720834844 0 7.4047341681043569e-06 -0.014850538147082435 0 -6.4415631060504646e-06 -0.014824375404159353 0 7.4047341681043569e-06 -0.014850538147082435 0 -6.4415631060504646e-06 -0.014824375404159353 0 -2.8054504897611793e-06 -0.014833723532669194 0 1.0977238973223739e-05 -0.014829726838970552 0 8.7656167285343627e-06 -0.014900120565406388 0 1.4626218169508234e-06 -0.014982585032114816 0 1.2735317064531549e-08 -0.014999945274846513 0 3.9889660508230354e-06 -0.014935492598086351 0 -5.0912545446197863e-08 -0.014999649299204703 0 8.7656167285343627e-06 -0.014900120565406388 0 3.4692416284181742e-06 -0.014847786309781928 0 7.4047341681043569e-06 -0.014850538147082435 0 8.7656167285343627e-06 -0.014900120565406388 0 3.4692416284181742e-06 -0.014847786309781928 0 -5.0912545446197863e-08 -0.014999649299204703 0 8.7656167285343627e-06 -0.014900120565406388 0 1.4626218169508234e-06 -0.014982585032114816 0 -5.0912545446197863e-08 -0.014999649299204703 0 1.4626218169508234e-06 -0.014982585032114816 0 1.5317109829119285e-08 -0.015000063602197279 0 1.9027493201993148e-05 -0.014983632250392061 0 6.1004118880342845e-06 -0.014991893845106736 0 5.2338419912016118e-06 -0.015000311880797866 0 1.3832824992522895e-05 -0.014892826827492506 0 -1.1966848314513557e-05 -0.014957401624271687 0 1.9027493201993148e-05 -0.014983632250392061 0 1.4626218169508234e-06 -0.014982585032114816 0 6.1004118880342845e-06 -0.014991893845106736 0 1.4626218169508234e-06 -0.014982585032114816 0 6.1004118880342845e-06 -0.014991893845106736 0 1.5317109829119285e-08 -0.015000063602197279 0 6.1004118880342845e-06 -0.014991893845106736 0 1.5317109829119285e-08 -0.015000063602197279 0 5.2338419912016118e-06 -0.015000311880797866 0 5.9645484336915169e-06 -0.014879655418624535 0 2.0958652355525527e-05 -0.014928601021364032 0 -3.5378205247820979e-08 -0.014999777009915971 0 8.9340132909048667e-06 -0.014943212859321185 0 3.8042645251162073e-09 -0.01499996746707262 0 1.5317109829119285e-08 -0.015000063602197279 0 5.2338419912016118e-06 -0.015000311880797866 0 -6.0439609768787197e-09 -0.014999972058562934 0 5.9645484336915169e-06 -0.014879655418624535 0 3.6165513284537815e-05 -0.014866098431170075 0 2.0958652355525527e-05 -0.014928601021364032 0 3.6165513284537815e-05 -0.014866098431170075 0 2.0958652355525527e-05 -0.014928601021364032 0 3.7650285640660925e-05 -0.014896733560059666 0 1.2813027119230126e-05 -0.014888551972583569 0 4.6878584205779953e-09 -0.014999962174489481 0 2.0958652355525527e-05 -0.014928601021364032 0 3.7650285640660925e-05 -0.014896733560059666 0 1.3034996025526876e-08 -0.015000098084553746 0 2.0958652355525527e-05 -0.014928601021364032 0 1.3034996025526876e-08 -0.015000098084553746 0 -3.5378205247820979e-08 -0.014999777009915971 0 -4.6387674280397059e-06 -0.014998620936529317 0 -8.3322386641198841e-06 -0.014993098729762623 0 1.7683400199291706e-09 -0.014999961206852885 0 -4.6387674280397059e-06 -0.014998620936529317 0 1.7683400199291706e-09 -0.014999961206852885 0 -6.3500737757814521e-09 -0.015000013256060422 0 -4.6387674280397059e-06 -0.014998620936529317 0 -1.6911397112102948e-05 -0.014996511706934647 0 -8.3322386641198841e-06 -0.014993098729762623 0 -4.6387674280397059e-06 -0.014998620936529317 0 -1.6911397112102948e-05 -0.014996511706934647 0 -7.7342576392438379e-06 -0.015000454950245008 0 -1.6911397112102948e-05 -0.014996511706934647 0 -8.3322386641198841e-06 -0.014993098729762623 0 -1.7098307907553578e-05 -0.014983907499453381 0 -1.6911397112102948e-05 -0.014996511706934647 0 -1.7098307907553578e-05 -0.014983907499453381 0 -2.9783521017675153e-05 -0.01497621630111382 0 -8.3322386641198841e-06 -0.014993098729762623 0 -1.7098307907553578e-05 -0.014983907499453381 0 -7.0258323348005735e-06 -0.014981076666293334 0 -8.3322386641198841e-06 -0.014993098729762623 0 1.7683400199291706e-09 -0.014999961206852885 0 -7.0258323348005735e-06 -0.014981076666293334 0 -1.7599414449120754e-09 -0.015000010039457208 0 3.8301168043084141e-10 -0.014999986891625924 0 -4.8892291190494015e-06 -0.014999607321933246 0 -3.1674719216919153e-08 -0.014999973813427334 0 2.7628795823477874e-05 -0.015013980862020913 0 1.5056015127525358e-07 -0.015000129805667386 0 -7.6211797467053594e-05 -0.014781965968833371 0 3.8301168043084141e-10 -0.014999986891625924 0 -4.8892291190494015e-06 -0.014999607321933246 0 -1.1082360171851575e-05 -0.014991077940082654 0 -6.2265713645489329e-10 -0.014999999269278251 0 -2.9780284138151599e-07 -0.014999167631408494 0 -9.9622418920305673e-07 -0.014997976221666888 0 3.4065748949219479e-11 -0.014999999941751488 0 -1.2461176943343068e-10 -0.014999998682574745 0 -2.9780284138151599e-07 -0.014999167631408494 0 -6.2265713645489329e-10 -0.014999999269278251 0 -1.2461176943343068e-10 -0.014999998682574745 0 -2.9780284138151599e-07 -0.014999167631408494 0 -1.7608982266901919e-05 -0.014822938883913056 0 -2.8054504897611793e-06 -0.014833723532669194 0 -1.1605903066743367e-05 -0.01483623413669285 0 -1.7608982266901919e-05 -0.014822938883913056 0 -1.1605903066743367e-05 -0.01483623413669285 0 -3.2054999784164781e-05 -0.014817225735865445 0 -1.7608982266901919e-05 -0.014822938883913056 0 -1.6292718195041276e-05 -0.014815947940258055 0 -2.8054504897611793e-06 -0.014833723532669194 0 -1.7608982266901919e-05 -0.014822938883913056 0 -1.6292718195041276e-05 -0.014815947940258055 0 -2.7273263696206673e-05 -0.014808434326974037 0 -6.4415631060504646e-06 -0.014824375404159353 0 -1.6292718195041276e-05 -0.014815947940258055 0 -2.8054504897611793e-06 -0.014833723532669194 0 7.4047341681043569e-06 -0.014850538147082435 0 3.4692416284181742e-06 -0.014847786309781928 0 -2.8054504897611793e-06 -0.014833723532669194 0 3.4692416284181742e-06 -0.014847786309781928 0 -2.8054504897611793e-06 -0.014833723532669194 0 -1.1605903066743367e-05 -0.01483623413669285 0 3.9889660508230354e-06 -0.014935492598086351 0 -7.6211797467053594e-05 -0.014781965968833371 0 3.4692416284181742e-06 -0.014847786309781928 0 -1.1605903066743367e-05 -0.01483623413669285 0 -1.1413245633009852e-05 -0.014849148126329939 0 -1.1605903066743367e-05 -0.01483623413669285 0 -1.1413245633009852e-05 -0.014849148126329939 0 -2.4880751851562774e-05 -0.014843426852260642 0 -0.00011296230242863374 -0.014669633197406237 0 -0.00016824699147071018 -0.014725011365145129 0 -0.00029835475299999062 -0.014630268854936861 0 -1.1413245633009852e-05 -0.014849148126329939 0 -2.3378595594915342e-05 -0.014849713986959572 0 -2.4880751851562774e-05 -0.014843426852260642 0 -1.7098307907553578e-05 -0.014983907499453381 0 -7.0258323348005735e-06 -0.014981076666293334 0 -2.0362464390702368e-05 -0.014967017511598613 0 -7.6211797467053594e-05 -0.014781965968833371 0 -0.00039679809708137242 -0.014499492372176796 0 -1.7098307907553578e-05 -0.014983907499453381 0 -2.0362464390702368e-05 -0.014967017511598613 0 -2.9783521017675153e-05 -0.01497621630111382 0 -0.00012967463980274215 -0.014699982133380557 0 -0.00039679809708137242 -0.014499492372176796 0 -7.6211797467053594e-05 -0.014781965968833371 0 -0.00012967463980274215 -0.014699982133380557 0 -4.8892291190494015e-06 -0.014999607321933246 0 -1.1082360171851575e-05 -0.014991077940082654 0 -1.2088617350260568e-05 -0.014991823222658048 0 2.7628795823477874e-05 -0.015013980862020913 0 -0.00012967463980274215 -0.014699982133380557 0 -0.00012967463980274215 -0.014699982133380557 0 -0.00046498211904818777 -0.014453708019308592 0 -0.00067381001063519168 -0.014130662460064111 0 -0.00054625010592834094 -0.01411433000804887 0 -0.00075787916860385585 -0.014087607900044114 0 -0.00059656131439262197 -0.014219929892001201 0 -0.00068125851509814319 -0.014177472989616718 0 -0.00073105499402126815 -0.01425227215534559 0 -0.00046498211904818777 -0.014453708019308592 0 -0.00058748864993504334 -0.014155321961485869 0 -0.00059656131439262197 -0.014219929892001201 0 -0.00062057345609693552 -0.014148487610878509 0 -0.00068125851509814319 -0.014177472989616718 0 -0.00062057345609693552 -0.014148487610878509 0 -0.00067381001063519168 -0.014130662460064111 0 -0.00068125851509814319 -0.014177472989616718 0 -0.00062057345609693552 -0.014148487610878509 0 -0.00067381001063519168 -0.014130662460064111 0 -0.00054625010592834094 -0.01411433000804887 0 -0.00051022827070795512 -0.01414087874677819 0 -0.00059728128504005044 -0.014230145299270358 0 -0.00054625010592834094 -0.01411433000804887 0 -0.00059728128504005044 -0.014230145299270358 0 -0.00062057345609693552 -0.014148487610878509 0 -0.00054625010592834094 -0.01411433000804887 0 -0.00066128630367342416 -0.014198284995527869 0 -0.00067310285246908151 -0.01418707389701275 0 -0.00070229925012304335 -0.014180378218777975 0 -0.00039679809708137242 -0.014499492372176796 0 -0.00026720747627640058 -0.014644995996358086 0 -2.3378595594915342e-05 -0.014849713986959572 0 -2.4880751851562774e-05 -0.014843426852260642 0 -3.937054260476516e-05 -0.014841055681568889 0 -0.00039679809708137242 -0.014499492372176796 0 -0.00077707116295733767 -0.014094808235691344 0 -8.2652324688376006e-05 -0.014723236311748912 0 -0.00026720747627640058 -0.014644995996358086 0 -2.4880751851562774e-05 -0.014843426852260642 0 -3.4566037389874556e-05 -0.014831342527917155 0 -5.1726076930882027e-05 -0.014841598598196228 0 -1.1605903066743367e-05 -0.01483623413669285 0 -3.4566037389874556e-05 -0.014831342527917155 0 -3.2054999784164781e-05 -0.014817225735865445 0 -1.1605903066743367e-05 -0.01483623413669285 0 -2.4880751851562774e-05 -0.014843426852260642 0 -3.4566037389874556e-05 -0.014831342527917155 0 -3.4566037389874556e-05 -0.014831342527917155 0 -5.1726076930882027e-05 -0.014841598598196228 0 -5.2236641604602021e-05 -0.014809260411169622 0 -5.1726076930882027e-05 -0.014841598598196228 0 -8.4505975726106253e-05 -0.014810100091853811 0 -5.2236641604602021e-05 -0.014809260411169622 0 -0.00026720747627640058 -0.014644995996358086 0 -9.7567071134395178e-05 -0.014781142097205661 0 -7.9963798151242533e-05 -0.014757814611635863 0 -8.4505975726106253e-05 -0.014810100091853811 0 -5.2236641604602021e-05 -0.014809260411169622 0 -0.00015896209145926653 -0.014711052585855314 0 -7.9963798151242533e-05 -0.014757814611635863 0 -8.4505975726106253e-05 -0.014810100091853811 0 -7.9963798151242533e-05 -0.014757814611635863 0 -4.3143077574016353e-05 -0.014794871167631864 0 -5.2236641604602021e-05 -0.014809260411169622 0 -4.3143077574016353e-05 -0.014794871167631864 0 -2.7273263696206673e-05 -0.014808434326974037 0 -3.2054999784164781e-05 -0.014817225735865445 0 -3.5043586591252395e-05 -0.014784771492984355 0 -4.3143077574016353e-05 -0.014794871167631864 0 -2.7273263696206673e-05 -0.014808434326974037 0 -1.7608982266901919e-05 -0.014822938883913056 0 -2.7273263696206673e-05 -0.014808434326974037 0 -3.2054999784164781e-05 -0.014817225735865445 0 -3.4566037389874556e-05 -0.014831342527917155 0 -3.2054999784164781e-05 -0.014817225735865445 0 -5.2236641604602021e-05 -0.014809260411169622 0 -4.3143077574016353e-05 -0.014794871167631864 0 -3.2054999784164781e-05 -0.014817225735865445 0 -5.2236641604602021e-05 -0.014809260411169622 0 -0.00026720747627640058 -0.014644995996358086 0 -0.00050428936834617604 -0.014439398392087596 0 -0.00067310285246908151 -0.01418707389701275 0 -0.00070229925012304335 -0.014180378218777975 0 -0.00071367795369414841 -0.014171720199735994 0 -3.9213673049783697e-05 -0.014858554357367068 0 -8.4505975726106253e-05 -0.014810100091853811 0 -0.00026095860888286052 -0.014745057807546619 0 -0.00015896209145926653 -0.014711052585855314 0 -8.4505975726106253e-05 -0.014810100091853811 0 -0.00026095860888286052 -0.014745057807546619 0 -0.00025017478123861799 -0.014621061346770553 0 -0.00015896209145926653 -0.014711052585855314 0 -0.00026095860888286052 -0.014745057807546619 0 -0.0007516181415849494 -0.014111522900291509 0 -0.00084676234361486685 -0.014209466271601719 0 -0.00075791717748376216 -0.014119163683331189 0 -0.00073105499402126815 -0.01425227215534559 0 -0.00085922147249465361 -0.014320040023798225 0 -0.00075787916860385585 -0.014087607900044114 0 -0.00075791717748376216 -0.014119163683331189 0 -0.00077380086878948073 -0.014106902653952385 0 -0.00067381001063519168 -0.014130662460064111 0 -0.00075791717748376216 -0.014119163683331189 0 -0.00068125851509814319 -0.014177472989616718 0 -0.00067381001063519168 -0.014130662460064111 0 -0.00075787916860385585 -0.014087607900044114 0 -0.00075791717748376216 -0.014119163683331189 0 -0.00075791717748376216 -0.014119163683331189 0 -0.00068125851509814319 -0.014177472989616718 0 -0.00073105499402126815 -0.01425227215534559 0 -0.00046498211904818777 -0.014453708019308592 0 -0.00076937394304804271 -0.014325123534547205 0 -0.00059656131439262197 -0.014219929892001201 0 -0.00073105499402126815 -0.01425227215534559 0 -0.00075618126461134019 -0.014410959096212338 0 -0.00073105499402126815 -0.01425227215534559 0 -0.00075618126461134019 -0.014410959096212338 0 -0.00085922147249465361 -0.014320040023798225 0 -0.00022736850855953141 -0.014762844251690133 0 -0.00046498211904818777 -0.014453708019308592 0 -0.00054334004623113135 -0.014207189999614959 0 -0.00060094678819312079 -0.014393781491894441 0 -0.00075618126461134019 -0.014410959096212338 0 -0.00046961990312806756 -0.01446202750848298 0 -0.00054334004623113135 -0.014207189999614959 0 -0.00060094678819312079 -0.014393781491894441 0 -0.00046961990312806756 -0.01446202750848298 0 -0.00060094678819312079 -0.014393781491894441 0 -0.00064624350435536152 -0.014507526883582738 0 -0.00064624350435536152 -0.014507526883582738 0 -0.00075618126461134019 -0.014410959096212338 0 -0.00082444541137784329 -0.014534196869236855 0 -0.00060094678819312079 -0.014393781491894441 0 -0.00064624350435536152 -0.014507526883582738 0 -0.00075618126461134019 -0.014410959096212338 0 -0.00085922147249465361 -0.014320040023798225 0 -0.00098143956763516345 -0.014527408406646574 0 -0.00082444541137784329 -0.014534196869236855 0 -0.00075618126461134019 -0.014410959096212338 0 -0.00085922147249465361 -0.014320040023798225 0 -0.00082444541137784329 -0.014534196869236855 0 -0.00084676234361486685 -0.014209466271601719 0 -0.00067885907056085997 -0.014264503825232307 0 -0.0007526125728885111 -0.014052525722586248 0 -0.00074296549229888964 -0.01393907300347619 0 -0.00089839519636051874 -0.013888550179576504 0 -0.00082802015715641977 -0.01391912944995824 0 -0.00067885907056085997 -0.014264503825232307 0 -0.00076771006387964941 -0.01407073437166103 0 -0.0007526125728885111 -0.014052525722586248 0 -0.00076685284519756357 -0.01404844047204314 0 -0.00076771006387964941 -0.01407073437166103 0 -0.00077982802344916935 -0.014072159531813205 0 -0.00076685284519756357 -0.01404844047204314 0 -0.00076771006387964941 -0.01407073437166103 0 -0.00077982802344916935 -0.014072159531813205 0 -0.00077384859781375558 -0.014097653675974313 0 -0.00075791717748376216 -0.014119163683331189 0 -0.00077982802344916935 -0.014072159531813205 0 -0.00077384859781375558 -0.014097653675974313 0 -0.00075791717748376216 -0.014119163683331189 0 -0.00077384859781375558 -0.014097653675974313 0 -0.00077380086878948073 -0.014106902653952385 0 -0.00077384859781375558 -0.014097653675974313 0 -0.00077380086878948073 -0.014106902653952385 0 -0.00076984136504347283 -0.014104111172085354 0 -0.00070229925012304335 -0.014180378218777975 0 -0.00071367795369414841 -0.014171720199735994 0 -0.00072077231160537773 -0.014169474393038787 0 -0.00050428936834617604 -0.014439398392087596 0 -0.00060377536374507136 -0.014353055834405531 0 -0.00077707116295733767 -0.014094808235691344 0 -0.00073390032076206492 -0.014155636396231637 0 -0.00075787916860385585 -0.014087607900044114 0 -0.00077380086878948073 -0.014106902653952385 0 -0.00078005558949370167 -0.014125031272008759 0 -0.00035758636034646937 -0.01458655223138536 0 -0.00026095860888286052 -0.014745057807546619 0 -0.00052814256327254493 -0.014532780201399972 0 -0.00077380086878948073 -0.014106902653952385 0 -0.00078005558949370167 -0.014125031272008759 0 -0.00076984136504347283 -0.014104111172085354 0 -0.00025017478123861799 -0.014621061346770553 0 -0.00035758636034646937 -0.01458655223138536 0 -0.00026095860888286052 -0.014745057807546619 0 -0.00071774163125727956 -0.014174243101546928 0 -0.00072077231160537773 -0.014169474393038787 0 -0.00070112393636392282 -0.014187802596727053 0 -0.00078005558949370167 -0.014125031272008759 0 -0.00074548266610697579 -0.014105980388966471 0 -0.00070112393636392282 -0.014187802596727053 0 -0.00071367795369414841 -0.014171720199735994 0 -0.00071774163125727956 -0.014174243101546928 0 -0.00072077231160537773 -0.014169474393038787 0 -0.00073390032076206492 -0.014155636396231637 0 -0.00070796674308802154 -0.014179359618591564 0 -0.00078005558949370167 -0.014125031272008759 0 -0.00076984136504347283 -0.014104111172085354 0 -0.00074548266610697579 -0.014105980388966471 0 -0.00076771006387964941 -0.01407073437166103 0 -0.00074548266610697579 -0.014105980388966471 0 -0.0007526125728885111 -0.014052525722586248 0 -0.00076771006387964941 -0.01407073437166103 0 -0.00076984136504347283 -0.014104111172085354 0 -0.00074548266610697579 -0.014105980388966471 0 -0.00076771006387964941 -0.01407073437166103 0 -0.00077384859781375558 -0.014097653675974313 0 -0.00076984136504347283 -0.014104111172085354 0 -0.00074548266610697579 -0.014105980388966471 0 -0.00068787271958677164 -0.014135561656782324 0 -0.00068237256311424782 -0.014062758710654233 0 -0.00074548266610697579 -0.014105980388966471 0 -0.00068237256311424782 -0.014062758710654233 0 -0.0007526125728885111 -0.014052525722586248 0 -0.00065646827628417404 -0.014249565839460715 0 -0.00060377536374507136 -0.014353055834405531 0 -0.00074548266610697579 -0.014105980388966471 0 -0.00070112393636392282 -0.014187802596727053 0 -0.00068787271958677164 -0.014135561656782324 0 -0.00066880160957340858 -0.014226242744242857 0 -0.00071774163125727956 -0.014174243101546928 0 -0.00070112393636392282 -0.014187802596727053 0 -0.00066880160957340858 -0.014226242744242857 0 -0.00068787271958677164 -0.014135561656782324 0 -0.00062861344863677073 -0.014086189451733276 0 -0.00066880160957340858 -0.014226242744242857 0 -0.00070112393636392282 -0.014187802596727053 0 -0.00068787271958677164 -0.014135561656782324 0 -0.00068787271958677164 -0.014135561656782324 0 -0.00068237256311424782 -0.014062758710654233 0 -0.00062861344863677073 -0.014086189451733276 0 -0.00068237256311424782 -0.014062758710654233 0 -0.0006792185336667501 -0.013978921355575004 0 -0.00061047009507350918 -0.013992698522722412 0 -0.00068237256311424782 -0.014062758710654233 0 -0.0006792185336667501 -0.013978921355575004 0 -0.0007526125728885111 -0.014052525722586248 0 -0.0006792185336667501 -0.013978921355575004 0 -0.0007526125728885111 -0.014052525722586248 0 -0.00074296549229888964 -0.01393907300347619 0 -0.0006792185336667501 -0.013978921355575004 0 -0.00074296549229888964 -0.01393907300347619 0 -0.00069379985636141325 -0.013903307462427779 0 -0.00074296549229888964 -0.01393907300347619 0 -0.00074650185922607104 -0.013854688675842655 0 -0.00089839519636051874 -0.013888550179576504 0 -0.00074296549229888964 -0.01393907300347619 0 -0.00069379985636141325 -0.013903307462427779 0 -0.00074650185922607104 -0.013854688675842655 0 -0.0006792185336667501 -0.013978921355575004 0 -0.00069379985636141325 -0.013903307462427779 0 -0.00064152255366332271 -0.013911272751112563 0 -0.0006792185336667501 -0.013978921355575004 0 -0.00064152255366332271 -0.013911272751112563 0 -0.00061047009507350918 -0.013992698522722412 0 -0.00064152255366332271 -0.013911272751112563 0 -0.0006815687920264207 -0.013849693602566791 0 -0.00062519778721502892 -0.013824194275422067 0 -0.00063382862964303196 -0.013800928915766415 0 -0.00067407139809352629 -0.013300889132859196 0 -0.00069379985636141325 -0.013903307462427779 0 -0.00064152255366332271 -0.013911272751112563 0 -0.0006815687920264207 -0.013849693602566791 0 -0.00069379985636141325 -0.013903307462427779 0 -0.0006815687920264207 -0.013849693602566791 0 -0.00074650185922607104 -0.013854688675842655 0 -0.00063382862964303196 -0.013800928915766415 0 -0.00072965854522483045 -0.013850581865324523 0 -0.00055959844773993824 -0.013761485037549018 0 -0.00074650185922607104 -0.013854688675842655 0 -0.00060837362805949184 -0.013610552338989411 0 -0.00074650185922607104 -0.013854688675842655 0 -0.00077942682492829261 -0.013613187728582892 0 -0.00060837362805949184 -0.013610552338989411 0 -0.00060837362805949184 -0.013610552338989411 0 -0.00049102290568145738 -0.013489754930795593 0 -0.00036875277663284974 -0.013665217644123368 0 -0.00055959844773993824 -0.013761485037549018 0 -0.00060837362805949184 -0.013610552338989411 0 -0.00036875277663284974 -0.013665217644123368 0 -0.00039289307991622686 -0.013632825426969478 0 -0.00067407139809352629 -0.013300889132859196 0 -0.00049102290568145738 -0.013489754930795593 0 -0.0004401543571729388 -0.01327300809937961 0 -0.00059221779169024138 -0.013300086953259628 0 -0.00060837362805949184 -0.013610552338989411 0 -0.00049102290568145738 -0.013489754930795593 0 -0.00059221779169024138 -0.013300086953259628 0 -0.00049102290568145738 -0.013489754930795593 0 -0.0004401543571729388 -0.01327300809937961 0 -0.00035984737280545708 -0.01336183229951537 0 -0.00024906243159105124 -0.014776543670628788 0 -0.0002184883658355013 -0.014776964642021802 0 -0.0002392331516511579 -0.01474704961335224 0 -6.5528574101299283e-05 -0.014222173735283108 0 -0.00044635878543756443 -0.0139772749970507 0 -0.00042100218403886251 -0.013057847454516295 0 -0.0004401543571729388 -0.01327300809937961 0 -0.00059221779169024138 -0.013300086953259628 0 -0.0002184883658355013 -0.014776964642021802 0 -0.00025086642909031735 -0.014740360213134735 0 -0.00023135254171129425 -0.014754281994610471 0 -0.0002184883658355013 -0.014776964642021802 0 -0.0002392331516511579 -0.01474704961335224 0 -0.00023135254171129425 -0.014754281994610471 0 -0.00077942682492829261 -0.013613187728582892 0 -0.00060837362805949184 -0.013610552338989411 0 -0.00059221779169024138 -0.013300086953259628 0 -0.0002437757890542873 -0.01472002723025654 0 -0.0002392331516511579 -0.01474704961335224 0 -0.0002326779557889458 -0.014734907117129149 0 -0.0002392331516511579 -0.01474704961335224 0 -0.0002326779557889458 -0.014734907117129149 0 -0.00023135254171129425 -0.014754281994610471 0 -0.00048982443803779314 -0.014172207850977378 0 -0.00044635878543756443 -0.0139772749970507 0 -0.0002326779557889458 -0.014734907117129149 0 -0.00023135254171129425 -0.014754281994610471 0 -0.00022628783764486976 -0.014741300702002165 0 -0.0002326779557889458 -0.014734907117129149 0 -0.00022628783764486976 -0.014741300702002165 0 -0.00022376987704483071 -0.014732047864750733 0 -0.00023135254171129425 -0.014754281994610471 0 -0.00023718393988109209 -0.014750671471634598 0 -0.00022628783764486976 -0.014741300702002165 0 -0.00025086642909031735 -0.014740360213134735 0 -0.00023135254171129425 -0.014754281994610471 0 -0.00023718393988109209 -0.014750671471634598 0 -0.00023718393988109209 -0.014750671471634598 0 -0.00022008079028770192 -0.014756127962769663 0 -0.00022628783764486976 -0.014741300702002165 0 -0.00022008079028770192 -0.014756127962769663 0 -0.0002128746777627989 -0.01474258315393538 0 -0.00022628783764486976 -0.014741300702002165 0 -0.00022008079028770192 -0.014756127962769663 0 -0.0002128746777627989 -0.01474258315393538 0 -0.00019324930082052611 -0.014745652830672029 0 -0.00018844758573009741 -0.014710018025212811 0 -0.00039425801203324081 -0.014733137534769382 0 -0.0002128746777627989 -0.01474258315393538 0 -0.00022628783764486976 -0.014741300702002165 0 -0.00020838132364791947 -0.014727146766991384 0 -0.00022628783764486976 -0.014741300702002165 0 -0.00022376987704483071 -0.014732047864750733 0 -0.00021298967423943004 -0.014736083859970706 0 -0.0002326779557889458 -0.014734907117129149 0 -0.00022376987704483071 -0.014732047864750733 0 -0.00022122813722798244 -0.014714961427609309 0 -0.00053238307000370378 -0.014782776598746255 0 -0.00039425801203324081 -0.014733137534769382 0 -0.00022376987704483071 -0.014732047864750733 0 -0.00022122813722798244 -0.014714961427609309 0 -0.00021298967423943004 -0.014736083859970706 0 -0.00088220203086310537 -0.014713227513981603 0 -0.00074089191264181458 -0.01475682796102078 0 -0.00077974353380700029 -0.014897015740579552 0 -0.0002437757890542873 -0.01472002723025654 0 -0.0002326779557889458 -0.014734907117129149 0 -0.00022122813722798244 -0.014714961427609309 0 -0.0002437757890542873 -0.01472002723025654 0 -0.00022122813722798244 -0.014714961427609309 0 -0.00023552913221116294 -0.014687183988524827 0 -0.00048982443803779314 -0.014172207850977378 0 -0.00067885907056085997 -0.014264503825232307 0 -0.00074650185922607104 -0.013854688675842655 0 -0.00077942682492829261 -0.013613187728582892 0 -0.00089839519636051874 -0.013888550179576504 0 -0.00088220203086310537 -0.014713227513981603 0 -0.00098143956763516345 -0.014527408406646574 0 -0.00082444541137784329 -0.014534196869236855 0 -0.00053238307000370378 -0.014782776598746255 0 -0.00067885907056085997 -0.014264503825232307 0 -0.00088220203086310537 -0.014713227513981603 0 -0.00082444541137784329 -0.014534196869236855 0 -0.0006942039783325594 -0.014618866405910149 0 -0.00064624350435536152 -0.014507526883582738 0 -0.00082444541137784329 -0.014534196869236855 0 -0.0006942039783325594 -0.014618866405910149 0 -0.00046961990312806756 -0.01446202750848298 0 -0.00064624350435536152 -0.014507526883582738 0 -0.00054488131125991031 -0.014621240260229812 0 -0.00064624350435536152 -0.014507526883582738 0 -0.0006942039783325594 -0.014618866405910149 0 -0.00054488131125991031 -0.014621240260229812 0 -0.00014962809920700566 -0.01466978932802874 0 -0.00010679654797024626 -0.014699323087743304 0 -7.8640216107368348e-05 -0.014636123751590444 0 -0.0006942039783325594 -0.014618866405910149 0 -0.00054488131125991031 -0.014621240260229812 0 -0.00058876445393093535 -0.014804979000101299 0 -0.00054488131125991031 -0.014621240260229812 0 -0.00058876445393093535 -0.014804979000101299 0 -0.00039454136688862147 -0.014713466526803606 0 -0.00040254353876632148 -0.01473817898662101 0 -0.00011918744625201178 -0.014843787629684189 0 -0.00088220203086310537 -0.014713227513981603 0 -0.0006942039783325594 -0.014618866405910149 0 -0.00074089191264181458 -0.01475682796102078 0 -0.00058876445393093535 -0.014804979000101299 0 -0.00074089191264181458 -0.01475682796102078 0 -0.00077974353380700029 -0.014897015740579552 0 -0.0006942039783325594 -0.014618866405910149 0 -0.00058876445393093535 -0.014804979000101299 0 -0.00074089191264181458 -0.01475682796102078 0 -0.0002181391820767396 -0.014704249507378494 0 -0.00019324930082052611 -0.014745652830672029 0 -0.00015693049952784951 -0.014724398346428259 0 -0.00040254353876632148 -0.01473817898662101 0 -0.00039425801203324081 -0.014733137534769382 0 -0.00014962809920700566 -0.01466978932802874 0 -0.0002181391820767396 -0.014704249507378494 0 -0.00015693049952784951 -0.014724398346428259 0 -0.00039425801203324081 -0.014733137534769382 0 -0.00021082755058062877 -0.014769630873977245 0 -0.0002128746777627989 -0.01474258315393538 0 -0.00020838132364791947 -0.014727146766991384 0 -0.00019324930082052611 -0.014745652830672029 0 -0.00018867409991061838 -0.014800196807197878 0 -0.00019324930082052611 -0.014745652830672029 0 -0.00015275079376154879 -0.014773301366722433 0 -0.00018867409991061838 -0.014800196807197878 0 -0.00022008079028770192 -0.014756127962769663 0 -0.00019324930082052611 -0.014745652830672029 0 -0.00019324930082052611 -0.014745652830672029 0 -0.00015275079376154879 -0.014773301366722433 0 -0.00015693049952784951 -0.014724398346428259 0 -0.00010243072081775387 -0.014795468432169551 0 -0.00015275079376154879 -0.014773301366722433 0 -0.00011858939505951979 -0.014750886803972367 0 -0.00015275079376154879 -0.014773301366722433 0 -0.00011858939505951979 -0.014750886803972367 0 -0.00015693049952784951 -0.014724398346428259 0 -0.00011858939505951979 -0.014750886803972367 0 -0.00015693049952784951 -0.014724398346428259 0 -0.00010679654797024626 -0.014699323087743304 0 -0.00014962809920700566 -0.01466978932802874 0 -0.00015693049952784951 -0.014724398346428259 0 -0.00010679654797024626 -0.014699323087743304 0 -0.00010679654797024626 -0.014699323087743304 0 -4.9866663160465805e-05 -0.014716806887056849 0 -7.8640216107368348e-05 -0.014636123751590444 0 -0.00011858939505951979 -0.014750886803972367 0 -0.00010679654797024626 -0.014699323087743304 0 -4.9866663160465805e-05 -0.014716806887056849 0 -0.00011858939505951979 -0.014750886803972367 0 -6.2006418686843458e-05 -0.014772055815208265 0 -4.9866663160465805e-05 -0.014716806887056849 0 -6.2568275857926184e-05 -0.014814876053359207 0 -0.00010243072081775387 -0.014795468432169551 0 -6.2006418686843458e-05 -0.014772055815208265 0 -0.00010243072081775387 -0.014795468432169551 0 -0.00011858939505951979 -0.014750886803972367 0 -6.2006418686843458e-05 -0.014772055815208265 0 -5.064540666986379e-09 -0.015000019476838175 0 6.3065636300167135e-07 -0.01499942959279321 0 -3.6106506814207267e-07 -0.014999357612914068 0 -5.8964039981447684e-06 -0.014909236555107211 0 -1.5893301756273819e-05 -0.014855405390504383 0 -4.7011289429973236e-06 -0.014813238429145361 0 -6.2006418686843458e-05 -0.014772055815208265 0 -4.9866663160465805e-05 -0.014716806887056849 0 -5.064540666986379e-09 -0.015000019476838175 0 -3.6106506814207267e-07 -0.014999357612914068 0 1.6026389126017155e-09 -0.014999990563881816 0 -3.6106506814207267e-07 -0.014999357612914068 0 1.6026389126017155e-09 -0.014999990563881816 0 -5.1862577917292518e-07 -0.014999594835452462 0 -5.1862577917292518e-07 -0.014999594835452462 0 -1.088098119405757e-06 -0.014998897000960455 0 -8.2651766070086423e-07 -0.015000426758282198 0 1.6026389126017155e-09 -0.014999990563881816 0 -6.3500737757814521e-09 -0.015000013256060422 0 -8.2651766070086423e-07 -0.015000426758282198 0 1.6026389126017155e-09 -0.014999990563881816 0 -5.1862577917292518e-07 -0.014999594835452462 0 -8.2651766070086423e-07 -0.015000426758282198 0 -3.6106506814207267e-07 -0.014999357612914068 0 -5.1862577917292518e-07 -0.014999594835452462 0 -1.088098119405757e-06 -0.014998897000960455 0 -1.5893301756273819e-05 -0.014855405390504383 0 -0.00011918744625201178 -0.014843787629684189 0 -0.00046961990312806756 -0.01446202750848298 0 -0.00054488131125991031 -0.014621240260229812 0 -0.00039454136688862147 -0.014713466526803606 0 -1.6911397112102948e-05 -0.014996511706934647 0 -1.0404055481549477e-05 -0.015005548615092982 0 -7.7342576392438379e-06 -0.015000454950245008 0 -0.00022736850855953141 -0.014762844251690133 0 -0.00011918744625201178 -0.014843787629684189 0 -1.0404055481549477e-05 -0.015005548615092982 0 -7.7342576392438379e-06 -0.015000454950245008 0 -8.2651766070086423e-07 -0.015000426758282198 0 -4.6387674280397059e-06 -0.014998620936529317 0 -7.7342576392438379e-06 -0.015000454950245008 0 -8.2651766070086423e-07 -0.015000426758282198 0 -0.00011918744625201178 -0.014843787629684189 0 1.8599213251519924e-05 -0.015013548338541368 0 -4.6387674280397059e-06 -0.014998620936529317 0 -6.3500737757814521e-09 -0.015000013256060422 0 -8.2651766070086423e-07 -0.015000426758282198 0 0.00031728364489092925 -0.013511082530828779 0 0.00043239437285541409 -0.012862440844146261 0 0.0009854946744563527 -0.013160035397690209 0 0.00031728364489092925 -0.013511082530828779 0 -5.3998194677123428e-05 -0.012975447942713042 0 0.00043239437285541409 -0.012862440844146261 0 0.00031728364489092925 -0.013511082530828779 0 -0.00018190778639726526 -0.013373020490706157 0 -5.3998194677123428e-05 -0.012975447942713042 0 -5.3998194677123428e-05 -0.012975447942713042 0 -0.00049184151394707221 -0.013040394988042119 0 -0.00029177478278540888 -0.012673418953877793 0 -0.00018190778639726526 -0.013373020490706157 0 -5.3998194677123428e-05 -0.012975447942713042 0 -0.00049184151394707221 -0.013040394988042119 0 -5.3998194677123428e-05 -0.012975447942713042 0 0.00043239437285541409 -0.012862440844146261 0 2.7875663276456989e-05 -0.012079539668088106 0 0.00043239437285541409 -0.012862440844146261 0 0.0009854946744563527 -0.013160035397690209 0 0.00087976654723178791 -0.012441062355293037 0 0.00020576510438406311 -0.013284384318639006 0 -6.7491320883159177e-06 -0.013440391253995577 0 0.00027028088896916105 -0.013471239676317377 0 0.00028040914228331958 -0.01093316978200301 0 0.0004948269491383961 -0.013499779955747117 0 0.0016952690619900076 -0.012730698152267326 0 0.0009854946744563527 -0.013160035397690209 0 0.00087976654723178791 -0.012441062355293037 0 -6.7491320883159177e-06 -0.013440391253995577 0 0.00014498059170873259 -0.013626949635854556 0 0.00027028088896916105 -0.013471239676317377 0 -6.7491320883159177e-06 -0.013440391253995577 0 -1.8860563890492089e-05 -0.013709441232905491 0 0.00014498059170873259 -0.013626949635854556 0 7.042582006101629e-05 -0.013530926350784992 0 0.0004948269491383961 -0.013499779955747117 0 -0.00021236103914774423 -0.013604330452199631 0 -6.7491320883159177e-06 -0.013440391253995577 0 -1.8860563890492089e-05 -0.013709441232905491 0 -1.8860563890492089e-05 -0.013709441232905491 0 0.00014498059170873259 -0.013626949635854556 0 0.00017820340897461263 -0.013780244127362737 0 6.5136701628406356e-05 -0.014076375485729497 0 0.00017820340897461263 -0.013780244127362737 0 0.00036667739006669312 -0.013867746522444822 0 -1.8860563890492089e-05 -0.013709441232905491 0 0.00017820340897461263 -0.013780244127362737 0 -4.8141549493101674e-05 -0.01390520370465481 0 6.5136701628406356e-05 -0.014076375485729497 0 0.00017820340897461263 -0.013780244127362737 0 -4.8141549493101674e-05 -0.01390520370465481 0 -1.8860563890492089e-05 -0.013709441232905491 0 -4.8141549493101674e-05 -0.01390520370465481 0 -0.00022206108034745887 -0.01386047468752446 0 -0.00021327987601970613 -0.014094454241522355 0 -4.8141549493101674e-05 -0.01390520370465481 0 -0.00022206108034745887 -0.01386047468752446 0 -0.00021236103914774423 -0.013604330452199631 0 -0.00022206108034745887 -0.01386047468752446 0 -0.00040144559447384141 -0.01379012332128951 0 -0.00021236103914774423 -0.013604330452199631 0 -1.8860563890492089e-05 -0.013709441232905491 0 -0.00022206108034745887 -0.01386047468752446 0 7.042582006101629e-05 -0.013530926350784992 0 -0.00030144740780727822 -0.013791870482261945 0 0.00031728364489092925 -0.013511082530828779 0 -0.00018190778639726526 -0.013373020490706157 0 -0.00021165445159176851 -0.013775990008023865 0 -0.00022206108034745887 -0.01386047468752446 0 -0.00040144559447384141 -0.01379012332128951 0 -0.00041945993955125804 -0.013981586253047708 0 -0.00021327987601970613 -0.014094454241522355 0 -0.00022206108034745887 -0.01386047468752446 0 -0.00041945993955125804 -0.013981586253047708 0 -0.00021165445159176851 -0.013775990008023865 0 -0.00045676563294352732 -0.013924869303511785 0 -0.00053226617742250745 -0.014007136661773573 0 -0.00040144559447384141 -0.01379012332128951 0 -0.00041945993955125804 -0.013981586253047708 0 -0.00053226617742250745 -0.014007136661773573 0 -0.00049282835576124333 -0.014061349026663764 0 -0.00041945993955125804 -0.013981586253047708 0 -0.00053226617742250745 -0.014007136661773573 0 -0.00054132472116726049 -0.014071290027172063 0 -0.00049282835576124333 -0.014061349026663764 0 -0.00053226617742250745 -0.014007136661773573 0 -0.00045676563294352732 -0.013924869303511785 0 -0.00053226617742250745 -0.014007136661773573 0 -0.00055453170223493235 -0.0140094353899523 0 -0.00054132472116726049 -0.014071290027172063 0 -0.00053226617742250745 -0.014007136661773573 0 -0.00056686240571637056 -0.014074897279611882 0 -0.00053226617742250745 -0.014007136661773573 0 -0.00055453170223493235 -0.0140094353899523 0 -0.00056686240571637056 -0.014074897279611882 0 -0.00045676563294352732 -0.013924869303511785 0 -0.00055453170223493235 -0.0140094353899523 0 -0.0005458858155666295 -0.013982124700308901 0 -0.00047908890196859683 -0.013915266091745574 0 -0.00067505842774750547 -0.013698454699557706 0 -0.00045676563294352732 -0.013924869303511785 0 -0.00044795727970043314 -0.013506924214013642 0 -0.00085314269239812168 -0.013386850526457253 0 -0.00021165445159176851 -0.013775990008023865 0 -0.00045676563294352732 -0.013924869303511785 0 -0.00044795727970043314 -0.013506924214013642 0 -0.00018190778639726526 -0.013373020490706157 0 -0.00021165445159176851 -0.013775990008023865 0 -0.00044795727970043314 -0.013506924214013642 0 -0.00030144740780727822 -0.013791870482261945 0 -0.00051855422928611696 -0.013976893410914385 0 -0.00061263670402218068 -0.014138497851245489 0 -0.00059116723429333666 -0.014068170103091989 0 -0.00062861344863677073 -0.014086189451733276 0 -0.00066880160957340858 -0.014226242744242857 0 -0.00061263670402218068 -0.014138497851245489 0 -0.00062861344863677073 -0.014086189451733276 0 -0.00061263670402218068 -0.014138497851245489 0 -0.00059116723429333666 -0.014068170103091989 0 -0.00056686240571637056 -0.014074897279611882 0 -0.00055453170223493235 -0.0140094353899523 0 -0.00059116723429333666 -0.014068170103091989 0 -0.00056686240571637056 -0.014074897279611882 0 -0.00055453170223493235 -0.0140094353899523 0 -0.00057960682121098537 -0.014020318053319922 0 -0.0005458858155666295 -0.013982124700308901 0 -0.00055453170223493235 -0.0140094353899523 0 -0.00059116723429333666 -0.014068170103091989 0 -0.00057960682121098537 -0.014020318053319922 0 -0.00068237256311424782 -0.014062758710654233 0 -0.00062861344863677073 -0.014086189451733276 0 -0.00061047009507350918 -0.013992698522722412 0 -0.00059116723429333666 -0.014068170103091989 0 -0.00057960682121098537 -0.014020318053319922 0 -0.00062861344863677073 -0.014086189451733276 0 -0.00057960682121098537 -0.014020318053319922 0 -0.00062861344863677073 -0.014086189451733276 0 -0.00061047009507350918 -0.013992698522722412 0 -0.00061047009507350918 -0.013992698522722412 0 -0.00057545115014035007 -0.013918661184078937 0 -0.0005458858155666295 -0.013982124700308901 0 -0.00057960682121098537 -0.014020318053319922 0 -0.00061047009507350918 -0.013992698522722412 0 -0.0005458858155666295 -0.013982124700308901 0 -0.00093738588622577516 -0.01336098008637948 0 -0.00067505842774750547 -0.013698454699557706 0 -0.00064152255366332271 -0.013911272751112563 0 -0.00061047009507350918 -0.013992698522722412 0 -0.00057545115014035007 -0.013918661184078937 0 -0.0011616859427848703 -0.012899856586396509 0 -0.00085314269239812168 -0.013386850526457253 0 -0.00049184151394707221 -0.013040394988042119 0 -0.0011616859427848703 -0.012899856586396509 0 -0.00049184151394707221 -0.013040394988042119 0 -0.00070741437904613103 -0.012525521483020051 0 -0.00044795727970043314 -0.013506924214013642 0 -0.00085314269239812168 -0.013386850526457253 0 -0.00049184151394707221 -0.013040394988042119 0 -0.00018190778639726526 -0.013373020490706157 0 -0.00044795727970043314 -0.013506924214013642 0 -0.00049184151394707221 -0.013040394988042119 0 -0.00049184151394707221 -0.013040394988042119 0 -0.00029177478278540888 -0.012673418953877793 0 -0.00070741437904613103 -0.012525521483020051 0 -0.00029177478278540888 -0.012673418953877793 0 -0.00070741437904613103 -0.012525521483020051 0 -0.00026517351281852831 -0.012282687199303165 0 -0.00070741437904613103 -0.012525521483020051 0 -0.0010464622514259746 -0.012236381444439118 0 -0.00061780347595054308 -0.012020426506366066 0 -0.00070741437904613103 -0.012525521483020051 0 -0.00061780347595054308 -0.012020426506366066 0 -0.00026517351281852831 -0.012282687199303165 0 -0.0011616859427848703 -0.012899856586396509 0 -0.0011137658620288021 -0.01253698721614613 0 -0.0014650015777716984 -0.012452819524260582 0 -0.00093738588622577516 -0.01336098008637948 0 -0.00067407139809352629 -0.013300889132859196 0 -0.00064152255366332271 -0.013911272751112563 0 -0.00057545115014035007 -0.013918661184078937 0 -0.00062519778721502892 -0.013824194275422067 0 -0.0011616859427848703 -0.012899856586396509 0 -0.00070741437904613103 -0.012525521483020051 0 -0.0011137658620288021 -0.01253698721614613 0 -0.00070741437904613103 -0.012525521483020051 0 -0.0011137658620288021 -0.01253698721614613 0 -0.0010464622514259746 -0.012236381444439118 0 -0.0011137658620288021 -0.01253698721614613 0 -0.0010464622514259746 -0.012236381444439118 0 -0.0014650015777716984 -0.012452819524260582 0 -6.7386045383702731e-05 -0.013513549796777304 0 -0.00034636407874015545 -0.013510970166368439 0 -0.00037643930042172575 -0.01366290968900653 0 -0.00059270740368239593 -0.012860364055622037 0 -0.00067407139809352629 -0.013300889132859196 0 -0.00049102290568145738 -0.013489754930795593 0 -0.00034636407874015545 -0.013510970166368439 0 -0.00037643930042172575 -0.01366290968900653 0 -6.7386045383702731e-05 -0.013513549796777304 0 -0.00034636407874015545 -0.013510970166368439 0 -0.00035984737280545708 -0.01336183229951537 0 -0.00049102290568145738 -0.013489754930795593 0 -0.00034636407874015545 -0.013510970166368439 0 -0.00035984737280545708 -0.01336183229951537 0 -6.7386045383702731e-05 -0.013513549796777304 0 -0.00035984737280545708 -0.01336183229951537 0 -0.00014197702858748026 -0.013219381504995383 0 -6.7386045383702731e-05 -0.013513549796777304 0 -0.00014197702858748026 -0.013219381504995383 0 0.00010203619502637684 -0.013145055919760715 0 -6.8996224691235942e-05 -0.012984743014570154 0 -0.00014197702858748026 -0.013219381504995383 0 0.00010203619502637684 -0.013145055919760715 0 -6.8996224691235942e-05 -0.012984743014570154 0 -0.00014197702858748026 -0.013219381504995383 0 -0.00032735830635170852 -0.013083636478935123 0 -0.00035984737280545708 -0.01336183229951537 0 -0.00014197702858748026 -0.013219381504995383 0 -0.00032735830635170852 -0.013083636478935123 0 -0.00036066111151238675 -0.013352016196468235 0 -0.00031795026073930667 -0.013086557394581869 0 -0.0004401543571729388 -0.01327300809937961 0 -0.00035984737280545708 -0.01336183229951537 0 -0.00034460030193683093 -0.013196686164110124 0 -0.00042100218403886251 -0.013057847454516295 0 -0.0004401543571729388 -0.01327300809937961 0 -0.00034460030193683093 -0.013196686164110124 0 -0.00016951504223706407 -0.01266142424647816 0 0.00017956775393478859 -0.012608572576981716 0 -0.00061780347595054308 -0.012020426506366066 0 -0.0001925285754469395 -0.011806534948561728 0 -0.00026517351281852831 -0.012282687199303165 0 -6.7386045383702731e-05 -0.013513549796777304 0 0.0002581198040548866 -0.013331193107848492 0 0.00010203619502637684 -0.013145055919760715 0 -0.00059270740368239593 -0.012860364055622037 0 -0.00016951504223706407 -0.01266142424647816 0 0.0002581198040548866 -0.013331193107848492 0 0.00010203619502637684 -0.013145055919760715 0 0.00027798438082466 -0.01297653706791548 0 -6.8996224691235942e-05 -0.012984743014570154 0 0.00010203619502637684 -0.013145055919760715 0 0.00027798438082466 -0.01297653706791548 0 0.00052562480983700576 -0.012874453592181135 0 0.00027798438082466 -0.01297653706791548 0 0.00055978771198679359 -0.013146632124188191 0 0.0002581198040548866 -0.013331193107848492 0 0.00027798438082466 -0.01297653706791548 0 0.00055978771198679359 -0.013146632124188191 0 0.00017956775393478859 -0.012608572576981716 0 0.00019615194839458301 -0.01097012110116366 0 0.00019615194839458301 -0.01097012110116366 0 0.00016335315690195831 -0.011604151043092972 0 0.00070139516359329847 -0.010069417564024338 0 0.00034052865063876622 -0.010252266044849745 0 0.00055259283010671207 -0.010771790455854828 0 -0.0001925285754469395 -0.011806534948561728 0 0.00023490536337935746 -0.011588455499627464 0 0.00013434898306385564 -0.012069059524817034 0 0.00034052865063876622 -0.010252266044849745 0 0.00016871403015565256 -0.011171461980679363 0 0.00055259283010671207 -0.010771790455854828 0 0.00072819691716677305 -0.012843428929304582 0 0.00055978771198679359 -0.013146632124188191 0 0.00082714382253293436 -0.012975706840987445 0 0.0005768660123277806 -0.008598540952866952 0 0.00019615194839458301 -0.01097012110116366 0 0.00016871403015565256 -0.011171461980679363 0 0.00055259283010671207 -0.010771790455854828 0 0.00068000751812084912 -0.011562967630354753 0 -0.0001925285754469395 -0.011806534948561728 0 0.00013434898306385564 -0.012069059524817034 0 -0.00026517351281852831 -0.012282687199303165 0 0.00013434898306385564 -0.012069059524817034 0 -0.00026517351281852831 -0.012282687199303165 0 3.1508165340511475e-05 -0.012541236676303653 0 0.00016871403015565256 -0.011171461980679363 0 2.7875663276456989e-05 -0.012079539668088106 0 0.00068000751812084912 -0.011562967630354753 0 0.00016335315690195831 -0.011604151043092972 0 3.171703323589881e-05 -0.012318784986330936 0 2.7875663276456989e-05 -0.012079539668088106 0 0.00087976654723178791 -0.012441062355293037 0 0.00068000751812084912 -0.011562967630354753 0 0.00043239437285541409 -0.012862440844146261 0 2.7875663276456989e-05 -0.012079539668088106 0 0.00087976654723178791 -0.012441062355293037 0 -5.4812928918358571e-05 -0.01292250008185899 0 3.171703323589881e-05 -0.012318784986330936 0 -0.00029177478278540888 -0.012673418953877793 0 -0.00026517351281852831 -0.012282687199303165 0 3.1508165340511475e-05 -0.012541236676303653 0 -5.3998194677123428e-05 -0.012975447942713042 0 -0.00029177478278540888 -0.012673418953877793 0 3.1508165340511475e-05 -0.012541236676303653 0 0.00035362014509949152 -0.0075396948211262083 0 0.0002335623993628138 -0.0071906824626182019 0 0.00047212156436872432 -0.0072099227155171444 0 0.0016952690619900076 -0.012730698152267326 0 0.00087976654723178791 -0.012441062355293037 0 0.0013853115812442443 -0.011880692128436723 0 0.00028040914228331958 -0.01093316978200301 0 0.00087690782520231415 -0.009415344463036877 0 0.00087976654723178791 -0.012441062355293037 0 0.00068000751812084912 -0.011562967630354753 0 0.0013853115812442443 -0.011880692128436723 0 0.00068000751812084912 -0.011562967630354753 0 0.0013853115812442443 -0.011880692128436723 0 0.0010570932154861628 -0.010985770857069413 0 0.00087690782520231415 -0.009415344463036877 0 0.00054864769359974934 -0.0088889507184171431 0 0.0002335623993628138 -0.0071906824626182019 0 0.00035876651390080369 -0.0069720137484713205 0 0.00012392005391140295 -0.0068731513458573402 0 0.0002335623993628138 -0.0071906824626182019 0 0.00035876651390080369 -0.0069720137484713205 0 0.00047212156436872432 -0.0072099227155171444 0 0.00035876651390080369 -0.0069720137484713205 0 0.00031479160386261082 -0.0067869824032285638 0 0.00012392005391140295 -0.0068731513458573402 0 0.00055259283010671207 -0.010771790455854828 0 0.00068000751812084912 -0.011562967630354753 0 0.0010570932154861628 -0.010985770857069413 0 0.00070139516359329847 -0.010069417564024338 0 0.00055259283010671207 -0.010771790455854828 0 0.0010570932154861628 -0.010985770857069413 0 0.0005768660123277806 -0.008598540952866952 0 0.00054864769359974934 -0.0088889507184171431 0 8.1108880609639608e-06 -0.0065754321800847683 0 0.00012392005391140295 -0.0068731513458573402 0 0.00020987664531014829 -0.0066593079901451852 0 0.00031479160386261082 -0.0067869824032285638 0 0.00012392005391140295 -0.0068731513458573402 0 0.00020987664531014829 -0.0066593079901451852 0 0.00031479160386261082 -0.0067869824032285638 0 0.00020987664531014829 -0.0066593079901451852 0 0.00037410835783312414 -0.006606108577787268 0 0.00052455719610506929 -0.0065770962157050182 0 0.00066676805013594074 -0.0066940923111255927 0 0.00049549347620342701 -0.0067910689306495643 0 0.00052455719610506929 -0.0065770962157050182 0 0.00037410835783312414 -0.006606108577787268 0 0.00049549347620342701 -0.0067910689306495643 0 0.00031479160386261082 -0.0067869824032285638 0 0.00037410835783312414 -0.006606108577787268 0 0.00049549347620342701 -0.0067910689306495643 0 0.00063399309200937702 -0.0064743146250005549 0 0.00052455719610506929 -0.0065770962157050182 0 0.00066676805013594074 -0.0066940923111255927 0 0.00063399309200937702 -0.0064743146250005549 0 0.00066676805013594074 -0.0066940923111255927 0 0.00081819904452823096 -0.0066275607965019835 0 0.00062034341696539969 -0.0040985200690400571 0 0.0012745208820711287 -0.004519346138720591 0 0.00066676805013594074 -0.0066940923111255927 0 0.00080938900317342017 -0.0066416090915579736 0 0.00081324766768024553 -0.0068236534073370016 0 0.00032246105224364925 -0.0063317268899424342 0 0.0012745208820711287 -0.004519346138720591 0 0.00066676805013594074 -0.0066940923111255927 0 0.00065357205651524382 -0.0068448645554737989 0 0.00049549347620342701 -0.0067910689306495643 0 0.00066676805013594074 -0.0066940923111255927 0 0.00065357205651524382 -0.0068448645554737989 0 0.00081324766768024553 -0.0068236534073370016 0 0.00065357205651524382 -0.0068448645554737989 0 0.00074739264255033644 -0.0069260601854684743 0 0.00081324766768024553 -0.0068236534073370016 0 0.00065357205651524382 -0.0068448645554737989 0 0.00074739264255033644 -0.0069260601854684743 0 0.0005642839191650395 -0.006980986851269114 0 0.00035876651390080369 -0.0069720137484713205 0 0.00049549347620342701 -0.0067910689306495643 0 0.0005642839191650395 -0.006980986851269114 0 0.00065357205651524382 -0.0068448645554737989 0 0.00049549347620342701 -0.0067910689306495643 0 0.0005642839191650395 -0.006980986851269114 0 0.00035876651390080369 -0.0069720137484713205 0 0.00031479160386261082 -0.0067869824032285638 0 0.00049549347620342701 -0.0067910689306495643 0 0.000809226659644843 -0.0030714290012399687 0 0.0011262488928087534 -0.0023031579134752669 0 0.00033274066507467376 -0.0026570816762229005 0 0.000809226659644843 -0.0030714290012399687 0 0.0016491385312608117 -0.0027868589757164166 0 0.0011262488928087534 -0.0023031579134752669 0 0.0010627405351776788 -0.0015475670002935218 0 0.0012745208820711287 -0.004519346138720591 0 0.0012745208820711287 -0.004519346138720591 0 0.001304448663819101 -0.0048240179840918314 0 0.00080938900317342017 -0.0066416090915579736 0 0.00081324766768024553 -0.0068236534073370016 0 0.00095020637293823356 -0.0067879568764160512 0 0.00074739264255033644 -0.0069260601854684743 0 0.00081324766768024553 -0.0068236534073370016 0 0.00086362025535019482 -0.0069528371587543117 0 0.00081324766768024553 -0.0068236534073370016 0 0.00094011438951742345 -0.0068895496328133382 0 0.00086362025535019482 -0.0069528371587543117 0 0.00081324766768024553 -0.0068236534073370016 0 0.00095020637293823356 -0.0067879568764160512 0 0.00094011438951742345 -0.0068895496328133382 0 0.0011262488928087534 -0.0023031579134752669 0 0.00059665166130180164 -0.0018142284172656519 0 0.00033274066507467376 -0.0026570816762229005 0 0.00095020637293823356 -0.0067879568764160512 0 0.00094011438951742345 -0.0068895496328133382 0 0.0010555565411638095 -0.0068832069657877703 0 0.001304448663819101 -0.0048240179840918314 0 -5.9415217009614847e-05 -0.0022183356729312317 0 -0.00066764056747194243 -0.0037386884678710301 0 -0.00085682539965601409 -0.0036693658907482824 0 -0.00071609077572198346 -0.0039364065683292595 0 -0.00066764056747194243 -0.0037386884678710301 0 -0.0006388659802060735 -0.0035451823177532048 0 -0.00085682539965601409 -0.0036693658907482824 0 -5.9415217009614847e-05 -0.0022183356729312317 0 -0.00017333214019167999 -0.0053748155242146862 0 0.00094011438951742345 -0.0068895496328133382 0 0.0010555565411638095 -0.0068832069657877703 0 0.00093985265873783026 -0.0069753875868538177 0 0.00093985265873783026 -0.0069753875868538177 0 0.00086362025535019482 -0.0069528371587543117 0 0.00084497139692352923 -0.0070266721248427753 0 -0.00017333214019167999 -0.0053748155242146862 0 0.00041673248839339691 -0.0061678884575482682 0 0.00094011438951742345 -0.0068895496328133382 0 0.00093985265873783026 -0.0069753875868538177 0 0.00086362025535019482 -0.0069528371587543117 0 0.00073359751338827298 -0.0071769171544755145 0 0.00041673248839339691 -0.0061678884575482682 0 0.00086362025535019482 -0.0069528371587543117 0 0.00084079752450447165 -0.0071832782829861237 0 0.00070234704481625604 -0.0070732258820830401 0 -0.00085682539965601409 -0.0036693658907482824 0 -0.0011186487975789121 -0.0038140659681187889 0 -0.00096468602285472264 -0.0039588787304049291 0 -0.0011186487975789121 -0.0038140659681187889 0 -0.00096468602285472264 -0.0039588787304049291 0 -0.0012188493669001133 -0.0041657635958954851 0 0.00041673248839339691 -0.0061678884575482682 0 -0.00028476582959505918 -0.0051148833881643615 0 -0.00085682539965601409 -0.0036693658907482824 0 -0.00096468602285472264 -0.0039588787304049291 0 -0.00071609077572198346 -0.0039364065683292595 0 -0.00096468602285472264 -0.0039588787304049291 0 -0.00071609077572198346 -0.0039364065683292595 0 -0.00094712729777812386 -0.0042757758866581305 0 -0.00079324269211747606 -0.004035227075702307 0 -0.00080238467075535974 -0.0039818559506126323 0 0.00035876651390080369 -0.0069720137484713205 0 0.0005642839191650395 -0.006980986851269114 0 0.00047212156436872432 -0.0072099227155171444 0 0.0005642839191650395 -0.006980986851269114 0 0.00070234704481625604 -0.0070732258820830401 0 0.00047212156436872432 -0.0072099227155171444 0 0.00074739264255033644 -0.0069260601854684743 0 0.0005642839191650395 -0.006980986851269114 0 0.00070234704481625604 -0.0070732258820830401 0 0.00074739264255033644 -0.0069260601854684743 0 0.00086362025535019482 -0.0069528371587543117 0 0.00070234704481625604 -0.0070732258820830401 0 0.0005367742225394856 -0.0064914724347812707 0 0.00027163812107507178 -0.0066555824018636051 0 0.00046120245611486785 -0.0068288593617298124 0 0.00027163812107507178 -0.0066555824018636051 0 1.0654408580688447e-05 -0.0068211404669332393 0 0.00046120245611486785 -0.0068288593617298124 0 0.00070234704481625604 -0.0070732258820830401 0 0.00066090967726393829 -0.0073150061217541629 0 0.00047212156436872432 -0.0072099227155171444 0 0.00084079752450447165 -0.0071832782829861237 0 0.00070234704481625604 -0.0070732258820830401 0 0.00066090967726393829 -0.0073150061217541629 0 0.00041673248839339691 -0.0061678884575482682 0 0.00050136902693958651 -0.0069758498265719109 0 0.00050136902693958651 -0.0069758498265719109 0 0.00042238059064567081 -0.0081220621060410485 0 0.00035362014509949152 -0.0075396948211262083 0 0.00047212156436872432 -0.0072099227155171444 0 0.00047888350180428881 -0.0074537296535193793 0 0.00066090967726393829 -0.0073150061217541629 0 0.00047212156436872432 -0.0072099227155171444 0 0.00047888350180428881 -0.0074537296535193793 0 0.00028040914228331958 -0.01093316978200301 0 -5.0613517145924877e-05 -0.012006994503336218 0 0.00028040914228331958 -0.01093316978200301 0 0.00042238059064567081 -0.0081220621060410485 0 -0.0002273959321418258 -0.0094771252604153051 0 -0.00026873495183650986 -0.010056318531206096 0 0.00019771490817523628 -0.010416061432227921 0 -0.0006832314759893886 -0.0097487621857031154 0 -0.0002273959321418258 -0.0094771252604153051 0 -0.00026873495183650986 -0.010056318531206096 0 -0.0006832314759893886 -0.0097487621857031154 0 -0.00026873495183650986 -0.010056318531206096 0 -0.00035894758866747119 -0.010588926022736049 0 -0.00035894758866747119 -0.010588926022736049 0 0.00019771490817523628 -0.010416061432227921 0 -2.6919089026847232e-05 -0.011441607770255128 0 -5.0613517145924877e-05 -0.012006994503336218 0 0.00017721496899502634 -0.013061264458302002 0 -0.00026873495183650986 -0.010056318531206096 0 -0.00035894758866747119 -0.010588926022736049 0 0.00019771490817523628 -0.010416061432227921 0 0.00019771490817523628 -0.010416061432227921 0 0.00071957847225649553 -0.010665980661960148 0 -2.6919089026847232e-05 -0.011441607770255128 0 -0.0012767311105571196 -0.0087759205873979423 0 -0.0012622032686460593 -0.008759798283213327 0 -0.0012611663635632351 -0.0088387011734474916 0 -0.00025795408268245145 -0.0097604466086312919 0 0.00017721496899502634 -0.013061264458302002 0 0.00019771490817523628 -0.010416061432227921 0 0.00071957847225649553 -0.010665980661960148 0 0.00077503134322039755 -0.010399853669036488 0 -0.00025795408268245145 -0.0097604466086312919 0 7.9335114417069987e-05 -0.0076080668280518954 0 -0.00022019446458881165 -0.0085214812594610161 0 0.00051456711973559964 -0.0077794046323481445 0 4.0304790112560718e-05 -0.0073420981178168665 0 -0.00025795408268245145 -0.0097604466086312919 0 -0.00055992538164150482 -0.0068656161056159133 0 -0.00055992538164150482 -0.0068656161056159133 0 7.9335114417069987e-05 -0.0076080668280518954 0 0.00042238059064567081 -0.0081220621060410485 0 7.9335114417069987e-05 -0.0076080668280518954 0 1.0654408580688447e-05 -0.0068211404669332393 0 0.00038641192181592613 -0.0071656520418391205 0 0.00046120245611486785 -0.0068288593617298124 0 7.9335114417069987e-05 -0.0076080668280518954 0 -0.00028476582959505918 -0.0051148833881643615 0 -0.0002273959321418258 -0.0094771252604153051 0 0.00019771490817523628 -0.010416061432227921 0 0.00077503134322039755 -0.010399853669036488 0 -0.0013106944696497996 -0.0046018877166822212 0 -0.0012188493669001133 -0.0041657635958954851 0 -0.00094712729777812386 -0.0042757758866581305 0 -0.00096468602285472264 -0.0039588787304049291 0 -0.0012188493669001133 -0.0041657635958954851 0 -0.00094712729777812386 -0.0042757758866581305 0 -0.00055992538164150482 -0.0068656161056159133 0 -0.00080238467075535974 -0.0039818559506126323 0 -0.0012605802336940037 -0.0046491915314851315 0 -0.0013106944696497996 -0.0046018877166822212 0 -0.00094712729777812386 -0.0042757758866581305 0 -0.00071609077572198346 -0.0039364065683292595 0 -0.00090245315722932927 -0.0041225642726774574 0 -0.00068821923600417324 -0.0041369480870869701 0 -0.00090245315722932927 -0.0041225642726774574 0 -0.00068821923600417324 -0.0041369480870869701 0 -0.00079578590233962492 -0.004312392698074527 0 -0.00068821923600417324 -0.0041369480870869701 0 -0.00079578590233962492 -0.004312392698074527 0 -0.00055730077428646626 -0.0042832974993584324 0 -0.00079578590233962492 -0.004312392698074527 0 -0.00087471366169816376 -0.004519257754610196 0 -0.00065620686087399221 -0.0044841212317109696 0 -0.00079578590233962492 -0.004312392698074527 0 -0.00065620686087399221 -0.0044841212317109696 0 -0.00055730077428646626 -0.0042832974993584324 0 -0.001089102571361863 -0.0043296350626365228 0 -0.00079578590233962492 -0.004312392698074527 0 -0.00087471366169816376 -0.004519257754610196 0 -0.001089102571361863 -0.0043296350626365228 0 -0.00090245315722932927 -0.0041225642726774574 0 -0.00079578590233962492 -0.004312392698074527 0 -0.0012622032686460593 -0.008759798283213327 0 -0.001207157704847245 -0.0088389357682946614 0 -0.0012611663635632351 -0.0088387011734474916 0 -0.00055992538164150482 -0.0068656161056159133 0 -0.0011784825265481885 -0.0065653369513584544 0 -0.001207157704847245 -0.0088389357682946614 0 -0.0012267829016269171 -0.0089199743568063473 0 -0.0012611663635632351 -0.0088387011734474916 0 -0.00087471366169816376 -0.004519257754610196 0 -0.00065620686087399221 -0.0044841212317109696 0 -0.00066448744023169719 -0.0047157319167616179 0 -0.0011784825265481885 -0.0065653369513584544 0 -0.00077829736057770252 -0.0069787357386605891 0 -0.001207157704847245 -0.0088389357682946614 0 -0.0012136852703355904 -0.0088919346390757843 0 -0.0012033554983997619 -0.0088663202609267234 0 -0.0012136852703355904 -0.0088919346390757843 0 -0.0012033554983997619 -0.0088663202609267234 0 -0.0012121864955021416 -0.0088673670514532055 0 -0.0012136852703355904 -0.0088919346390757843 0 -0.0012267829016269171 -0.0089199743568063473 0 -0.0012139697401215351 -0.0088913372282672255 0 -0.001207157704847245 -0.0088389357682946614 0 -0.0012136852703355904 -0.0088919346390757843 0 -0.0012267829016269171 -0.0089199743568063473 0 -0.001344231873123431 -0.0089094092131758677 0 -0.0012964714416419476 -0.0091018199591649911 0 -0.0014615998707224985 -0.0092650499435914732 0 0.00059833341271557628 -0.013670891714125994 0 0.00036667739006669312 -0.013867746522444822 0 0.00043015247113438497 -0.014076345524666573 0 -0.00034534633854304728 -0.011384453985700637 0 -0.00081896399538599815 -0.012114969833183402 0 -0.0012267829016269171 -0.0089199743568063473 0 -0.001344231873123431 -0.0089094092131758677 0 -0.0012964714416419476 -0.0091018199591649911 0 0.00059833341271557628 -0.013670891714125994 0 0.00036667739006669312 -0.013867746522444822 0 0.00043933998681401892 -0.013588895612911647 0 0.00017820340897461263 -0.013780244127362737 0 0.00036667739006669312 -0.013867746522444822 0 0.00043933998681401892 -0.013588895612911647 0 0.00014498059170873259 -0.013626949635854556 0 0.00017820340897461263 -0.013780244127362737 0 0.00032612538417371365 -0.013642029545705175 0 0.00017820340897461263 -0.013780244127362737 0 0.00038488459164761729 -0.013452335428442321 0 0.00043933998681401892 -0.013588895612911647 0 0.00014498059170873259 -0.013626949635854556 0 0.00027028088896916105 -0.013471239676317377 0 0.00032612538417371365 -0.013642029545705175 0 0.00017721496899502634 -0.013061264458302002 0 0.00039132113857786655 -0.013531288091500794 0 0.00017114747132052779 -0.013846318740844863 0 0.00017721496899502634 -0.013061264458302002 0 -0.00025795408268245145 -0.0097604466086312919 0 -0.00034534633854304728 -0.011384453985700637 0 -0.0012267829016269171 -0.0089199743568063473 0 -0.001344231873123431 -0.0089094092131758677 0 -0.0012611663635632351 -0.0088387011734474916 0 -0.0012767311105571196 -0.0087759205873979423 0 -0.001344231873123431 -0.0089094092131758677 0 -0.0012611663635632351 -0.0088387011734474916 0 0.00083558945366949192 -0.012676862241216377 0 0.00059833341271557628 -0.013670891714125994 0 0.00030568904253917373 -0.013260089391852586 0 0.00059833341271557628 -0.013670891714125994 0 0.00030568904253917373 -0.013260089391852586 0 0.00043933998681401892 -0.013588895612911647 0 -0.0013702710854193998 -0.0018250376199394924 0 -4.9549615392116713e-06 -0.0015535797787812552 0 -0.00018108260228575103 -0.0027642782430092007 0 -4.9549615392116713e-06 -0.0015535797787812552 0 -0.00018108260228575103 -0.0027642782430092007 0 0.00077828076218540985 -0.001869656930844985 0 -0.0013702710854193998 -0.0018250376199394924 0 -4.9549615392116713e-06 -0.0015535797787812552 0 0.00011537235386889525 -0.00025158288740115693 0 -0.00018108260228575103 -0.0027642782430092007 0 0.0011607560651947155 -0.0026233053931060441 0 0.00054209522622181193 -0.0039731140092080569 0 -0.00018108260228575103 -0.0027642782430092007 0 0.00077828076218540985 -0.001869656930844985 0 0.0011607560651947155 -0.0026233053931060441 0 -0.0013702710854193998 -0.0018250376199394924 0 -0.00018108260228575103 -0.0027642782430092007 0 -0.0014689034930865353 -0.0032091053761650109 0 -0.00018108260228575103 -0.0027642782430092007 0 -0.0014689034930865353 -0.0032091053761650109 0 -0.0008065401482886444 -0.0040040877870545178 0 -0.00081370640008346178 -0.0030810504667328135 0 -0.0012477988862346994 -0.0057427734080144318 0 -0.00014496357579985619 -0.0045837161373714569 0 -0.00045742928300561116 -0.0045430190105710403 0 -0.0004487805599582862 -0.0049213322308422035 0 -0.0013702710854193998 -0.0018250376199394924 0 -0.0014689034930865353 -0.0032091053761650109 0 -0.002838931265411836 -0.0034053179052790164 0 -0.00066448744023169719 -0.0047157319167616179 0 -0.00045742928300561116 -0.0045430190105710403 0 -0.0004487805599582862 -0.0049213322308422035 0 -0.0012033554983997619 -0.0088663202609267234 0 -0.0012093694238135754 -0.0088537425900568172 0 -0.0012121864955021416 -0.0088673670514532055 0 -0.00077829736057770252 -0.0069787357386605891 0 -0.0012477988862346994 -0.0057427734080144318 0 -0.00065620686087399221 -0.0044841212317109696 0 -0.00066448744023169719 -0.0047157319167616179 0 -0.00045742928300561116 -0.0045430190105710403 0 -0.00014496357579985619 -0.0045837161373714569 0 -0.00045742928300561116 -0.0045430190105710403 0 -0.00026796305830976459 -0.0042823035580651075 0 -0.00065620686087399221 -0.0044841212317109696 0 -0.00045742928300561116 -0.0045430190105710403 0 -0.00055730077428646626 -0.0042832974993584324 0 -0.00045742928300561116 -0.0045430190105710403 0 -0.00026796305830976459 -0.0042823035580651075 0 -0.00055730077428646626 -0.0042832974993584324 0 -0.00026796305830976459 -0.0042823035580651075 0 -0.00055730077428646626 -0.0042832974993584324 0 -0.00045986791219435844 -0.004062826157865693 0 -0.00068821923600417324 -0.0041369480870869701 0 -0.00055730077428646626 -0.0042832974993584324 0 -0.00045986791219435844 -0.004062826157865693 0 -0.00071609077572198346 -0.0039364065683292595 0 -0.00068821923600417324 -0.0041369480870869701 0 -0.00045986791219435844 -0.004062826157865693 0 -0.00026796305830976459 -0.0042823035580651075 0 -0.00045986791219435844 -0.004062826157865693 0 -0.00012010485640011434 -0.0040161229175221906 0 -6.818987966623587e-05 -0.001403501606117277 0 0.00021753526042547655 -0.0014388510464114705 0 -0.00026796305830976459 -0.0042823035580651075 0 -0.00012010485640011434 -0.0040161229175221906 0 0.00015336896874589725 -0.0042406845940352843 0 -0.00014496357579985619 -0.0045837161373714569 0 -0.00026796305830976459 -0.0042823035580651075 0 0.00015336896874589725 -0.0042406845940352843 0 -0.00081370640008346178 -0.0030810504667328135 0 0.00021753526042547655 -0.0014388510464114705 0 -4.9549615392116713e-06 -0.0015535797787812552 0 0.00011537235386889525 -0.00025158288740115693 0 0.0011552050930735826 -0.0011607760920254921 0 0.00045935196385727631 0.00062543306136392783 0 0.0004514423111826333 0.0011698510242887804 0 0.0010921996372059539 0.0010053461752180337 0 -0.00020857634096676001 0.0014765909852766561 0 0.00045935196385727631 0.00062543306136392783 0 0.0004514423111826333 0.0011698510242887804 0 0.00021753526042547655 -0.0014388510464114705 0 0.0012709400714441251 0.0012526607501996113 0 -0.00020857634096676001 0.0014765909852766561 0 0.0004514423111826333 0.0011698510242887804 0 0.00051684013564286474 0.0016934194803042905 0 0.0004514423111826333 0.0011698510242887804 0 0.00051684013564286474 0.0016934194803042905 0 0.0010921996372059539 0.0010053461752180337 0 -0.00020857634096676001 0.0014765909852766561 0 0.00051684013564286474 0.0016934194803042905 0 0.00014228027279665427 0.0019377247606676934 0 0.00051684013564286474 0.0016934194803042905 0 0.0005057264962268597 0.0021134494533359624 0 0.00089022320839446075 0.0022170384687640529 0 0.0005057264962268597 0.0021134494533359624 0 0.00014228027279665427 0.0019377247606676934 0 0.00032216228371435314 0.0023411991516909788 0 0.00051684013564286474 0.0016934194803042905 0 0.0005057264962268597 0.0021134494533359624 0 0.00014228027279665427 0.0019377247606676934 0 -0.00020857634096676001 0.0014765909852766561 0 0.00014228027279665427 0.0019377247606676934 0 -0.00066401148167129448 0.0020174592770995847 0 0.00014228027279665427 0.0019377247606676934 0 6.1022696776977112e-05 0.0022990280880994963 0 -0.00066401148167129448 0.0020174592770995847 0 6.1022696776977112e-05 0.0022990280880994963 0 0.00016006138090931244 0.0024148233157544347 0 -2.6862393728656162e-05 0.0024449289918057403 0 9.3369041639951368e-05 0.0022635427865260321 0 -0.00037495820574210754 0.0026001214131009696 0 6.1022696776977112e-05 0.0022990280880994963 0 0.00016006138090931244 0.0024148233157544347 0 0.00032216228371435314 0.0023411991516909788 0 0.00016006138090931244 0.0024148233157544347 0 0.00032216228371435314 0.0023411991516909788 0 0.00020764496960430623 0.0025196741347169108 0 0.00032216228371435314 0.0023411991516909788 0 0.00066173604836138533 0.0023742972391677334 0 0.00082412178428132525 0.0027353513944458913 0 0.0005057264962268597 0.0021134494533359624 0 0.00032216228371435314 0.0023411991516909788 0 0.00066173604836138533 0.0023742972391677334 0 0.00014228027279665427 0.0019377247606676934 0 6.1022696776977112e-05 0.0022990280880994963 0 0.00032216228371435314 0.0023411991516909788 0 -0.00071609077572198346 -0.0039364065683292595 0 -0.00045986791219435844 -0.004062826157865693 0 -0.00037905295982282718 -0.0037929612768885959 0 -0.00066764056747194243 -0.0037386884678710301 0 -0.00071609077572198346 -0.0039364065683292595 0 -0.00037905295982282718 -0.0037929612768885959 0 -0.00045986791219435844 -0.004062826157865693 0 -0.00012010485640011434 -0.0040161229175221906 0 -0.00037905295982282718 -0.0037929612768885959 0 -6.818987966623587e-05 -0.001403501606117277 0 -0.00075606970459362981 -0.00057537240507945836 0 6.1022696776977112e-05 0.0022990280880994963 0 -0.00066401148167129448 0.0020174592770995847 0 -0.00029456576260489346 0.0025164947810084591 0 -0.00066401148167129448 0.0020174592770995847 0 -0.00066898389292891598 0.0024017392656883389 0 -0.00029456576260489346 0.0025164947810084591 0 -0.00066764056747194243 -0.0037386884678710301 0 -0.0006388659802060735 -0.0035451823177532048 0 -0.00037905295982282718 -0.0037929612768885959 0 -5.9415217009614847e-05 -0.0022183356729312317 0 -0.00075606970459362981 -0.00057537240507945836 0 -0.0010857781023274687 0.0024148554820117864 0 -0.00066401148167129448 0.0020174592770995847 0 -0.00066898389292891598 0.0024017392656883389 0 -0.0010857781023274687 0.0024148554820117864 0 -0.00066898389292891598 0.0024017392656883389 0 -0.00061517894911232928 0.0027288404355478493 0 -5.9415217009614847e-05 -0.0022183356729312317 0 -7.4983260259795984e-05 0.00053646992979097645 0 0.00059665166130180164 -0.0018142284172656519 0 -0.00014394562971807378 -0.0022353555783488068 0 0.00033274066507467376 -0.0026570816762229005 0 -0.0001480530373431846 0.0025411353723896403 0 -2.6862393728656162e-05 0.0024449289918057403 0 6.6771390736331923e-05 0.0026672554342239922 0 -0.00066898389292891598 0.0024017392656883389 0 -0.00061517894911232928 0.0027288404355478493 0 -0.00029456576260489346 0.0025164947810084591 0 -7.4983260259795984e-05 0.00053646992979097645 0 -0.00037495820574210754 0.0026001214131009696 0 0.00030297689592563576 -0.00089439302086567936 0 0.00023967275479577652 -0.00099071974818742904 0 0.00041125818491573535 -0.0010399038541828137 0 -7.4983260259795984e-05 0.00053646992979097645 0 0.00029665193142653539 0.00085868098292739736 0 0.0002350504539031406 -0.00110216723335254 0 0.00023967275479577652 -0.00099071974818742904 0 0.00041125818491573535 -0.0010399038541828137 0 0.00018522606911302176 -0.00084943197076816311 0 0.00023967275479577652 -0.00099071974818742904 0 0.000131295797086617 -0.0010114916350213584 0 -7.4983260259795984e-05 0.00053646992979097645 0 0.00041975410935081751 -0.0019434843665111976 0 0.0002350504539031406 -0.00110216723335254 0 0.00023967275479577652 -0.00099071974818742904 0 0.000131295797086617 -0.0010114916350213584 0 0.0010627405351776788 -0.0015475670002935218 0 0.00041975410935081751 -0.0019434843665111976 0 0.00032216228371435314 0.0023411991516909788 0 0.00075166063468378288 0.003279322994983137 0 0.00082412178428132525 0.0027353513944458913 0 0.00032216228371435314 0.0023411991516909788 0 0.00020764496960430623 0.0025196741347169108 0 0.00033118922106891498 0.0026211831733658807 0 0.00031547907562493163 0.0022871505807275237 0 0.00054587978358440351 0.0031206955634116235 0 0.00020764496960430623 0.0025196741347169108 0 0.00021997815263128035 0.0026417490889448585 0 0.00033118922106891498 0.0026211831733658807 0 0.00016006138090931244 0.0024148233157544347 0 -2.6862393728656162e-05 0.0024449289918057403 0 0.00020764496960430623 0.0025196741347169108 0 -2.6862393728656162e-05 0.0024449289918057403 0 0.00020764496960430623 0.0025196741347169108 0 6.6771390736331923e-05 0.0026672554342239922 0 0.00020764496960430623 0.0025196741347169108 0 6.6771390736331923e-05 0.0026672554342239922 0 0.00021997815263128035 0.0026417490889448585 0 0.00087028476921144826 -0.00084097351437827659 0 0.00045898493106989713 -0.00085820934834656304 0 0.00041125818491573535 -0.0010399038541828137 0 0.00045898493106989713 -0.00085820934834656304 0 0.00030297689592563576 -0.00089439302086567936 0 0.00041125818491573535 -0.0010399038541828137 0 0.00049123232238108328 0.00082034146325779078 0 0.00029665193142653539 0.00085868098292739736 0 0.00026345139485294271 0.0027569935412632479 0 0.00021997815263128035 0.0026417490889448585 0 0.00033118922106891498 0.0026211831733658807 0 0.00026345139485294271 0.0027569935412632479 0 6.6771390736331923e-05 0.0026672554342239922 0 0.00021997815263128035 0.0026417490889448585 0 0.00089732077372488674 0.0025690651790769383 0 0.00054587978358440351 0.0031206955634116235 0 0.00075166063468378288 0.003279322994983137 0 0.0012582152995453965 0.0030777342255053322 0 0.0011964906729128623 0.0035124036033735927 0 0.0010912469727292129 0.003953160445271082 0 0.00075166063468378288 0.003279322994983137 0 0.0011964906729128623 0.0035124036033735927 0 0.00075166063468378288 0.003279322994983137 0 0.0012582152995453965 0.0030777342255053322 0 0.00082412178428132525 0.0027353513944458913 0 0.0012582152995453965 0.0030777342255053322 0 0.00082412178428132525 0.0027353513944458913 0 0.001342012416651389 0.0025418731960004507 0 0.0012582152995453965 0.0030777342255053322 0 0.0017216933139315442 0.0029151741528823712 0 0.001342012416651389 0.0025418731960004507 0 0.0012582152995453965 0.0030777342255053322 0 0.0016232272102229166 0.0034479432232652689 0 0.0017216933139315442 0.0029151741528823712 0 0.0013195864403155342 0.0037994438632672069 0 0.0011964906729128623 0.0035124036033735927 0 0.0016232272102229166 0.0034479432232652689 0 0.0012582152995453965 0.0030777342255053322 0 0.0011964906729128623 0.0035124036033735927 0 0.0016232272102229166 0.0034479432232652689 0 0.0016232272102229166 0.0034479432232652689 0 0.0020553029152167797 0.003500218868409359 0 0.0019751852843087033 0.0031759983184090962 0 0.0018555247865477797 0.0037667525145081249 0 0.0016232272102229166 0.0034479432232652689 0 0.0020553029152167797 0.003500218868409359 0 0.0020553029152167797 0.003500218868409359 0 0.0022522024888499748 0.0031980820155054247 0 0.0024826407366062837 0.0035611239213100081 0 0.0021710187225012375 0.0038089176061812443 0 0.0020553029152167797 0.003500218868409359 0 0.0024826407366062837 0.0035611239213100081 0 0.0020553029152167797 0.003500218868409359 0 0.0022522024888499748 0.0031980820155054247 0 0.0019751852843087033 0.0031759983184090962 0 0.0019751852843087033 0.0031759983184090962 0 0.0017216933139315442 0.0029151741528823712 0 0.0021993840983624223 0.0028360831572867289 0 0.0022522024888499748 0.0031980820155054247 0 0.0019751852843087033 0.0031759983184090962 0 0.0021993840983624223 0.0028360831572867289 0 0.0016232272102229166 0.0034479432232652689 0 0.0019751852843087033 0.0031759983184090962 0 0.0017216933139315442 0.0029151741528823712 0 0.0017216933139315442 0.0029151741528823712 0 0.0017363104206120175 0.002509853303977965 0 0.001342012416651389 0.0025418731960004507 0 0.0017216933139315442 0.0029151741528823712 0 0.0017363104206120175 0.002509853303977965 0 0.0021993840983624223 0.0028360831572867289 0 0.0017363104206120175 0.002509853303977965 0 0.0021993840983624223 0.0028360831572867289 0 0.0022811099706331402 0.0024098930021416057 0 0.0022811099706331402 0.0024098930021416057 0 0.0019384766360198685 0.0022308073792668944 0 0.002178468652451815 0.0020491974732091767 0 0.0017363104206120175 0.002509853303977965 0 0.0022811099706331402 0.0024098930021416057 0 0.0019384766360198685 0.0022308073792668944 0 0.0017363104206120175 0.002509853303977965 0 0.0019384766360198685 0.0022308073792668944 0 0.0017169989913922012 0.0020288603010432697 0 0.0012930659638647226 0.002103431322473627 0 0.00089022320839446075 0.0022170384687640529 0 0.001342012416651389 0.0025418731960004507 0 0.0017363104206120175 0.002509853303977965 0 0.0012930659638647226 0.002103431322473627 0 0.0017169989913922012 0.0020288603010432697 0 0.00051684013564286474 0.0016934194803042905 0 0.0012930659638647226 0.002103431322473627 0 0.00089022320839446075 0.0022170384687640529 0 0.00089022320839446075 0.0022170384687640529 0 0.00066173604836138533 0.0023742972391677334 0 0.00082412178428132525 0.0027353513944458913 0 0.00089022320839446075 0.0022170384687640529 0 0.00082412178428132525 0.0027353513944458913 0 0.001342012416651389 0.0025418731960004507 0 0.0005057264962268597 0.0021134494533359624 0 0.00089022320839446075 0.0022170384687640529 0 0.00066173604836138533 0.0023742972391677334 0 0.0017363104206120175 0.002509853303977965 0 0.0012930659638647226 0.002103431322473627 0 0.001342012416651389 0.0025418731960004507 0 0.00367059151485576 0.0032465802572953111 0 0.0033443779238958313 0.0032284696101051486 0 0.0034507201789414073 0.0028249342322949553 0 0.0033443779238958313 0.0032284696101051486 0 0.0035327700852854221 0.0035687947188668347 0 0.003189713281109932 0.003600131792911744 0 0.00367059151485576 0.0032465802572953111 0 0.0033443779238958313 0.0032284696101051486 0 0.0035327700852854221 0.0035687947188668347 0 0.0033443779238958313 0.0032284696101051486 0 0.003189713281109932 0.003600131792911744 0 0.0029834644403506634 0.0032521301589262292 0 0.003189713281109932 0.003600131792911744 0 0.0029834644403506634 0.0032521301589262292 0 0.002904695486014301 0.0036264315550182231 0 0.0029834644403506634 0.0032521301589262292 0 0.0028560903673586838 0.0029343785839377663 0 0.0031373958721497663 0.0029207979359419764 0 0.0033443779238958313 0.0032284696101051486 0 0.0029834644403506634 0.0032521301589262292 0 0.0031373958721497663 0.0029207979359419764 0 0.0029834644403506634 0.0032521301589262292 0 0.0027173834919449131 0.0033982062152904911 0 0.0025948008823292318 0.0031240805566004372 0 0.0029834644403506634 0.0032521301589262292 0 0.0025948008823292318 0.0031240805566004372 0 0.0028560903673586838 0.0029343785839377663 0 0.0027173834919449131 0.0033982062152904911 0 0.002904695486014301 0.0036264315550182231 0 0.0024826407366062837 0.0035611239213100081 0 0.0029834644403506634 0.0032521301589262292 0 0.0027173834919449131 0.0033982062152904911 0 0.002904695486014301 0.0036264315550182231 0 0.0022522024888499748 0.0031980820155054247 0 0.0024826407366062837 0.0035611239213100081 0 0.0025948008823292318 0.0031240805566004372 0 0.0027173834919449131 0.0033982062152904911 0 0.0024826407366062837 0.0035611239213100081 0 0.0025948008823292318 0.0031240805566004372 0 0.0022522024888499748 0.0031980820155054247 0 0.0021993840983624223 0.0028360831572867289 0 0.0025948008823292318 0.0031240805566004372 0 0.0021993840983624223 0.0028360831572867289 0 0.0025948008823292318 0.0031240805566004372 0 0.0026057801713619691 0.0027266169446718549 0 0.0021993840983624223 0.0028360831572867289 0 0.0022811099706331402 0.0024098930021416057 0 0.0026057801713619691 0.0027266169446718549 0 0.0022811099706331402 0.0024098930021416057 0 0.0026057801713619691 0.0027266169446718549 0 0.0026985325719676503 0.0024237963110070775 0 0.0022811099706331402 0.0024098930021416057 0 0.0026985325719676503 0.0024237963110070775 0 0.0025315480977841274 0.0021355559487355475 0 0.0026057801713619691 0.0027266169446718549 0 0.0026985325719676503 0.0024237963110070775 0 0.0029424958731222401 0.0026572426321073679 0 0.0026985325719676503 0.0024237963110070775 0 0.0029424958731222401 0.0026572426321073679 0 0.0030800710719129328 0.0023719067717481094 0 0.0026057801713619691 0.0027266169446718549 0 0.0029424958731222401 0.0026572426321073679 0 0.0028560903673586838 0.0029343785839377663 0 0.0025948008823292318 0.0031240805566004372 0 0.0026057801713619691 0.0027266169446718549 0 0.0028560903673586838 0.0029343785839377663 0 0.0029424958731222401 0.0026572426321073679 0 0.0028560903673586838 0.0029343785839377663 0 0.0031373958721497663 0.0029207979359419764 0 0.0029424958731222401 0.0026572426321073679 0 0.0031373958721497663 0.0029207979359419764 0 0.0031979931915342764 0.0026459349591870704 0 0.0030800710719129328 0.0023719067717481094 0 0.0031979931915342764 0.0026459349591870704 0 0.0033692279194048437 0.0024645301559912108 0 0.0029424958731222401 0.0026572426321073679 0 0.0030800710719129328 0.0023719067717481094 0 0.0031979931915342764 0.0026459349591870704 0 0.0036010382776054026 0.0025600881077895341 0 0.0033692279194048437 0.0024645301559912108 0 0.0034507201789414073 0.0028249342322949553 0 0.0031979931915342764 0.0026459349591870704 0 0.0033692279194048437 0.0024645301559912108 0 0.0034507201789414073 0.0028249342322949553 0 0.0036010382776054026 0.0025600881077895341 0 0.0035562304120368223 0.0023425545412836873 0 0.0033692279194048437 0.0024645301559912108 0 0.0033443779238958313 0.0032284696101051486 0 0.0031373958721497663 0.0029207979359419764 0 0.0034507201789414073 0.0028249342322949553 0 0.0031373958721497663 0.0029207979359419764 0 0.0031979931915342764 0.0026459349591870704 0 0.0034507201789414073 0.0028249342322949553 0 0.0036434549860651566 0.0021722395160084884 0 0.0033908597880259036 0.0020280816833883491 0 0.00334534514638158 0.0021874033614532702 0 0.0036434549860651566 0.0021722395160084884 0 0.0033908597880259036 0.0020280816833883491 0 0.0034518358928956926 0.0018767181504505469 0 0.0032792653300472816 0.001874750230727068 0 0.0033908597880259036 0.0020280816833883491 0 0.0034518358928956926 0.0018767181504505469 0 0.0032792653300472816 0.001874750230727068 0 0.0033908597880259036 0.0020280816833883491 0 0.0032437641335169346 0.0020190612703493249 0 0.0033908597880259036 0.0020280816833883491 0 0.00334534514638158 0.0021874033614532702 0 0.0032437641335169346 0.0020190612703493249 0 0.0030800710719129328 0.0023719067717481094 0 0.0033692279194048437 0.0024645301559912108 0 0.00334534514638158 0.0021874033614532702 0 0.0035562304120368223 0.0023425545412836873 0 0.0033692279194048437 0.0024645301559912108 0 0.00334534514638158 0.0021874033614532702 0 0.0030800710719129328 0.0023719067717481094 0 0.003092601300625596 0.0020931236969162969 0 0.0028425489630295197 0.0021443142375078853 0 0.0030800710719129328 0.0023719067717481094 0 0.00334534514638158 0.0021874033614532702 0 0.003092601300625596 0.0020931236969162969 0 0.003092601300625596 0.0020931236969162969 0 0.0031025158218986994 0.0019173393385388743 0 0.002911512802126856 0.0019400932919927639 0 0.003092601300625596 0.0020931236969162969 0 0.0032437641335169346 0.0020190612703493249 0 0.0031025158218986994 0.0019173393385388743 0 0.00334534514638158 0.0021874033614532702 0 0.003092601300625596 0.0020931236969162969 0 0.0032437641335169346 0.0020190612703493249 0 0.0032792653300472816 0.001874750230727068 0 0.0032437641335169346 0.0020190612703493249 0 0.0031025158218986994 0.0019173393385388743 0 0.0032792653300472816 0.001874750230727068 0 0.0031025158218986994 0.0019173393385388743 0 0.0031504627327437196 0.0017895842436115338 0 0.0031025158218986994 0.0019173393385388743 0 0.0029515921913699367 0.0017831695751626059 0 0.0031504627327437196 0.0017895842436115338 0 0.0031025158218986994 0.0019173393385388743 0 0.002911512802126856 0.0019400932919927639 0 0.0029515921913699367 0.0017831695751626059 0 0.0027971251258110973 0.0018254332324240308 0 0.0026319653393299496 0.0016578679874206859 0 0.0029515921913699367 0.0017831695751626059 0 0.0027971251258110973 0.0018254332324240308 0 0.002911512802126856 0.0019400932919927639 0 0.0029515921913699367 0.0017831695751626059 0 0.0027971251258110973 0.0018254332324240308 0 0.0026905149060115902 0.0019220425380223694 0 0.0026319653393299496 0.0016578679874206859 0 0.0027971251258110973 0.0018254332324240308 0 0.0026905149060115902 0.0019220425380223694 0 0.002911512802126856 0.0019400932919927639 0 0.0026905149060115902 0.0019220425380223694 0 0.002911512802126856 0.0019400932919927639 0 0.0028425489630295197 0.0021443142375078853 0 0.0026985325719676503 0.0024237963110070775 0 0.0030800710719129328 0.0023719067717481094 0 0.0028425489630295197 0.0021443142375078853 0 0.0026985325719676503 0.0024237963110070775 0 0.0028425489630295197 0.0021443142375078853 0 0.0025315480977841274 0.0021355559487355475 0 0.003092601300625596 0.0020931236969162969 0 0.002911512802126856 0.0019400932919927639 0 0.0028425489630295197 0.0021443142375078853 0 0.0026905149060115902 0.0019220425380223694 0 0.0028425489630295197 0.0021443142375078853 0 0.0025315480977841274 0.0021355559487355475 0 0.0026905149060115902 0.0019220425380223694 0 0.0025315480977841274 0.0021355559487355475 0 0.0024163602408745514 0.0018902024992151238 0 0.0025315480977841274 0.0021355559487355475 0 0.0024163602408745514 0.0018902024992151238 0 0.002178468652451815 0.0020491974732091767 0 0.0024163602408745514 0.0018902024992151238 0 0.0026319653393299496 0.0016578679874206859 0 0.002031469867004294 0.0017001308879736761 0 0.0026905149060115902 0.0019220425380223694 0 0.0024163602408745514 0.0018902024992151238 0 0.0026319653393299496 0.0016578679874206859 0 0.0057161343698755368 -0.0014015643285505387 0 0.0054145372186533399 -0.0021019981680358807 0 0.0044902277906681111 -0.0015651358894475753 0 0.0057161343698755368 -0.0014015643285505387 0 0.0054145372186533399 -0.0021019981680358807 0 0.0060533009722368832 -0.0018697068689616442 0 0.0054145372186533399 -0.0021019981680358807 0 0.005261004467813103 -0.0028612821885248686 0 0.0046023442020135287 -0.0023561998660540325 0 0.005261004467813103 -0.0028612821885248686 0 0.0059369744170618601 -0.0026581524880582401 0 0.0057218887458634678 -0.0039218295973398078 0 0.0054145372186533399 -0.0021019981680358807 0 0.005261004467813103 -0.0028612821885248686 0 0.0059369744170618601 -0.0026581524880582401 0 0.0054145372186533399 -0.0021019981680358807 0 0.0059369744170618601 -0.0026581524880582401 0 0.0060533009722368832 -0.0018697068689616442 0 0.0059369744170618601 -0.0026581524880582401 0 0.0064433315328395703 -0.0025585013683996076 0 0.0060533009722368832 -0.0018697068689616442 0 0.0059749397667815873 -0.0018528336167842854 0 0.0072185248887360245 -0.0023961023355859967 0 0.0064433315328395703 -0.0025585013683996076 0 0.0060533009722368832 -0.0018697068689616442 0 0.007058779026247978 -0.0024295929345909567 0 0.0059369744170618601 -0.0026581524880582401 0 0.0064433315328395703 -0.0025585013683996076 0 0.0061644127305303057 -0.0030869916489330027 0 0.0057161343698755368 -0.0014015643285505387 0 0.0060533009722368832 -0.0018697068689616442 0 0.0066871312836427861 -0.0019954493240123407 0 0.0026319653393299496 0.0016578679874206859 0 0.0029515921913699367 0.0017831695751626059 0 0.0031491862951399108 0.0016303372692994702 0 0.004133179811638573 0.00013228259041217125 0 0.0049969304457344339 -9.7021804536721307e-05 0 0.0060533009722368832 -0.0018697068689616442 0 0.0066871312836427861 -0.0019954493240123407 0 0.0067405861614379305 -0.0021473072234598134 0 0.0029515921913699367 0.0017831695751626059 0 0.0031504627327437196 0.0017895842436115338 0 0.0031491862951399108 0.0016303372692994702 0 0.0032792653300472816 0.001874750230727068 0 0.0031504627327437196 0.0017895842436115338 0 0.0032663322062026121 0.0017503517343778429 0 0.0031504627327437196 0.0017895842436115338 0 0.0032663322062026121 0.0017503517343778429 0 0.0031491862951399108 0.0016303372692994702 0 0.0032663322062026121 0.0017503517343778429 0 0.0031491862951399108 0.0016303372692994702 0 0.0033865893480086321 0.001696844020562254 0 0.0064433315328395703 -0.0025585013683996076 0 0.0068540530726102326 -0.0027637831353121444 0 0.0065924976429010225 -0.0031398374390221506 0 0.0064433315328395703 -0.0025585013683996076 0 0.0068540530726102326 -0.0027637831353121444 0 0.007058779026247978 -0.0024295929345909567 0 0.0068540530726102326 -0.0027637831353121444 0 0.007058779026247978 -0.0024295929345909567 0 0.0073067757740608551 -0.0029178752892060045 0 0.0071220578936404605 -0.0022494670100681458 0 0.0066871312836427861 -0.0019954493240123407 0 0.0067405861614379305 -0.0021473072234598134 0 0.0071220578936404605 -0.0022494670100681458 0 0.0067405861614379305 -0.0021473072234598134 0 0.0070672753935981424 -0.0023066941378050718 0 0.0035629904774934825 0.0016126952648134907 0 0.0031491862951399108 0.0016303372692994702 0 0.0033865893480086321 0.001696844020562254 0 0.007058779026247978 -0.0024295929345909567 0 0.0073067757740608551 -0.0029178752892060045 0 0.0079156738160111179 -0.0028273938685496221 0 0.0072185248887360245 -0.0023961023355859967 0 0.0058249130932364794 -0.0021657209907707739 0 0.0048039674565050709 -0.00093078458604647603 0 0.0049969304457344339 -9.7021804536721307e-05 0 0.0035629904774934825 0.0016126952648134907 0 0.0034936690732234998 0.0016988919030424803 0 0.0033865893480086321 0.001696844020562254 0 0.0035446919861129114 0.0017470610718169591 0 0.0034936690732234998 0.0016988919030424803 0 0.0034676419331142135 0.0017780255008830227 0 0.0034676419331142135 0.0017780255008830227 0 0.0033865893480086321 0.001696844020562254 0 0.0033673429506258182 0.0017822420236947305 0 0.0034936690732234998 0.0016988919030424803 0 0.0034676419331142135 0.0017780255008830227 0 0.0033865893480086321 0.001696844020562254 0 0.0032663322062026121 0.0017503517343778429 0 0.0033865893480086321 0.001696844020562254 0 0.0033673429506258182 0.0017822420236947305 0 0.0032792653300472816 0.001874750230727068 0 0.0033673429506258182 0.0017822420236947305 0 0.0034518358928956926 0.0018767181504505469 0 0.0032792653300472816 0.001874750230727068 0 0.0032663322062026121 0.0017503517343778429 0 0.0033673429506258182 0.0017822420236947305 0 0.0034676419331142135 0.0017780255008830227 0 0.0033673429506258182 0.0017822420236947305 0 0.0034518358928956926 0.0018767181504505469 0 0.0021036251663066551 -0.00055963401407830063 0 0.002147985264897085 0.00062889710960471648 0 0.002896193402694799 -0.00064883059747771138 0 0.0021036251663066551 -0.00055963401407830063 0 0.0015705915179732904 5.5009694426509834e-05 0 0.002147985264897085 0.00062889710960471648 0 0.0021036251663066551 -0.00055963401407830063 0 0.002896193402694799 -0.00064883059747771138 0 0.0026755901576804688 -0.001494139886322794 0 0.0021036251663066551 -0.00055963401407830063 0 0.0015407541279597757 -0.00063405047770876224 0 0.0017662424419440628 -0.0012364142671989326 0 0.0021036251663066551 -0.00055963401407830063 0 0.0015407541279597757 -0.00063405047770876224 0 0.0015705915179732904 5.5009694426509834e-05 0 0.0015407541279597757 -0.00063405047770876224 0 0.0010147787745937802 -0.00011372380204106892 0 0.0011552050930735826 -0.0011607760920254921 0 -1.7222049833137961e-05 -7.8333041051838426e-05 0 0.0010147787745937802 -0.00011372380204106892 0 0.0011552050930735826 -0.0011607760920254921 0 0.00021753526042547655 -0.0014388510464114705 0 0.00083763566696093037 -0.0007839541975397027 0 -1.7222049833137961e-05 -7.8333041051838426e-05 0 0.0010147787745937802 -0.00011372380204106892 0 0.0010921996372059539 0.0010053461752180337 0 0.0015407541279597757 -0.00063405047770876224 0 0.0010147787745937802 -0.00011372380204106892 0 0.0015705915179732904 5.5009694426509834e-05 0 0.0015705915179732904 5.5009694426509834e-05 0 0.0010921996372059539 0.0010053461752180337 0 0.002147985264897085 0.00062889710960471648 0 0.00054655996640958621 0.001684485767431539 0 0.0017140734070631655 0.0011954930182642904 0 0.00051684013564286474 0.0016934194803042905 0 0.0010921996372059539 0.0010053461752180337 0 0.002147985264897085 0.00062889710960471648 0 0.00051684013564286474 0.0016934194803042905 0 0.0012930659638647226 0.002103431322473627 0 0.0013500168604141346 0.0017324480424139757 0 0.0010147787745937802 -0.00011372380204106892 0 0.0015705915179732904 5.5009694426509834e-05 0 0.0010921996372059539 0.0010053461752180337 0 0.0012930659638647226 0.002103431322473627 0 0.0013500168604141346 0.0017324480424139757 0 0.0017169989913922012 0.0020288603010432697 0 0.0019384766360198685 0.0022308073792668944 0 0.0017169989913922012 0.0020288603010432697 0 0.002178468652451815 0.0020491974732091767 0 0.0017169989913922012 0.0020288603010432697 0 0.002178468652451815 0.0020491974732091767 0 0.002031469867004294 0.0017001308879736761 0 0.0013500168604141346 0.0017324480424139757 0 0.0017169989913922012 0.0020288603010432697 0 0.002031469867004294 0.0017001308879736761 0 0.0022811099706331402 0.0024098930021416057 0 0.0025315480977841274 0.0021355559487355475 0 0.002178468652451815 0.0020491974732091767 0 0.0024163602408745514 0.0018902024992151238 0 0.002178468652451815 0.0020491974732091767 0 0.002031469867004294 0.0017001308879736761 0 0.0057161343698755368 -0.0014015643285505387 0 0.0040192565503623257 -0.00040480134567849987 0 0.0044902277906681111 -0.0015651358894475753 0 0.004133179811638573 0.00013228259041217125 0 0.0030129857600207834 0.00065179538186089614 0 0.0040192565503623257 -0.00040480134567849987 0 0.003510116858189684 -0.0011907048340242116 0 0.0044902277906681111 -0.0015651358894475753 0 0.0017140734070631655 0.0011954930182642904 0 0.0030129857600207834 0.00065179538186089614 0 0.002147985264897085 0.00062889710960471648 0 0.0040192565503623257 -0.00040480134567849987 0 0.002896193402694799 -0.00064883059747771138 0 0.0040192565503623257 -0.00040480134567849987 0 0.002896193402694799 -0.00064883059747771138 0 0.003510116858189684 -0.0011907048340242116 0 0.002896193402694799 -0.00064883059747771138 0 0.003510116858189684 -0.0011907048340242116 0 0.0026755901576804688 -0.001494139886322794 0 0.003510116858189684 -0.0011907048340242116 0 0.0036443716834201464 -0.0019414788241370151 0 0.0026755901576804688 -0.001494139886322794 0 0.003510116858189684 -0.0011907048340242116 0 0.0036443716834201464 -0.0019414788241370151 0 0.0044902277906681111 -0.0015651358894475753 0 0.0036443716834201464 -0.0019414788241370151 0 0.0028384906851620872 -0.002593374546368534 0 0.0026755901576804688 -0.001494139886322794 0 0.0036443716834201464 -0.0019414788241370151 0 0.0044902277906681111 -0.0015651358894475753 0 0.0046023442020135287 -0.0023561998660540325 0 0.0054145372186533399 -0.0021019981680358807 0 0.0044902277906681111 -0.0015651358894475753 0 0.0046023442020135287 -0.0023561998660540325 0 0.0036443716834201464 -0.0019414788241370151 0 0.0046023442020135287 -0.0023561998660540325 0 0.0038596534229795461 -0.0027088696907661145 0 0.0038596534229795461 -0.0027088696907661145 0 0.0038394475341422814 -0.0035220029103655158 0 0.0046169247679935105 -0.0033808971526721092 0 0.0046023442020135287 -0.0023561998660540325 0 0.0038596534229795461 -0.0027088696907661145 0 0.0046169247679935105 -0.0033808971526721092 0 0.005261004467813103 -0.0028612821885248686 0 0.0046023442020135287 -0.0023561998660540325 0 0.0046169247679935105 -0.0033808971526721092 0 0.0036443716834201464 -0.0019414788241370151 0 0.0028384906851620872 -0.002593374546368534 0 0.0038596534229795461 -0.0027088696907661145 0 0.0038596534229795461 -0.0027088696907661145 0 0.0029680178876912862 -0.003558406115920512 0 0.0038394475341422814 -0.0035220029103655158 0 0.0028384906851620872 -0.002593374546368534 0 0.0038596534229795461 -0.0027088696907661145 0 0.0029680178876912862 -0.003558406115920512 0 0.0028384906851620872 -0.002593374546368534 0 0.0024969492171938975 -0.0031606742043663477 0 0.0029680178876912862 -0.003558406115920512 0 0.0028384906851620872 -0.002593374546368534 0 0.0024969492171938975 -0.0031606742043663477 0 0.0019323773471358351 -0.0029196335072984281 0 0.0024969492171938975 -0.0031606742043663477 0 0.0019323773471358351 -0.0029196335072984281 0 0.0021026713202457505 -0.0036172175460624147 0 0.0019323773471358351 -0.0029196335072984281 0 0.0020687338110127462 -0.0021703616047458315 0 0.0011054711679888006 -0.0026119553057533705 0 0.0028384906851620872 -0.002593374546368534 0 0.0019323773471358351 -0.0029196335072984281 0 0.0020687338110127462 -0.0021703616047458315 0 0.0028384906851620872 -0.002593374546368534 0 0.0020687338110127462 -0.0021703616047458315 0 0.0026755901576804688 -0.001494139886322794 0 0.0020687338110127462 -0.0021703616047458315 0 0.0017662424419440628 -0.0012364142671989326 0 0.0026755901576804688 -0.001494139886322794 0 0.0021036251663066551 -0.00055963401407830063 0 0.0017662424419440628 -0.0012364142671989326 0 0.0026755901576804688 -0.001494139886322794 0 0.0017662424419440628 -0.0012364142671989326 0 0.00077828076218540985 -0.001869656930844985 0 0.0011607560651947155 -0.0026233053931060441 0 0.0016943892370851173 -0.0013983424575281225 0 0.0011747093110828978 -0.0024961915338795712 0 -4.9549615392116713e-06 -0.0015535797787812552 0 0.0011552050930735826 -0.0011607760920254921 0 0.00077828076218540985 -0.001869656930844985 0 0.0020687338110127462 -0.0021703616047458315 0 0.0017662424419440628 -0.0012364142671989326 0 0.0011054711679888006 -0.0026119553057533705 0 0.0015407541279597757 -0.00063405047770876224 0 0.0017662424419440628 -0.0012364142671989326 0 0.0011552050930735826 -0.0011607760920254921 0 0.0017662424419440628 -0.0012364142671989326 0 0.0011552050930735826 -0.0011607760920254921 0 0.00077828076218540985 -0.001869656930844985 0 0.0011747093110828978 -0.0024961915338795712 0 0.00053494812965772264 -0.0045549609807875435 0 0.0019323773471358351 -0.0029196335072984281 0 0.0011054711679888006 -0.0026119553057533705 0 0.0015492654488517882 -0.0034569605929665698 0 0.0011054711679888006 -0.0026119553057533705 0 0.0015492654488517882 -0.0034569605929665698 0 0.00097523431851528626 -0.0039876990684083631 0 0.0011054711679888006 -0.0026119553057533705 0 0.00097523431851528626 -0.0039876990684083631 0 0.00048070568829603659 -0.0039995127201096544 0 0.0015492654488517882 -0.0034569605929665698 0 0.0016224104963692386 -0.0041411275548227508 0 0.00097523431851528626 -0.0039876990684083631 0 0.0016224104963692386 -0.0041411275548227508 0 0.0011986890412919685 -0.0044532194261486446 0 0.00097523431851528626 -0.0039876990684083631 0 0.0016224104963692386 -0.0041411275548227508 0 0.0011986890412919685 -0.0044532194261486446 0 0.0017774580805751698 -0.0046771642653420315 0 0.00085991266623800845 -0.0042739042686442295 0 0.00076638776738186378 -0.0046475183467199971 0 0.00049731796692031513 -0.0040061843279624101 0 0.00097523431851528626 -0.0039876990684083631 0 0.00085991266623800845 -0.0042739042686442295 0 0.00049731796692031513 -0.0040061843279624101 0 0.00076809722742034767 -0.004358939548280598 0 0.00053494812965772264 -0.0045549609807875435 0 0.0011986890412919685 -0.0044532194261486446 0 0.00085991266623800845 -0.0042739042686442295 0 0.00076638776738186378 -0.0046475183467199971 0 0.0011986890412919685 -0.0044532194261486446 0 0.00097523431851528626 -0.0039876990684083631 0 0.00085991266623800845 -0.0042739042686442295 0 0.00076638776738186378 -0.0046475183467199971 0 0.00077187530634357604 -0.0053275689928424458 0 0.00040146230454287654 -0.0051256754829241951 0 0.00076638776738186378 -0.0046475183467199971 0 0.0012956053010184088 -0.0049818108185194681 0 0.00077187530634357604 -0.0053275689928424458 0 0.0011986890412919685 -0.0044532194261486446 0 0.00076638776738186378 -0.0046475183467199971 0 0.0012956053010184088 -0.0049818108185194681 0 0.0012956053010184088 -0.0049818108185194681 0 0.0018503874869070589 -0.0053006227022981038 0 0.0017774580805751698 -0.0046771642653420315 0 0.0011986890412919685 -0.0044532194261486446 0 0.0012956053010184088 -0.0049818108185194681 0 0.0017774580805751698 -0.0046771642653420315 0 0.0012956053010184088 -0.0049818108185194681 0 0.0013153397853377302 -0.0054776562741932202 0 0.0018503874869070589 -0.0053006227022981038 0 0.0013153397853377302 -0.0054776562741932202 0 0.0018503874869070589 -0.0053006227022981038 0 0.0016065101001298543 -0.0058241056722347058 0 0.0013153397853377302 -0.0054776562741932202 0 0.00077187530634357604 -0.0053275689928424458 0 0.0010491558576884942 -0.0059509259149954996 0 0.0012956053010184088 -0.0049818108185194681 0 0.0013153397853377302 -0.0054776562741932202 0 0.00077187530634357604 -0.0053275689928424458 0 0.0025231724588442219 -0.0054121948697648621 0 0.0018503874869070589 -0.0053006227022981038 0 0.0024029106191680808 -0.0048603588533095736 0 0.0025231724588442219 -0.0054121948697648621 0 0.0024029106191680808 -0.0048603588533095736 0 0.0031320719627141477 -0.0050444234760244865 0 0.0025231724588442219 -0.0054121948697648621 0 0.0018503874869070589 -0.0053006227022981038 0 0.0021665169950603443 -0.0058753697174289106 0 0.0017774580805751698 -0.0046771642653420315 0 0.0024029106191680808 -0.0048603588533095736 0 0.0022637927883496266 -0.0042613848812936448 0 0.0018503874869070589 -0.0053006227022981038 0 0.0017774580805751698 -0.0046771642653420315 0 0.0024029106191680808 -0.0048603588533095736 0 0.0024029106191680808 -0.0048603588533095736 0 0.0022637927883496266 -0.0042613848812936448 0 0.0028652834312958104 -0.0044608584529862707 0 0.0022637927883496266 -0.0042613848812936448 0 0.0029680178876912862 -0.003558406115920512 0 0.0028652834312958104 -0.0044608584529862707 0 0.0016224104963692386 -0.0041411275548227508 0 0.0022637927883496266 -0.0042613848812936448 0 0.0021026713202457505 -0.0036172175460624147 0 0.0016224104963692386 -0.0041411275548227508 0 0.0017774580805751698 -0.0046771642653420315 0 0.0022637927883496266 -0.0042613848812936448 0 0.0019323773471358351 -0.0029196335072984281 0 0.0015492654488517882 -0.0034569605929665698 0 0.0021026713202457505 -0.0036172175460624147 0 0.0015492654488517882 -0.0034569605929665698 0 0.0016224104963692386 -0.0041411275548227508 0 0.0021026713202457505 -0.0036172175460624147 0 0.0024969492171938975 -0.0031606742043663477 0 0.0021026713202457505 -0.0036172175460624147 0 0.0029680178876912862 -0.003558406115920512 0 0.0022637927883496266 -0.0042613848812936448 0 0.0021026713202457505 -0.0036172175460624147 0 0.0029680178876912862 -0.003558406115920512 0 0.0029680178876912862 -0.003558406115920512 0 0.0038394475341422814 -0.0035220029103655158 0 0.0034673039410690284 -0.0041825049079175268 0 0.0034673039410690284 -0.0041825049079175268 0 0.004187155284669032 -0.004096572202901631 0 0.0038093067786539236 -0.0047519158834583176 0 0.0038394475341422814 -0.0035220029103655158 0 0.0034673039410690284 -0.0041825049079175268 0 0.004187155284669032 -0.004096572202901631 0 0.0029680178876912862 -0.003558406115920512 0 0.0034673039410690284 -0.0041825049079175268 0 0.0028652834312958104 -0.0044608584529862707 0 0.0038394475341422814 -0.0035220029103655158 0 0.0046169247679935105 -0.0033808971526721092 0 0.004187155284669032 -0.004096572202901631 0 0.0046169247679935105 -0.0033808971526721092 0 0.004187155284669032 -0.004096572202901631 0 0.0047874108449966687 -0.0043902494044378397 0 0.004187155284669032 -0.004096572202901631 0 0.0047874108449966687 -0.0043902494044378397 0 0.0044158964851790739 -0.0050495107899590523 0 0.0047874108449966687 -0.0043902494044378397 0 0.0044158964851790739 -0.0050495107899590523 0 0.0054374168793096308 -0.0052219606496442961 0 0.004187155284669032 -0.004096572202901631 0 0.0044158964851790739 -0.0050495107899590523 0 0.0038093067786539236 -0.0047519158834583176 0 0.0044158964851790739 -0.0050495107899590523 0 0.0038093067786539236 -0.0047519158834583176 0 0.0037195728675471522 -0.0056974916022200367 0 0.0044158964851790739 -0.0050495107899590523 0 0.0037195728675471522 -0.0056974916022200367 0 0.004481864668607523 -0.0058451417774021642 0 0.0044158964851790739 -0.0050495107899590523 0 0.004481864668607523 -0.0058451417774021642 0 0.0054374168793096308 -0.0052219606496442961 0 0.0034673039410690284 -0.0041825049079175268 0 0.0028652834312958104 -0.0044608584529862707 0 0.0031320719627141477 -0.0050444234760244865 0 0.0024029106191680808 -0.0048603588533095736 0 0.0028652834312958104 -0.0044608584529862707 0 0.0031320719627141477 -0.0050444234760244865 0 0.0034673039410690284 -0.0041825049079175268 0 0.0038093067786539236 -0.0047519158834583176 0 0.0031320719627141477 -0.0050444234760244865 0 0.0038093067786539236 -0.0047519158834583176 0 0.0031320719627141477 -0.0050444234760244865 0 0.0037195728675471522 -0.0056974916022200367 0 0.0025231724588442219 -0.0054121948697648621 0 0.0031320719627141477 -0.0050444234760244865 0 0.0029125382794677151 -0.0058049732561602629 0 0.0031320719627141477 -0.0050444234760244865 0 0.0029125382794677151 -0.0058049732561602629 0 0.0037195728675471522 -0.0056974916022200367 0 0.0029125382794677151 -0.0058049732561602629 0 0.0037195728675471522 -0.0056974916022200367 0 0.0032090729221974303 -0.0064398630924413346 0 0.0037195728675471522 -0.0056974916022200367 0 0.0032090729221974303 -0.0064398630924413346 0 0.0039893694588108977 -0.0065013581213155189 0 0.0032090729221974303 -0.0064398630924413346 0 0.0027186059950649278 -0.0070924398934483343 0 0.0024404443557842601 -0.0064492229096370784 0 0.0029125382794677151 -0.0058049732561602629 0 0.0032090729221974303 -0.0064398630924413346 0 0.0024404443557842601 -0.0064492229096370784 0 0.0037195728675471522 -0.0056974916022200367 0 0.004481864668607523 -0.0058451417774021642 0 0.0039893694588108977 -0.0065013581213155189 0 0.004481864668607523 -0.0058451417774021642 0 0.0039893694588108977 -0.0065013581213155189 0 0.0049490042140271813 -0.0066772177649093703 0 0.0041502871661813837 -0.0072146627451749731 0 0.0049490042140271813 -0.0066772177649093703 0 0.0044154840838810678 -0.0080127268549343642 0 0.0047886998338039785 -0.0068760602586748903 0 0.0044668313377655674 -0.0078665945423668521 0 0.0039893694588108977 -0.0065013581213155189 0 0.0041502871661813837 -0.0072146627451749731 0 0.0049490042140271813 -0.0066772177649093703 0 0.0039893694588108977 -0.0065013581213155189 0 0.0041502871661813837 -0.0072146627451749731 0 0.0034588592810577447 -0.0071068735782466351 0 0.0041502871661813837 -0.0072146627451749731 0 0.0037996136297550561 -0.0076693881160523137 0 0.0044154840838810678 -0.0080127268549343642 0 0.0032090729221974303 -0.0064398630924413346 0 0.0034588592810577447 -0.0071068735782466351 0 0.0027186059950649278 -0.0070924398934483343 0 0.0032090729221974303 -0.0064398630924413346 0 0.0039893694588108977 -0.0065013581213155189 0 0.0034588592810577447 -0.0071068735782466351 0 0.0034588592810577447 -0.0071068735782466351 0 0.0037996136297550561 -0.0076693881160523137 0 0.002998166080641526 -0.0077524729634301038 0 0.0041502871661813837 -0.0072146627451749731 0 0.0034588592810577447 -0.0071068735782466351 0 0.0037996136297550561 -0.0076693881160523137 0 0.0034588592810577447 -0.0071068735782466351 0 0.002998166080641526 -0.0077524729634301038 0 0.0027186059950649278 -0.0070924398934483343 0 0.0027186059950649278 -0.0070924398934483343 0 0.002095279800877441 -0.0069885460501385287 0 0.0022142227748346301 -0.0077754319694332717 0 0.002998166080641526 -0.0077524729634301038 0 0.0027186059950649278 -0.0070924398934483343 0 0.0022142227748346301 -0.0077754319694332717 0 0.0027186059950649278 -0.0070924398934483343 0 0.002095279800877441 -0.0069885460501385287 0 0.0024404443557842601 -0.0064492229096370784 0 0.002095279800877441 -0.0069885460501385287 0 0.0014934317058971135 -0.0071681589160136972 0 0.0016638286011846047 -0.0064521563967669966 0 0.002095279800877441 -0.0069885460501385287 0 0.0022142227748346301 -0.0077754319694332717 0 0.0014934317058971135 -0.0071681589160136972 0 0.0022142227748346301 -0.0077754319694332717 0 0.001070554334708857 -0.007811123334867184 0 0.0014934317058971135 -0.0071681589160136972 0 0.001070554334708857 -0.007811123334867184 0 0.0009119547128231245 -0.0068934618808964209 0 0.00042963039862406493 -0.0073708303116410377 0 0.001070554334708857 -0.007811123334867184 0 0.0009119547128231245 -0.0068934618808964209 0 0.0014934317058971135 -0.0071681589160136972 0 0.0009119547128231245 -0.0068934618808964209 0 0.0014934317058971135 -0.0071681589160136972 0 0.0016638286011846047 -0.0064521563967669966 0 0.0009119547128231245 -0.0068934618808964209 0 0.0016638286011846047 -0.0064521563967669966 0 0.0010491558576884942 -0.0059509259149954996 0 0.0009119547128231245 -0.0068934618808964209 0 0.0010491558576884942 -0.0059509259149954996 0 0.00053998694057335673 -0.0062356435531058917 0 0.00077187530634357604 -0.0053275689928424458 0 0.0010491558576884942 -0.0059509259149954996 0 0.00058271221628038595 -0.0058355228527480745 0 0.0010491558576884942 -0.0059509259149954996 0 0.00058271221628038595 -0.0058355228527480745 0 0.00053998694057335673 -0.0062356435531058917 0 0.0013153397853377302 -0.0054776562741932202 0 0.0010491558576884942 -0.0059509259149954996 0 0.0016065101001298543 -0.0058241056722347058 0 0.0016638286011846047 -0.0064521563967669966 0 0.0010491558576884942 -0.0059509259149954996 0 0.0016065101001298543 -0.0058241056722347058 0 0.0018503874869070589 -0.0053006227022981038 0 0.0016065101001298543 -0.0058241056722347058 0 0.0021665169950603443 -0.0058753697174289106 0 0.0016638286011846047 -0.0064521563967669966 0 0.0016065101001298543 -0.0058241056722347058 0 0.0021665169950603443 -0.0058753697174289106 0 0.0029125382794677151 -0.0058049732561602629 0 0.0021665169950603443 -0.0058753697174289106 0 0.0024404443557842601 -0.0064492229096370784 0 0.0025231724588442219 -0.0054121948697648621 0 0.0029125382794677151 -0.0058049732561602629 0 0.0021665169950603443 -0.0058753697174289106 0 0.002095279800877441 -0.0069885460501385287 0 0.0016638286011846047 -0.0064521563967669966 0 0.0024404443557842601 -0.0064492229096370784 0 0.0016638286011846047 -0.0064521563967669966 0 0.0021665169950603443 -0.0058753697174289106 0 0.0024404443557842601 -0.0064492229096370784 0 0.0046188863663187939 -0.0023658844376119826 0 0.0045908108868825672 -0.002300863307898447 0 0.0045759405922996951 -0.0024003585642202309 0 0.0046450820142909782 -0.0023042147280661193 0 0.0046188863663187939 -0.0023658844376119826 0 0.0045908108868825672 -0.002300863307898447 0 0.0046450820142909782 -0.0023042147280661193 0 0.0046433815255916919 -0.0022437317076878368 0 0.0045908108868825672 -0.002300863307898447 0 0.0058249130932364794 -0.0021657209907707739 0 0.0059658882937181756 -0.0029444390131554573 0 0.0073067757740608551 -0.0029178752892060045 0 0.0079156738160111179 -0.0028273938685496221 0 0.007324679950345689 -0.00350018052513723 0 0.007324679950345689 -0.00350018052513723 0 0.0062881200698597286 -0.0036671840695671992 0 0.0065924976429010225 -0.0031398374390221506 0 0.0068540530726102326 -0.0027637831353121444 0 0.0073067757740608551 -0.0029178752892060045 0 0.0065924976429010225 -0.0031398374390221506 0 0.0073067757740608551 -0.0029178752892060045 0 0.007324679950345689 -0.00350018052513723 0 0.0065924976429010225 -0.0031398374390221506 0 0.007324679950345689 -0.00350018052513723 0 0.0067002187663985332 -0.0041860659937910964 0 0.0062881200698597286 -0.0036671840695671992 0 0.0045908108868825672 -0.002300863307898447 0 0.0045363114646483236 -0.0023780980285636241 0 0.0045759405922996951 -0.0024003585642202309 0 0.0059658882937181756 -0.0029444390131554573 0 0.0056823390200269807 -0.0031117922887974009 0 0.0061040974280137036 -0.0042346938722864465 0 0.0062881200698597286 -0.0036671840695671992 0 0.0054873340739553522 -0.00413063740094696 0 0.0067002187663985332 -0.0041860659937910964 0 0.0061040974280137036 -0.0042346938722864465 0 0.0062881200698597286 -0.0036671840695671992 0 0.0059369744170618601 -0.0026581524880582401 0 0.0061644127305303057 -0.0030869916489330027 0 0.0057164901406797199 -0.0033809205055955012 0 0.0062881200698597286 -0.0036671840695671992 0 0.0065924976429010225 -0.0031398374390221506 0 0.0061644127305303057 -0.0030869916489330027 0 0.0064433315328395703 -0.0025585013683996076 0 0.0065924976429010225 -0.0031398374390221506 0 0.0061644127305303057 -0.0030869916489330027 0 0.0062881200698597286 -0.0036671840695671992 0 0.0061644127305303057 -0.0030869916489330027 0 0.0057164901406797199 -0.0033809205055955012 0 0.0059165494621716223 -0.0028151728868639242 0 0.0057356576250429314 -0.0035582884898887148 0 0.005261004467813103 -0.0028612821885248686 0 0.0046169247679935105 -0.0033808971526721092 0 0.0057218887458634678 -0.0039218295973398078 0 0.0046169247679935105 -0.0033808971526721092 0 0.0047874108449966687 -0.0043902494044378397 0 0.0057218887458634678 -0.0039218295973398078 0 0.0049082121368246951 -0.0045457483856804247 0 0.0053126238450870999 -0.0050587433791258055 0 0.0062881200698597286 -0.0036671840695671992 0 0.0057164901406797199 -0.0033809205055955012 0 0.0054873340739553522 -0.00413063740094696 0 0.0057356576250429314 -0.0035582884898887148 0 0.0053126238450870999 -0.0050587433791258055 0 0.0047874108449966687 -0.0043902494044378397 0 0.0057218887458634678 -0.0039218295973398078 0 0.0053859534959749648 -0.0051190914771209479 0 0.0053126238450870999 -0.0050587433791258055 0 0.0055994704593404689 -0.0051062468897916007 0 0.0061040974280137036 -0.0042346938722864465 0 0.0054873340739553522 -0.00413063740094696 0 0.0060812324141307408 -0.0048640244216091926 0 0.004481864668607523 -0.0058451417774021642 0 0.0054374168793096308 -0.0052219606496442961 0 0.0049490042140271813 -0.0066772177649093703 0 0.0050288332352395847 -0.0057146823273835582 0 0.0051708821893309007 -0.0064847077447334998 0 0.0046813322713164084 -0.0068934187991630839 0 0.0050288332352395847 -0.0057146823273835582 0 0.0051708821893309007 -0.0064847077447334998 0 0.0058154771537207587 -0.0066888677089316168 0 0.0053126238450870999 -0.0050587433791258055 0 0.0047886998338039785 -0.0068760602586748903 0 0.0051708821893309007 -0.0064847077447334998 0 0.0046813322713164084 -0.0068934187991630839 0 0.0050195267600680006 -0.0075533045478269846 0 0.0051708821893309007 -0.0064847077447334998 0 0.0050195267600680006 -0.0075533045478269846 0 0.0058154771537207587 -0.0066888677089316168 0 0.0046813322713164084 -0.0068934187991630839 0 0.0050195267600680006 -0.0075533045478269846 0 0.0044154840838810678 -0.0080127268549343642 0 0.0050195267600680006 -0.0075533045478269846 0 0.0056044798351402962 -0.0071023683597652813 0 0.0056167518015137474 -0.0076718377539416521 0 0.0050195267600680006 -0.0075533045478269846 0 0.0056044798351402962 -0.0071023683597652813 0 0.0056368938656609913 -0.0068619027974575501 0 0.0048765760706065272 -0.0078794921211274502 0 0.0055994704593404689 -0.0051062468897916007 0 0.0056167518015137474 -0.0076718377539416521 0 0.0059899365165846331 -0.0073149962439327714 0 0.0065475376810820284 -0.0080160875823326958 0 0.0056044798351402962 -0.0071023683597652813 0 0.0056167518015137474 -0.0076718377539416521 0 0.0059899365165846331 -0.0073149962439327714 0 0.0056044798351402962 -0.0071023683597652813 0 0.0059718316891361261 -0.0072859655155173104 0 0.0056368938656609913 -0.0068619027974575501 0 0.0052674266555038287 -0.0054670603152521839 0 0.0055994704593404689 -0.0051062468897916007 0 0.0060546399546297725 -0.006712736044055834 0 0.0052674266555038287 -0.0054670603152521839 0 0.0045205742830208267 -0.0024875820430359909 0 0.0044933764894444402 -0.0024593050270930767 0 0.0045381855905867637 -0.0024383884772593133 0 0.0045363114646483236 -0.0023780980285636241 0 0.0044933764894444402 -0.0024593050270930767 0 0.0045381855905867637 -0.0024383884772593133 0 0.0067002187663985332 -0.0041860659937910964 0 0.0061040974280137036 -0.0042346938722864465 0 0.0060812324141307408 -0.0048640244216091926 0 0.0056823390200269807 -0.0031117922887974009 0 0.0055994704593404689 -0.0051062468897916007 0 0.0045363114646483236 -0.0023780980285636241 0 0.0045759405922996951 -0.0024003585642202309 0 0.0045381855905867637 -0.0024383884772593133 0 0.0045759405922996951 -0.0024003585642202309 0 0.0045381855905867637 -0.0024383884772593133 0 0.0045664355229166672 -0.0024604575841359064 0 0.0045205742830208267 -0.0024875820430359909 0 0.0045664355229166672 -0.0024604575841359064 0 0.0045913152073434249 -0.00252338062977788 0 0.0045205742830208267 -0.0024875820430359909 0 0.0045381855905867637 -0.0024383884772593133 0 0.0045664355229166672 -0.0024604575841359064 0 0.0052674266555038287 -0.0054670603152521839 0 0.0041002466558467138 -0.003758592285342496 0 0.0052674266555038287 -0.0054670603152521839 0 0.0043761278454341 -0.0062782390225398117 0 0.0045664355229166672 -0.0024604575841359064 0 0.0045982837220263136 -0.0024745036787289783 0 0.0045913152073434249 -0.00252338062977788 0 0.0045664355229166672 -0.0024604575841359064 0 0.0045982837220263136 -0.0024745036787289783 0 0.0046042985673467813 -0.002433552420877479 0 0.0045982837220263136 -0.0024745036787289783 0 0.0046196746522080365 -0.0024993970370492469 0 0.0046235080690103106 -0.0024589146622178673 0 0.0045982837220263136 -0.0024745036787289783 0 0.0046196746522080365 -0.0024993970370492469 0 0.0045913152073434249 -0.00252338062977788 0 0.0045982837220263136 -0.0024745036787289783 0 0.0046235080690103106 -0.0024589146622178673 0 0.0046042985673467813 -0.002433552420877479 0 0.0046338500687757777 -0.0024328025610431325 0 0.0046235080690103106 -0.0024589146622178673 0 0.0046042985673467813 -0.002433552420877479 0 0.0046338500687757777 -0.0024328025610431325 0 0.0046373928808713452 -0.0024033466014933406 0 0.0046042985673467813 -0.002433552420877479 0 0.0045759405922996951 -0.0024003585642202309 0 0.0045664355229166672 -0.0024604575841359064 0 0.0046042985673467813 -0.002433552420877479 0 0.0046188863663187939 -0.0023658844376119826 0 0.0045759405922996951 -0.0024003585642202309 0 0.0046042985673467813 -0.002433552420877479 0 0.0046418302909596995 -0.0023721139555840749 0 0.0046373928808713452 -0.0024033466014933406 0 0.0046188863663187939 -0.0023658844376119826 0 0.0046373928808713452 -0.0024033466014933406 0 0.0046188863663187939 -0.0023658844376119826 0 0.0046042985673467813 -0.002433552420877479 0 0.0038689362787556183 -0.0064072101611002607 0 0.0038375653283868748 -0.0060530831086108823 0 0.0034314720476254336 -0.0058479451085674487 0 0.0038689362787556183 -0.0064072101611002607 0 0.003426634735735813 -0.0058545509833621331 0 0.0034892196549117104 -0.0062426403977251764 0 0.0038689362787556183 -0.0064072101611002607 0 0.0034892196549117104 -0.0062426403977251764 0 0.0033577369812831017 -0.0067542853083909825 0 0.0034981336477006041 -0.0061488352563795739 0 0.0043761278454341 -0.0062782390225398117 0 0.004015398187701402 -0.0062237216737275232 0 0.0038689362787556183 -0.0064072101611002607 0 0.0038375653283868748 -0.0060530831086108823 0 0.0041229341295985949 -0.0059897248736912887 0 0.0038375653283868748 -0.0060530831086108823 0 0.0037570698265889236 -0.0057920914231342404 0 0.0045053575960571921 -0.0044654294758724204 0 0.0041002466558467138 -0.003758592285342496 0 0.0038375653283868748 -0.0060530831086108823 0 0.0037570698265889236 -0.0057920914231342404 0 0.0034314720476254336 -0.0058479451085674487 0 0.0046563984633419828 -0.0025507400650896699 0 0.0046196746522080365 -0.0024993970370492469 0 0.0045913152073434249 -0.00252338062977788 0 0.0047911288650471567 -0.0026562477051303886 0 0.0041002466558467138 -0.003758592285342496 0 0.0041002466558467138 -0.003758592285342496 0 0.0043761278454341 -0.0062782390225398117 0 0.005218624157979585 -0.0054387625196759349 0 0.0040823386432812803 -0.004846077575301028 0 0.0046612281701469641 -0.0047532668808534248 0 0.003426634735735813 -0.0058545509833621331 0 0.0032078447668009097 -0.00608099739019889 0 0.0034892196549117104 -0.0062426403977251764 0 0.0034892196549117104 -0.0062426403977251764 0 0.0031243042281036307 -0.0062804589555839662 0 0.0033577369812831017 -0.0067542853083909825 0 0.0032078447668009097 -0.00608099739019889 0 0.0034892196549117104 -0.0062426403977251764 0 0.0031243042281036307 -0.0062804589555839662 0 0.0029715228534689412 -0.0065019469178954235 0 0.0031243042281036307 -0.0062804589555839662 0 0.0026569270840804591 -0.0062725059007547254 0 0.0031243042281036307 -0.0062804589555839662 0 0.0027785831818086934 -0.0059375218664068927 0 0.0026569270840804591 -0.0062725059007547254 0 0.0032078447668009097 -0.00608099739019889 0 0.0031243042281036307 -0.0062804589555839662 0 0.0027785831818086934 -0.0059375218664068927 0 0.0029715228534689412 -0.0065019469178954235 0 0.0026569270840804591 -0.0062725059007547254 0 0.0026310154972436161 -0.0064959140045220643 0 0.003426634735735813 -0.0058545509833621331 0 0.0032078447668009097 -0.00608099739019889 0 0.0027785831818086934 -0.0059375218664068927 0 0.0056167518015137474 -0.0076718377539416521 0 0.0065475376810820284 -0.0080160875823326958 0 0.005496405882008751 -0.0082561232083150603 0 0.0043761278454341 -0.0062782390225398117 0 0.0042451089433072501 -0.0071607624856963297 0 0.005496405882008751 -0.0082561232083150603 0 0.0044154840838810678 -0.0080127268549343642 0 0.0042906113628916782 -0.0086202306458413452 0 0.0042451089433072501 -0.0071607624856963297 0 0.0031391815683334112 -0.0073186423860393769 0 0.0050195267600680006 -0.0075533045478269846 0 0.005496405882008751 -0.0082561232083150603 0 0.0044154840838810678 -0.0080127268549343642 0 0.0050195267600680006 -0.0075533045478269846 0 0.0056167518015137474 -0.0076718377539416521 0 0.005496405882008751 -0.0082561232083150603 0 0.0026569270840804591 -0.0062725059007547254 0 0.0023203969844733177 -0.0063711972927596346 0 0.0020619875804041309 -0.0060241171707158345 0 0.0027785831818086934 -0.0059375218664068927 0 0.0026569270840804591 -0.0062725059007547254 0 0.0020619875804041309 -0.0060241171707158345 0 0.0026569270840804591 -0.0062725059007547254 0 0.0026310154972436161 -0.0064959140045220643 0 0.0023203969844733177 -0.0063711972927596346 0 0.0024528513942561119 -0.0067153842476206337 0 0.0026662122662932677 -0.0070234402459372737 0 0.0021917168510932525 -0.0069082263082704863 0 0.0023203969844733177 -0.0063711972927596346 0 0.0024528513942561119 -0.0067153842476206337 0 0.0021085870600958843 -0.0066187093400965659 0 0.0026310154972436161 -0.0064959140045220643 0 0.0023203969844733177 -0.0063711972927596346 0 0.0024528513942561119 -0.0067153842476206337 0 0.0026310154972436161 -0.0064959140045220643 0 0.0024528513942561119 -0.0067153842476206337 0 0.0028216209338161125 -0.0067005119330800491 0 0.0024528513942561119 -0.0067153842476206337 0 0.0026662122662932677 -0.0070234402459372737 0 0.0028216209338161125 -0.0067005119330800491 0 0.0021376472416164646 -0.007256292192366628 0 0.002228639862232045 -0.0070956840920292094 0 0.0018737058656526761 -0.0072388753540453083 0 0.0024438802432599546 -0.0070598728080322054 0 0.0018704110291642283 -0.0072787613687060205 0 0.0021657184170743768 -0.0072689077154964926 0 0.0021376472416164646 -0.007256292192366628 0 0.002227658310721465 -0.0071825765814493734 0 0.0021376472416164646 -0.007256292192366628 0 0.002227658310721465 -0.0071825765814493734 0 0.002228639862232045 -0.0070956840920292094 0 0.0021657184170743768 -0.0072689077154964926 0 0.0021741901103091168 -0.0072326075731419508 0 0.002227658310721465 -0.0071825765814493734 0 0.002227658310721465 -0.0071825765814493734 0 0.002228639862232045 -0.0070956840920292094 0 0.0023399047024481637 -0.0070840010338083939 0 0.0023924238962476398 -0.0070672678203950673 0 0.002227658310721465 -0.0071825765814493734 0 0.0023399047024481637 -0.0070840010338083939 0 0.002228639862232045 -0.0070956840920292094 0 0.0023399047024481637 -0.0070840010338083939 0 0.0023902035025328235 -0.0069408867062027806 0 0.0029715228534689412 -0.0065019469178954235 0 0.0031243042281036307 -0.0062804589555839662 0 0.0033577369812831017 -0.0067542853083909825 0 0.0024438802432599546 -0.0070598728080322054 0 0.0028868599607406696 -0.0068178676763639067 0 0.0029715228534689412 -0.0065019469178954235 0 0.0028216209338161125 -0.0067005119330800491 0 0.0033577369812831017 -0.0067542853083909825 0 0.0026662122662932677 -0.0070234402459372737 0 0.0028216209338161125 -0.0067005119330800491 0 0.0033577369812831017 -0.0067542853083909825 0 0.0029715228534689412 -0.0065019469178954235 0 0.0026310154972436161 -0.0064959140045220643 0 0.0028216209338161125 -0.0067005119330800491 0 0.0023902035025328235 -0.0069408867062027806 0 0.0024109757687321358 -0.0070182879012604298 0 0.0024514655961399073 -0.0069284317518598136 0 0.0023399047024481637 -0.0070840010338083939 0 0.0023902035025328235 -0.0069408867062027806 0 0.0024109757687321358 -0.0070182879012604298 0 0.0023874219955981584 -0.0070555188147624825 0 0.0023399047024481637 -0.0070840010338083939 0 0.0024109757687321358 -0.0070182879012604298 0 0.0024116367929695741 -0.0070413023000328477 0 0.002440831629674014 -0.0070116587721181694 0 0.0024109757687321358 -0.0070182879012604298 0 0.0023874219955981584 -0.0070555188147624825 0 0.0024116367929695741 -0.0070413023000328477 0 0.0024109757687321358 -0.0070182879012604298 0 0.0024109757687321358 -0.0070182879012604298 0 0.0024513720375217026 -0.006980038858030624 0 0.0024514655961399073 -0.0069284317518598136 0 0.002440831629674014 -0.0070116587721181694 0 0.0024513720375217026 -0.006980038858030624 0 0.0024757091768307662 -0.0069812715827563734 0 0.002440831629674014 -0.0070116587721181694 0 0.0024109757687321358 -0.0070182879012604298 0 0.0024513720375217026 -0.006980038858030624 0 0.0024946490617276142 -0.0069523962309098629 0 0.0024757091768307662 -0.0069812715827563734 0 0.0024760912535139847 -0.0069517641875825823 0 0.0024513720375217026 -0.006980038858030624 0 0.0024757091768307662 -0.0069812715827563734 0 0.0024760912535139847 -0.0069517641875825823 0 0.0025078697576100648 -0.0069138132309616981 0 0.0024760912535139847 -0.0069517641875825823 0 0.0024514655961399073 -0.0069284317518598136 0 0.0024513720375217026 -0.006980038858030624 0 0.0024760912535139847 -0.0069517641875825823 0 0.0024514655961399073 -0.0069284317518598136 0 0.0024932104203625313 -0.0068445463357839189 0 0.0023902035025328235 -0.0069408867062027806 0 0.0024514655961399073 -0.0069284317518598136 0 0.0025078697576100648 -0.0069138132309616981 0 0.0024932104203625313 -0.0068445463357839189 0 0.0024514655961399073 -0.0069284317518598136 0 0.0039855064226320411 -0.0065115398127912573 0 0.0038689362787556183 -0.0064072101611002607 0 0.0033577369812831017 -0.0067542853083909825 0 0.0032134864196362301 -0.0069223025352093447 0 0.0028868599607406696 -0.0068178676763639067 0 0.0019825719452217986 -0.007578600774389513 0 0.00080127862788243755 -0.007719268298719207 0 0.0012823327985700414 -0.0061181240321740195 0 0.001432844002100687 -0.0067541891195529169 0 0.00089928171164477396 -0.0066604282612197701 0 0.0012823327985700414 -0.0061181240321740195 0 0.00045013861309308421 -0.006226691943202467 0 0.00089928171164477396 -0.0066604282612197701 0 0.0022142227748346301 -0.0077754319694332717 0 0.001070554334708857 -0.007811123334867184 0 0.0010585986420778529 -0.0093587915000620751 0 0.001070554334708857 -0.007811123334867184 0 0.0010585986420778529 -0.0093587915000620751 0 0.00018790632102552566 -0.0082423980161374852 0 0.002998166080641526 -0.0077524729634301038 0 0.0022142227748346301 -0.0077754319694332717 0 0.0027123663342637203 -0.0090270293409756494 0 0.0022142227748346301 -0.0077754319694332717 0 0.0027123663342637203 -0.0090270293409756494 0 0.0010585986420778529 -0.0093587915000620751 0 0.002998166080641526 -0.0077524729634301038 0 0.0027123663342637203 -0.0090270293409756494 0 0.0035322761711275123 -0.0081904562676233979 0 0.0027123663342637203 -0.0090270293409756494 0 0.0035322761711275123 -0.0081904562676233979 0 0.0042906113628916782 -0.0086202306458413452 0 0.0037996136297550561 -0.0076693881160523137 0 0.002998166080641526 -0.0077524729634301038 0 0.0035322761711275123 -0.0081904562676233979 0 0.0037996136297550561 -0.0076693881160523137 0 0.0035322761711275123 -0.0081904562676233979 0 0.0044154840838810678 -0.0080127268549343642 0 0.0035322761711275123 -0.0081904562676233979 0 0.0044154840838810678 -0.0080127268549343642 0 0.0042906113628916782 -0.0086202306458413452 0 0.0023203969844733177 -0.0063711972927596346 0 0.0020619875804041309 -0.0060241171707158345 0 0.0020512305435368473 -0.006326616615002412 0 0.0020619875804041309 -0.0060241171707158345 0 0.0020512305435368473 -0.006326616615002412 0 0.0017596498439364551 -0.0063867007686260044 0 0.0020512305435368473 -0.006326616615002412 0 0.0017596498439364551 -0.0063867007686260044 0 0.0021085870600958843 -0.0066187093400965659 0 0.0023203969844733177 -0.0063711972927596346 0 0.0020512305435368473 -0.006326616615002412 0 0.0021085870600958843 -0.0066187093400965659 0 0.0012823327985700414 -0.0061181240321740195 0 0.0020619875804041309 -0.0060241171707158345 0 0.0017596498439364551 -0.0063867007686260044 0 0.0012823327985700414 -0.0061181240321740195 0 0.0017596498439364551 -0.0063867007686260044 0 0.001432844002100687 -0.0067541891195529169 0 0.0019825719452217986 -0.007578600774389513 0 0.0031391815683334112 -0.0073186423860393769 0 0.0017596498439364551 -0.0063867007686260044 0 0.001432844002100687 -0.0067541891195529169 0 0.0018229121381227256 -0.0068793800026501527 0 0.001432844002100687 -0.0067541891195529169 0 0.0018229121381227256 -0.0068793800026501527 0 0.0014592727126443012 -0.0071239527746543721 0 0.001432844002100687 -0.0067541891195529169 0 0.0014592727126443012 -0.0071239527746543721 0 0.001040225894809909 -0.0071130016997053239 0 0.0017596498439364551 -0.0063867007686260044 0 0.0021085870600958843 -0.0066187093400965659 0 0.0018229121381227256 -0.0068793800026501527 0 0.0024528513942561119 -0.0067153842476206337 0 0.0021085870600958843 -0.0066187093400965659 0 0.0021917168510932525 -0.0069082263082704863 0 0.0021085870600958843 -0.0066187093400965659 0 0.0018229121381227256 -0.0068793800026501527 0 0.0021917168510932525 -0.0069082263082704863 0 0.0021027561772490725 -0.007400744670311701 0 0.0021376472416164646 -0.007256292192366628 0 0.0018737058656526761 -0.0072388753540453083 0 0.0026662122662932677 -0.0070234402459372737 0 0.0021917168510932525 -0.0069082263082704863 0 0.0018952343476382673 -0.0073053699822554011 0 0.0018229121381227256 -0.0068793800026501527 0 0.0021917168510932525 -0.0069082263082704863 0 0.0018952343476382673 -0.0073053699822554011 0 0.00112862601029316 -0.0075446123857301657 0 0.0018704110291642283 -0.0072787613687060205 0 0.0010793904198479083 -0.0075698069652205702 0 0.0018952343476382673 -0.0073053699822554011 0 0.0014592727126443012 -0.0071239527746543721 0 0.0018229121381227256 -0.0068793800026501527 0 0.0018952343476382673 -0.0073053699822554011 0 0.0014592727126443012 -0.0071239527746543721 0 0.0010793904198479083 -0.0075698069652205702 0 0.001040225894809909 -0.0071130016997053239 0 0.00065279696843787013 -0.0075446746255899214 0 0.0010793904198479083 -0.0075698069652205702 0 0.0014592727126443012 -0.0071239527746543721 0 0.001040225894809909 -0.0071130016997053239 0 0.001040225894809909 -0.0071130016997053239 0 0.00089928171164477396 -0.0066604282612197701 0 0.00042019777500808215 -0.0070728416524492872 0 0.001432844002100687 -0.0067541891195529169 0 0.001040225894809909 -0.0071130016997053239 0 0.00089928171164477396 -0.0066604282612197701 0 0.00045013861309308421 -0.006226691943202467 0 0.00089928171164477396 -0.0066604282612197701 0 0.00042019777500808215 -0.0070728416524492872 0 1.7687032709629132e-05 -0.0078733961559171225 0 0.00042019777500808215 -0.0070728416524492872 0 0.00065279696843787013 -0.0075446746255899214 0 0.001040225894809909 -0.0071130016997053239 0 0.00042019777500808215 -0.0070728416524492872 0 0.00065279696843787013 -0.0075446746255899214 0 1.7687032709629132e-05 -0.0078733961559171225 0 -0.00064240725391923189 -0.0078033318916653927 0 -0.00022264608884133499 -0.0069630861770161104 0 1.7687032709629132e-05 -0.0078733961559171225 0 0.00042019777500808215 -0.0070728416524492872 0 -0.00022264608884133499 -0.0069630861770161104 0 -0.00064240725391923189 -0.0078033318916653927 0 -0.00086519994896454581 -0.0071811018613340619 0 -0.00022264608884133499 -0.0069630861770161104 0 -0.0013271780047276695 -0.0081792018627827139 0 -0.00062530541886105483 -0.0086457579522118098 0 -0.0017317247464180864 -0.00944186432157469 0 -0.0017043488038279305 -0.0094229240707184997 0 -0.0017243774441889012 -0.0094464102353905514 0 -0.00086519994896454581 -0.0071811018613340619 0 -0.00022264608884133499 -0.0069630861770161104 0 -0.00042636777186670074 -0.0063635481475733668 0 0.00045013861309308421 -0.006226691943202467 0 0.00042019777500808215 -0.0070728416524492872 0 -0.00022264608884133499 -0.0069630861770161104 0 0.00045013861309308421 -0.006226691943202467 0 -0.00022264608884133499 -0.0069630861770161104 0 -0.00042636777186670074 -0.0063635481475733668 0 -0.00062530541886105483 -0.0086457579522118098 0 0.00011250534729353666 -0.0085941498014323724 0 0.0010585986420778529 -0.0093587915000620751 0 -0.0004825880941661877 -0.0096142650617857522 0 0.00018790632102552566 -0.0082423980161374852 0 0.00080127862788243755 -0.007719268298719207 0 -0.00062530541886105483 -0.0086457579522118098 0 -0.00048232295310735333 -0.0093163468176707225 0 -0.0009515826377619063 -0.0089523581057348468 0 -0.00057769560553957142 -0.0085290587794783213 0 -0.0009515826377619063 -0.0089523581057348468 0 -0.00057769560553957142 -0.0085290587794783213 0 -0.00092097583460673852 -0.0084289318420377232 0 -0.00057769560553957142 -0.0085290587794783213 0 -0.00092097583460673852 -0.0084289318420377232 0 -0.00087140015144257293 -0.008111190734541758 0 -0.00092097583460673852 -0.0084289318420377232 0 -0.00087140015144257293 -0.008111190734541758 0 -0.0010423610039720476 -0.0079980611003063612 0 -0.00057769560553957142 -0.0085290587794783213 0 -0.00087140015144257293 -0.008111190734541758 0 -0.00037157626824946928 -0.008049267762317177 0 -0.00048232295310735333 -0.0093163468176707225 0 -0.00057769560553957142 -0.0085290587794783213 0 0.00018790632102552566 -0.0082423980161374852 0 -0.00057769560553957142 -0.0085290587794783213 0 -0.00037157626824946928 -0.008049267762317177 0 0.00018790632102552566 -0.0082423980161374852 0 -0.0014059367534370306 -0.0087847696990036462 0 -0.0012591181393482526 -0.0089528492885898141 0 -0.0015524603627589707 -0.0091491003244927611 0 -0.0014059367534370306 -0.0087847696990036462 0 -0.0015524603627589707 -0.0091491003244927611 0 -0.0016803766579951062 -0.0090812353798172783 0 -0.00093390641066543425 -0.0084758428873387762 0 -0.0016119205173307717 -0.0084169323621506257 0 -0.00092097583460673852 -0.0084289318420377232 0 -0.0014059367534370306 -0.0087847696990036462 0 -0.0012591181393482526 -0.0089528492885898141 0 -0.00092097583460673852 -0.0084289318420377232 0 -0.0018409075508581743 -0.0081556205645405295 0 -0.0013566451887211989 -0.0078937297691034584 0 -0.0009515826377619063 -0.0089523581057348468 0 -0.00092097583460673852 -0.0084289318420377232 0 -0.0012591181393482526 -0.0089528492885898141 0 -0.0009515826377619063 -0.0089523581057348468 0 -0.0012591181393482526 -0.0089528492885898141 0 -0.0013528902533523157 -0.0093421091559878263 0 -0.00062530541886105483 -0.0086457579522118098 0 -0.0016513728124708776 -0.0095098503841051906 0 -0.00048232295310735333 -0.0093163468176707225 0 -0.0009515826377619063 -0.0089523581057348468 0 -0.0013528902533523157 -0.0093421091559878263 0 -0.0015524603627589707 -0.0091491003244927611 0 -0.0013528902533523157 -0.0093421091559878263 0 -0.0016897196032077321 -0.0094459046911929516 0 -0.0012591181393482526 -0.0089528492885898141 0 -0.0015524603627589707 -0.0091491003244927611 0 -0.0013528902533523157 -0.0093421091559878263 0 -0.0017243774441889012 -0.0094464102353905514 0 -0.0017235837084379946 -0.009457497881787685 0 -0.0016897196032077321 -0.0094459046911929516 0 -0.0016513728124708776 -0.0095098503841051906 0 -0.0016344733728461025 -0.0094066215812240849 0 -0.0017317247464180864 -0.00944186432157469 0 -0.0017243774441889012 -0.0094464102353905514 0 -0.0017235837084379946 -0.009457497881787685 0 -0.0015449985329700098 -0.0087734192306082575 0 -0.0013271780047276695 -0.0081792018627827139 0 -0.0017712014908033982 -0.0094096963805034659 0 -0.0017317247464180864 -0.00944186432157469 0 -0.0017235837084379946 -0.009457497881787685 0 -0.0017235837084379946 -0.009457497881787685 0 -0.0017164683234338878 -0.0095123126860972695 0 -0.0016897196032077321 -0.0094459046911929516 0 -0.0017250595629799204 -0.0094523147017625663 0 -0.0017235837084379946 -0.009457497881787685 0 -0.0017164683234338878 -0.0095123126860972695 0 -0.0016897196032077321 -0.0094459046911929516 0 -0.0017359927614941121 -0.0095585320947769864 0 -0.0017485151593218718 -0.00940160732543357 0 -0.0017164683234338878 -0.0095123126860972695 0 -0.0016897196032077321 -0.0094459046911929516 0 -0.0017359927614941121 -0.0095585320947769864 0 -0.0017200880775874226 -0.0099385665356386647 0 -0.0017252462666998349 -0.0098087066888448166 0 -0.0017416728138841865 -0.0096921337529524108 0 -0.0017318006312309255 -0.009650202381536549 0 -0.0017252462666998349 -0.0098087066888448166 0 -0.0017416728138841865 -0.0096921337529524108 0 -0.0017318006312309255 -0.009650202381536549 0 -0.0017164683234338878 -0.0095123126860972695 0 -0.0017359927614941121 -0.0095585320947769864 0 -0.0017318006312309255 -0.009650202381536549 0 -0.0017416728138841865 -0.0096921337529524108 0 -0.0017359927614941121 -0.0095585320947769864 0 -0.0017416728138841865 -0.0096921337529524108 0 -0.001786174406550358 -0.0095013920332166282 0 -0.0017359927614941121 -0.0095585320947769864 0 -0.001786174406550358 -0.0095013920332166282 0 -0.0017359927614941121 -0.0095585320947769864 0 -0.0017485151593218718 -0.00940160732543357 0 -0.0018423070976827812 -0.009588356405672337 0 -0.0017416728138841865 -0.0096921337529524108 0 -0.001786174406550358 -0.0095013920332166282 0 -0.0016201255653491582 -0.011824374163798444 0 -0.00186382824488189 -0.0092665483514104315 0 -0.0019996038047416734 -0.0095282158353428379 0 -0.001786174406550358 -0.0095013920332166282 0 -0.0018301701464095634 -0.0093427327504304603 0 -0.0019996038047416734 -0.0095282158353428379 0 -0.0018301701464095634 -0.0093427327504304603 0 -0.0019424164082454285 -0.0092941524535427675 0 -0.001786174406550358 -0.0095013920332166282 0 -0.0018301701464095634 -0.0093427327504304603 0 -0.0017485151593218718 -0.00940160732543357 0 -0.0018301701464095634 -0.0093427327504304603 0 -0.0017649974628545196 -0.0092425907702063954 0 -0.0017485151593218718 -0.00940160732543357 0 -0.0018301701464095634 -0.0093427327504304603 0 -0.0017649974628545196 -0.0092425907702063954 0 -0.0018411963265006614 -0.0092154317972993564 0 -0.0017649974628545196 -0.0092425907702063954 0 -0.0018411963265006614 -0.0092154317972993564 0 -0.0017655030252061812 -0.0091442282325459538 0 -0.0018301701464095634 -0.0093427327504304603 0 -0.0018411963265006614 -0.0092154317972993564 0 -0.0019424164082454285 -0.0092941524535427675 0 -0.0015524603627589707 -0.0091491003244927611 0 -0.0016897196032077321 -0.0094459046911929516 0 -0.0017104961060306293 -0.0092416146170290099 0 -0.0016897196032077321 -0.0094459046911929516 0 -0.0017485151593218718 -0.00940160732543357 0 -0.0017104961060306293 -0.0092416146170290099 0 -0.0017649974628545196 -0.0092425907702063954 0 -0.0017485151593218718 -0.00940160732543357 0 -0.0017104961060306293 -0.0092416146170290099 0 -0.0017649974628545196 -0.0092425907702063954 0 -0.0017210694390713749 -0.0091659184460278799 0 -0.0017655030252061812 -0.0091442282325459538 0 -0.0017104961060306293 -0.0092416146170290099 0 -0.0017210694390713749 -0.0091659184460278799 0 -0.0016803766579951062 -0.0090812353798172783 0 -0.0017649974628545196 -0.0092425907702063954 0 -0.0017104961060306293 -0.0092416146170290099 0 -0.0017210694390713749 -0.0091659184460278799 0 -0.0014059367534370306 -0.0087847696990036462 0 -0.0016803766579951062 -0.0090812353798172783 0 -0.0017358736104531548 -0.0088670329044682056 0 -0.0017210694390713749 -0.0091659184460278799 0 -0.0016803766579951062 -0.0090812353798172783 0 -0.0016962830324737911 -0.0091275098052714613 0 -0.0017637602891017973 -0.0091426216281022942 0 -0.0021547197702916202 -0.0088433864954572308 0 -0.0015524603627589707 -0.0091491003244927611 0 -0.0017104961060306293 -0.0092416146170290099 0 -0.0016803766579951062 -0.0090812353798172783 0 -0.0016119205173307717 -0.0084169323621506257 0 -0.0021547197702916202 -0.0088433864954572308 0 -0.0026777335054443082 -0.0079764482943820835 0 -0.0023983660896042735 -0.0074417303630815645 0 -0.0020556744197385811 -0.0076826887993451561 0 -0.0017210694390713749 -0.0091659184460278799 0 -0.0016962830324737911 -0.0091275098052714613 0 -0.0017655030252061812 -0.0091442282325459538 0 -0.0021547197702916202 -0.0088433864954572308 0 -0.0017564798924724378 -0.0093727955846275197 0 -0.0021895751087659503 -0.0097284853910239409 0 -0.0018698534966387825 -0.010173740292823821 0 -0.0016424927072045919 -0.0098574450408205772 0 -0.0018698534966387825 -0.010173740292823821 0 -0.0020363403201468749 -0.010346747073504766 0 -0.0016324311899537773 -0.01051559015398135 0 -0.0021895751087659503 -0.0097284853910239409 0 -0.0018698534966387825 -0.010173740292823821 0 -0.0020388471032635486 -0.010344490577829071 0 -0.0022499215725898807 -0.0099858269093859881 0 -0.0020801430051374625 -0.0090412476901703016 0 -0.0028907772862495802 -0.0071062347193444767 0 -0.0022798205913161737 -0.0070298570087014081 0 -0.0023983660896042735 -0.0074417303630815645 0 -0.0021547197702916202 -0.0088433864954572308 0 -0.0020801430051374625 -0.0090412476901703016 0 -0.0026777335054443082 -0.0079764482943820835 0 -0.0028907772862495802 -0.0071062347193444767 0 -0.0023983660896042735 -0.0074417303630815645 0 -0.00074915485751858926 -0.014435563599971992 0 -0.0007831214465884842 -0.01433774650996191 0 -0.00080260561338081637 -0.014456799519504432 0 -0.0013506258254284839 -0.011822434432760274 0 -0.0012262344948926159 -0.011806056281541159 0 -0.0018411963265006614 -0.0092154317972993564 0 -0.0019424164082454285 -0.0092941524535427675 0 -0.0018874834858711611 -0.0091422836026245312 0 -0.00074915485751858926 -0.014435563599971992 0 -0.00076930273863436822 -0.014470456426388511 0 -0.00080260561338081637 -0.014456799519504432 0 -0.00064844596858576562 -0.01272462241849457 0 -0.0012262344948926159 -0.011806056281541159 0 -0.0018411963265006614 -0.0092154317972993564 0 -0.0018874834858711611 -0.0091422836026245312 0 -0.0017655030252061812 -0.0091442282325459538 0 -0.0012262344948926159 -0.011806056281541159 0 -0.0017564798924724378 -0.0093727955846275197 0 -0.0011011629683780417 -0.0099931815950256228 0 -0.0016424927072045919 -0.0098574450408205772 0 -0.0014909404201267581 -0.010212948528947236 0 -0.0014909404201267581 -0.010212948528947236 0 -0.0012060411359503084 -0.010469823332813115 0 -0.0016324311899537773 -0.01051559015398135 0 -0.0018698534966387825 -0.010173740292823821 0 -0.0016424927072045919 -0.0098574450408205772 0 -0.0014909404201267581 -0.010212948528947236 0 -0.0018698534966387825 -0.010173740292823821 0 -0.0014909404201267581 -0.010212948528947236 0 -0.0016324311899537773 -0.01051559015398135 0 -0.00076930273863436822 -0.014470456426388511 0 -0.00079932298239730455 -0.014457510082789487 0 -0.00081261003078580095 -0.014552935365325242 0 -0.0007241560998951322 -0.014554571297824401 0 -0.00076930273863436822 -0.014470456426388511 0 -0.00081261003078580095 -0.014552935365325242 0 -0.0011011629683780417 -0.0099931815950256228 0 -0.0014909404201267581 -0.010212948528947236 0 -0.0012060411359503084 -0.010469823332813115 0 -0.0012262344948926159 -0.011806056281541159 0 -0.0010414459594402722 -0.012701811227740183 0 -0.0010414459594402722 -0.012701811227740183 0 -0.00081896399538599815 -0.012114969833183402 0 -0.00069875994715488108 -0.014664524893286625 0 -0.00081261003078580095 -0.014552935365325242 0 -0.00082759120893948119 -0.014632262351839107 0 -0.0012060411359503084 -0.010469823332813115 0 -0.0016324311899537773 -0.01051559015398135 0 -0.0013080604946228767 -0.010944194404407909 0 -0.0016324311899537773 -0.01051559015398135 0 -0.0013080604946228767 -0.010944194404407909 0 -0.0018865439686881946 -0.010940978598653825 0 -0.0012964714416419476 -0.0091018199591649911 0 -0.0014615998707224985 -0.0092650499435914732 0 -0.0011219069046614423 -0.0092548193698585388 0 -0.00081896399538599815 -0.012114969833183402 0 -0.001422836691154196 -0.0093957599169679704 0 -0.00017917946450681071 -0.014648736164211848 0 -0.00081896399538599815 -0.012114969833183402 0 6.5136701628406356e-05 -0.014076375485729497 0 0.00036667739006669312 -0.013867746522444822 0 0.00043015247113438497 -0.014076345524666573 0 -0.0028907772862495802 -0.0071062347193444767 0 -0.0022798205913161737 -0.0070298570087014081 0 -0.0024705726269229292 -0.0066533177733913238 0 -0.0019494119916608525 -0.0075243297425812324 0 -0.0016335695246852942 -0.0075266489547313352 0 -0.0020801430051374625 -0.0090412476901703016 0 -0.0019494119916608525 -0.0075243297425812324 0 -0.0017477311104937105 -0.0086861371736318537 0 -0.001613980032370381 -0.0085442775428526945 0 -0.0018090842782399206 -0.0084206371181290846 0 -0.0020801430051374625 -0.0090412476901703016 0 -0.001422836691154196 -0.0093957599169679704 0 -0.0020363403201468749 -0.010346747073504766 0 -0.0016324311899537773 -0.01051559015398135 0 -0.0018865439686881946 -0.010940978598653825 0 -0.0012267829016269171 -0.0089199743568063473 0 -0.0012964714416419476 -0.0091018199591649911 0 -0.0011219069046614423 -0.0092548193698585388 0 -0.0011985673482641441 -0.0088240547918217224 0 -0.001422836691154196 -0.0093957599169679704 0 -0.001422836691154196 -0.0093957599169679704 0 -0.0016335695246852942 -0.0075266489547313352 0 -0.0012136852703355904 -0.0088919346390757843 0 -0.0012139697401215351 -0.0088913372282672255 0 -0.0012121864955021416 -0.0088673670514532055 0 -0.001613980032370381 -0.0085442775428526945 0 -0.0018090842782399206 -0.0084206371181290846 0 -0.0014816932207128302 -0.0084009449956976533 0 -0.0016335695246852942 -0.0075266489547313352 0 -0.0017275787415628936 -0.0056567510451968157 0 -0.0020470135943338802 -0.0062065078404956453 0 -0.0018226277741341819 -0.0067231594520320032 0 -0.0013564301609233712 -0.0061810617611630231 0 -0.0015613913383211719 -0.0063381444854260574 0 -0.0016068641333215029 -0.0063907220976796297 0 -0.0015140164340388031 -0.0063800315388469718 0 -0.0012477988862346994 -0.0057427734080144318 0 -0.0016335695246852942 -0.0075266489547313352 0 -0.0022798205913161737 -0.0070298570087014081 0 -0.0024705726269229292 -0.0066533177733913238 0 -0.0018226277741341819 -0.0067231594520320032 0 -0.0024705726269229292 -0.0066533177733913238 0 -0.0020470135943338802 -0.0062065078404956453 0 -0.0018226277741341819 -0.0067231594520320032 0 -0.0022798205913161737 -0.0070298570087014081 0 -0.0018226277741341819 -0.0067231594520320032 0 -0.0018714255251313398 -0.0071303996773224802 0 -0.0018226277741341819 -0.0067231594520320032 0 -0.0012910933394737905 -0.0067702812105613084 0 -0.0013564301609233712 -0.0061810617611630231 0 -0.0012910933394737905 -0.0067702812105613084 0 -0.0013564301609233712 -0.0061810617611630231 0 -0.0010270577720331547 -0.0068173689571633675 0 -0.0012910933394737905 -0.0067702812105613084 0 -0.0010270577720331547 -0.0068173689571633675 0 -0.0011094665481794469 -0.0070909420162960255 0 -0.0018226277741341819 -0.0067231594520320032 0 -0.0012910933394737905 -0.0067702812105613084 0 -0.0014788527662383134 -0.007106508216271454 0 -0.0014689034930865353 -0.0032091053761650109 0 -0.002838931265411836 -0.0034053179052790164 0 -0.0021402304668174184 -0.0040425607129574324 0 -0.0012477988862346994 -0.0057427734080144318 0 -0.0017275787415628936 -0.0056567510451968157 0 -0.0016574108748737756 -0.0058452483800314099 0 -0.00069134576037311961 -0.0058291957880799126 0 -0.00070586653029486128 -0.0062737720592228518 0 -0.0014689034930865353 -0.0032091053761650109 0 -0.0021402304668174184 -0.0040425607129574324 0 -0.0008065401482886444 -0.0040040877870545178 0 -0.0017275787415628936 -0.0056567510451968157 0 -0.00080322105751709288 -0.0049086224837987654 0 -0.00069134576037311961 -0.0058291957880799126 0 -0.00020594492522738522 -0.0062903507357663186 0 -0.00070586653029486128 -0.0062737720592228518 0 -0.00080322105751709288 -0.0049086224837987654 0 0.00053494812965772264 -0.0045549609807875435 0 -0.00069134576037311961 -0.0058291957880799126 0 0.00026237189487685606 -0.0058211089337704899 0 -0.00020594492522738522 -0.0062903507357663186 0 -0.00018108260228575103 -0.0027642782430092007 0 -0.0008065401482886444 -0.0040040877870545178 0 0.00054209522622181193 -0.0039731140092080569 0 0.00049731796692031513 -0.0040061843279624101 0 0.00040146230454287654 -0.0051256754829241951 0 -0.00032739338608209678 -0.0060271775727941254 0 0.00053494812965772264 -0.0045549609807875435 0 -0.00038264607280249076 -0.0066784897561471511 0 0.00026237189487685606 -0.0058211089337704899 0 -0.00020594492522738522 -0.0062903507357663186 0 -0.00038839885901041107 -0.0071474202648265607 0 -0.00020594492522738522 -0.0062903507357663186 0 -0.00045019155168028296 -0.0066194635033359995 0 -0.00038839885901041107 -0.0071474202648265607 0 0.00076638776738186378 -0.0046475183467199971 0 0.00049731796692031513 -0.0040061843279624101 0 0.00040146230454287654 -0.0051256754829241951 0 -0.00020594492522738522 -0.0062903507357663186 0 -0.00045019155168028296 -0.0066194635033359995 0 -0.00070586653029486128 -0.0062737720592228518 0 -0.00045019155168028296 -0.0066194635033359995 0 -0.00054783970684966576 -0.0068654184050786797 0 -0.00038839885901041107 -0.0071474202648265607 0 0.00029499562714646913 -0.0056190218353535 0 0.00040146230454287654 -0.0051256754829241951 0 -0.00032739338608209678 -0.0060271775727941254 0 0.00077187530634357604 -0.0053275689928424458 0 0.00029499562714646913 -0.0056190218353535 0 0.00058271221628038595 -0.0058355228527480745 0 0.00077187530634357604 -0.0053275689928424458 0 0.00029499562714646913 -0.0056190218353535 0 0.00040146230454287654 -0.0051256754829241951 0 -0.0017275787415628936 -0.0056567510451968157 0 -0.00047886577804841891 -0.0069759103702607735 0 -0.0016574108748737756 -0.0058452483800314099 0 -0.00070586653029486128 -0.0062737720592228518 0 -0.00054783970684966576 -0.0068654184050786797 0 -0.0013564301609233712 -0.0061810617611630231 0 -0.00054783970684966576 -0.0068654184050786797 0 -0.0010270577720331547 -0.0068173689571633675 0 -0.00045019155168028296 -0.0066194635033359995 0 -0.00070586653029486128 -0.0062737720592228518 0 -0.00054783970684966576 -0.0068654184050786797 0 -0.0010270577720331547 -0.0068173689571633675 0 -0.00084732865002792109 -0.0071997019142393762 0 -0.0011094665481794469 -0.0070909420162960255 0 -0.00084732865002792109 -0.0071997019142393762 0 -0.0011094665481794469 -0.0070909420162960255 0 -0.0011902627074294972 -0.0074195971589740683 0 -0.00054783970684966576 -0.0068654184050786797 0 -0.0010270577720331547 -0.0068173689571633675 0 -0.00084732865002792109 -0.0071997019142393762 0 -0.00054783970684966576 -0.0068654184050786797 0 -0.00084732865002792109 -0.0071997019142393762 0 -0.00038839885901041107 -0.0071474202648265607 0 -0.00084732865002792109 -0.0071997019142393762 0 -0.00038839885901041107 -0.0071474202648265607 0 -0.00095640446066743107 -0.0076297897703569645 0 -0.00084732865002792109 -0.0071997019142393762 0 -0.00095640446066743107 -0.0076297897703569645 0 -0.0011902627074294972 -0.0074195971589740683 0 -0.00032739338608209678 -0.0060271775727941254 0 0.00018406380384896001 -0.0066133779498228585 0 -0.00019139889145375669 -0.007258545788966831 0 0.00058271221628038595 -0.0058355228527480745 0 0.00025403982159157191 -0.0060429773749538715 0 0.00053998694057335673 -0.0062356435531058917 0 0.00029499562714646913 -0.0056190218353535 0 0.00058271221628038595 -0.0058355228527480745 0 0.00025403982159157191 -0.0060429773749538715 0 0.00029499562714646913 -0.0056190218353535 0 0.00025403982159157191 -0.0060429773749538715 0 -0.00032739338608209678 -0.0060271775727941254 0 0.00025403982159157191 -0.0060429773749538715 0 -0.00032739338608209678 -0.0060271775727941254 0 0.00018406380384896001 -0.0066133779498228585 0 0.0009119547128231245 -0.0068934618808964209 0 0.00018406380384896001 -0.0066133779498228585 0 0.00053998694057335673 -0.0062356435531058917 0 0.00025403982159157191 -0.0060429773749538715 0 0.00018406380384896001 -0.0066133779498228585 0 0.00053998694057335673 -0.0062356435531058917 0 0.0009119547128231245 -0.0068934618808964209 0 0.00018406380384896001 -0.0066133779498228585 0 0.00042963039862406493 -0.0073708303116410377 0 0.00018406380384896001 -0.0066133779498228585 0 -0.00019139889145375669 -0.007258545788966831 0 0.00042963039862406493 -0.0073708303116410377 0 -0.00037157626824946928 -0.008049267762317177 0 0.00018790632102552566 -0.0082423980161374852 0 -0.00019139889145375669 -0.007258545788966831 0 0.00018790632102552566 -0.0082423980161374852 0 -0.00019139889145375669 -0.007258545788966831 0 0.00042963039862406493 -0.0073708303116410377 0 0.001070554334708857 -0.007811123334867184 0 0.00018790632102552566 -0.0082423980161374852 0 0.00042963039862406493 -0.0073708303116410377 0 -0.00087140015144257293 -0.008111190734541758 0 -0.00038839885901041107 -0.0071474202648265607 0 -0.00095640446066743107 -0.0076297897703569645 0 -0.00084323634581934205 -0.0079793938023596887 0 -0.00038264607280249076 -0.0066784897561471511 0 -0.00087140015144257293 -0.008111190734541758 0 -0.00032739338608209678 -0.0060271775727941254 0 -0.00019139889145375669 -0.007258545788966831 0 -0.00087140015144257293 -0.008111190734541758 0 -0.00037157626824946928 -0.008049267762317177 0 -0.00019139889145375669 -0.007258545788966831 0 -0.00087140015144257293 -0.008111190734541758 0 -0.00095640446066743107 -0.0076297897703569645 0 -0.0010423610039720476 -0.0079980611003063612 0 -0.00095640446066743107 -0.0076297897703569645 0 -0.0010423610039720476 -0.0079980611003063612 0 -0.0013566451887211989 -0.0078937297691034584 0 -0.00092097583460673852 -0.0084289318420377232 0 -0.0010423610039720476 -0.0079980611003063612 0 -0.0013566451887211989 -0.0078937297691034584 0 -0.0018409075508581743 -0.0081556205645405295 0 -0.0013566451887211989 -0.0078937297691034584 0 -0.0016007508512267462 -0.0075006296532230321 0 -0.00095640446066743107 -0.0076297897703569645 0 -0.0013566451887211989 -0.0078937297691034584 0 -0.0011902627074294972 -0.0074195971589740683 0 -0.0013566451887211989 -0.0078937297691034584 0 -0.0011902627074294972 -0.0074195971589740683 0 -0.0016007508512267462 -0.0075006296532230321 0 -0.0018409075508581743 -0.0081556205645405295 0 -0.0026777335054443082 -0.0079764482943820835 0 -0.0020556744197385811 -0.0076826887993451561 0 -0.0018409075508581743 -0.0081556205645405295 0 -0.0020556744197385811 -0.0076826887993451561 0 -0.0016007508512267462 -0.0075006296532230321 0 -0.0020556744197385811 -0.0076826887993451561 0 -0.0018714255251313398 -0.0071303996773224802 0 -0.0016007508512267462 -0.0075006296532230321 0 -0.0023983660896042735 -0.0074417303630815645 0 -0.0020556744197385811 -0.0076826887993451561 0 -0.0018714255251313398 -0.0071303996773224802 0 -0.0022798205913161737 -0.0070298570087014081 0 -0.0023983660896042735 -0.0074417303630815645 0 -0.0018714255251313398 -0.0071303996773224802 0 -0.0018226277741341819 -0.0067231594520320032 0 -0.0018714255251313398 -0.0071303996773224802 0 -0.0014788527662383134 -0.007106508216271454 0 -0.0018714255251313398 -0.0071303996773224802 0 -0.0014788527662383134 -0.007106508216271454 0 -0.0016007508512267462 -0.0075006296532230321 0 -0.0014788527662383134 -0.007106508216271454 0 -0.0011094665481794469 -0.0070909420162960255 0 -0.0011902627074294972 -0.0074195971589740683 0 -0.0012910933394737905 -0.0067702812105613084 0 -0.0014788527662383134 -0.007106508216271454 0 -0.0011094665481794469 -0.0070909420162960255 0 -0.0014788527662383134 -0.007106508216271454 0 -0.0011902627074294972 -0.0074195971589740683 0 -0.0016007508512267462 -0.0075006296532230321 0 
</DataArray>
</PointData>
<CellData Scalars="region_id,cross_section_updated," Vectors="" Tensors="stress,">
<DataArray type="Float64" Name="region_id" format="ascii">
5 5 5 5 5 5 6 5 5 5 6 5 5 5 6 5 5 5 5 5 5 6 6 5 5 5 5 6 6 5 6 6 5 6 5 5 5 6 5 5 6 5 5 5 5 5 5 5 6 5 5 5 5 5 5 5 5 6 5 5 6 5 6 5 6 5 6 5 5 5 5 5 5 5 5 5 5 5 5 5 5 5 5 6 5 5 5 5 5 5 5 5 6 5 5 6 6 5 5 5 5 5 5 5 5 5 5 5 5 6 5 5 5 5 5 6 5 5 6 5 5 5 5 5 5 5 5 5 5 5 5 5 5 5 5 5 5 5 6 5 5 5 5 5 6 5 5 5 5 5 5 5 5 5 5 5 5 5 5 5 5 5 5 5 5 5 5 5 5 6 5 6 5 5 5 6 5 5 5 6 5 5 5 6 6 5 5 6 5 5 5 5 6 5 5 5 5 5 6 5 5 5 5 6 5 6 5 5 6 5 5 5 6 5 5 6 5 5 5 5 5 5 5 5 5 5 6 5 5 6 5 5 5 5 5 5 5 6 5 5 5 5 5 5 5 5 5 5 5 5 5 5 5 5 5 5 5 5 5 6 5 6 5 5 5 5 5 6 5 5 5 5 5 5 5 5 6 5 5 5 6 5 5 6 5 5 5 5 6 5 5 6 5 5 5 5 5 6 5 6 5 5 5 5 5 5 5 5 5 5 5 5 5 5 5 5 5 5 6 5 5 5 5 5 6 6 5 5 5 5 5 5 5 5 5 5 6 5 5 5 5 5 5 5 5 5 6 5 5 6 6 5 5 5 6 5 5 6 5 5 5 5 5 5 5 5 5 5 5 5 5 5 5 6 5 5 5 5 5 5 5 5 6 5 5 6 5 5 5 5 6 5 5 5 5 5 5 5 5 5 5 5 5 5 5 6 6 5 5 6 6 5 6 5 6 5 6 5 5 6 5 5 5 5 5 5 5 5 5 6 6 5 5 6 5 5 5 5 5 6 5 5 6 5 5 5 5 6 5 5 5 6 5 5 5 6 5 6 5 5 6 5 5 5 5 5 5 5 5 5 5 5 6 5 5 5 5 5 5 6 5 5 5 6 5 5 5 5 5 5 5 6 5 5 5 5 5 6 5 6 5 5 5 5 5 6 6 5 5 5 6 6 5 6 5 5 5 5 5 5 5 6 5 5 5 5 5 5 5 5 5 5 5 5 5 5 6 5 5 6 5 6 5 5 5 5 5 5 5 5 5 5 5 5 5 5 6 5 5 5 5 5 5 5 5 5 5 5 5 5 5 5 5 6 5 5 5 5 5 5 5 5 5 5 5 6 6 5 5 5 5 5 5 5 5 5 5 5 5 5 5 5 5 6 5 5 5 5 5 5 5 6 5 5 5 5 5 5 5 5 6 5 5 5 6 5 5 5 5 5 5 5 5 5 5 5 5 5 5 5 5 5 5 5 5 5 5 5 5 5 5 5 5 6 5 6 5 5 5 5 5 5 5 5 5 5 5 5 5 6 5 5 5 6 5 5 5 5 5 5 5 5 5 5 5 5 5 6 6 5 5 5 5 5 5 5 6 5 5 5 5 5 5 5 5 5 5 5 6 5 5 5 5 5 5 5 6 5 5 5 5 5 5 5 5 5 5 5 5 5 5 5 5 5 6 5 5 5 5 5 5 5 5 5 5 6 5 5 5 5 5 6 5 5 5 6 5 5 5 5 6 5 5 5 5 5 5 5 6 5 6 5 5 6 5 6 5 5 5 5 5 5 5 5 5 5 5 5 5 5 5 5 5 5 5 5 5 5 5 5 5 5 5 5 5 5 5 5 5 5 5 6 5 6 6 5 5 5 5 5 5 5 5 5 5 5 6 5 5 5 5 5 5 5 6 5 6 5 6 5 5 5 5 5 5 6 5 6 6 5 5 5 5 5 5 5 5 5 5 5 5 5 5 5 5 5 6 5 5 5 5 5 5 5 5 5 5 5 5 5 5 6 5 5 5 5 5 5 5 5 5 5 5 5 5 6 5 5 5 5 5 5 5 5 5 6 5 5 5 5 5 6 6 5 5 5 5 6 6 5 5 5 5 5 5 5 5 5 5 5 6 5 5 5 5 6 5 5 5 5 5 5 6 5 5 6 5 6 5 5 5 6 5 5 5 5 5 5 5 6 5 5 5 5 6 6 5 5 6 5 5 5 6 6 6 6 5 5 6 5 5 5 5 5 5 5 5 6 6 5 5 5 5 5 5 6 5 6 5 5 5 6 5 5 5 5 5 5 5 5 5 5 5 5 5 5 5 5 5 5 5 5 5 5 5 5 5 5 5 5 6 5 5 5 5 5 5 5 5 5 5 5 5 5 5 5 5 5 5 5 5 5 6 5 5 5 5 5 5 5 5 5 6 5 5 5 5 5 5 6 5 5 5 5 5 6 5 5 5 5 5 6 5 5 5 5 5 5 5 5 5 5 6 5 5 5 5 6 6 5 5 6 5 5 5 5 6 5 5 6 5 5 5 5 5 6 6 5 5 5 5 5 5 6 5 5 5 5 5 5 5 6 6 5 5 5 6 5 5 5 6 5 5 6 5 6 5 5 5 6 5 5 6 6 5 5 5 5 5 5 6 5 6 5 6 5 5 5 6 6 5 6 5 5 5 5 5 5 5 5 5 5 5 5 5 5 5 5 6 5 5 5 5 5 5 5 6 5 5 5 5 5 6 5 5 5 6 5 5 5 5 6 5 6 5 6 5 5 5 5 6 5 5 6 5 5 5 5 5 5 5 5 5 5 5 6 5 5 5 5 6 5 5 5 5 6 5 5 5 5 5 5 6 5 5 5 6 5 6 6 5 5 5 5 5 5 5 5 5 5 5 5 5 5 5 5 5 5 5 5 5 5 5 5 5 5 5 5 6 5 5 6 6 5 6 5 5 5 5 6 5 5 6 5 5 5 5 5 5 5 5 5 5 5 5 5 5 5 5 5 5 5 5 5 5 5 5 5 5 5 5 6 5 5 5 5 5 5 5 5 6 5 5 5 5 5 5 5 6 5 6 5 5 5 6 5 5 5 5 5 5 5 6 5 6 5 5 5 5 5 6 5 5 5 5 5 5 5 5 5 5 5 5 5 5 5 5 5 5 5 5 5 5 5 5 5 5 5 5 5 5 5 5 5 5 5 5 5 5 5 6 6 5 5 6 5 5 5 6 5 5 5 6 6 5 5 6 5 5 5 5 5 5 5 5 5 5 5 5 5 5 5 5 5 5 5 5 5 6 5 6 5 5 5 5 5 5 5 5 5 5 5 5 5 5 5 5 5 5 5 5 5 5 5 5 5 5 5 5 5 5 5 5 5 5 5 5 5 5 5 5 5 5 5 5 5 6 5 6 5 6 5 5 6 5 5 5 5 5 5 5 5 5 5 5 5 5 5 5 5 5 5 5 5 5 5 5 5 5 5 5 6 5 5 5 5 5 5 5 5 5 5 5 5 5 5 5 5 5 5 5 5 5 5 5 5 5 5 5 5 5 5 5 5 5 5 5 5 5 5 5 5 5 5 5 5 5 5 5 5 5 6 5 5 5 5 6 5 5 5 5 5 5 5 5 6 5 5 5 5 5 6 6 6 5 5 5 5 6 6 5 5 6 5 5 5 5 5 5 5 5 5 5 5 5 5 5 6 6 5 6 5 5 5 5 5 5 5 5 5 5 5 5 5 5 5 5 5 5 6 5 5 5 5 5 5 6 5 5 5 5 5 5 5 5 5 5 5 5 5 5 5 5 5 5 6 5 5 5 5 5 5 5 5 5 6 5 5 6 5 5 5 5 5 5 5 5 5 5 5 5 5 5 5 5 6 5 6 5 5 5 5 6 5 6 5 5 6 6 5 5 6 5 5 5 6 5 5 5 5 5 5 6 5 5 5 6 5 5 5 5 6 5 5 5 5 5 5 5 6 5 5 5 5 5 6 5 5 6 5 5 5 5 5 5 5 6 5 5 5 6 6 5 5 5 6 5 5 5 5 5 6 6 6 5 5 5 5 5 5 5 5 5 6 6 5 6 5 5 5 5 5 6 5 5 6 5 6 5 5 5 6 5 5 6 5 5 5 5 5 5 5 6 5 5 6 6 5 5 6 5 6 5 5 6 5 5 6 5 6 5 5 5 6 5 5 6 5 6 5 5 6 5 6 5 5 5 5 6 6 5 5 5 5 5 5 5 5 5 6 5 5 5 5 5 5 5 5 5 5 5 5 5 5 5 5 5 5 6 6 5 5 5 6 5 5 5 5 6 5 5 6 5 5 5 6 5 5 6 5 5 5 5 6 5 5 5 5 5 6 5 5 5 6 6 5 5 6 5 5 5 5 5 6 6 5 5 5 5 6 5 5 5 5 6 5 5 5 5 5 5 5 5 5 5 5 5 5 5 5 5 5 5 5 5 5 5 5 5 5 5 5 5 6 5 5 5 5 5 5 5 5 5 5 5 6 5 5 5 5 6 5 5 5 6 5 5 6 5 5 5 5 5 6 5 5 5 5 5 5 5 5 5 5 5 5 5 5 5 5 5 5 5 5 6 5 5 5 5 5 6 5 5 5 5 5 5 5 6 5 5 5 5 5 5 5 5 5 5 5 5 5 6 5 5 5 5 5 6 6 5 5 5 5 6 5 6 5 5 5 6 6 5 5 6 5 5 5 6 5 5 5 5 6 5 5 6 6 5 5 5 5 5 5 6 5 5 6 5 5 5 5 6 5 5 5 5 5 5 5 5 5 5 5 5 5 5 5 5 5 5 5 6 5 6 5 5 5 6 5 6 5 6 5 5 6 5 5 6 6 6 5 5 5 6 5 5 5 5 5 5 6 5 5 5 5 5 5 5 6 5 6 5 5 5 5 5 5 5 6 5 5 5 5 5 5 5 5 5 5 5 6 5 5 6 5 5 5 5 5 5 5 5 5 5 5 5 5 5 5 5 6 5 5 5 5 5 5 5 5 5 5 5 5 5 5 5 5 5 5 5 5 5 6 5 5 5 6 5 5 5 5 5 5 5 5 5 5 6 5 5 5 5 5 5 5 5 5 5 6 5 5 5 5 5 5 6 5 5 5 6 5 5 5 5 5 5 5 5 5 5 5 5 5 5 5 5 5 5 5 5 5 6 5 5 5 5 5 6 5 5 6 5 5 5 5 5 5 6 5 5 5 5 6 5 5 5 5 5 5 5 5 5 5 5 5 5 5 5 5 5 5 6 5 5 5 5 5 6 5 5 5 6 5 6 5 5 5 5 5 5 5 6 5 5 5 6 6 5 5 5 5 5 6 5 5 5 6 5 5 5 5 5 5 5 5 5 5 5 5 5 5 5 6 5 5 5 5 5 5 6 5 5 5 5 5 5 5 5 5 5 5 6 5 5 5 5 5 5 5 5 5 6 5 5 5 5 6 6 5 5 5 5 5 5 5 5 6 6 5 6 5 5 5 5 5 6 5 5 5 5 5 5 6 5 6 5 5 5 5 5 5 5 5 5 5 6 5 5 5 5 5 5 6 5 5 5 5 5 5 5 5 6 5 5 5 5 5 6 5 5 6 5 5 5 5 5 5 6 5 5 5 5 5 5 5 5 6 5 5 5 5 6 5 5 5 5 5 5 5 5 5 5 6 5 5 5 5 5 5 5 5 5 6 5 5 5 5 6 5 5 5 5 5 5 5 5 6 5 6 5 5 5 6 5 5 5 5 5 5 5 5 6 5 5 5 6 5 5 5 6 5 5 6 5 5 5 5 5 5 5 5 5 5 5 5 5 5 5 5 5 5 5 5 5 5 5 5 5 5 5 5 5 5 5 5 5 5 5 5 5 5 5 5 5 5 5 5 5 5 5 5 5 5 5 5 5 6 5 5 5 6 5 5 5 5 5 5 6 5 6 5 5 5 5 6 6 5 5 5 5 5 5 5 5 5 5 5 5 5 5 5 5 5 5 5 5 5 5 6 5 5 6 5 5 5 6 5 5 5 5 5 5 5 5 5 5 5 5 5 5 6 5 6 5 6 5 5 5 5 5 5 5 5 5 5 5 5 5 5 5 5 5 6 5 5 5 5 5 5 5 5 5 5 5 5 5 5 5 5 5 5 5 5 5 5 5 5 5 5 5 5 5 5 5 5 5 6 5 5 5 5 5 5 6 5 5 6 5 6 5 5 6 5 5 5 6 5 5 5 5 5 5 5 5 5 5 5 5 5 5 5 5 5 5 5 5 5 5 5 5 5 6 5 5 5 5 6 5 5 6 5 5 5 5 5 5 5 5 5 5 5 5 5 5 5 5 5 5 5 5 5 5 5 5 5 5 5 5 5 5 6 5 5 5 6 5 5 5 5 6 5 5 5 5 5 6 5 5 5 5 6 5 5 5 5 5 5 5 5 5 5 5 5 5 5 6 6 5 6 5 6 5 5 5 5 5 5 5 5 5 5 5 5 5 5 5 5 5 5 5 5 5 5 5 5 5 6 6 5 5 6 5 5 6 5 5 5 5 5 5 5 5 5 5 5 6 5 5 6 5 5 5 5 5 5 5 5 5 5 5 5 5 5 6 6 5 6 6 5 5 5 5 6 5 5 5 6 6 5 5 5 5 5 5 5 6 5 5 5 5 5 5 5 5 5 5 5 5 5 5 5 5 6 5 5 5 5 6 5 5 5 5 5 5 5 6 5 5 5 5 5 5 5 6 5 5 6 5 5 5 5 5 5 5 5 5 5 5 5 5 5 5 6 5 5 5 5 5 5 5 5 6 5 5 5 5 5 5 5 6 5 5 5 5 5 6 5 5 5 5 6 5 5 5 5 5 5 5 5 5 5 5 5 6 5 5 5 5 5 5 5 5 5 5 5 5 5 5 6 5 5 5 5 5 5 5 5 5 5 5 5 5 6 6 5 5 6 5 5 5 5 6 5 5 5 6 5 5 6 5 5 5 5 6 5 5 5 5 5 5 5 5 5 5 5 5 5 5 5 5 5 5 5 5 5 5 5 5 5 5 5 5 5 5 5 5 5 5 6 5 5 5 6 5 6 5 5 5 5 5 5 5 5 5 5 5 5 5 5 6 5 5 5 5 5 5 5 5 6 5 5 5 6 5 5 5 5 5 5 5 6 5 6 5 5 5 5 5 5 5 5 5 5 5 5 5 5 6 5 5 6 5 5 5 5 5 5 5 6 5 5 5 5 5 5 5 5 5 5 5 5 5 5 5 5 5 5 5 5 5 5 5 5 5 5 5 6 5 5 6 5 5 5 6 5 5 6 5 5 5 5 5 5 5 5 5 5 5 5 5 5 5 5 5 5 5 6 5 5 5 5 5 5 5 5 5 5 5 5 5 6 5 5 5 5 5 5 5 5 5 5 5 5 5 5 5 5 5 5 5 6 5 5 5 5 5 5 5 5 5 5 5 5 5 5 5 5 6 5 5 6 5 5 5 6 5 5 6 5 5 5 5 5 5 5 5 5 5 5 5 5 5 6 5 5 6 5 5 5 5 5 5 5 5 5 5 5 5 5 5 5 5 5 5 5 5 5 5 5 5 5 5 5 5 5 5 5 5 5 5 5 5 6 5 5 5 5 6 5 5 5 5 5 5 5 5 5 5 5 5 5 5 5 6 5 6 6 5 5 6 5 6 5 5 5 5 5 5 5 5 6 5 5 6 5 5 5 5 6 6 5 6 5 5 5 5 5 5 5 5 5 5 5 5 5 5 5 5 5 5 5 5 5 6 5 5 5 5 5 5 5 5 5 5 5 5 5 5 5 5 5 5 5 5 5 5 5 5 5 6 5 5 5 5 5 6 5 5 5 5 5 5 5 5 5 6 5 5 5 5 5 5 5 5 5 5 5 5 5 5 5 5 5 6 6 5 5 6 5 5 5 6 5 5 5 5 5 5 5 5 5 5 6 5 5 6 5 6 5 5 5 5 6 5 5 5 6 5 5 5 5 5 5 6 5 5 5 5 5 5 6 5 5 5 5 5 5 5 5 5 5 5 5 5 5 6 5 5 6 5 5 5 6 6 5 5 5 5 5 5 5 5 5 5 6 5 5 5 6 5 5 5 5 6 5 5 5 5 5 5 5 5 6 5 5 5 5 5 6 6 5 5 5 6 5 6 6 5 5 5 5 5 6 5 5 5 5 5 5 6 5 5 5 5 5 5 5 6 5 5 6 5 5 6 5 5 5 5 5 5 5 5 5 5 5 5 5 5 6 5 5 5 6 5 5 6 5 5 5 5 6 5 5 5 5 5 5 5 5 6 5 5 5 5 6 5 5 5 5 5 5 5 5 6 5 5 5 5 5 5 5 5 5 6 5 5 5 6 5 5 6 5 5 6 5 5 5 5 5 5 5 5 5 6 5 5 5 5 5 5 5 5 5 5 5 5 5 5 5 5 6 5 5 5 5 5 5 5 5 5 5 5 5 5 5 5 5 5 5 5 5 5 5 5 5 5 5 6 5 6 5 5 5 5 5 5 5 5 5 5 6 5 5 6 5 5 5 5 5 5 5 5 5 5 5 5 5 5 5 5 5 5 5 5 5 6 5 5 5 5 5 5 5 5 5 6 5 6 5 5 5 5 5 5 5 6 5 6 5 5 5 5 5 5 5 5 5 5 5 6 5 5 5 5 6 5 6 5 5 5 5 5 5 6 5 5 6 5 5 6 5 5 5 6 6 6 5 5 5 5 5 5 5 5 5 5 5 5 5 6 5 5 5 5 5 5 5 6 5 6 5 6 5 5 6 6 5 5 5 5 5 5 6 5 5 5 5 6 5 6 5 6 5 6 5 5 5 5 6 5 5 5 5 5 6 5 5 5 5 5 5 5 5 5 5 5 5 5 5 6 5 5 5 5 5 6 5 5 5 6 5 5 5 5 5 5 5 5 5 5 5 5 5 5 5 5 5 6 5 5 5 5 6 5 5 5 5 5 5 6 5 5 5 5 5 5 5 5 5 5 6 5 5 6 5 6 5 5 5 5 5 5 5 5 5 5 5 6 5 5 5 5 5 5 6 5 6 6 5 6 5 5 5 5 5 5 5 6 5 5 5 5 5 5 5 5 5 5 5 5 5 5 5 5 6 5 5 5 5 5 5 5 5 5 5 6 5 5 5 5 5 5 5 5 5 5 6 5 5 5 5 6 5 5 5 5 5 6 5 5 5 5 6 5 5 5 5 5 5 5 5 5 5 5 5 5 5 5 5 5 5 6 5 5 5 5 5 5 5 5 6 5 6 6 5 5 5 5 5 6 5 5 5 5 5 5 5 5 5 5 5 5 5 5 6 5 5 6 5 6 6 5 5 5 5 5 5 6 5 5 5 5 6 5 6 5 5 6 5 5 5 5 5 5 6 6 5 5 5 5 5 5 5 5 5 5 5 5 5 5 5 6 5 5 5 5 5 5 5 6 5 6 5 5 5 6 5 6 5 5 5 5 5 5 5 5 6 5 5 5 5 5 6 5 6 5 5 5 5 6 5 5 5 5 5 6 5 5 5 5 5 5 5 5 5 5 5 5 5 5 5 5 5 5 5 5 5 5 5 5 6 5 5 5 6 5 6 5 5 5 6 5 5 5 5 5 5 5 5 5 5 5 5 5 5 5 5 5 6 6 6 6 5 5 5 5 5 5 6 5 5 5 6 5 5 5 5 5 5 5 5 5 5 6 6 6 5 5 6 6 5 5 5 5 5 5 5 5 5 6 5 5 5 5 5 5 5 5 6 6 5 5 5 6 5 5 5 5 5 5 5 5 5 5 5 6 5 6 5 5 5 5 5 6 6 5 5 6 6 5 5 5 5 5 5 5 5 5 5 5 5 5 5 5 5 5 5 5 5 5 5 5 5 5 5 5 5 5 5 5 5 5 5 5 5 5 5 5 5 5 5 6 6 5 5 5 5 5 5 5 5 5 5 5 5 5 5 5 5 5 5 5 5 6 5 5 5 5 5 5 5 5 5 5 5 5 5 5 5 5 6 5 6 5 5 5 5 5 5 5 5 6 5 5 5 5 5 5 5 5 5 5 5 6 5 5 6 5 5 6 5 5 5 5 6 5 5 5 5 6 5 5 6 5 6 5 5 5 5 5 6 5 5 5 5 5 5 5 6 5 5 5 5 5 5 5 5 5 5 5 5 5 5 5 5 5 5 5 5 5 5 5 5 6 5 5 5 6 5 5 6 5 5 5 6 5 5 5 5 6 5 6 5 5 5 5 5 5 5 5 6 5 5 5 5 5 5 5 5 5 5 6 5 5 6 5 5 6 5 5 6 6 5 5 5 5 5 5 5 6 6 5 5 5 6 5 5 6 6 5 5 5 6 6 5 6 5 5 6 5 5 5 5 6 5 6 6 5 5 5 6 5 6 6 5 6 6 6 6 5 6 5 6 5 6 5 5 5 6 5 5 6 5 6 6 5 5 5 5 6 5 6 6 5 5 5 6 6 5 5 6 6 5 5 5 5 6 5 5 5 5 6 5 5 5 5 6 5 6 5 6 5 6 5 6 5 6 5 5 5 5 5 6 5 5 6 6 6 5 5 6 6 5 6 5 5 6 5 5 5 5 5 5 6 5 5 6 5 6 5 5 5 5 6 5 6 5 6 5 5 5 6 5 5 6 5 6 5 6 5 5 5 5 5 6 5 5 5 5 5 5 5 5 5 5 6 5 5 5 5 6 5 5 6 5 5 5 5 5 6 5 5 6 5 5 5 6 5 6 5 5 5 6 5 5 5 5 6 5 5 5 5 6 6 5 5 5 5 5 5 6 5 5 6 5 5 5 5 5 5 5 5 5 5 5 5 5 5 5 5 5 5 5 5 5 5 5 5 5 5 5 5 5 5 5 5 5 5 5 5 5 5 5 5 5 5 5 5 5 5 5 5 5 5 5 5 5 5 5 5 5 5 6 5 5 5 5 5 5 5 5 5 5 5 5 6 5 5 6 5 5 5 6 5 5 5 5 5 5 5 5 5 5 5 5 5 5 5 6 5 5 5 5 5 5 5 5 5 5 5 5 5 5 5 5 6 5 5 5 5 5 5 5 5 5 5 5 5 5 6 5 5 6 5 5 6 5 6 5 5 5 5 5 5 5 6 5 5 5 5 5 5 5 5 5 5 5 5 6 5 5 5 6 5 5 5 5 5 5 5 5 5 6 5 5 5 5 5 5 6 5 5 5 5 5 5 6 5 5 5 6 5 5 5 5 5 5 5 6 5 5 5 5 5 5 5 5 5 5 6 5 5 5 5 5 5 5 5 5 5 5 5 5 5 5 5 6 5 6 5 5 5 5 5 5 5 5 5 5 6 5 6 5 5 5 5 5 5 5 5 5 5 5 6 5 5 5 5 5 5 5 5 5 5 5 6 5 5 5 5 5 5 5 6 5 5 5 5 5 5 5 6 5 5 5 5 5 5 5 5 5 5 5 6 5 5 5 5 5 5 5 5 6 5 6 5 5 5 5 5 5 5 5 5 5 6 5 5 5 6 5 5 5 5 5 5 5 5 5 6 5 5 5 5 5 5 5 5 5 5 5 5 5 5 5 5 6 5 5 5 5 5 5 5 5 5 5 5 5 5 5 5 5 5 5 6 5 5 6 5 5 6 5 5 5 5 5 6 5 5 5 5 5 5 5 5 5 5 5 5 5 5 5 5 5 5 5 5 5 5 5 5 5 5 5 5 5 5 5 5 5 5 5 5 5 5 5 5 5 5 5 5 5 5 5 5 5 5 5 5 5 5 5 5 5 5 5 6 5 5 6 5 5 5 5 5 5 5 5 5 5 5 5 5 5 5 5 5 5 5 5 5 5 5 5 6 6 5 5 5 5 5 5 5 5 5 5 5 5 5 5 5 5 6 6 5 5 5 5 5 5 5 6 5 6 5 5 6 6 5 5 5 5 5 5 5 5 5 5 5 6 5 6 5 5 5 6 5 5 5 6 5 6 5 5 5 5 5 6 6 5 5 5 5 5 5 5 5 5 5 5 5 5 5 5 5 5 5 5 5 5 5 5 5 5 5 5 5 5 5 5 5 5 5 5 5 5 5 5 5 5 5 5 5 5 5 5 5 5 5 5 5 5 5 5 5 5 5 5 5 5 5 5 5 5 5 5 5 5 5 5 5 5 5 5 5 5 5 5 5 5 5 5 5 5 5 5 5 5 5 5 5 5 5 5 5 5 5 5 5 5 5 5 5 6 6 5 6 5 6 5 5 6 5 5 5 5 6 5 5 5 5 5 5 5 6 6 6 5 5 5 5 5 6 6 5 5 5 5 5 5 5 5 5 5 5 5 5 5 5 5 5 5 5 5 5 5 5 5 5 5 5 5 5 5 5 5 5 5 6 5 5 6 5 5 5 5 5 5 5 5 5 5 5 6 5 5 5 5 5 5 5 6 5 5 5 5 5 5 5 5 5 5 5 5 5 5 5 5 6 5 5 6 5 5 5 5 5 5 5 5 5 5 5 5 5 5 5 5 5 5 5 5 5 5 5 6 5 5 6 5 5 6 5 5 5 5 5 5 5 6 5 5 5 5 5 5 6 5 5 6 5 5 5 5 6 5 6 5 5 6 5 5 5 5 6 5 6 5 5 6 5 5 5 5 5 5 5 5 5 5 5 5 6 5 5 5 6 5 5 6 5 5 5 5 6 5 5 5 5 5 5 5 5 5 5 6 5 5 5 5 5 5 5 5 5 5 6 5 5 5 5 5 5 5 5 5 5 5 5 6 5 5 6 5 5 5 5 5 5 5 5 5 5 6 5 5 5 5 5 6 5 6 6 5 5 6 5 5 5 5 5 5 5 5 5 6 6 5 5 5 5 5 5 6 5 5 5 5 5 5 5 5 5 5 5 5 5 5 5 5 5 5 5 5 5 5 5 5 5 6 5 5 5 5 5 5 5 5 5 5 5 5 5 5 5 5 5 5 5 5 5 5 5 5 5 5 5 5 5 5 5 5 5 5 5 5 5 5 5 5 6 5 5 5 5 5 5 5 5 5 5 6 5 5 5 6 5 6 5 5 5 6 5 5 5 6 5 6 5 6 5 6 6 5 5 6 5 5 5 6 5 5 5 5 5 6 5 5 5 5 6 5 5 5 6 5 5 5 5 6 5 6 5 5 5 5 5 5 5 5 5 5 5 5 5 5 6 5 5 5 5 6 5 5 6 5 5 6 6 5 5 6 5 6 5 5 5 6 6 6 6 5 5 6 5 5 5 5 6 5 6 5 5 6 6 6 5 6 5 5 6 6 6 5 5 5 5 5 5 5 5 5 6 6 5 5 5 5 6 6 5 5 5 6 5 6 5 5 5 5 5 5 5 5 5 5 5 6 5 5 5 5 5 5 5 5 5 5 5 5 5 5 5 5 5 5 5 5 5 5 5 6 5 5 5 5 5 5 5 5 5 5 5 5 5 5 5 5 6 5 5 6 5 5 5 5 5 5 5 5 5 6 5 5 5 6 6 5 5 6 5 5 5 5 5 6 5 6 5 5 5 6 5 5 5 5 5 5 5 6 5 5 6 5 5 5 5 6 5 5 5 6 6 5 5 6 5 5 5 6 5 5 5 5 5 5 5 6 5 5 6 5 6 6 6 5 6 5 6 6 5 5 5 5 5 5 6 5 5 6 5 5 5 5 5 5 5 5 5 5 5 5 5 5 5 5 5 5 5 5 5 5 5 5 5 5 5 5 5 5 5 5 5 5 5 6 6 5 5 5 5 5 5 5 5 6 6 6 6 5 5 6 5 5 5 5 5 5 5 5 6 5 5 6 5 5 5 6 5 5 5 5 6 5 5 5 5 5 5 5 5 5 5 5 5 5 5 6 5 5 5 5 5 6 5 5 5 5 5 5 5 5 6 5 5 5 6 6 5 5 6 6 5 5 5 5 5 6 5 5 5 5 5 5 6 5 6 5 5 5 5 5 5 5 5 6 6 5 6 6 6 5 6 5 5 5 5 5 5 6 5 5 5 5 5 5 5 6 5 5 5 5 5 5 5 5 5 5 5 5 5 5 5 5 5 5 5 5 5 5 5 5 5 5 5 5 5 5 5 5 5 5 5 5 5 5 5 5 5 5 5 5 5 5 5 5 5 5 5 5 5 5 5 5 5 6 5 5 5 5 5 5 5 6 5 5 6 5 5 5 6 5 6 5 5 6 5 5 5 5 5 5 5 6 5 5 5 6 5 5 5 5 5 5 5 6 5 6 5 5 5 5 5 5 5 5 5 5 5 5 5 5 5 5 5 5 5 5 5 5 5 5 5 6 6 5 6 5 5 5 5 5 5 5 6 5 6 5 6 6 6 5 5 6 5 5 6 5 5 5 6 5 5 5 5 5 5 5 6 6 5 5 6 5 5 5 6 5 5 5 5 6 5 6 5 5 5 5 5 5 6 5 6 5 5 5 5 5 6 5 5 6 5 5 5 5 5 5 5 5 5 5 5 5 5 5 5 5 6 5 5 6 6 5 6 5 5 5 5 5 5 5 5 6 5 5 5 5 5 5 5 5 5 5 5 5 5 5 5 5 6 5 5 5 6 5 5 6 5 5 5 5 5 5 6 5 5 5 5 5 5 5 5 5 5 5 5 5 5 5 5 5 5 5 6 6 5 5 5 5 5 5 5 6 5 5 5 6 5 5 6 5 6 5 5 6 5 6 6 5 6 5 6 5 6 5 5 5 5 5 5 5 5 5 5 5 5 5 5 5 6 6 5 5 5 5 5 5 5 6 5 5 5 5 5 5 5 5 5 5 5 5 5 5 5 6 5 6 5 5 5 5 5 5 6 5 5 5 6 5 5 5 6 5 5 5 5 5 5 5 5 5 5 5 5 5 5 5 5 5 5 5 5 5 6 5 5 5 5 6 5 5 5 5 5 6 5 5 5 6 5 5 5 5 5 5 5 5 5 5 5 5 6 5 5 5 5 6 5 5 5 5 5 5 5 5 6 5 5 5 5 5 5 5 6 5 5 5 5 6 5 5 5 5 5 5 5 5 6 5 5 5 5 5 5 5 5 5 6 5 5 5 5 5 5 5 5 5 5 5 5 5 5 5 5 5 5 5 5 5 5 5 5 5 5 5 5 6 5 5 5 5 5 5 5 6 5 5 5 5 5 5 5 5 5 5 5 5 5 5 5 5 5 5 5 5 5 5 5 5 5 5 5 5 5 6 5 5 5 5 5 5 5 5 5 5 5 5 5 5 5 5 5 5 5 5 5 5 5 5 5 5 5 5 5 5 5 5 6 5 5 6 5 5 5 5 6 5 5 6 5 5 5 5 6 5 5 5 6 5 5 5 6 5 5 5 5 5 5 5 5 5 5 6 5 5 6 5 5 5 5 5 5 6 5 5 5 5 5 6 5 5 5 5 6 5 5 5 5 5 5 5 5 5 5 6 5 5 5 5 5 5 5 5 5 6 5 5 5 5 5 5 5 5 5 5 5 5 5 6 5 5 5 5 5 5 5 6 5 5 5 5 5 6 5 5 5 5 5 5 5 5 5 5 5 5 5 5 6 5 5 5 5 5 5 5 5 6 5 5 5 5 5 5 5 5 5 5 5 5 5 5 5 5 5 5 5 5 5 5 5 5 5 5 5 5 5 5 5 5 5 6 5 5 5 5 6 6 5 5 6 5 5 6 5 5 6 5 5 5 5 5 5 5 5 5 5 5 5 5 5 5 5 5 5 5 6 5 5 5 5 6 5 5 5 5 5 5 5 5 5 5 5 5 5 5 5 5 5 5 5 5 5 5 5 5 5 5 5 5 5 5 5 5 5 5 5 5 5 5 5 5 5 5 5 5 5 5 5 5 5 5 5 5 5 5 5 5 5 5 5 5 5 5 5 5 5 5 5 5 5 5 5 6 5 5 5 5 6 5 6 5 5 6 5 5 5 5 6 5 5 6 5 5 5 5 5 5 5 5 5 5 5 5 5 5 5 5 5 5 5 5 5 5 5 5 5 5 5 5 5 5 5 5 5 5 5 5 5 5 5 5 5 5 5 5 5 5 5 5 5 5 5 5 5 5 5 5 5 5 5 5 6 5 5 5 5 5 5 5 5 5 6 5 5 5 5 5 5 5 6 5 5 5 5 5 5 5 5 5 5 5 5 5 5 5 5 5 5 5 6 6 5 5 6 5 6 5 5 5 5 5 5 5 5 5 5 5 5 5 5 5 5 5 5 5 5 5 5 5 5 5 5 5 5 5 5 5 5 5 5 5 5 5 5 5 5 5 5 5 5 5 5 5 5 5 5 5 5 5 5 5 6 6 5 5 5 5 5 5 5 5 5 5 5 5 5 5 5 5 5 5 5 5 6 5 5 5 5 5 5 5 5 5 5 6 5 5 5 6 5 5 5 5 5 5 6 5 5 5 5 5 5 5 5 5 5 5 5 5 6 5 5 5 5 5 5 6 6 5 6 5 5 6 5 5 5 6 5 5 5 6 5 5 5 5 5 6 5 6 5 5 5 5 6 5 5 5 5 6 5 6 5 5 6 6 5 5 5 5 5 6 5 5 5 5 5 6 6 6 5 6 5 6 5 5 5 5 5 6 5 5 5 5 5 5 5 5 6 6 5 5 6 5 5 5 5 6 5 5 6 5 5 6 5 5 5 5 5 5 5 5 5 6 5 5 5 5 5 5 5 5 6 5 5 5 5 5 5 5 5 5 6 6 5 5 5 5 5 5 5 5 5 5 5 5 5 5 5 5 5 5 5 5 5 5 5 5 5 5 5 5 5 5 5 5 5 5 5 6 5 5 5 5 6 5 5 5 5 5 5 5 5 5 5 5 5 5 5 5 5 6 6 5 5 5 5 5 5 5 5 5 6 5 5 5 5 6 5 5 6 5 5 5 5 5 5 5 5 5 5 5 5 5 6 5 5 5 5 5 5 5 5 5 5 5 5 5 5 5 5 5 5 5 5 5 5 5 5 5 6 5 5 5 5 5 6 5 5 5 6 5 5 5 6 6 5 5 5 5 5 5 5 5 5 5 5 5 5 5 6 5 5 5 6 5 5 5 5 6 6 5 5 5 5 5 5 5 5 5 5 5 5 5 5 5 5 5 5 5 5 5 5 5 6 5 5 5 5 5 5 5 5 5 6 5 5 5 5 6 5 6 5 5 5 5 6 5 5 5 5 5 5 5 5 5 5 5 5 5 5 5 6 5 5 6 5 5 5 5 5 5 5 5 5 5 6 6 5 5 5 5 6 5 5 5 6 5 5 5 5 6 6 5 6 5 6 5 6 5 5 6 5 5 6 5 5 6 5 5 5 6 5 5 6 5 6 5 6 5 5 6 5 5 5 5 5 5 5 5 5 5 5 5 5 6 5 5 5 5 5 5 5 5 5 5 5 5 5 5 5 5 6 6 5 5 5 5 5 6 5 5 5 5 6 5 5 6 5 5 5 5 6 5 5 5 5 5 5 5 5 5 5 5 5 5 5 5 5 5 5 5 5 5 5 5 5 5 5 5 5 5 5 5 5 5 5 5 5 5 5 6 5 5 5 5 5 5 5 5 5 5 5 5 5 6 5 6 5 5 5 5 6 5 5 5 5 5 5 5 5 5 5 5 5 5 5 5 5 5 5 6 5 6 5 5 6 5 5 5 6 5 5 5 5 5 5 5 5 5 5 5 5 5 5 5 5 5 5 5 5 5 5 5 5 5 5 5 6 5 5 6 5 5 5 5 5 5 5 5 5 5 5 5 5 5 5 5 5 5 5 5 5 5 5 5 5 5 5 5 5 5 5 5 5 5 5 6 5 6 5 5 5 5 5 5 5 5 5 5 5 5 5 5 5 5 5 6 6 5 5 5 5 5 6 5 5 5 5 6 5 5 5 5 6 5 5 5 5 5 5 5 5 5 5 5 5 5 5 5 5 5 5 6 5 5 5 5 5 5 6 5 5 6 5 5 5 5 5 5 5 5 5 5 5 5 6 5 5 6 5 5 5 5 5 5 5 5 6 5 5 5 5 5 5 6 5 5 6 5 5 5 5 5 5 5 5 5 5 5 5 5 5 5 5 5 5 5 5 5 5 5 5 5 5 5 5 5 5 5 5 5 5 5 5 6 5 5 5 6 5 5 6 5 5 5 5 5 5 6 5 5 5 5 5 6 5 5 5 5 5 5 6 5 5 5 5 6 5 6 5 5 6 5 5 5 6 5 5 5 5 5 5 5 5 5 5 5 5 5 6 5 5 5 5 5 5 5 5 5 5 5 5 5 5 5 5 5 5 5 5 5 5 5 5 6 5 6 5 6 5 6 5 5 5 5 6 5 5 5 5 6 5 5 5 5 5 5 5 5 5 5 5 5 5 5 6 5 5 5 6 5 5 5 6 5 5 6 5 5 5 6 5 5 5 5 6 5 5 5 5 6 5 5 5 5 5 5 5 5 5 5 6 5 5 5 5 5 6 5 6 5 5 5 5 5 6 6 5 5 6 5 6 5 5 6 5 5 5 5 5 5 5 5 5 5 5 5 5 6 5 5 5 5 5 6 5 5 5 5 5 5 5 5 5 5 6 5 6 5 5 6 5 5 6 5 6 5 6 5 5 5 5 5 6 6 5 5 5 5 5 5 5 5 5 5 5 6 5 5 5 5 5 6 5 5 5 6 5 6 5 5 5 5 5 5 5 5 5 5 5 5 5 5 5 6 5 5 5 5 6 5 5 5 5 5 5 5 5 5 5 5 5 5 5 5 5 5 5 5 5 5 5 5 6 5 5 6 5 5 5 5 5 5 5 6 5 5 6 5 6 5 5 5 5 5 5 5 5 5 6 5 5 6 5 5 5 6 5 5 5 5 5 5 5 6 5 5 5 5 6 6 5 5 5 5 5 5 5 5 5 6 5 5 5 5 5 5 5 5 5 5 5 5 5 5 5 5 6 5 6 5 5 5 6 5 5 5 5 5 5 5 5 5 5 5 5 5 6 5 5 5 5 5 6 5 5 5 6 6 5 5 5 6 5 5 6 5 5 5 5 6 6 5 5 5 6 5 5 6 5 5 5 5 6 5 6 5 5 5 6 5 5 5 5 5 5 5 5 5 5 5 5 5 5 5 5 5 5 5 5 5 6 5 5 5 5 5 5 5 5 5 6 5 5 5 6 5 6 5 5 5 5 5 5 5 5 5 5 5 6 5 5 5 5 5 6 5 5 5 5 5 6 5 5 5 5 5 5 5 5 5 5 5 5 5 5 5 5 6 5 5 5 5 5 5 5 5 5 6 5 5 5 5 5 5 5 5 5 5 5 5 5 5 5 6 5 5 5 5 5 5 5 5 5 5 5 5 5 5 5 5 5 5 5 5 5 5 5 5 5 5 5 5 5 6 5 5 5 5 6 5 6 6 5 5 5 5 5 5 6 5 6 5 5 5 6 5 5 6 5 5 5 5 5 5 6 5 5 5 5 5 5 5 6 5 5 5 5 6 5 5 5 5 5 5 6 5 5 5 5 5 5 5 5 5 5 5 5 6 5 6 5 5 5 5 5 5 5 6 6 5 5 5 5 5 5 5 5 6 5 5 5 6 5 5 6 5 5 5 5 5 5 5 5 5 5 5 5 5 5 5 5 5 5 5 5 5 5 5 5 5 6 5 5 6 5 5 5 5 5 6 5 5 6 5 6 5 5 5 6 5 5 5 5 6 5 5 6 6 5 5 5 5 5 6 5 5 6 5 5 5 5 5 6 5 5 5 5 5 5 5 5 5 6 5 5 5 5 6 5 5 5 5 5 5 6 5 6 5 5 5 6 5 6 5 5 6 5 6 5 5 5 6 5 5 5 5 5 5 5 5 5 5 5 5 5 6 5 5 5 5 6 5 5 5 5 5 5 6 5 5 5 5 5 5 5 6 5 5 5 5 5 5 6 5 5 5 5 5 5 5 6 5 5 6 5 5 5 5 5 5 5 5 5 6 6 5 5 5 5 5 5 5 5 5 5 5 5 6 5 5 5 5 5 5 5 6 5 5 5 6 5 6 5 5 6 5 5 5 5 5 6 5 5 5 6 5 5 5 5 6 5 5 5 6 5 5 5 5 5 5 5 6 5 5 6 5 5 5 6 5 5 5 6 5 5 5 5 6 5 5 5 6 5 5 5 5 5 5 5 5 5 6 5 5 5 5 5 5 5 5 5 6 5 5 5 5 6 5 5 6 5 5 5 5 5 5 5 5 5 5 5 5 5 5 5 5 5 5 5 5 5 5 5 5 5 5 6 5 5 5 5 5 5 5 5 5 5 5 6 5 5 5 6 5 5 5 5 5 5 6 5 5 5 5 5 5 5 5 5 5 5 5 5 5 5 5 5 5 5 5 5 5 5 5 5 5 6 5 6 5 5 6 6 5 5 5 5 5 5 5 5 5 5 5 5 5 5 5 5 5 6 5 5 5 5 5 5 5 5 5 5 5 5 5 5 5 5 5 5 5 5 5 5 5 5 5 5 5 5 5 5 5 5 5 5 5 5 5 5 5 5 5 5 5 5 5 5 5 5 5 5 5 5 5 5 5 5 5 5 5 5 5 6 5 5 6 5 5 5 5 6 5 5 5 5 5 5 5 5 5 5 6 5 6 5 5 5 6 5 5 5 6 5 6 5 5 5 6 5 6 5 6 5 5 5 6 5 5 5 5 6 5 6 5 5 5 5 5 6 5 6 6 5 5 5 5 5 5 6 5 5 5 6 5 5 5 5 5 5 5 5 5 5 5 5 5 5 5 5 5 5 5 6 5 5 5 6 6 5 5 5 5 5 6 5 5 5 5 5 5 5 5 5 5 5 5 5 5 6 5 5 6 5 6 5 5 5 6 5 6 5 5 6 5 5 5 5 5 5 5 5 5 5 5 6 5 5 5 5 5 5 5 5 5 5 6 6 5 5 5 5 5 5 5 6 5 5 5 5 5 5 5 5 5 5 5 5 5 5 6 5 5 5 5 5 5 5 5 5 5 6 5 5 5 6 5 6 6 5 5 5 5 5 5 5 5 6 5 5 5 5 5 5 5 5 5 6 5 6 5 6 5 5 5 5 5 5 5 5 6 5 6 5 5 5 5 5 5 6 5 5 6 5 6 5 5 5 5 5 5 5 5 5 5 5 5 5 5 6 5 5 5 5 5 5 5 5 5 5 6 5 5 5 5 5 5 6 5 5 5 5 5 5 5 5 5 5 5 5 5 5 5 5 5 5 5 5 5 5 5 5 5 6 5 5 5 5 5 6 5 5 5 5 5 5 5 5 5 5 5 6 5 5 5 5 6 5 5 5 5 5 6 5 5 5 5 5 6 5 5 6 5 5 5 5 5 5 5 5 5 5 5 5 5 5 5 5 5 5 5 5 5 5 5 5 5 5 6 5 5 6 5 5 5 5 5 5 5 5 5 5 5 5 5 5 5 6 5 5 5 5 5 5 5 5 5 6 5 5 5 5 5 5 5 6 5 5 5 5 5 6 5 5 5 5 5 5 6 5 5 5 5 6 5 5 5 5 5 5 5 6 5 5 6 5 5 6 5 5 5 5 6 5 5 5 5 5 5 5 5 6 5 5 6 5 5 5 5 5 5 5 5 5 6 5 5 5 5 5 6 5 5 5 5 6 5 5 5 6 5 5 5 5 5 5 5 5 5 5 5 6 6 5 5 5 5 5 5 5 5 5 5 5 6 5 5 5 5 5 6 5 6 6 5 6 6 5 5 6 5 5 5 5 5 5 6 5 6 6 5 5 5 5 5 6 5 5 5 5 5 5 5 5 6 5 5 5 5 6 5 5 5 5 5 6 5 5 6 5 5 5 5 5 5 5 6 5 6 5 5 5 5 5 5 5 6 6 5 5 5 5 5 5 5 6 5 5 5 5 5 5 6 5 5 5 5 5 5 5 5 5 5 5 5 5 5 6 5 5 6 5 5 5 5 6 5 5 5 5 6 5 5 5 5 5 5 6 5 5 5 5 5 5 5 6 5 5 5 6 5 5 5 5 6 5 5 6 5 5 5 5 5 5 5 6 5 5 5 5 6 5 6 5 5 5 5 5 5 5 5 5 5 5 5 5 5 6 5 5 5 5 5 5 5 6 5 5 6 5 5 6 5 5 5 5 5 5 5 5 5 6 5 5 5 6 5 5 5 5 5 5 5 5 5 6 5 5 5 5 5 5 5 5 5 5 5 6 5 5 5 6 5 5 5 5 5 5 5 5 5 5 5 6 5 5 5 5 5 5 5 5 5 5 6 5 5 5 5 5 6 5 5 5 5 5 5 5 5 6 5 5 6 5 5 6 5 5 5 5 6 6 5 5 5 5 6 5 5 5 5 6 5 5 6 5 5 5 5 6 5 5 6 5 5 5 5 5 6 5 5 5 5 5 5 5 5 6 5 6 5 5 5 5 5 5 5 5 5 6 6 5 5 5 5 5 5 6 5 5 6 5 5 6 5 6 5 5 5 6 5 5 6 5 5 5 5 5 5 5 5 6 6 5 5 6 6 5 5 5 5 6 5 5 5 6 5 6 5 6 6 6 5 6 5 5 5 6 5 5 5 5 5 5 5 5 5 6 5 5 6 5 5 5 5 5 5 6 5 5 5 5 5 5 6 6 6 5 5 5 5 5 5 5 5 5 5 5 6 5 5 5 5 6 5 5 5 5 5 5 5 5 6 5 5 6 5 5 5 6 5 5 5 5 5 5 5 5 5 6 5 5 5 5 5 5 5 5 6 5 5 5 6 5 5 6 5 5 5 6 5 6 5 5 6 5 6 5 5 6 5 5 5 5 5 5 6 5 5 6 5 5 5 5 5 5 5 5 5 5 5 5 5 5 5 5 5 5 5 5 5 5 5 5 5 5 5 5 5 5 5 5 5 5 5 5 5 5 5 5 5 5 5 5 5 5 5 5 5 5 5 5 5 5 5 5 5 5 5 5 5 5 5 5 5 5 5 5 5 5 5 5 5 5 5 5 5 5 5 5 5 5 5 5 5 5 5 5 5 5 5 5 5 5 5 5 6 5 5 5 5 6 5 5 5 5 5 5 5 5 5 5 5 5 6 6 5 5 5 5 5 5 5 5 5 5 5 5 5 5 5 6 5 5 5 6 5 5 5 5 5 5 5 5 5 5 6 5 6 5 5 5 5 5 5 5 5 5 5 5 5 5 5 5 5 5 5 5 5 5 5 5 5 6 5 5 5 5 6 5 5 5 5 5 5 5 5 6 5 5 5 5 5 5 5 5 5 5 5 5 5 5 5 5 5 5 5 5 5 5 5 5 5 5 5 5 5 5 5 5 5 5 5 5 5 5 5 5 5 5 5 5 5 5 5 5 5 6 5 5 5 5 5 5 5 5 5 5 5 5 5 5 5 5 5 5 5 5 5 5 5 5 5 5 5 5 5 5 5 5 6 5 5 5 5 5 5 6 5 5 5 5 5 5 6 5 5 6 5 6 5 6 5 5 5 5 6 5 5 5 5 5 6 5 5 5 6 6 5 5 5 6 5 5 5 5 6 6 5 5 5 5 5 5 5 5 5 5 5 5 5 5 6 5 5 6 5 5 6 6 5 5 5 5 5 5 5 5 5 5 6 5 6 5 5 5 5 5 5 5 5 5 5 5 6 5 5 5 5 5 5 5 6 5 5 5 5 5 5 5 5 5 5 5 5 5 5 5 5 5 5 6 6 5 5 5 5 5 5 5 5 5 5 5 5 5 5 5 5 5 6 5 5 5 5 5 5 5 5 5 6 5 5 5 5 5 5 5 5 5 5 5 5 6 5 5 5 5 6 5 6 5 5 5 5 5 5 5 5 5 6 5 5 5 5 6 5 5 5 5 6 5 6 5 5 5 5 5 5 5 5 5 5 5 5 6 5 5 5 5 5 5 5 5 5 5 5 5 5 5 5 6 5 6 5 5 6 5 5 5 6 5 6 5 5 6 5 5 6 5 6 5 5 5 5 5 5 5 6 6 5 5 5 5 6 6 5 5 6 6 5 6 5 5 6 6 5 5 6 5 5 6 5 5 5 5 5 5 5 5 6 5 5 6 5 6 5 5 5 6 5 5 5 5 5 5 5 5 6 5 5 5 5 5 5 5 5 5 5 5 5 5 5 5 5 5 5 5 5 5 5 6 5 5 5 5 5 5 5 5 5 5 5 5 5 5 5 5 5 5 
</DataArray>
<DataArray type="Float64" Name="stress" NumberOfComponents="9" format="ascii">
-180.0452865202042 -247.53703231467171 0 -247.53703231467171 1498.3866002279156 0 0 0 0 0.084324592554330821 -119.58350647490624 0 -119.58350647490624 840.52442737095953 0 0 0 0 91.139119594285077 -143.44526120397677 0 -143.44526120397677 405.69411744261743 0 0 0 0 46.049588516263071 -34.378438870111495 0 -34.378438870111495 538.14466795416956 0 0 0 0 -67.722321078809713 -108.82394595193909 0 -108.82394595193909 508.07304554341681 0 0 0 0 58.479080128586773 -188.69561821205025 0 -188.69561821205025 354.15186797988645 0 0 0 0 0.6089960344347598 -0.15034488558681858 0 -0.15034488558681858 0.61123912000851988 0 0 0 0 36.83787034089022 -28.227139584490942 0 -28.227139584490942 108.97296533073677 0 0 0 0 194.14730473083463 -57.428910406197247 0 -57.428910406197247 163.81610979710968 0 0 0 0 -24.352640888052747 -38.810052287230064 0 -38.810052287230064 224.99261683929763 0 0 0 0 0.87004304644548547 0.21120990451963451 0 0.21120990451963451 0.50785034631731207 0 0 0 0 294.00075826167449 -352.83602232337762 0 -352.83602232337762 99.953230472739961 0 0 0 0 -53.500780500429073 -73.908418757164327 0 -73.908418757164327 251.79239934014186 0 0 0 0 66.055019812378077 -49.098784495450673 0 -49.098784495450673 -242.77055032742646 0 0 0 0 1.8004070793247156 -0.81567156290854825 0 -0.81567156290854825 0.19124855535234531 0 0 0 0 136.62185234649436 -488.94921016534317 0 -488.94921016534317 934.74261433551681 0 0 0 0 -43.248407124043567 -297.43054183920322 0 -297.43054183920322 942.71187720367743 0 0 0 0 124.60194686688214 -628.70867236081926 0 -628.70867236081926 1218.1370356537263 0 0 0 0 40.405398257877209 -763.82248350460577 0 -763.82248350460577 1615.3834464618467 0 0 0 0 393.22849846498229 -347.44006448016808 0 -347.44006448016808 1499.8605132351604 0 0 0 0 595.8409554840083 -211.04647480278618 0 -211.04647480278618 77.326366700221115 0 0 0 0 3.9706325926363775 -3.2773349757676371 0 -3.2773349757676371 2.6009767456340143 0 0 0 0 2.0762480335233104 -3.1624852497813265 0 -3.1624852497813265 2.9062307345062521 0 0 0 0 4.4228299226642775 -33.697300475118027 0 -33.697300475118027 -34.460566457161804 0 0 0 0 -118.35885568045167 54.136761573591684 0 54.136761573591684 1568.1878868509248 0 0 0 0 857.269098162212 726.20293943684828 0 726.20293943684828 625.41043689643266 0 0 0 0 313.6039018780267 -456.13250496771798 0 -456.13250496771798 689.68316609317844 0 0 0 0 0.16038165516303859 -0.60991101048406193 0 -0.60991101048406193 3.5032096988058115 0 0 0 0 2.4683959125809145 1.8131550097621911 0 1.8131550097621911 4.847494821856472 0 0 0 0 2.1931688504118938 -5.5987812290950387 0 -5.5987812290950387 15.214107812115799 0 0 0 0 4.5624085590685359 -1.7491971320567998 0 -1.7491971320567998 7.6560980364933684 0 0 0 0 3.6942197847598086 -6.930575989464522 0 -6.930575989464522 13.516536328361013 0 0 0 0 -62.220867846665215 69.275114863101408 0 69.275114863101408 140.6514801428275 0 0 0 0 0.91115695677339259 -1.2781531373753303 0 -1.2781531373753303 21.609343456012823 0 0 0 0 31.136186331570652 1.4941825130808866 0 1.4941825130808866 -74.695864184406673 0 0 0 0 25.434057793594434 -79.536191514596339 0 -79.536191514596339 4.8674575360273593 0 0 0 0 -77.225733271069316 -78.457656438224149 0 -78.457656438224149 0.44231387765466934 0 0 0 0 3.5440533496345279 -16.461294869559204 0 -16.461294869559204 33.47862875735477 0 0 0 0 -4.3275792725139581 -42.945191442908254 0 -42.945191442908254 13.963581069936481 0 0 0 0 -54.003797832880878 3.1559984810783135 0 3.1559984810783135 58.553970932553057 0 0 0 0 0.15341430258949762 -4.90215558192196 0 -4.90215558192196 2.8166880570967976 0 0 0 0 14.895224310733965 -28.487933641397831 0 -28.487933641397831 48.488557245553238 0 0 0 0 172.96154555188059 26.742519631763571 0 26.742519631763571 58.87475551398893 0 0 0 0 -46.851404578364964 -26.66194096757863 0 -26.66194096757863 81.884911525536154 0 0 0 0 -2.2415353330693506 -7.7380530492737307 0 -7.7380530492737307 33.872846971025865 0 0 0 0 2.271351625672196 41.874795892323164 0 41.874795892323164 159.26006411406706 0 0 0 0 27.181116527320228 -68.996758271954604 0 -68.996758271954604 128.21915285321302 0 0 0 0 -27.232410765009831 -30.049598815399804 0 -30.049598815399804 21.834541592364985 0 0 0 0 0.17069446989846426 0.48940076649570585 0 0.48940076649570585 0.43876043820906574 0 0 0 0 -5.5048993322532169 -56.247636595582662 0 -56.247636595582662 37.058566796447849 0 0 0 0 -10.817018794968362 -36.593936226230653 0 -36.593936226230653 92.775785436999286 0 0 0 0 -23.903767928273282 -31.23938644982627 0 -31.23938644982627 168.23111981045986 0 0 0 0 -2.0744513861966425 12.079315775954456 0 12.079315775954456 127.4987534448519 0 0 0 0 2.8555878931441612 18.899739184820646 0 18.899739184820646 50.856875524332281 0 0 0 0 -7.9278663298709944 -20.115040620563377 0 -20.115040620563377 93.215856359209283 0 0 0 0 -22.074356961765943 -1.5133175011433195 0 -1.5133175011433195 96.63977671788507 0 0 0 0 -4.2775554378085445 -7.2468493244359706 0 -7.2468493244359706 14.652720727972337 0 0 0 0 -5.5809151274978195 3.2823372015257206 0 3.2823372015257206 1.727078263043083 0 0 0 0 -0.99185412470194478 5.652320816953079 0 5.652320816953079 3.1414461763051804 0 0 0 0 -14.238653832126147 1.863755741876048 0 1.863755741876048 63.535620955073682 0 0 0 0 -3.3948647404866961 8.1335122525955512 0 8.1335122525955512 12.541066936009173 0 0 0 0 19.7758521521273 -31.722589614288154 0 -31.722589614288154 56.718614097102545 0 0 0 0 -8.0452900968558918 2.5808857384307373 0 2.5808857384307373 4.3700883369438444 0 0 0 0 -89.253489597270573 -30.833956904700244 0 -30.833956904700244 145.311254827222 0 0 0 0 -2.3805777312825267 1.67404676085809 0 1.67404676085809 4.6951376571013554 0 0 0 0 -5.3634186417931566 0.22223343410587404 0 0.22223343410587404 4.5577853966151451 0 0 0 0 -4.4913698527306689 -2.6345127083020543 0 -2.6345127083020543 17.992877030721445 0 0 0 0 -12.994214585033902 -5.9111500717826857 0 -5.9111500717826857 19.70034432754619 0 0 0 0 -6.9793588120637651 -5.5818099559237453 0 -5.5818099559237453 19.55920109168801 0 0 0 0 -8.3993737257149412 -10.953272370519699 0 -10.953272370519699 33.469079141250404 0 0 0 0 -7.3862581608337763 -3.7955881741038411 0 -3.7955881741038411 18.672127097990597 0 0 0 0 -15.97029486806786 -8.0321556844010047 0 -8.0321556844010047 53.731784965890256 0 0 0 0 -11.673660197152035 5.4858398934202341 0 5.4858398934202341 17.879109596455237 0 0 0 0 -18.434063559965807 -0.38646724254977016 0 -0.38646724254977016 31.613711394585152 0 0 0 0 -0.55052410862930401 -0.70380058070259111 0 -0.70380058070259111 11.657235257083812 0 0 0 0 10.384997706017671 -3.5568280881907413 0 -3.5568280881907413 9.2711200764242676 0 0 0 0 2.1333651567370993 -11.253421587924095 0 -11.253421587924095 22.713689880243692 0 0 0 0 0.34784483458891202 -13.724208994837682 0 -13.724208994837682 41.595538737499737 0 0 0 0 0.52951456742613345 -8.9618224405094224 0 -8.9618224405094224 42.119523555698834 0 0 0 0 10.719198490672341 -19.773383980184008 0 -19.773383980184008 39.031549124338198 0 0 0 0 12.411768537711396 2.9959831478627166 0 2.9959831478627166 -9.1211834770329006 0 0 0 0 -18.211148348350491 10.168868274024135 0 10.168868274024135 11.940379260184272 0 0 0 0 -2.2510726488636692 10.619886040261918 0 10.619886040261918 6.9970801900090009 0 0 0 0 -0.22615667038003806 -1.5334023717824685 0 -1.5334023717824685 7.0287887417418915 0 0 0 0 -42.357019478700337 -51.486364251206396 0 -51.486364251206396 62.895581938562827 0 0 0 0 -23.824846976535696 2.6426970200382129 0 2.6426970200382129 12.616805401310557 0 0 0 0 115.23531940518014 -133.79373978865624 0 -133.79373978865624 99.152184095205143 0 0 0 0 -25.767772842967148 -13.984719596181094 0 -13.984719596181094 196.88785056814231 0 0 0 0 70.910986350047835 89.415003800480918 0 89.415003800480918 90.582582577451831 0 0 0 0 -0.10679539807594814 8.4648128281496611 0 8.4648128281496611 94.582015499297995 0 0 0 0 -24.907314413890539 -16.740192665303766 0 -16.740192665303766 68.996977538379724 0 0 0 0 -0.91900340080992216 56.029221966618934 0 56.029221966618934 7.3351559557122528 0 0 0 0 -0.082767190882201053 0.00075398620455757737 0 0.00075398620455757737 -0.041530134215591374 0 0 0 0 45.465352460240325 33.641218880044107 0 33.641218880044107 -81.983317715203157 0 0 0 0 -13.737785710415043 14.312979175028886 0 14.312979175028886 42.363831438960915 0 0 0 0 -0.63600872829619803 -0.39066814261256866 0 -0.39066814261256866 1.287827628063738 0 0 0 0 -0.44835143493294949 0.63806812073555008 0 0.63806812073555008 0.2122757298899387 0 0 0 0 -6.9544723499589907 -38.677664223869215 0 -38.677664223869215 69.736189532683056 0 0 0 0 -15.023402024570267 24.7821943719091 0 24.7821943719091 1.5364232395149884 0 0 0 0 -5.2275356387201652 -17.89877163645815 0 -17.89877163645815 76.954751275661692 0 0 0 0 -0.059865423554437143 33.709529488376575 0 33.709529488376575 -12.497218356640587 0 0 0 0 0.24916475107504296 35.787801453476277 0 35.787801453476277 82.74602894215559 0 0 0 0 -40.587771232354584 23.31481053589232 0 23.31481053589232 168.76073805969645 0 0 0 0 -16.426667923460343 -93.853162477840669 0 -93.853162477840669 245.06165152572976 0 0 0 0 -4.1065162671907274 -25.533769037778256 0 -25.533769037778256 102.87297322259838 0 0 0 0 23.056531769778957 27.050767534442457 0 27.050767534442457 127.41120651521487 0 0 0 0 -25.898817951404567 -12.123681577515526 0 -12.123681577515526 110.53180701726546 0 0 0 0 25.290469054386961 -13.138143798152669 0 -13.138143798152669 26.038816407497507 0 0 0 0 21.817400927991173 21.276540067767201 0 21.276540067767201 6.205431556343683 0 0 0 0 -3.8563827471505903 3.5110032004139526 0 3.5110032004139526 2.8239848174783475 0 0 0 0 -11.418439108615701 3.8375361042708391 0 3.8375361042708391 7.3748239086198737 0 0 0 0 -18.133440475173529 15.718049367205822 0 15.718049367205822 70.774025323371461 0 0 0 0 24.211230237358826 10.892159037590318 0 10.892159037590318 7.9491758919757558 0 0 0 0 30.489075955365593 -1.7958350768749369 0 -1.7958350768749369 17.259186050228891 0 0 0 0 -41.238311799440439 130.86791873692073 0 130.86791873692073 222.96120232141766 0 0 0 0 1.0314946972702468 5.8512471868959182 0 5.8512471868959182 13.334573956074465 0 0 0 0 -37.08303533838577 -203.13776062088345 0 -203.13776062088345 786.87081126082921 0 0 0 0 101.91296289274445 -186.93668219244682 0 -186.93668219244682 156.7289235484966 0 0 0 0 -0.23379657735512505 3.428117263184717 0 3.428117263184717 11.246148326340638 0 0 0 0 32.521065428813614 -179.89136401326459 0 -179.89136401326459 561.43353203703737 0 0 0 0 411.9243339571554 -559.64843541710434 0 -559.64843541710434 586.14384024329047 0 0 0 0 -28.592671607392923 -602.81012851681362 0 -602.81012851681362 1500.0998163993791 0 0 0 0 132.15946616918828 -492.37592844500978 0 -492.37592844500978 1229.2432568077857 0 0 0 0 -227.65582031676695 -320.22127579423432 0 -320.22127579423432 1219.0171037887121 0 0 0 0 -211.9688258515464 -326.68033334268512 0 -326.68033334268512 1128.3492420121875 0 0 0 0 -144.08490995254485 -72.912762665197079 0 -72.912762665197079 897.45944934351974 0 0 0 0 -156.64703694392813 -142.74482476805679 0 -142.74482476805679 1179.0423694070414 0 0 0 0 -293.13042632529852 -189.26275624786467 0 -189.26275624786467 1499.8109464583795 0 0 0 0 -174.44469141768343 -95.07685288860921 0 -95.07685288860921 1213.5574811821571 0 0 0 0 -156.05411241428072 -15.421829457858848 0 -15.421829457858848 1499.5006531026884 0 0 0 0 -68.503616845316628 118.80831837123515 0 118.80831837123515 766.41311096177014 0 0 0 0 -63.139625596168685 50.188443713291122 0 50.188443713291122 1179.568775079304 0 0 0 0 72.932822013986396 -88.435595134981668 0 -88.435595134981668 307.52284674428665 0 0 0 0 78.890420767556066 64.615856351694674 0 64.615856351694674 279.25080305785559 0 0 0 0 42.402579462963047 -88.854763026777391 0 -88.854763026777391 0.26513638301912579 0 0 0 0 197.81915920782643 -2.7941701069157716 0 -2.7941701069157716 -41.541082235646172 0 0 0 0 -170.59834319476582 33.086672246055969 0 33.086672246055969 59.841757046135172 0 0 0 0 101.5947908062619 -100.57745316623095 0 -100.57745316623095 49.618400694933371 0 0 0 0 -0.11676661095817055 0.68178498466057569 0 0.68178498466057569 11.440002456728635 0 0 0 0 138.70331363516578 76.874604258307954 0 76.874604258307954 -65.060535758468177 0 0 0 0 134.15030386013191 -73.307168381281087 0 -73.307168381281087 83.216201536633889 0 0 0 0 -69.634630421524363 57.598283470179013 0 57.598283470179013 11.492333011705341 0 0 0 0 192.56532984548761 374.69428735574729 0 374.69428735574729 354.13299426486628 0 0 0 0 37.385255961936451 -253.87526760784021 0 -253.87526760784021 407.13762544469319 0 0 0 0 0.13732088696838229 0.48395624245222724 0 0.48395624245222724 5.2280328680453607 0 0 0 0 130.06389874929849 70.473810653767941 0 70.473810653767941 1174.9042035324101 0 0 0 0 30.729527345509062 314.96354054896801 0 314.96354054896801 1116.7112171388108 0 0 0 0 -148.03392373570586 332.53578812366504 0 332.53578812366504 1500.2073902221382 0 0 0 0 -14.058419781022558 12.853328916223745 0 12.853328916223745 426.88536975262105 0 0 0 0 -76.918204427222463 100.95362523622498 0 100.95362523622498 1229.4703263778028 0 0 0 0 -37.954867641561407 174.45491025205774 0 174.45491025205774 973.06050724102988 0 0 0 0 48.962298362118787 147.57200089882281 0 147.57200089882281 262.95087238362248 0 0 0 0 -89.330776917601312 424.0073769752903 0 424.0073769752903 869.78774678324407 0 0 0 0 -87.045856201278397 441.45715441380889 0 441.45715441380889 1001.3361598194301 0 0 0 0 37.314099279110245 844.92119784046008 0 844.92119784046008 1497.5466839503424 0 0 0 0 199.96269335032963 163.99131976978424 0 163.99131976978424 57.665075314649584 0 0 0 0 148.78748659329241 424.36863769618139 0 424.36863769618139 791.15590623207754 0 0 0 0 50.046577829662439 -22.812477273038894 0 -22.812477273038894 -17.822061381390085 0 0 0 0 -85.791829971083786 -35.447850343983191 0 -35.447850343983191 223.41511025005457 0 0 0 0 1.0251324628796823 23.770660395392042 0 23.770660395392042 298.3181126305908 0 0 0 0 36.492493890156652 53.241679317561648 0 53.241679317561648 398.92414498059952 0 0 0 0 76.37527494309505 -14.758474288822981 0 -14.758474288822981 87.964144329031114 0 0 0 0 -51.659125108529366 -73.808376135471917 0 -73.808376135471917 97.166862139194563 0 0 0 0 110.00547221348469 -74.673307583372662 0 -74.673307583372662 4.1531089059426449 0 0 0 0 44.246687850476647 7.8310174367943546 0 7.8310174367943546 -47.337534668444277 0 0 0 0 77.54350107604175 -29.729087009258365 0 -29.729087009258365 -91.173471716578206 0 0 0 0 107.18018852567909 15.768017067966866 0 15.768017067966866 -47.676229533964943 0 0 0 0 3.325628121227993 1.7963404617257765 0 1.7963404617257765 -46.826317179751641 0 0 0 0 -29.388400206569244 -124.31594885487993 0 -124.31594885487993 -214.01216118098819 0 0 0 0 -0.31730853151311011 -1.4650097528056492 0 -1.4650097528056492 10.956871078997409 0 0 0 0 -14.673472758232862 -28.188989950043833 0 -28.188989950043833 -16.909196214306576 0 0 0 0 4.5723436032100846 -18.939079232542632 0 -18.939079232542632 34.079069189826654 0 0 0 0 -39.275587194083712 -155.40347066730646 0 -155.40347066730646 -31.92068962171561 0 0 0 0 1.324026899714454 0.79689424143361975 0 0.79689424143361975 28.533666453496153 0 0 0 0 -40.39788517223576 -32.936823150892451 0 -32.936823150892451 25.43943512145961 0 0 0 0 -0.39267938188358165 -7.6589607521322662 0 -7.6589607521322662 19.496772781730485 0 0 0 0 2.6422648601093641 -54.840247042620831 0 -54.840247042620831 -57.253489366943541 0 0 0 0 3.8121870018906634 -1.5378231367139961 0 -1.5378231367139961 23.307855522918544 0 0 0 0 2.3524942349342837 2.3137988860871701 0 2.3137988860871701 26.917571386566124 0 0 0 0 -1.7846998978606332 -5.7303606178496835 0 -5.7303606178496835 22.316393668712109 0 0 0 0 -0.963763224637745 -3.7507187289738795 0 -3.7507187289738795 25.639905097828887 0 0 0 0 -5.8204972624160831 -1.2969513918314988 0 -1.2969513918314988 32.489660312603519 0 0 0 0 -4.727783582689284 -6.7476410661702175 0 -6.7476410661702175 35.388052081550995 0 0 0 0 -0.38171505544836004 -2.4086109819218322 0 -2.4086109819218322 9.4112117451534942 0 0 0 0 2.5342327762765322 -15.403390329881464 0 -15.403390329881464 38.431275658380727 0 0 0 0 -4.1852934981191652 -10.868734718853375 0 -10.868734718853375 58.596822674009672 0 0 0 0 -7.6658515998090024 -15.91000005567912 0 -15.91000005567912 61.086500448065635 0 0 0 0 -2.8465081903439304 4.6634246806164299 0 4.6634246806164299 21.221398981944397 0 0 0 0 6.487739952784807 1.4649023567235417 0 1.4649023567235417 24.421717680961592 0 0 0 0 -0.42349488424694925 0.4904069189205984 0 0.4904069189205984 28.793874053320906 0 0 0 0 5.670506501288628 3.6546776957075053 0 3.6546776957075053 32.659178030949988 0 0 0 0 4.4987667191677172 25.651730206666713 0 25.651730206666713 47.35147687317658 0 0 0 0 0.91073274451944597 10.217701056336708 0 10.217701056336708 13.946066902935513 0 0 0 0 0.10789021243203933 -16.079436483338213 0 -16.079436483338213 64.910531100600565 0 0 0 0 34.112437730277151 -35.928651807227652 0 -35.928651807227652 65.158496219919471 0 0 0 0 52.549050256805586 8.5326950519574893 0 8.5326950519574893 59.972501601581826 0 0 0 0 -1.9701951899292851 -14.366815232428053 0 -14.366815232428053 108.52535486026318 0 0 0 0 29.753991371730532 -75.762409362631729 0 -75.762409362631729 42.523933212985867 0 0 0 0 0.33733959784730361 2.0289838633196311 0 2.0289838633196311 4.6848005237403498 0 0 0 0 20.760334769579003 2.9472941939602606 0 2.9472941939602606 24.196720303734764 0 0 0 0 29.337195081844342 -3.3422350270411698 0 -3.3422350270411698 24.770842161553446 0 0 0 0 4.5038828945234899 21.74879491604824 0 21.74879491604824 100.36359014637128 0 0 0 0 6.8417601165529049 25.324438948759052 0 25.324438948759052 8.7558664071257226 0 0 0 0 -0.14427857581493514 2.2288160137130948 0 2.2288160137130948 -0.14389700420672114 0 0 0 0 5.9520091720860524 -11.470097973388647 0 -11.470097973388647 22.111778883001534 0 0 0 0 -2.862094932555717 1.4877814472102102 0 1.4877814472102102 16.844540725510463 0 0 0 0 -73.184313913691994 -120.52240902007816 0 -120.52240902007816 -24.47071045107441 0 0 0 0 -31.970812488770832 2.929830020879308 0 2.929830020879308 16.690643841979181 0 0 0 0 -0.38958145294795804 0.17659086013693859 0 0.17659086013693859 11.566364100980195 0 0 0 0 -132.68283318095376 -65.577398474944857 0 -65.577398474944857 135.71731216113403 0 0 0 0 -126.73811357169913 -46.786128815654592 0 -46.786128815654592 -2.3300800604338292 0 0 0 0 -8.5015353812119301 6.2139067592161155 0 6.2139067592161155 4.7244197786567383 0 0 0 0 -1.4250882935919371 -0.49467901148361193 0 -0.49467901148361193 3.2790011130259629 0 0 0 0 -1.8815348536064231 -1.9830899228782073 0 -1.9830899228782073 13.733768627767859 0 0 0 0 -3.6930249078876134 3.3767371478315908 0 3.3767371478315908 6.1061472941437387 0 0 0 0 -2.3416461832313948 -4.4843467114647737 0 -4.4843467114647737 16.400057683665807 0 0 0 0 7.3617196950157755 -7.4667733964852232 0 -7.4667733964852232 10.100085357951684 0 0 0 0 0.18029038516607798 6.0603572395420997 0 6.0603572395420997 -14.053702483026427 0 0 0 0 8.5296874930325934 -18.558187339748201 0 -18.558187339748201 -12.295929035033623 0 0 0 0 33.800077744491546 -1.3651203853005427 0 -1.3651203853005427 -55.074415835668333 0 0 0 0 33.274434388665256 16.429653232227395 0 16.429653232227395 -13.576679179968778 0 0 0 0 163.92061195618919 122.2627875590988 0 122.2627875590988 -58.444766850534506 0 0 0 0 161.83853216382886 -229.49783979268614 0 -229.49783979268614 172.31604780549969 0 0 0 0 90.941424278157598 -85.188868278759401 0 -85.188868278759401 -0.0078461302255163901 0 0 0 0 186.83225482022345 -53.842979994167763 0 -53.842979994167763 -35.772623076856462 0 0 0 0 7.2079811400990081 82.704634872887254 0 82.704634872887254 -6.7812103353920747 0 0 0 0 1.8659346898123856 5.7840667277999067 0 5.7840667277999067 14.689588182775182 0 0 0 0 61.243236792724019 61.044214277055289 0 61.044214277055289 114.94235428859974 0 0 0 0 -23.571085282246713 36.674838222083054 0 36.674838222083054 176.00406153999211 0 0 0 0 0.22180699028678186 -1.1566000178136591 0 -1.1566000178136591 1.6969550861944072 0 0 0 0 -12.225782472139485 -2.9869382582946855 0 -2.9869382582946855 120.68565910329926 0 0 0 0 24.926109569738628 14.074274380467614 0 14.074274380467614 63.036743780008692 0 0 0 0 34.43906079207045 27.222402450330264 0 27.222402450330264 87.796581709117163 0 0 0 0 35.950896003379057 34.70721181382396 0 34.70721181382396 91.405188972799806 0 0 0 0 69.725690575074736 30.967902477578264 0 30.967902477578264 99.360045931622153 0 0 0 0 63.395324647426605 29.903785165715817 0 29.903785165715817 57.384729197328852 0 0 0 0 74.1623298679865 50.307745758058445 0 50.307745758058445 92.54870781246791 0 0 0 0 2.780751323717999 -0.16391512108455686 0 -0.16391512108455686 2.8419492396994954 0 0 0 0 90.616250651407427 145.84592717081978 0 145.84592717081978 214.0120485146399 0 0 0 0 42.055648619189924 93.244229197778623 0 93.244229197778623 261.08267340327438 0 0 0 0 115.91480127543684 41.632598878088174 0 41.632598878088174 26.441438614638173 0 0 0 0 109.70399641892709 39.438444039669776 0 39.438444039669776 69.090023392462172 0 0 0 0 186.02915897333037 173.06662794828299 0 173.06662794828299 79.891623482340947 0 0 0 0 235.20804545326044 151.38761484469478 0 151.38761484469478 -80.802867097692797 0 0 0 0 199.37297454922987 -24.955111484159715 0 -24.955111484159715 -151.98161211823754 0 0 0 0 153.23292044762093 40.398501523322921 0 40.398501523322921 34.243823123837501 0 0 0 0 159.93492711292208 40.936612136378244 0 40.936612136378244 -0.68809431750560179 0 0 0 0 72.767242605493038 -59.938864972111332 0 -59.938864972111332 0.65184161404613405 0 0 0 0 75.71176884730869 -42.25414645791534 0 -42.25414645791534 27.944952673002263 0 0 0 0 103.40925360382062 -22.225717023062316 0 -22.225717023062316 -26.126705529493847 0 0 0 0 94.289248012435166 22.029758735265204 0 22.029758735265204 38.344190022864495 0 0 0 0 40.77376731479967 -24.689222396376863 0 -24.689222396376863 39.238571412241072 0 0 0 0 35.311163262483888 -36.342922406149228 0 -36.342922406149228 95.976152425246255 0 0 0 0 34.414036108879827 7.4207352403045661 0 7.4207352403045661 47.738567615606371 0 0 0 0 51.747799161521755 5.4089650382798027 0 5.4089650382798027 33.524961385955976 0 0 0 0 73.678784322585216 6.9502420295284537 0 6.9502420295284537 31.437253919830255 0 0 0 0 44.882114804469097 25.389615082531691 0 25.389615082531691 56.413491456507472 0 0 0 0 45.072340490508338 26.710177806335878 0 26.710177806335878 55.933903947770887 0 0 0 0 0.51400431563138227 20.134623982865378 0 20.134623982865378 68.238017465329904 0 0 0 0 12.754532716202927 17.162153541524528 0 17.162153541524528 38.719950651464984 0 0 0 0 23.739873751072992 8.9371282084539416 0 8.9371282084539416 41.839646040483785 0 0 0 0 11.695528512740715 22.074605432845029 0 22.074605432845029 44.188408767271952 0 0 0 0 21.272275098635646 29.236550277539209 0 29.236550277539209 38.404445054554117 0 0 0 0 -70.677766035343666 57.579282697723102 0 57.579282697723102 51.34200933950342 0 0 0 0 -9.7756437450534577 59.486766444385921 0 59.486766444385921 6.3484571538429009 0 0 0 0 -33.470798086574177 108.93118963634424 0 108.93118963634424 -48.710691472944745 0 0 0 0 -25.375234747123613 50.241368319006142 0 50.241368319006142 -42.751059274471118 0 0 0 0 -9.48658051417911 4.1463436238722267 0 4.1463436238722267 16.353140860692136 0 0 0 0 47.953524005804866 45.839532733076339 0 45.839532733076339 -2.8174112229171442 0 0 0 0 26.133254083855718 69.108043674792498 0 69.108043674792498 -19.878205108407201 0 0 0 0 23.983564323551946 62.838017350668451 0 62.838017350668451 -5.7859992120393144 0 0 0 0 50.28576473751491 49.072564144171338 0 49.072564144171338 -18.55983319024881 0 0 0 0 19.57991806762584 37.00777718360132 0 37.00777718360132 3.6313065428456639 0 0 0 0 23.526307962424653 31.904823251149992 0 31.904823251149992 -7.7866393143413006 0 0 0 0 16.689679622455515 48.740253602925804 0 48.740253602925804 5.0285003311273613 0 0 0 0 55.804321582443208 -9.7189780569160575 0 -9.7189780569160575 -24.359877557228174 0 0 0 0 21.043794949131986 -1.3072252979410166 0 -1.3072252979410166 7.8563647122158731 0 0 0 0 15.398474537643324 5.1179630729293422 0 5.1179630729293422 66.600334782699065 0 0 0 0 12.26565576491339 22.214320261457942 0 22.214320261457942 66.696932814767933 0 0 0 0 15.836914345652076 4.3433237663703039 0 4.3433237663703039 25.44980244463386 0 0 0 0 6.9318501650325821 -6.1650331569603765 0 -6.1650331569603765 10.329141053865811 0 0 0 0 16.589260166003484 -4.1795053622604428 0 -4.1795053622604428 18.538181870488188 0 0 0 0 12.484373091610337 3.5160742851785471 0 3.5160742851785471 25.289801745722798 0 0 0 0 7.0018825883135989 6.4028754402034318 0 6.4028754402034318 21.094693351830216 0 0 0 0 25.122767195570304 -0.69880596575330856 0 -0.69880596575330856 19.859840301873191 0 0 0 0 -111.21623848704303 -2.2153944404362846 0 -2.2153944404362846 235.83462345905718 0 0 0 0 -1.7257211756386823 -2.3722505192026802 0 -2.3722505192026802 8.5253792151252128 0 0 0 0 -0.61551227082054538 -2.5389097026327363 0 -2.5389097026327363 8.3629612655731762 0 0 0 0 -1.2269848777457284 -1.330914825687433 0 -1.330914825687433 9.4087444574402284 0 0 0 0 1.2042862856196734 -1.3910136971089742 0 -1.3910136971089742 7.9187064813413599 0 0 0 0 -1.2124889113511017 -1.3002870769400943 0 -1.3002870769400943 7.932457115573925 0 0 0 0 -0.97097876769292668 0.94880976764124281 0 0.94880976764124281 7.1145747129895014 0 0 0 0 -11.610303214099986 15.129542081060208 0 15.129542081060208 19.841037346054691 0 0 0 0 -4.6760246585454297 -0.68993835753053645 0 -0.68993835753053645 15.235972863447387 0 0 0 0 -5.1657460486435411 -1.2712558950888706 0 -1.2712558950888706 15.002793641942844 0 0 0 0 6.5515034660029414 23.594974992719472 0 23.594974992719472 77.061230780096594 0 0 0 0 68.032520868024221 -14.402963743792498 0 -14.402963743792498 29.051615862172184 0 0 0 0 -0.17736403410839863 -3.1937271559356262 0 -3.1937271559356262 7.2776641992540334 0 0 0 0 -2.2916678937799588 -90.382189931448011 0 -90.382189931448011 -25.330494828260392 0 0 0 0 -0.52872489940594747 -2.0456349612391058 0 -2.0456349612391058 2.6223866398210012 0 0 0 0 17.520327920986347 11.842072395656942 0 11.842072395656942 23.954618555546404 0 0 0 0 -1.8532508383814275 37.800587120652608 0 37.800587120652608 133.43037247477332 0 0 0 0 -18.308086977333005 -25.29587660838115 0 -25.29587660838115 99.03511711489773 0 0 0 0 -27.994218195897702 20.47121222413989 0 20.47121222413989 163.73360189029336 0 0 0 0 -33.874822083088475 56.547387833883022 0 56.547387833883022 209.08707946531285 0 0 0 0 -31.881161344995235 53.161700696009575 0 53.161700696009575 183.95499541533718 0 0 0 0 3.8157354495306208 55.407484417988599 0 55.407484417988599 167.31941684979029 0 0 0 0 -11.274928830922363 21.099025394426462 0 21.099025394426462 121.32349112670636 0 0 0 0 -30.627434778782117 8.8190584593558015 0 8.8190584593558015 206.68603574679582 0 0 0 0 21.815011879040867 -2.4119330360954336 0 -2.4119330360954336 3.8234347326470015 0 0 0 0 18.934510332156606 37.39347944815745 0 37.39347944815745 115.20308507197115 0 0 0 0 22.907722220992582 -11.903866547605503 0 -11.903866547605503 -349.72210448987607 0 0 0 0 -132.40042492437351 306.54352446753364 0 306.54352446753364 -478.53175192393974 0 0 0 0 39.301948298991192 -66.061914864849314 0 -66.061914864849314 -170.82139318619375 0 0 0 0 11.890442593929038 -24.536440071346078 0 -24.536440071346078 106.20046642658417 0 0 0 0 -38.374927007444057 -33.53794971257048 0 -33.53794971257048 108.12475738414605 0 0 0 0 -140.56123407375162 1.0560926340222068 0 1.0560926340222068 398.8411467606129 0 0 0 0 -119.27579403777236 -213.09572123080216 0 -213.09572123080216 93.898818374544135 0 0 0 0 0.35349197296777923 -0.64347204370846711 0 -0.64347204370846711 2.6194403459029587 0 0 0 0 119.35960343440274 219.25352190299554 0 219.25352190299554 293.48091378513527 0 0 0 0 107.46691007523259 100.61112419837718 0 100.61112419837718 -24.332101197929418 0 0 0 0 6.4448595089106675 74.590740943691344 0 74.590740943691344 124.50124119163593 0 0 0 0 -10.532225518806626 13.971535259361644 0 13.971535259361644 90.849253863370905 0 0 0 0 84.298719103271651 22.523299183587369 0 22.523299183587369 -234.32773001596433 0 0 0 0 13.1624505330554 11.288997032220287 0 11.288997032220287 14.567538590301375 0 0 0 0 5.9523871474959051 12.991577534850713 0 12.991577534850713 36.279735884408105 0 0 0 0 -113.43705493007474 263.310772002661 0 263.310772002661 430.04539898106304 0 0 0 0 29.086227495157459 18.405424740323724 0 18.405424740323724 39.226574534637621 0 0 0 0 -2.8765055285234666 -2.7258225774958191 0 -2.7258225774958191 54.323434836398519 0 0 0 0 20.467717428025541 -14.738357922425166 0 -14.738357922425166 43.401766990074975 0 0 0 0 26.76038148977625 -25.187485733721132 0 -25.187485733721132 54.422719304413476 0 0 0 0 22.857967249765352 -4.7232601744835847 0 -4.7232601744835847 34.152204794256249 0 0 0 0 6.1908234361544601 22.138136963982106 0 22.138136963982106 30.685765734083816 0 0 0 0 -10.036023129759997 2.8268516222269682 0 2.8268516222269682 80.192608774945256 0 0 0 0 -37.198058575946561 34.522168866526044 0 34.522168866526044 64.786653570678027 0 0 0 0 -27.032294968321821 7.800936690193339 0 7.800936690193339 53.447664288782107 0 0 0 0 1.319944641319065 13.489240170450014 0 13.489240170450014 45.142727586399261 0 0 0 0 -24.565805713008103 18.178405179556648 0 18.178405179556648 90.016429598712421 0 0 0 0 -139.13315196802091 4.7504299044563822 0 4.7504299044563822 70.423407645859697 0 0 0 0 -20.679916974591833 -41.119816184571391 0 -41.119816184571391 53.059924121006588 0 0 0 0 -109.09665687239976 -124.32003906948921 0 -124.32003906948921 -21.917389934846142 0 0 0 0 -22.865972052419238 -48.369686363597793 0 -48.369686363597793 34.372799610435322 0 0 0 0 -58.517926845270267 -41.85109401462978 0 -41.85109401462978 67.850963157758088 0 0 0 0 -79.362785512355913 -68.029281842482305 0 -68.029281842482305 55.597817115442012 0 0 0 0 -21.596268938613321 54.973422567488342 0 54.973422567488342 56.97567727025671 0 0 0 0 -93.793061824836514 -40.351184856082909 0 -40.351184856082909 73.498310402668722 0 0 0 0 -3.4207587939595037 -0.90914007412534659 0 -0.90914007412534659 17.632215459096678 0 0 0 0 -5.1579698553423441 4.0545527559715993 0 4.0545527559715993 23.69662470700905 0 0 0 0 -7.2831681788275091 -1.4780762811296881 0 -1.4780762811296881 15.888388230006967 0 0 0 0 -6.0445379159171502 -0.66591721477353616 0 -0.66591721477353616 4.6552566413769076 0 0 0 0 0.25776340745249371 -2.6197167121314635 0 -2.6197167121314635 -1.1092538083929284 0 0 0 0 57.846753422905749 71.883875235893356 0 71.883875235893356 156.55111229771865 0 0 0 0 -27.284675042368235 19.600515049529349 0 19.600515049529349 42.713921435287375 0 0 0 0 -6.537187412833191 3.0615402868479578 0 3.0615402868479578 25.957000396963849 0 0 0 0 -0.74101289716067598 1.7695127545517479 0 1.7695127545517479 6.944173916250719 0 0 0 0 -46.194643063403419 53.601425251719775 0 53.601425251719775 -18.486434063583147 0 0 0 0 -9.6618188624474897 -12.727602789366756 0 -12.727602789366756 0.76931770106602926 0 0 0 0 -11.429904385124395 -5.7625895062654386 0 -5.7625895062654386 17.904130994683612 0 0 0 0 -16.619475515989507 34.721205512587403 0 34.721205512587403 35.902986490280455 0 0 0 0 21.022580960727282 4.5416644304132205 0 4.5416644304132205 47.797862596453342 0 0 0 0 24.109777300838687 6.948503711977537 0 6.948503711977537 39.180235519776033 0 0 0 0 32.475517623908672 11.543145186180482 0 11.543145186180482 29.723560686776182 0 0 0 0 12.173504095530006 28.155994423337688 0 28.155994423337688 18.151235507326419 0 0 0 0 6.5550236785247762 21.121233011519507 0 21.121233011519507 50.808490941868513 0 0 0 0 3.9404600046709675 20.518770601243887 0 20.518770601243887 35.854733839903929 0 0 0 0 17.318080970536812 7.1491388485883363 0 7.1491388485883363 41.820291219439241 0 0 0 0 6.0493649669497245 20.495514219051984 0 20.495514219051984 36.010513386159801 0 0 0 0 12.854045272201802 4.0035830501146847 0 4.0035830501146847 45.788729348620109 0 0 0 0 11.172384402766511 4.2450893161403656 0 4.2450893161403656 47.46590103096969 0 0 0 0 20.199750154804406 -11.186123768336984 0 -11.186123768336984 62.116782846314891 0 0 0 0 29.800173870518847 -13.428200823545922 0 -13.428200823545922 55.30280129622588 0 0 0 0 18.767726140046292 0.51930186685484614 0 0.51930186685484614 67.180293247405643 0 0 0 0 18.814615205636471 -11.498043749052158 0 -11.498043749052158 70.005156215447641 0 0 0 0 3.6037292199273709 23.216826002823659 0 23.216826002823659 27.82201048369086 0 0 0 0 17.427863112459818 -18.510742476726591 0 -18.510742476726591 139.36169068611343 0 0 0 0 56.419210315989403 33.851132984642391 0 33.851132984642391 87.357935253850883 0 0 0 0 78.070463558427946 1.9597288232616847 0 1.9597288232616847 55.508312422374729 0 0 0 0 54.475806878217554 -7.6260761442099465 0 -7.6260761442099465 51.617172394369845 0 0 0 0 13.70807195186535 15.804354422030883 0 15.804354422030883 79.733069936803076 0 0 0 0 14.40107317462207 12.102216596209473 0 12.102216596209473 47.321697196895911 0 0 0 0 6.3650877328727802 -1.4483970256660541 0 -1.4483970256660541 75.168677270346961 0 0 0 0 2.8504076690778675 -3.150054894394998 0 -3.150054894394998 133.60448753874516 0 0 0 0 10.836034344906009 7.8628497938866388 0 7.8628497938866388 11.575601756895857 0 0 0 0 29.09145162871323 -19.253430000362641 0 -19.253430000362641 67.710724627446325 0 0 0 0 76.487570054752723 -36.899924495137384 0 -36.899924495137384 71.460444704483962 0 0 0 0 0.21432296168943754 6.2191903169873513 0 6.2191903169873513 9.1549276726775446 0 0 0 0 25.461087431505774 -0.38746348893801041 0 -0.38746348893801041 23.308631156665797 0 0 0 0 13.085859676648397 -11.318474413030344 0 -11.318474413030344 38.97176215993386 0 0 0 0 9.020992482221402 -23.947202035336886 0 -23.947202035336886 33.493702145638053 0 0 0 0 5.1601483552132095 2.1187897240379243 0 2.1187897240379243 69.395673654615166 0 0 0 0 4.4079707651648095 -11.307077585853044 0 -11.307077585853044 38.577021280670678 0 0 0 0 8.8899596305813304 5.6357499921105045 0 5.6357499921105045 67.641453997814097 0 0 0 0 7.7843458836976112 3.0540547713953856 0 3.0540547713953856 63.354679162570392 0 0 0 0 3.9024928480127699 0.067633288479555631 0 0.067633288479555631 66.841887561571639 0 0 0 0 1.9934643988026011 -12.543702897528419 0 -12.543702897528419 50.439854676696996 0 0 0 0 2.2133662403813901 -10.726312542956293 0 -10.726312542956293 63.395427195850061 0 0 0 0 4.6330839975506102 -16.152591314807069 0 -16.152591314807069 74.127173316446715 0 0 0 0 -14.739535037947054 0.82861630301704281 0 0.82861630301704281 84.008600320696132 0 0 0 0 0.31930691065866768 6.4163844239974424 0 6.4163844239974424 64.373809023087233 0 0 0 0 -6.9734300031985015 12.586370708595496 0 12.586370708595496 59.533412843233236 0 0 0 0 -22.446887701461051 21.748152005980955 0 21.748152005980955 58.804784175576287 0 0 0 0 24.615578164603903 -8.832077699356887 0 -8.832077699356887 61.547754779752722 0 0 0 0 15.765621670638893 5.3799697296899467 0 5.3799697296899467 62.592192128489842 0 0 0 0 0.058943338091580699 -13.722438085828799 0 -13.722438085828799 59.264928844637325 0 0 0 0 11.956060256621299 -0.90066247746653971 0 -0.90066247746653971 53.031513845682639 0 0 0 0 -2.3009870922923854 19.721007152306647 0 19.721007152306647 24.418424239390333 0 0 0 0 1.0406816681433928 -9.0550514323361071 0 -9.0550514323361071 38.36529097401268 0 0 0 0 2.7640174085674971 -2.2824701419158373 0 -2.2824701419158373 25.165281763343955 0 0 0 0 3.6467015813875605 -6.8810408016934161 0 -6.8810408016934161 70.994253407217911 0 0 0 0 7.3752604203029737 6.6941835878795608 0 6.6941835878795608 17.691370362766875 0 0 0 0 -1.3865591221236291 11.102741107388766 0 11.102741107388766 18.43462559558688 0 0 0 0 21.536717143216265 -0.059475323192600626 0 -0.059475323192600626 14.025193457335263 0 0 0 0 -0.91827863593378811 -0.73147730033451097 0 -0.73147730033451097 6.8366767756302593 0 0 0 0 13.077684757280622 9.7586631625081282 0 9.7586631625081282 31.48023190382446 0 0 0 0 8.3125769196786692 9.4467694585290616 0 9.4467694585290616 4.2464402282396456 0 0 0 0 5.8371507740284869 5.2748978134841309 0 5.2748978134841309 38.976844264989268 0 0 0 0 -3.5772105808139956 -1.7158503953713478 0 -1.7158503953713478 24.844192567978311 0 0 0 0 87.57546279092017 -81.344783585738696 0 -81.344783585738696 340.32110915586236 0 0 0 0 29.547007046088424 114.29554904502584 0 114.29554904502584 -198.62524439789559 0 0 0 0 -1.3669450504792089 1.0311669358049187 0 1.0311669358049187 13.745085486645586 0 0 0 0 0.75269514046237873 3.2929119846303365 0 3.2929119846303365 23.401957333153405 0 0 0 0 -6.7568686078451172 163.25434919579857 0 163.25434919579857 42.288249281780736 0 0 0 0 -89.798264074742519 33.600873805400624 0 33.600873805400624 238.18376134037317 0 0 0 0 47.776192536488679 -101.67617977566169 0 -101.67617977566169 124.18755577667616 0 0 0 0 83.122474699990505 -36.576048481501857 0 -36.576048481501857 21.455983209685655 0 0 0 0 -9.774771251944685 -40.022289433982223 0 -40.022289433982223 67.027370064672141 0 0 0 0 59.310065967310621 -38.971859696601314 0 -38.971859696601314 24.508453852329694 0 0 0 0 31.011212577847004 6.2551712021668209 0 6.2551712021668209 -4.3916282859136118 0 0 0 0 4.3666626935802242 -16.12031739545273 0 -16.12031739545273 15.283111363794887 0 0 0 0 2.6408229578293643 1.8615417980334534 0 1.8615417980334534 9.339074295693635 0 0 0 0 -2.8952559669858196 1.2341834420163487 0 1.2341834420163487 27.287613794688397 0 0 0 0 108.81356543473152 -15.759292133833696 0 -15.759292133833696 167.99808013645816 0 0 0 0 -4.6869559782508077 16.77092026763421 0 16.77092026763421 16.261676622070809 0 0 0 0 1.4880904071248882 -1.8462488061033575 0 -1.8462488061033575 0.21526840720369478 0 0 0 0 64.943292241738618 195.9781450501323 0 195.9781450501323 -255.49229384641512 0 0 0 0 -6.2177414446375678 13.626464996428695 0 13.626464996428695 29.99999304119774 0 0 0 0 2.2009160850107037 4.4784783051454724 0 4.4784783051454724 30.498495453006399 0 0 0 0 -90.41388904624182 60.449558474990752 0 60.449558474990752 93.264044843173906 0 0 0 0 -90.449854331567622 56.587601956694925 0 56.587601956694925 65.356245349124947 0 0 0 0 -0.42789365129438384 4.0183913176782493 0 4.0183913176782493 32.456382888395382 0 0 0 0 -0.87107251100496796 9.8299642638830846 0 9.8299642638830846 27.296458952785542 0 0 0 0 -8.4968388706220139 8.4991111976687534 0 8.4991111976687534 34.526311111304949 0 0 0 0 1.3735038274346536 8.4473249125837189 0 8.4473249125837189 29.749433223520192 0 0 0 0 7.3169563291376107 15.219798164956956 0 15.219798164956956 17.49516704621783 0 0 0 0 -41.608537553270253 72.17095334154692 0 72.17095334154692 14.321900642591118 0 0 0 0 -14.07235880570488 42.537946642160023 0 42.537946642160023 7.0519742690376006 0 0 0 0 -2.3741499232864953 8.4984544758281118 0 8.4984544758281118 35.730031897885056 0 0 0 0 1.9110616003193597 10.632115091854669 0 10.632115091854669 28.573200170626052 0 0 0 0 5.8167089314292753 7.7456306133208273 0 7.7456306133208273 29.588198784166025 0 0 0 0 -2.1913923686415728 14.967262817748633 0 14.967262817748633 60.938880075038469 0 0 0 0 7.0235303063836909 24.843988657687987 0 24.843988657687987 34.882560399179056 0 0 0 0 2.1961402585216447 8.6588926634328303 0 8.6588926634328303 7.9176315634380909 0 0 0 0 8.3859086193228904 17.262490405551944 0 17.262490405551944 21.93885538941322 0 0 0 0 -8.5704151529930641 14.835366444447573 0 14.835366444447573 38.2966566764444 0 0 0 0 -4.4364621343293038 2.3655956721377152 0 2.3655956721377152 26.98036492522624 0 0 0 0 -0.51384870692071161 8.5446913118701815 0 8.5446913118701815 10.750511862222128 0 0 0 0 4.5214098993892549 19.200213003938188 0 19.200213003938188 17.38406477918079 0 0 0 0 -1.0728892573867377 6.7287738740547711 0 6.7287738740547711 31.22033788168703 0 0 0 0 6.5042651267735891 14.969400494546335 0 14.969400494546335 9.1770232859198586 0 0 0 0 3.1152706192970072 7.9350557925645262 0 7.9350557925645262 11.608590284151433 0 0 0 0 -1.3233731803214805 1.4922380966393405 0 1.4922380966393405 4.9706919838274075 0 0 0 0 12.789929066584591 8.1775655799938249 0 8.1775655799938249 9.6264477372551482 0 0 0 0 21.488606586010974 15.260991245986588 0 15.260991245986588 8.1042481506301556 0 0 0 0 13.923691710965613 25.659683904453232 0 25.659683904453232 2.0497178448167688 0 0 0 0 0.98290572358746431 23.732431867645573 0 23.732431867645573 13.476709904287418 0 0 0 0 14.393605147097333 31.420489100957639 0 31.420489100957639 0.53469126507206965 0 0 0 0 28.02388915175834 14.729294147871769 0 14.729294147871769 6.6944866720814389 0 0 0 0 106.81326343903038 -28.365695434929876 0 -28.365695434929876 49.186795474687642 0 0 0 0 21.78662423086098 31.735946357528519 0 31.735946357528519 36.07302149908719 0 0 0 0 1.213565161947372 15.380866447407243 0 15.380866447407243 65.149864719784091 0 0 0 0 72.743110437018913 123.35886837598082 0 123.35886837598082 206.37108613934834 0 0 0 0 44.827208287592839 0.31571891218163728 0 0.31571891218163728 25.986372098517677 0 0 0 0 0.11335237539107723 -2.3497664289561371 0 -2.3497664289561371 6.1637345867171902 0 0 0 0 20.502865422128707 11.906590101543316 0 11.906590101543316 23.138441119968775 0 0 0 0 28.556760133769785 14.607477792929785 0 14.607477792929785 12.021638170222104 0 0 0 0 -2.9726076448168897 -3.3343375757376634 0 -3.3343375757376634 13.508209750107198 0 0 0 0 -4.2265386472818136 -5.0993117700609218 0 -5.0993117700609218 11.448897676731576 0 0 0 0 27.502625278953929 -10.332293162351561 0 -10.332293162351561 1.3916784672819631 0 0 0 0 1.5386663660046906 -1.2158070379427954 0 -1.2158070379427954 10.706318307418769 0 0 0 0 0.60981025068368666 -1.2477134357763831 0 -1.2477134357763831 1.9810337712504094 0 0 0 0 95.723890562650922 -65.71672354661132 0 -65.71672354661132 38.951272685320873 0 0 0 0 12.517890632017952 -96.886775457744989 0 -96.886775457744989 141.72499303557197 0 0 0 0 -49.674534599244907 1.7234814319344878 0 1.7234814319344878 64.669657969294349 0 0 0 0 -2.2646268734363115 -7.1548255171628057 0 -7.1548255171628057 5.9027111493030588 0 0 0 0 -79.109547681315235 -36.236848335074683 0 -36.236848335074683 143.98510387768329 0 0 0 0 -37.714345192818655 -31.979370850593114 0 -31.979370850593114 141.56355144844383 0 0 0 0 -34.121431486547408 -38.180729566014634 0 -38.180729566014634 71.431622984153364 0 0 0 0 -10.669182965971231 -14.551247903819785 0 -14.551247903819785 19.133310088705912 0 0 0 0 -6.4420586009009639 -12.526127553082915 0 -12.526127553082915 18.833046058001855 0 0 0 0 9.5173928063522908 -39.624847856472115 0 -39.624847856472115 64.446600861162551 0 0 0 0 -3.5499697250979807 -5.0090036415622308 0 -5.0090036415622308 11.109853377165564 0 0 0 0 1.7535323282083013 -2.2392439793713024 0 -2.2392439793713024 20.388160141863644 0 0 0 0 5.9339255854365547 -7.7696753065474695 0 -7.7696753065474695 10.640030375130664 0 0 0 0 -4.3453001459001825 -4.4791065956742386 0 -4.4791065956742386 10.75686590229634 0 0 0 0 -1.8966082062670466 -4.6663146392547787 0 -4.6663146392547787 9.7266570944666455 0 0 0 0 -0.64695934355040663 -3.8916749858817639 0 -3.8916749858817639 7.5522975604417297 0 0 0 0 -1.0777745662953748 -0.38314793690369697 0 -0.38314793690369697 7.8995014473910032 0 0 0 0 -3.3000810523101158 0.99205670855609007 0 0.99205670855609007 6.1898551207359844 0 0 0 0 -5.574155476389933 -0.53627952807892143 0 -0.53627952807892143 16.163052710107877 0 0 0 0 -3.939285379633354 0.070106788519524343 0 0.070106788519524343 5.3740996384419244 0 0 0 0 -2.8312759523400928 1.5324600690646548 0 1.5324600690646548 10.463156344414529 0 0 0 0 -4.2602467647302547 -1.2411231217884051 0 -1.2411231217884051 15.549357544128725 0 0 0 0 -2.850870176065655 0.55646153645648155 0 0.55646153645648155 8.749010164388892 0 0 0 0 -13.229668201604454 -9.9782596327247575 0 -9.9782596327247575 31.026138850156713 0 0 0 0 -14.401344964842792 -4.6840031368683412 0 -4.6840031368683412 16.808987184427679 0 0 0 0 -2.8964195031521953 1.506391194697339 0 1.506391194697339 9.610233623313583 0 0 0 0 -1.641027261927583 -0.53196840501135156 0 -0.53196840501135156 10.897988463766957 0 0 0 0 -5.2625154613324412 -5.4786604792716389 0 -5.4786604792716389 16.107949624376488 0 0 0 0 -15.678892001218628 0.33184588892981992 0 0.33184588892981992 13.549440377369137 0 0 0 0 -10.557799667789368 5.4886028242235625 0 5.4886028242235625 18.052761120114155 0 0 0 0 -0.11926777264782729 0.43994550896038831 0 0.43994550896038831 2.7013282147337261 0 0 0 0 0.16755329502081295 -2.7730783111672146 0 -2.7730783111672146 13.690349200452324 0 0 0 0 4.4986547269472794 -6.7608134236452315 0 -6.7608134236452315 14.513737005399889 0 0 0 0 -2.6954084922200394 -0.20867199193990515 0 -0.20867199193990515 8.4650200015187664 0 0 0 0 -3.1001330093895376 -3.21879959332 0 -3.21879959332 8.2868205032791593 0 0 0 0 0.34429884239716557 26.270031416919664 0 26.270031416919664 -68.996770705130871 0 0 0 0 53.134865288015661 7.0010815699906743 0 7.0010815699906743 70.038093792005384 0 0 0 0 81.704028127947879 -26.251290339412662 0 -26.251290339412662 -12.735238293469592 0 0 0 0 30.453425658070017 -38.90271189806117 0 -38.90271189806117 22.907919806762948 0 0 0 0 41.673077473506908 -82.786544879723806 0 -82.786544879723806 52.805254300281376 0 0 0 0 9.8429719820940136 -61.830595290764904 0 -61.830595290764904 71.484159407715197 0 0 0 0 -0.08157112921809867 -0.23732931438670057 0 -0.23732931438670057 2.7614100794527587 0 0 0 0 14.726208471058158 -122.97990034770373 0 -122.97990034770373 62.803344431784353 0 0 0 0 -76.589895171370472 -12.262772779737134 0 -12.262772779737134 348.81602991619729 0 0 0 0 44.368351777204737 -75.766509133150976 0 -75.766509133150976 -67.50463761583859 0 0 0 0 46.085984987431836 246.08385193982213 0 246.08385193982213 -1.7981714868728886 0 0 0 0 -39.033071123319324 5.8386560586113774 0 5.8386560586113774 305.42146360689367 0 0 0 0 -33.738134406696005 33.135560890539637 0 33.135560890539637 99.791567507789296 0 0 0 0 0.025338008650665142 8.3789907947357278 0 8.3789907947357278 70.333235930285809 0 0 0 0 24.236015053403811 25.428178177085556 0 25.428178177085556 -1.2669230776227778 0 0 0 0 4.639238232826127 -35.57388737398287 0 -35.57388737398287 -61.910099020837151 0 0 0 0 -79.345360593499962 -20.452393493775617 0 -20.452393493775617 5.885171492882364 0 0 0 0 -1.3484976439904486 2.1244067788393295 0 2.1244067788393295 -16.898553474289656 0 0 0 0 9.5136242491519436 -25.448181118925277 0 -25.448181118925277 6.8421417172994552 0 0 0 0 0.030862239133346524 -10.703750836927679 0 -10.703750836927679 54.563697551908263 0 0 0 0 -0.56503406263532829 -53.068239185193306 0 -53.068239185193306 50.347709123736422 0 0 0 0 -0.059778822666140791 0.073995376417084202 0 0.073995376417084202 2.3966673809039207 0 0 0 0 20.552683096765993 143.119282398 0 143.119282398 96.536377791210754 0 0 0 0 61.36938994012587 186.2711461549361 0 186.2711461549361 82.284937483374961 0 0 0 0 0.20689670431110863 -0.54203457196842209 0 -0.54203457196842209 2.8732721881449947 0 0 0 0 -45.107824732011863 -130.26659012016535 0 -130.26659012016535 134.82544822454656 0 0 0 0 -0.18863170537679866 -0.51785226339969093 0 -0.51785226339969093 5.0742757751679619 0 0 0 0 -208.17289082988509 -29.839134180383553 0 -29.839134180383553 123.46435699878566 0 0 0 0 113.73190224644964 107.25975179943816 0 107.25975179943816 149.65192166819179 0 0 0 0 172.82973613042356 -11.369116311394464 0 -11.369116311394464 6.7852805787351826 0 0 0 0 -8.6379086697988896 -10.785141135302183 0 -10.785141135302183 181.56956367769453 0 0 0 0 -8.5890028355438801 -44.658763386456485 0 -44.658763386456485 51.975267884219647 0 0 0 0 8.4033200954609129 -7.2729311399853032 0 -7.2729311399853032 51.872820043216052 0 0 0 0 6.3587558754829843 -26.914836056614149 0 -26.914836056614149 76.106997309525468 0 0 0 0 3.1793628424165874 -22.107435178639207 0 -22.107435178639207 71.464215442661953 0 0 0 0 6.8526591695130605 -8.5114178615040146 0 -8.5114178615040146 74.69534288531213 0 0 0 0 -6.0471519941338414 -16.946331188539261 0 -16.946331188539261 88.733764861790405 0 0 0 0 23.696477657749469 3.3778977790207136 0 3.3778977790207136 89.595417469764925 0 0 0 0 33.502705379318797 34.522999628668913 0 34.522999628668913 114.4759282767418 0 0 0 0 42.475261756225962 28.069032805149618 0 28.069032805149618 63.212690916931024 0 0 0 0 -3.5864314907198036 -10.642717034636007 0 -10.642717034636007 128.86602669958666 0 0 0 0 0.25783752507362079 -0.046429307664610064 0 -0.046429307664610064 -0.55370801462819941 0 0 0 0 -13.765415198776886 -30.012970790488907 0 -30.012970790488907 123.47231939494304 0 0 0 0 -3.4420345696238286 -12.603353972564946 0 -12.603353972564946 69.463834340960148 0 0 0 0 -8.3792615307985816 -20.571880076300658 0 -20.571880076300658 69.789124942344642 0 0 0 0 -23.004543804850513 -9.6851382821187144 0 -9.6851382821187144 87.938965205922159 0 0 0 0 -20.874189331335714 -12.799712768435711 0 -12.799712768435711 87.587751317747461 0 0 0 0 -27.128088176309564 11.551203921575507 0 11.551203921575507 74.840009794206708 0 0 0 0 -22.856481655047656 -9.5566783631902581 0 -9.5566783631902581 88.049882050807355 0 0 0 0 -65.155393104836691 3.369678312628821 0 3.369678312628821 97.68314197294967 0 0 0 0 -34.868880028274262 -0.45294665956316749 0 -0.45294665956316749 82.908096994480729 0 0 0 0 -26.180046049629386 -20.642667757055278 0 -20.642667757055278 88.687634529611387 0 0 0 0 55.926246724053044 -31.414371200746245 0 -31.414371200746245 80.945219245288172 0 0 0 0 -1.9195635159275781 -23.015737055873615 0 -23.015737055873615 85.86415409098845 0 0 0 0 -76.478862893322358 -6.0854531441527797 0 -6.0854531441527797 125.23771963456238 0 0 0 0 -97.3473364725306 65.83559397299905 0 65.83559397299905 43.796616986601293 0 0 0 0 -10.722695414077918 -20.991448809301801 0 -20.991448809301801 66.509300183148298 0 0 0 0 -57.594198688367698 91.644452912434645 0 91.644452912434645 -39.692406993679469 0 0 0 0 -1.8402550602663921 -2.0425716625646402 0 -2.0425716625646402 11.365653445808505 0 0 0 0 -23.079419788199345 27.153104063763749 0 27.153104063763749 30.487006917101098 0 0 0 0 36.388753234170423 2.887989506492886 0 2.887989506492886 86.955462074234674 0 0 0 0 14.426096754841993 11.530826229207378 0 11.530826229207378 87.015185758617008 0 0 0 0 19.102838762245199 16.391631611841149 0 16.391631611841149 86.308885127996291 0 0 0 0 48.721216184656711 35.39563925761604 0 35.39563925761604 97.361907857470214 0 0 0 0 0.40661981698499972 16.990870777874079 0 16.990870777874079 125.45330321907022 0 0 0 0 19.502145855581034 -43.97732872765846 0 -43.97732872765846 87.722319122342014 0 0 0 0 -14.407935967357787 -26.757824893589714 0 -26.757824893589714 81.508634845398774 0 0 0 0 -4.9179910233087796 -23.090379205124918 0 -23.090379205124918 17.958939553795062 0 0 0 0 -20.812937389220849 -13.609464983896032 0 -13.609464983896032 97.509185861919832 0 0 0 0 -59.858828609470315 -32.540645948891324 0 -32.540645948891324 91.312188470750698 0 0 0 0 0.070349418475085621 -0.096695315985998231 0 -0.096695315985998231 1.1115073475658619 0 0 0 0 -0.67745163023365196 2.0053200001087435 0 2.0053200001087435 2.7160495916246532 0 0 0 0 7.9400596497523992 16.267765848446288 0 16.267765848446288 4.0600856515957275 0 0 0 0 -54.920876542855765 19.298884937074035 0 19.298884937074035 17.959871691877197 0 0 0 0 -27.777362044781171 30.263529140916944 0 30.263529140916944 15.369264779856394 0 0 0 0 10.421735541916064 34.406678083527368 0 34.406678083527368 9.2733161304568057 0 0 0 0 -2.6764902351386013 7.3891631421611237 0 7.3891631421611237 23.263726879828027 0 0 0 0 -2.6802599544872123 -0.59543433049111627 0 -0.59543433049111627 48.307396870106459 0 0 0 0 -12.875788634077708 -4.4212797348372987 0 -4.4212797348372987 53.670671086802031 0 0 0 0 -5.8850115297243519 -9.0258234821085352 0 -9.0258234821085352 51.634472559708229 0 0 0 0 -73.762950901265711 13.654414668722893 0 13.654414668722893 60.912712352888775 0 0 0 0 -19.05099474857478 9.427412038177863 0 9.427412038177863 47.559624351197272 0 0 0 0 -16.765023188266014 14.397567388637981 0 14.397567388637981 57.511799890475231 0 0 0 0 -1.4210271542117141 93.263850666367944 0 93.263850666367944 55.441937632815097 0 0 0 0 98.238054967669257 46.59958999664093 0 46.59958999664093 15.440609805293207 0 0 0 0 -10.544318947250266 22.257306088127962 0 22.257306088127962 43.713375890845782 0 0 0 0 -10.566640153589688 21.385017228261859 0 21.385017228261859 9.6256845857551525 0 0 0 0 -51.774115549482758 64.810648738261079 0 64.810648738261079 6.5470385640621771 0 0 0 0 -3.7190398037791561 8.4146147996616136 0 8.4146147996616136 14.395014883842727 0 0 0 0 -7.1379197906098852 20.84857556139832 0 20.84857556139832 33.366730475798249 0 0 0 0 -41.802026350680762 43.83343954234806 0 43.83343954234806 7.6240150793214525 0 0 0 0 -33.702010491927922 25.911904339009197 0 25.911904339009197 30.150541774615704 0 0 0 0 -57.964115455742785 51.288284576330625 0 51.288284576330625 36.065284842260553 0 0 0 0 -3.9026574886770504 4.574644079169957 0 4.574644079169957 45.30595912917488 0 0 0 0 -32.168994390847502 1.2785201210972446 0 1.2785201210972446 58.758758186293562 0 0 0 0 -18.697020840860205 -16.413806700176792 0 -16.413806700176792 42.342602092870948 0 0 0 0 -6.7974373454203754 5.7523017635714808 0 5.7523017635714808 14.086316457524873 0 0 0 0 -32.392652746670123 10.609192636985313 0 10.609192636985313 25.642871154537715 0 0 0 0 -20.15110789041978 -7.9646661136603143 0 -7.9646661136603143 22.570010489689594 0 0 0 0 -16.47977728324372 -17.292758654130012 0 -17.292758654130012 42.685670985665638 0 0 0 0 -18.191475788570642 -18.770763993808941 0 -18.770763993808941 44.293271258000459 0 0 0 0 10.10970619376883 -28.532947258659988 0 -28.532947258659988 25.452418964392564 0 0 0 0 -20.689122189795853 -17.882540717670054 0 -17.882540717670054 43.97740414038708 0 0 0 0 9.6605244897977514 13.602767974512972 0 13.602767974512972 -5.819927644195559 0 0 0 0 -27.584124321852798 20.437891884663713 0 20.437891884663713 6.3675395312384353 0 0 0 0 -2.3552605193557778 -3.3440897712581501 0 -3.3440897712581501 21.124143470294356 0 0 0 0 -28.525976877738451 33.277077005985348 0 33.277077005985348 -12.256982481805608 0 0 0 0 -6.1591267909098519 -5.3660083527029201 0 -5.3660083527029201 23.698058819831203 0 0 0 0 -24.651534053469732 -0.85229640416764596 0 -0.85229640416764596 35.955285020556403 0 0 0 0 -0.20326403863981246 -1.0224083803250323 0 -1.0224083803250323 3.830325209600943 0 0 0 0 -2.3630711320427338 14.527835664048325 0 14.527835664048325 -5.3997127854308928 0 0 0 0 -6.7798715977570509 -2.6408748191934137 0 -2.6408748191934137 17.552388831991266 0 0 0 0 -18.923308375761536 6.2024619488583994 0 6.2024619488583994 14.089102121186443 0 0 0 0 -7.5013344377931048 6.4778289758869505 0 6.4778289758869505 4.5850586430860858 0 0 0 0 5.2114854775275035 -1.1001317877671681 0 -1.1001317877671681 -2.6460936247030986 0 0 0 0 8.8121588701858968 2.7628630589460954 0 2.7628630589460954 -2.5399945467625002 0 0 0 0 7.845587074123813 -3.1008889448330592 0 -3.1008889448330592 -14.121061489306157 0 0 0 0 7.6592397308327236 6.095007559597434 0 6.095007559597434 1.3771803401577927 0 0 0 0 -1.4603130385627878 -4.5047032834772835 0 -4.5047032834772835 -2.043147312313522 0 0 0 0 6.9504325448912425 -1.7329571752597985 0 -1.7329571752597985 -5.5633692680275999 0 0 0 0 -14.110177764833452 -9.9893093571918143 0 -9.9893093571918143 -7.9687713464736589 0 0 0 0 15.83889603945596 -13.493651240165491 0 -13.493651240165491 -27.309364621090936 0 0 0 0 31.746922296169316 5.7950814050745976 0 5.7950814050745976 -16.256711560420626 0 0 0 0 15.475778428465134 18.968612107597437 0 18.968612107597437 -7.9090932023609639 0 0 0 0 1.7117765142450594 27.911706548000438 0 27.911706548000438 76.736727820221859 0 0 0 0 24.491053141029582 15.719677740153202 0 15.719677740153202 -6.8892070269648684 0 0 0 0 45.73287806589218 42.452207489459397 0 42.452207489459397 21.01013154519751 0 0 0 0 -8.3280719682027282 -72.604041074666384 0 -72.604041074666384 -53.875772907187638 0 0 0 0 54.551989230845891 10.896380534530181 0 10.896380534530181 -18.552016977208041 0 0 0 0 43.909009921532061 12.059362706975662 0 12.059362706975662 -12.154840209026588 0 0 0 0 101.57300727847893 125.49579210402499 0 125.49579210402499 83.804537962620088 0 0 0 0 -12.268076979493969 -109.31191632851733 0 -109.31191632851733 188.79303060372331 0 0 0 0 132.19464225868094 27.88346201996319 0 27.88346201996319 -106.59237621664943 0 0 0 0 -12.451653373009663 -2.7063536877030856 0 -2.7063536877030856 69.332404161839804 0 0 0 0 -10.540868608311371 30.684283764152497 0 30.684283764152497 255.16212477629415 0 0 0 0 35.652143587918204 -44.783603048393161 0 -44.783603048393161 28.349721957190923 0 0 0 0 -0.067722385533413157 -10.699734293788424 0 -10.699734293788424 143.46145354967666 0 0 0 0 -157.34575864339135 120.08597907649528 0 120.08597907649528 252.41716826425545 0 0 0 0 -0.012264330108035782 0.39352922437085525 0 0.39352922437085525 2.0599619966805562 0 0 0 0 53.540338475652668 -97.208943624751555 0 -97.208943624751555 166.9271385371394 0 0 0 0 -0.21605726846145726 0.477873839822891 0 0.477873839822891 4.3953685889185579 0 0 0 0 -5.9595198769754223 2.0586529387364862 0 2.0586529387364862 19.095456001952698 0 0 0 0 -7.4693259058247197 4.6538909001319553 0 4.6538909001319553 24.674759947574785 0 0 0 0 0.057083859988650489 5.6232691303430329 0 5.6232691303430329 15.198283419485961 0 0 0 0 -2.5153447657490151 -1.4887497969466494 0 -1.4887497969466494 0.93167597996944096 0 0 0 0 -90.649085035006721 -15.57608933552001 0 -15.57608933552001 3.6911388918306329 0 0 0 0 -11.8142417966246 -1.7415296778090124 0 -1.7415296778090124 -3.4335486727650277 0 0 0 0 -25.220017501618031 -1.4896421721859952 0 -1.4896421721859952 0.27454779934487306 0 0 0 0 -7.9700749359905103 3.2278290574686253 0 3.2278290574686253 0.22868112581636524 0 0 0 0 -9.2086831581362105 1.9197591338488564 0 1.9197591338488564 0.40970779572671745 0 0 0 0 -1.5687321482596792 4.1654979925369844 0 4.1654979925369844 0.56115701151816211 0 0 0 0 -0.017865886353265539 1.9712980381409579 0 1.9712980381409579 1.6349012150167255 0 0 0 0 -4.4176343203436232 2.9678493920546316 0 2.9678493920546316 3.1571913779480383 0 0 0 0 -27.858457917645708 7.4281873716427071 0 7.4281873716427071 3.7312116680041072 0 0 0 0 -0.2211175518800364 0.12130347534179009 0 0.12130347534179009 4.6641050608059516 0 0 0 0 -2.932647013428396 0.14388579409569502 0 0.14388579409569502 5.5337751851184294 0 0 0 0 -3.016323019131149 -1.075143259543438 0 -1.075143259543438 4.4203980931197293 0 0 0 0 -0.61294207585026284 -0.78501341766241239 0 -0.78501341766241239 2.2548232864646707 0 0 0 0 -0.54349563773363252 0.62685999912234536 0 0.62685999912234536 0.69806766255913999 0 0 0 0 -24.371806487055608 -1.6439203451591311 0 -1.6439203451591311 -4.3468790726892621 0 0 0 0 -22.856924890764617 7.6351893920073053 0 7.6351893920073053 -1.7439746424352052 0 0 0 0 -22.947011281901496 3.2097390198105131 0 3.2097390198105131 2.1660948666249169 0 0 0 0 -13.126139979855793 3.3549926278210478 0 3.3549926278210478 0.46963557677236167 0 0 0 0 -2.5711155391456941 -1.708336983450863 0 -1.708336983450863 0.2430744019843587 0 0 0 0 -8.497449555436674 7.9743546765530482 0 7.9743546765530482 0.55768703098874539 0 0 0 0 2.6793068597463616 12.38936930980708 0 12.38936930980708 -0.11238802383013535 0 0 0 0 -15.806348644990635 15.490902240715513 0 15.490902240715513 10.004141854806221 0 0 0 0 -29.396497631515444 3.8128676521519083 0 3.8128676521519083 9.5327517427795101 0 0 0 0 -43.383898804507226 31.98142654215917 0 31.98142654215917 41.462047592307499 0 0 0 0 -59.82767849235961 -12.435512726715388 0 -12.435512726715388 23.650018275471666 0 0 0 0 19.958625216284815 13.166160707587551 0 13.166160707587551 9.6519631382307125 0 0 0 0 0.00437285167321186 0.11357004650744784 0 0.11357004650744784 2.2233247001356631 0 0 0 0 0.10047579162572533 -0.28106621033778723 0 -0.28106621033778723 0.14360607313446394 0 0 0 0 0.26350471013916688 -1.2249577450767219 0 -1.2249577450767219 4.3885198059993229 0 0 0 0 2.1884129365788749 -6.7743354297581391 0 -6.7743354297581391 -2.8586008977654274 0 0 0 0 -0.6637445520382812 -3.1095534742271411 0 -3.1095534742271411 18.789960969948879 0 0 0 0 7.0258207159927224 -8.0259280486498028 0 -8.0259280486498028 9.325932937732432 0 0 0 0 2.5990454000661742 -1.9485962274520716 0 -1.9485962274520716 11.567414178847685 0 0 0 0 8.9007211383039646 -2.8469229930415167 0 -2.8469229930415167 -2.1171828627993818 0 0 0 0 1.2309782052862488 2.3803268170013325 0 2.3803268170013325 4.4486508349218639 0 0 0 0 5.905046086795064 -6.5943696958538567 0 -6.5943696958538567 11.806607196907862 0 0 0 0 0.78113784181394519 0.0037036332251290105 0 0.0037036332251290105 -0.20115321483521598 0 0 0 0 -1.5566225229051014 -5.1881652615629719 0 -5.1881652615629719 45.666862918642437 0 0 0 0 25.72294621626418 -13.33877967219405 0 -13.33877967219405 9.3803125256745261 0 0 0 0 5.0502274847910371 1.6234759973176551 0 1.6234759973176551 16.751533271475637 0 0 0 0 7.4213974648984475 7.8876462972766603 0 7.8876462972766603 -0.0025258838413719786 0 0 0 0 -4.4833178712113977 3.1458356606672169 0 3.1458356606672169 -1.8906145838482189 0 0 0 0 -5.8722154831421278 5.1883320284559886 0 5.1883320284559886 19.669049958363757 0 0 0 0 27.766280767063591 -90.90511214275466 0 -90.90511214275466 64.733949486160782 0 0 0 0 0.04656972015372482 -3.3331152994742297 0 -3.3331152994742297 32.566370193857438 0 0 0 0 7.6396448565866599 6.9496737127483357 0 6.9496737127483357 2.6076521012510057 0 0 0 0 35.538131562372797 -26.43559621804161 0 -26.43559621804161 -17.00782557178718 0 0 0 0 -9.4160184420766235 -9.218112408802881 0 -9.218112408802881 38.355182411389251 0 0 0 0 0.37609248219399072 -1.2621585172322582 0 -1.2621585172322582 3.3870316760260835 0 0 0 0 -43.364439597765625 -25.950601905176882 0 -25.950601905176882 1.3848349455256539 0 0 0 0 19.246798205279394 17.089615283388412 0 17.089615283388412 15.74297307078632 0 0 0 0 3.8057447670268818 39.397293322041151 0 39.397293322041151 118.14191927151114 0 0 0 0 -0.03344178273657767 -0.34785589702138109 0 -0.34785589702138109 163.21441300750303 0 0 0 0 -11.733925212070671 -1.3744745544299803 0 -1.3744745544299803 171.42122824297985 0 0 0 0 -3.6727521563783547 -28.948715445483685 0 -28.948715445483685 260.01411844521681 0 0 0 0 29.994922543092009 86.802561636548489 0 86.802561636548489 191.59700529859037 0 0 0 0 0.20056517254090392 -0.47407000109467745 0 -0.47407000109467745 1.4103415544881273 0 0 0 0 -30.326673271480502 -11.956529171082366 0 -11.956529171082366 235.40498692612528 0 0 0 0 37.805909440677453 27.875477923307699 0 27.875477923307699 187.54580480846198 0 0 0 0 79.982015562291366 -16.203101439552483 0 -16.203101439552483 163.219248876856 0 0 0 0 11.114219041959352 -18.416057089723836 0 -18.416057089723836 163.66632141754235 0 0 0 0 43.714285131360441 11.17581995555247 0 11.17581995555247 137.3885667081704 0 0 0 0 13.558406898232221 4.1582202974386746 0 4.1582202974386746 173.49958267040347 0 0 0 0 4.7318474067728857 4.6029672983077035 0 4.6029672983077035 136.88884335609691 0 0 0 0 21.809490087209781 0.46320763183030067 0 0.46320763183030067 110.66648124942003 0 0 0 0 20.652715921152531 8.1868163204162556 0 8.1868163204162556 111.85405097686453 0 0 0 0 14.438415540406268 -19.935206760628262 0 -19.935206760628262 114.13750923257612 0 0 0 0 0.012251147036355834 -3.6562874329811166 0 -3.6562874329811166 113.09411656561679 0 0 0 0 -0.019392006311138847 -8.3146346687881305 0 -8.3146346687881305 175.19629218554473 0 0 0 0 7.8992044151727558 -31.902255696040811 0 -31.902255696040811 139.85397251229369 0 0 0 0 15.046152042599891 -3.4343789402100811 0 -3.4343789402100811 135.96235059674291 0 0 0 0 17.647590311553586 5.002372807237407 0 5.002372807237407 -15.04189553670119 0 0 0 0 18.339185729890573 -15.674538622068212 0 -15.674538622068212 101.02303568360367 0 0 0 0 -40.760410270945727 -31.335681842783742 0 -31.335681842783742 113.31137865992787 0 0 0 0 -0.14687774777646379 0.5288399339574994 0 0.5288399339574994 1.0622328054955972 0 0 0 0 0.32042109263829843 99.083908381740912 0 99.083908381740912 -12.223737459042241 0 0 0 0 31.72789111433184 39.340822243448201 0 39.340822243448201 46.466118471937079 0 0 0 0 -9.9593265258622523 72.596792216816539 0 72.596792216816539 98.804255433606158 0 0 0 0 22.644424295493735 31.028329901200777 0 31.028329901200777 99.066195360421261 0 0 0 0 22.556520723576341 21.486387913999351 0 21.486387913999351 118.60527948266827 0 0 0 0 14.034467977877839 17.774989335778457 0 17.774989335778457 193.95451148880238 0 0 0 0 39.040542213146068 -10.501341836756183 0 -10.501341836756183 117.27975896778366 0 0 0 0 15.227589049210877 9.9754617999342372 0 9.9754617999342372 143.1812005775646 0 0 0 0 32.26300965344285 -50.009015671996167 0 -50.009015671996167 152.51429529482994 0 0 0 0 -3.5792667225587138 -52.820677849307685 0 -52.820677849307685 266.1083529304633 0 0 0 0 -0.075978595856147413 0.35487758532043756 0 0.35487758532043756 0.50080062225528366 0 0 0 0 -17.296323273757807 -29.767150431157461 0 -29.767150431157461 129.37265688354819 0 0 0 0 8.8185761100687614 -27.997227005565946 0 -27.997227005565946 49.010787025024911 0 0 0 0 35.889321391003563 42.525848524411117 0 42.525848524411117 119.65948742558976 0 0 0 0 38.154573694483361 -90.936094042554032 0 -90.936094042554032 119.22226294763095 0 0 0 0 -3.148602663678048 -32.539338717269857 0 -32.539338717269857 181.04509190802492 0 0 0 0 -0.38400470049292279 0.78772599904024787 0 0.78772599904024787 0.87274832162301408 0 0 0 0 -8.4796674971383936 -46.022289599608484 0 -46.022289599608484 193.56687511735436 0 0 0 0 19.984088274073827 -19.467056994048107 0 -19.467056994048107 112.39248450649757 0 0 0 0 -29.213063210960286 -37.176872569796615 0 -37.176872569796615 169.30165639390907 0 0 0 0 -0.68112505960608738 0.88146573651711435 0 0.88146573651711435 1.0170642873353799 0 0 0 0 -17.064866884267474 -10.605519393342547 0 -10.605519393342547 192.3451920096486 0 0 0 0 -10.757592434537628 -8.1366572169499705 0 -8.1366572169499705 114.62477164041047 0 0 0 0 1.4068983656627552 -16.820517872552955 0 -16.820517872552955 2.6160186674615034 0 0 0 0 43.436997906193483 -46.033588599973882 0 -46.033588599973882 57.086389620264526 0 0 0 0 10.110835896394356 -4.1080200152513555 0 -4.1080200152513555 2.1828161373488051 0 0 0 0 3.7111653996662426 -22.922861469522104 0 -22.922861469522104 -31.575666721975722 0 0 0 0 0.45564370870167181 -14.764877026715112 0 -14.764877026715112 -1.412103452545125 0 0 0 0 -28.365750823654935 -12.174478419219668 0 -12.174478419219668 210.33075894886497 0 0 0 0 -27.645516210361762 -9.9182754243156523 0 -9.9182754243156523 106.00212645393185 0 0 0 0 6.4230065076004612 -29.782861674264609 0 -29.782861674264609 75.83438360443688 0 0 0 0 47.82129911432412 -65.814126016843147 0 -65.814126016843147 100.6444505065665 0 0 0 0 2.8470695825349139 33.767098442956922 0 33.767098442956922 84.130377740071708 0 0 0 0 1.7367542062786505 -1.0602886384745442 0 -1.0602886384745442 1.5337923647663843 0 0 0 0 31.503086562994724 -6.573176072237402 0 -6.573176072237402 -25.257527715730248 0 0 0 0 1.5527100576507364 -0.92958573993180948 0 -0.92958573993180948 1.5390403482632777 0 0 0 0 -1.5333540855565957 -3.5048592631719657 0 -3.5048592631719657 18.989855253352289 0 0 0 0 6.662247647101978 -11.432583149693528 0 -11.432583149693528 7.9354966770042665 0 0 0 0 1.3582397915772468 -5.5752515144555588 0 -5.5752515144555588 11.537348509453324 0 0 0 0 -2.3444839930092201 -1.4680138183248346 0 -1.4680138183248346 15.582753738191968 0 0 0 0 -0.39115417046039247 -5.1969944632865346 0 -5.1969944632865346 16.40711601469846 0 0 0 0 -14.203324771223947 -13.326600746796657 0 -13.326600746796657 20.350370909727644 0 0 0 0 -5.6655714083995026 -4.7166490549058153 0 -4.7166490549058153 15.431891452033597 0 0 0 0 -3.0989512661564049 -5.6997333988074388 0 -5.6997333988074388 15.356739377239137 0 0 0 0 -0.14226032616915063 -0.56015045272215502 0 -0.56015045272215502 11.970782039905316 0 0 0 0 -4.9281967383259371 -28.901326914870879 0 -28.901326914870879 8.0391347052900528 0 0 0 0 -5.9792271981436897 -19.198615263112515 0 -19.198615263112515 17.71216994990391 0 0 0 0 -12.851646075978351 -16.225245637240732 0 -16.225245637240732 25.716669475246817 0 0 0 0 -7.3655316148106067 -16.170464291993994 0 -16.170464291993994 11.568664655018438 0 0 0 0 -6.0996916931501914 -24.837976771799731 0 -24.837976771799731 24.712797350039182 0 0 0 0 -6.3185750237516061 -20.440916023160753 0 -20.440916023160753 15.878052157655475 0 0 0 0 13.790588108012571 -7.9356400322431 0 -7.9356400322431 22.374682177862269 0 0 0 0 -5.0167898725325415 -11.829163953581883 0 -11.829163953581883 24.472014969789598 0 0 0 0 -9.6533230853177088 -16.40391921508126 0 -16.40391921508126 30.541896912152879 0 0 0 0 -3.9792895096669554 -10.028523137421871 0 -10.028523137421871 26.966964019477018 0 0 0 0 -6.5101472512462237 -23.079714285762748 0 -23.079714285762748 16.769594404438976 0 0 0 0 3.1330511054568575 -15.629963764164131 0 -15.629963764164131 20.40186918740801 0 0 0 0 -7.8224489745015262 -20.918237902467808 0 -20.918237902467808 15.147088887089922 0 0 0 0 -12.485745768214827 -25.992013638864591 0 -25.992013638864591 23.797375140158692 0 0 0 0 -5.6448769303700601 -29.720489578319757 0 -29.720489578319757 0.39168441535730381 0 0 0 0 -2.6875000580162123 -23.109802232371294 0 -23.109802232371294 5.9881961123646761 0 0 0 0 -7.0742091928539139 -16.447292003220355 0 -16.447292003220355 25.442258176099131 0 0 0 0 -6.3933456351260247 -33.465088815730269 0 -33.465088815730269 46.606560526211979 0 0 0 0 -3.0850349620818633 -34.112712189620652 0 -34.112712189620652 24.98479353330913 0 0 0 0 -6.3703421673496905 6.9958750116093142 0 6.9958750116093142 35.053644881983928 0 0 0 0 -13.023878110569513 -12.435334813213558 0 -12.435334813213558 48.670521889114752 0 0 0 0 78.40272014798029 58.574960748483136 0 58.574960748483136 17.615578117140103 0 0 0 0 25.098996647392596 20.94405488546181 0 20.94405488546181 47.101582061790396 0 0 0 0 -15.936795510461252 -13.292760181979247 0 -13.292760181979247 75.587978943673079 0 0 0 0 -13.469064354762054 -15.120966598329687 0 -15.120966598329687 37.433508978661848 0 0 0 0 -6.2755248846962104 -2.5411430721942452 0 -2.5411430721942452 44.011890989553649 0 0 0 0 -7.05598559003829 6.1732300686926465 0 6.1732300686926465 32.77368831721833 0 0 0 0 4.5606794807458755 4.9776707456803706 0 4.9776707456803706 28.804892938147532 0 0 0 0 -4.1910822174820623 -0.35658224851431441 0 -0.35658224851431441 43.884146259733825 0 0 0 0 -101.79170674518537 -14.282023764266341 0 -14.282023764266341 33.650765620743186 0 0 0 0 -97.988475136729448 14.898987185967599 0 14.898987185967599 79.857103117690713 0 0 0 0 -6.598397340057172 -8.6962918860118279 0 -8.6962918860118279 9.3331723322977354 0 0 0 0 3.4968542936403537 111.90439892927316 0 111.90439892927316 -48.772662811315968 0 0 0 0 -9.5282281163656641 1.8564340917201489 0 1.8564340917201489 69.644041180010689 0 0 0 0 -6.608809399122455 10.928319905612664 0 10.928319905612664 12.606415455787392 0 0 0 0 37.416200639451745 71.91547473058472 0 71.91547473058472 79.18313409728944 0 0 0 0 -101.02523939392813 14.134681057496891 0 14.134681057496891 110.77087106681574 0 0 0 0 -1.4659625640260856 47.077503286292995 0 47.077503286292995 86.625227385036851 0 0 0 0 -0.53986006299027167 61.691927356794395 0 61.691927356794395 127.76287977288302 0 0 0 0 137.32605755818622 -18.156286230285332 0 -18.156286230285332 111.40426580527765 0 0 0 0 248.96892303330242 48.147096799952124 0 48.147096799952124 108.64559712413575 0 0 0 0 -195.30530150353752 67.792726372366815 0 67.792726372366815 181.09921764819228 0 0 0 0 6.4789348600852463 51.331670675235728 0 51.331670675235728 8.8851845606259303 0 0 0 0 60.060258219217758 -93.790261065882078 0 -93.790261065882078 386.238465194132 0 0 0 0 -1.6750645229091106 -15.355054107129945 0 -15.355054107129945 14.201788300131739 0 0 0 0 -230.65081909446326 -38.113523115085627 0 -38.113523115085627 143.71583865495813 0 0 0 0 -2.2279921123307949 -9.7284075359410096 0 -9.7284075359410096 59.717347649704521 0 0 0 0 -173.34030329446523 -97.670313453547351 0 -97.670313453547351 74.842153958817107 0 0 0 0 -18.548277373019687 -19.603104940175399 0 -19.603104940175399 56.962532844852831 0 0 0 0 -19.284353432467697 -25.424668705465592 0 -25.424668705465592 18.598821430181488 0 0 0 0 -41.525483430212304 -65.49997646716551 0 -65.49997646716551 -49.737388672831003 0 0 0 0 154.21443843017414 119.89289972369488 0 119.89289972369488 -126.47390439903393 0 0 0 0 -108.39950116813179 -290.72991296320106 0 -290.72991296320106 133.67145349017073 0 0 0 0 -40.768273452966312 -146.31215019946251 0 -146.31215019946251 -74.880440557957627 0 0 0 0 -2.6152938015924456 -13.607286694823163 0 -13.607286694823163 55.710738902816331 0 0 0 0 -151.0947669917191 -43.756243398481274 0 -43.756243398481274 69.985548449541966 0 0 0 0 0.24613356677594167 -0.69497310790590561 0 -0.69497310790590561 0.39901146182171487 0 0 0 0 -37.950845463076803 -172.6270302845187 0 -172.6270302845187 -16.813702238545375 0 0 0 0 -2.7664377414743999 -8.1222320863000625 0 -8.1222320863000625 55.112376008628914 0 0 0 0 -237.68007674817864 -97.998951635858248 0 -97.998951635858248 252.97333739861642 0 0 0 0 79.704775405245073 -126.01887114593046 0 -126.01887114593046 -90.41242564964341 0 0 0 0 67.166358965506333 -57.052865195935738 0 -57.052865195935738 -80.991763764577627 0 0 0 0 30.612429085877238 -30.399959191498056 0 -30.399959191498056 -78.365117375389673 0 0 0 0 -2.9195181209406655 -18.298051027901238 0 -18.298051027901238 365.40413460760965 0 0 0 0 -20.950586566285892 68.744344157450541 0 68.744344157450541 363.30193301363192 0 0 0 0 2.6109778779830393 -0.59404302538574427 0 -0.59404302538574427 0.38200183696754664 0 0 0 0 27.417357895832083 -25.437483961497492 0 -25.437483961497492 -83.535083366412437 0 0 0 0 -0.43467734200960972 0.5357698884172919 0 0.5357698884172919 0.71267065977581012 0 0 0 0 6.9268864500409801 -2.3963107670085293 0 -2.3963107670085293 0.79446358064808464 0 0 0 0 20.538489903784466 -43.443698535498697 0 -43.443698535498697 213.66171338231652 0 0 0 0 -31.461082389891089 30.775147952559564 0 30.775147952559564 421.93952635933965 0 0 0 0 -0.058390635252578704 -31.778370060088491 0 -31.778370060088491 -37.008023373122342 0 0 0 0 -18.353198135569642 -20.06979184091324 0 -20.06979184091324 -29.637906722979096 0 0 0 0 -8.4448672218367733 -27.021839127315616 0 -27.021839127315616 0.17151416607384817 0 0 0 0 -1.8691420589149175 -31.762421151233866 0 -31.762421151233866 -27.829021340563486 0 0 0 0 -14.925593670728631 -30.328272111291881 0 -30.328272111291881 4.3044200640051713 0 0 0 0 -7.3029935840029339 -39.054942731610026 0 -39.054942731610026 -38.390917862438073 0 0 0 0 11.730270124641947 -25.892036096389347 0 -25.892036096389347 -44.946575955676963 0 0 0 0 -2.1180545391407577 -6.6393895612782217 0 -6.6393895612782217 -70.110880619213276 0 0 0 0 -7.0310492313037685 12.323711072557217 0 12.323711072557217 52.823049387145147 0 0 0 0 -15.740658377430009 -1.3136390789823054 0 -1.3136390789823054 91.672458998475122 0 0 0 0 -7.8358141169774171 -6.6705783294255525 0 -6.6705783294255525 79.044507590504509 0 0 0 0 -1.764450376449588 7.2347975815651893 0 7.2347975815651893 90.452762524761056 0 0 0 0 -3.960154212546513 32.854424926622414 0 32.854424926622414 65.756113118717622 0 0 0 0 -1.3563977633092321 -16.202917301986105 0 -16.202917301986105 92.945606711746223 0 0 0 0 -13.154630682816787 -20.687910680919231 0 -20.687910680919231 93.116160989457057 0 0 0 0 -0.16268390049918935 0.97966015466361611 0 0.97966015466361611 -1.1689189242775639 0 0 0 0 277.59650483705991 99.004446631581231 0 99.004446631581231 2.909536868590294 0 0 0 0 -58.081492295324097 -73.837075358192124 0 -73.837075358192124 164.54859512165058 0 0 0 0 -24.4814678323728 -25.715315679544801 0 -25.715315679544801 103.9972233339231 0 0 0 0 -17.342330696710178 -9.390356171567305 0 -9.390356171567305 113.47692014979475 0 0 0 0 -17.195404442165454 -6.576190825606318 0 -6.576190825606318 87.739883975551493 0 0 0 0 -15.009674083597929 2.197404248672683 0 2.197404248672683 99.240917220320625 0 0 0 0 -15.06902234133122 10.732346895991213 0 10.732346895991213 145.78236437845044 0 0 0 0 7.4530447180241026 23.594741955403151 0 23.594741955403151 116.7637642864247 0 0 0 0 13.49805752116481 43.586947039239021 0 43.586947039239021 175.54835521237419 0 0 0 0 4.8423425080266043 18.452436037039206 0 18.452436037039206 123.71367258793907 0 0 0 0 69.254939444334013 -25.527652517132083 0 -25.527652517132083 153.69484040550742 0 0 0 0 -1.4732935902429745 -10.806968580322973 0 -10.806968580322973 121.29817879720213 0 0 0 0 -35.347620761406233 -105.2716741952413 0 -105.2716741952413 113.42199405442079 0 0 0 0 55.443855270045333 12.98989912806428 0 12.98989912806428 44.923930676191958 0 0 0 0 0.66417026390632472 0.46625430787289446 0 0.46625430787289446 0.29831994947030838 0 0 0 0 -31.614979527910691 -7.558201555377309 0 -7.558201555377309 125.84913878514999 0 0 0 0 -198.59024572962153 -17.504627701982827 0 -17.504627701982827 278.30029180451038 0 0 0 0 36.978828350854201 -53.456758015500782 0 -53.456758015500782 149.12009570331975 0 0 0 0 119.61773802990865 -34.330935781195876 0 -34.330935781195876 70.091342346149759 0 0 0 0 124.77253265755644 -33.291031386093891 0 -33.291031386093891 108.91002740259137 0 0 0 0 175.02088049901067 -33.868218125997373 0 -33.868218125997373 107.90193698028997 0 0 0 0 153.81004089010275 -70.575822434202564 0 -70.575822434202564 108.17339397426986 0 0 0 0 71.006373548243573 -3.3021959690595395 0 -3.3021959690595395 123.9048487741602 0 0 0 0 139.32496214952334 -91.998191659546137 0 -91.998191659546137 234.34922037512297 0 0 0 0 57.848338527008309 37.75453339753949 0 37.75453339753949 217.50893018953229 0 0 0 0 41.668681208039743 15.850116455472744 0 15.850116455472744 194.11962429276173 0 0 0 0 83.055575980264621 -25.135646317041392 0 -25.135646317041392 352.30606778088986 0 0 0 0 272.24540169251713 -138.52646046619179 0 -138.52646046619179 220.31431584241363 0 0 0 0 1.7811552171095979 -1.3313774957268194 0 -1.3313774957268194 0.89395956075846073 0 0 0 0 2.3266557042807108 -135.75485851246412 0 -135.75485851246412 46.244670557971403 0 0 0 0 118.01815556021347 14.456857089214282 0 14.456857089214282 16.824915530967701 0 0 0 0 223.78634671567488 -203.34629571396727 0 -203.34629571396727 57.209964634985226 0 0 0 0 84.839224245620244 108.19872614330598 0 108.19872614330598 129.37929414470273 0 0 0 0 84.075148269028432 103.92569798537806 0 103.92569798537806 253.51144203405602 0 0 0 0 40.323526376572772 43.947481516592234 0 43.947481516592234 -9.7231974701207946 0 0 0 0 -47.047775650515177 62.070201561104113 0 62.070201561104113 7.1686744400649332 0 0 0 0 13.279665328263945 55.395576770373737 0 55.395576770373737 9.814744246796181 0 0 0 0 -24.676980540352815 33.526330739481637 0 33.526330739481637 14.128443499274908 0 0 0 0 -0.19885682066639765 -9.3506818289472715 0 -9.3506818289472715 -0.59650242655322927 0 0 0 0 -12.421554439415559 -20.848348563722539 0 -20.848348563722539 -79.941934877017047 0 0 0 0 -90.160208163973039 -55.22206110953266 0 -55.22206110953266 29.305090925863624 0 0 0 0 -28.096234931203071 -31.077949948361493 0 -31.077949948361493 23.360081117836671 0 0 0 0 42.974168188666226 -9.6609925940247194 0 -9.6609925940247194 -9.3466065814791364 0 0 0 0 -12.81168605451785 -30.330310313501286 0 -30.330310313501286 61.497624526760774 0 0 0 0 5.3706213477612792 -2.505174155884248 0 -2.505174155884248 4.6140817199678423 0 0 0 0 1.5498322597831908 1.6967412828905353 0 1.6967412828905353 2.5964112392793552 0 0 0 0 32.136837734171309 -8.0554933406290274 0 -8.0554933406290274 25.959930940676713 0 0 0 0 35.399711512436625 33.883775944681474 0 33.883775944681474 46.70336459918326 0 0 0 0 9.1789039671493811 -6.3188225057310774 0 -6.3188225057310774 22.58322357166071 0 0 0 0 24.288670854419252 24.586252146882543 0 24.586252146882543 45.770338053123851 0 0 0 0 0.055091538242823646 9.8018500652223608 0 9.8018500652223608 13.946312942385173 0 0 0 0 -1.8403849756596635 -5.9893501026819997 0 -5.9893501026819997 29.190062753008817 0 0 0 0 34.726833080813321 40.472448812353377 0 40.472448812353377 44.123611583218008 0 0 0 0 18.680298502191363 32.968717149497024 0 32.968717149497024 49.868180804733129 0 0 0 0 40.665871047429391 61.198320039002283 0 61.198320039002283 80.584894501862436 0 0 0 0 52.802966862498579 47.690502757974173 0 47.690502757974173 36.571886797239131 0 0 0 0 2.9798149466009818 36.730291048494109 0 36.730291048494109 125.54618155696517 0 0 0 0 -0.93017834193142335 22.896438350106109 0 22.896438350106109 35.139885664859321 0 0 0 0 -15.853431067769634 10.135738544393462 0 10.135738544393462 106.27603447489309 0 0 0 0 1.0261070526996718 26.23141405867409 0 26.23141405867409 72.582284724783676 0 0 0 0 -15.764365780682766 14.220056872973629 0 14.220056872973629 70.11637506626721 0 0 0 0 1.9860201233223052 38.789529330326332 0 38.789529330326332 76.441287897030634 0 0 0 0 -6.73940031312668 50.360576755896545 0 50.360576755896545 40.765507665396854 0 0 0 0 -2.6587799040798092 18.736465051622385 0 18.736465051622385 47.878928627004882 0 0 0 0 -7.5202236689901838 0.58496685474877808 0 0.58496685474877808 58.963475925293096 0 0 0 0 2.5843079931300963 25.348285853258858 0 25.348285853258858 38.934705745245083 0 0 0 0 -7.6630552951258437 2.1525926403337898 0 2.1525926403337898 78.06558694762316 0 0 0 0 -27.338938910430215 31.075083064986075 0 31.075083064986075 60.092967488162685 0 0 0 0 -4.6007649727853064 17.415257592042163 0 17.415257592042163 47.400420872667809 0 0 0 0 -28.422448498390622 31.490130054776102 0 31.490130054776102 54.266861012236348 0 0 0 0 -24.924977634593233 11.421176850581105 0 11.421176850581105 70.211570498286164 0 0 0 0 -2.7473878274026902 6.9190032929643621 0 6.9190032929643621 94.81208620933603 0 0 0 0 33.152738371935357 48.107468410937372 0 48.107468410937372 39.944185154091883 0 0 0 0 -5.9356354428764462 -8.2402390058962851 0 -8.2402390058962851 63.838769823779785 0 0 0 0 -4.1912450681056725 -8.689808519455255 0 -8.689808519455255 55.310387241789613 0 0 0 0 8.6074908488518673 -3.9299609408800507 0 -3.9299609408800507 14.96005593184219 0 0 0 0 20.231094312614005 38.691995273491557 0 38.691995273491557 76.968757752003512 0 0 0 0 -2.2444061826208781 6.7038418793108576 0 6.7038418793108576 35.54926524939583 0 0 0 0 5.6995655661279425 5.8012036973354606 0 5.8012036973354606 41.8886754888551 0 0 0 0 -9.053359590798209 -18.788835298160848 0 -18.788835298160848 40.939147159191634 0 0 0 0 -8.070312838769782 -5.4693260485517712 0 -5.4693260485517712 40.154837928123683 0 0 0 0 4.0995713105639879 -2.7522108456523711 0 -2.7522108456523711 38.455023336417071 0 0 0 0 -12.824616639685473 -1.7711576761619199 0 -1.7711576761619199 40.498938944303518 0 0 0 0 4.6906862551632003 -6.7525114280151683 0 -6.7525114280151683 47.79898338449857 0 0 0 0 -7.9980874512866915 -0.84839492161353114 0 -0.84839492161353114 27.876185765575698 0 0 0 0 12.045873528505581 -29.094415604398819 0 -29.094415604398819 48.175230189164722 0 0 0 0 13.695667716108801 5.3073963185579487 0 5.3073963185579487 52.499336313190724 0 0 0 0 -16.058041997599503 -28.629220385799272 0 -28.629220385799272 37.210749544185092 0 0 0 0 -19.365802122065361 -13.868227198925524 0 -13.868227198925524 49.840815643881797 0 0 0 0 2.326624937937595 -0.036277089022405562 0 -0.036277089022405562 29.260128237139725 0 0 0 0 -40.793767988675427 -4.391579220497988 0 -4.391579220497988 15.175923972434248 0 0 0 0 -50.877139389194781 -49.105629746365594 0 -49.105629746365594 11.649703133376079 0 0 0 0 -3.5853903825687468 7.7504229340336792 0 7.7504229340336792 9.3083075601422465 0 0 0 0 -25.021184957960941 -6.4849671528263571 0 -6.4849671528263571 56.387009722115181 0 0 0 0 -18.870338751795316 -13.331432714507173 0 -13.331432714507173 50.460409795036867 0 0 0 0 -24.320377519513386 -13.248799694993068 0 -13.248799694993068 55.009826348152274 0 0 0 0 -12.56521888576026 -0.79189057196344947 0 -0.79189057196344947 19.275159299373627 0 0 0 0 -3.093152138320745 -0.46649023363229603 0 -0.46649023363229603 53.894420092469829 0 0 0 0 -7.8352142814186401 3.7869787962974826 0 3.7869787962974826 33.346398728378908 0 0 0 0 -15.923291122348019 -1.2745403093867935 0 -1.2745403093867935 88.31171849805105 0 0 0 0 -13.202116711886902 4.7278853489710855 0 4.7278853489710855 90.361680791291292 0 0 0 0 0.57296740179505434 3.7123999230688298 0 3.7123999230688298 18.328572504862649 0 0 0 0 9.0420295107442143 13.676740213748417 0 13.676740213748417 92.266728881979361 0 0 0 0 6.1089155521312932 5.8826357967373042 0 5.8826357967373042 71.555898822261952 0 0 0 0 -20.062271321412027 1.7164117644169892 0 1.7164117644169892 27.030825509049464 0 0 0 0 -8.0364184540668262 4.3187378204103695 0 4.3187378204103695 43.936612399404595 0 0 0 0 -10.963853374566177 14.19523746828591 0 14.19523746828591 86.680506037259519 0 0 0 0 -6.5349918833722374 -3.9785685047795205 0 -3.9785685047795205 54.132559003836512 0 0 0 0 -11.045152579495166 -5.7572555808655679 0 -5.7572555808655679 17.350590673645172 0 0 0 0 15.950840962139409 16.345670785434777 0 16.345670785434777 53.051393457822996 0 0 0 0 -18.547874086744287 -11.962496013904456 0 -11.962496013904456 98.99260447085544 0 0 0 0 -0.66031692883506454 -1.7107899420361665 0 -1.7107899420361665 67.299099666793978 0 0 0 0 -10.710035781766464 -6.7985418394309818 0 -6.7985418394309818 70.618091528740479 0 0 0 0 -5.3620968491350141 0.098250220399677346 0 0.098250220399677346 59.545050582812109 0 0 0 0 -12.790222084720426 -2.5011562959225557 0 -2.5011562959225557 66.180370176087308 0 0 0 0 11.921001140806766 3.5013545246401918 0 3.5013545246401918 84.614566991420361 0 0 0 0 -8.171946798944191 4.3524272979666421 0 4.3524272979666421 89.865843560515714 0 0 0 0 4.69123795807036 -2.5712235868672906 0 -2.5712235868672906 70.819491286547418 0 0 0 0 -5.0253390061479877 0.69541457124978479 0 0.69541457124978479 81.48695857236271 0 0 0 0 -10.501688865493634 13.725703758707823 0 13.725703758707823 94.26989343571222 0 0 0 0 -0.30895610130848539 -7.0250350079895654 0 -7.0250350079895654 19.269699296643431 0 0 0 0 -1.0453219575818409 -8.4075091831459119 0 -8.4075091831459119 3.261003573549651 0 0 0 0 -5.8305392175500401 -4.7906195322475469 0 -4.7906195322475469 74.088632434986721 0 0 0 0 -0.9065325198789651 5.2269036853977013 0 5.2269036853977013 33.742064998473325 0 0 0 0 2.3070160826418942 0.42907633194045047 0 0.42907633194045047 100.28688301772672 0 0 0 0 -0.64540428052168863 20.49212877747641 0 20.49212877747641 118.21457977607497 0 0 0 0 1.3446210554420759 7.9968681601931166 0 7.9968681601931166 92.255485371504619 0 0 0 0 -8.6809861139099667 14.386847578094603 0 14.386847578094603 143.76703059449574 0 0 0 0 -1.7737401937351009 -6.7624059373083547 0 -6.7624059373083547 14.647350205142878 0 0 0 0 11.805368684791574 20.671635817433526 0 20.671635817433526 109.61730284574514 0 0 0 0 -8.1931133869618371 -13.845997838784807 0 -13.845997838784807 35.262532788814667 0 0 0 0 -5.4756639286064228 -11.784665999471144 0 -11.784665999471144 48.228419240665971 0 0 0 0 -9.8855213980541521 -68.530324291423312 0 -68.530324291423312 223.79817447013693 0 0 0 0 -1.3251047005516057 51.434383763112692 0 51.434383763112692 -5.7071717475992045 0 0 0 0 -0.28788753486894603 0.43032205327190809 0 0.43032205327190809 1.1420876135919116 0 0 0 0 0.46179968112960523 -50.195406987502793 0 -50.195406987502793 124.81890119652599 0 0 0 0 -18.853323930759416 -22.372697995925591 0 -22.372697995925591 157.56724718693295 0 0 0 0 -8.6661075964989323 44.812698046731384 0 44.812698046731384 79.265594245454849 0 0 0 0 37.51740620893861 -8.1098501463857247 0 -8.1098501463857247 211.27439019384383 0 0 0 0 -49.27833362130491 45.012436904940841 0 45.012436904940841 302.19239422091778 0 0 0 0 46.147220390584152 -42.273663045540161 0 -42.273663045540161 316.44304877737886 0 0 0 0 60.634056316488341 -61.307314564326589 0 -61.307314564326589 159.59125246755139 0 0 0 0 5.0027425056941865 36.685444295428169 0 36.685444295428169 38.062262839826872 0 0 0 0 -93.333603492342093 39.40993133716529 0 39.40993133716529 120.893907717611 0 0 0 0 -28.006582436107237 38.18684623594163 0 38.18684623594163 40.082771660847357 0 0 0 0 -25.306964033997701 31.531593002933732 0 31.531593002933732 54.68144251787453 0 0 0 0 -0.38956033061413109 70.545728274935755 0 70.545728274935755 88.914204500095366 0 0 0 0 -22.651720692721028 36.093622550935834 0 36.093622550935834 40.237602257504477 0 0 0 0 -18.346229394177044 12.505527565597731 0 12.505527565597731 51.515745728793263 0 0 0 0 -23.301326852569673 4.4199340546765598 0 4.4199340546765598 71.907234800513834 0 0 0 0 -38.481699990373272 36.308033917157445 0 36.308033917157445 63.785949075885583 0 0 0 0 -25.253585043179555 11.081700155060389 0 11.081700155060389 96.236280831642944 0 0 0 0 -23.052865991147883 2.8675229847067385 0 2.8675229847067385 76.255282540181724 0 0 0 0 -23.993233425955623 0.86502744867175352 0 0.86502744867175352 72.338659012180869 0 0 0 0 -18.528331608073131 -3.3485025944282825 0 -3.3485025944282825 74.834791011267953 0 0 0 0 -18.934047335154418 0.29090951754824346 0 0.29090951754824346 65.197498360357713 0 0 0 0 -17.655393758487662 -4.0397667702709441 0 -4.0397667702709441 69.340063058152737 0 0 0 0 -12.615457709287966 -3.2312874968338292 0 -3.2312874968338292 68.724364505636913 0 0 0 0 -16.086085698972511 -3.386396971753129 0 -3.386396971753129 57.228254647203812 0 0 0 0 -13.181744362566178 4.7853727066039937 0 4.7853727066039937 58.076020862194127 0 0 0 0 -10.65423588053261 -9.3125229547858908 0 -9.3125229547858908 11.486157748946425 0 0 0 0 -25.140728528554291 9.3780442975294136 0 9.3780442975294136 42.304062730741862 0 0 0 0 -22.579059274349902 23.793594021663466 0 23.793594021663466 46.200609820698446 0 0 0 0 -0.18809272670656219 0.96731363878972587 0 0.96731363878972587 1.8626999963297379 0 0 0 0 -1.5728348255295259 -5.3857286251986807 0 -5.3857286251986807 46.208243543583194 0 0 0 0 -15.206335936538409 21.220276916146986 0 21.220276916146986 122.48059743210615 0 0 0 0 -15.652870150302576 8.4451194550229616 0 8.4451194550229616 80.799484627503261 0 0 0 0 -2.0101450631898388 26.817455414831784 0 26.817455414831784 87.207891663594637 0 0 0 0 1.1237964300344174 22.201928810311074 0 22.201928810311074 87.792415797259309 0 0 0 0 -1.1532215309050571 27.44847958956052 0 27.44847958956052 80.709836421265209 0 0 0 0 -8.3940403480434327 7.0954333963877616 0 7.0954333963877616 76.154660841253644 0 0 0 0 -6.2211966333604778 20.652124106774863 0 20.652124106774863 91.770932011691912 0 0 0 0 -19.131060404925904 -7.2963335815048396 0 -7.2963335815048396 68.090117363906757 0 0 0 0 -19.218738372021107 6.1892713064535201 0 6.1892713064535201 85.319597568402969 0 0 0 0 -17.822442573406988 -4.0647970483441895 0 -4.0647970483441895 70.730259909760207 0 0 0 0 -26.524326669600669 -3.3105156021483708 0 -3.3105156021483708 71.765466560311779 0 0 0 0 -18.333223650484342 -3.5063543410760758 0 -3.5063543410760758 71.743759951874381 0 0 0 0 -18.102651037231539 -1.3704684282445214 0 -1.3704684282445214 68.472130493042641 0 0 0 0 -17.994601420041818 -3.2331752322315879 0 -3.2331752322315879 70.76640007635433 0 0 0 0 -11.245189991089319 0.2764882720875903 0 0.2764882720875903 68.081836032864885 0 0 0 0 -12.98721722614664 0.07919820452661952 0 0.07919820452661952 68.152407381545345 0 0 0 0 -21.062688373555375 3.0155059232165513 0 3.0155059232165513 69.773565781906655 0 0 0 0 -14.044187733415583 -12.019034056784221 0 -12.019034056784221 63.654325761919608 0 0 0 0 -8.4414931054461704 6.4600045955303358 0 6.4600045955303358 77.586894419893724 0 0 0 0 -69.892227104149697 -34.099932386136061 0 -34.099932386136061 23.618142801857175 0 0 0 0 0.067994667508087581 10.86423973032948 0 10.86423973032948 -1.4443237096945394 0 0 0 0 -14.243653536248075 6.2128006200255186 0 6.2128006200255186 107.71941002715175 0 0 0 0 -30.441753983433955 29.355563407403679 0 29.355563407403679 82.026159440896663 0 0 0 0 5.514483229606185 -16.784405465803502 0 -16.784405465803502 54.006528146761411 0 0 0 0 16.183023324244171 25.498397571326223 0 25.498397571326223 64.66781996357895 0 0 0 0 16.261029997681774 21.71916920169042 0 21.71916920169042 44.966701151315647 0 0 0 0 -82.635924640305348 18.514803144124016 0 18.514803144124016 113.25696407063515 0 0 0 0 -272.70407743322039 -6.6501853979898442 0 -6.6501853979898442 145.81618605477115 0 0 0 0 -44.685123399015993 65.569977832779841 0 65.569977832779841 149.76808879223245 0 0 0 0 -1.6543135045503732 67.191725220733133 0 67.191725220733133 68.512788715190254 0 0 0 0 0.14974035766326721 -0.09543057380884612 0 -0.09543057380884612 4.126511155358358 0 0 0 0 211.15268170711329 -209.96870649991615 0 -209.96870649991615 38.51837863768742 0 0 0 0 240.03897596507113 190.95491258449329 0 190.95491258449329 28.878282401507022 0 0 0 0 106.0220974427175 -86.390396436854644 0 -86.390396436854644 43.757432179096213 0 0 0 0 -166.21167502279832 -75.043759936648712 0 -75.043759936648712 159.64219844155377 0 0 0 0 -19.642437739894831 -238.75674927453838 0 -238.75674927453838 201.39068565750495 0 0 0 0 2.8778934470192326 27.316084105284972 0 27.316084105284972 100.09051498927874 0 0 0 0 0.50862516952197545 0.18525143822677137 0 0.18525143822677137 -3.1435301560594127 0 0 0 0 -9.2917873559607091 15.805114442079244 0 15.805114442079244 85.21672165315249 0 0 0 0 -9.2381441125357924 28.410144792986102 0 28.410144792986102 122.63248795353138 0 0 0 0 5.2202108654059884 20.833342562051257 0 20.833342562051257 87.47511775942985 0 0 0 0 7.7143487285557057 26.341072673705639 0 26.341072673705639 86.206700847178581 0 0 0 0 -4.2491183906874994 26.212315541110002 0 26.212315541110002 100.56069110693716 0 0 0 0 0.45882325061019635 11.440148559565813 0 11.440148559565813 0.63599130487316735 0 0 0 0 647.24951646729824 -6.5993800542200916 0 -6.5993800542200916 114.37600508933247 0 0 0 0 5.9237983678190176 27.001953760260221 0 27.001953760260221 80.663121533684716 0 0 0 0 -206.23536552242462 347.41065936918903 0 347.41065936918903 198.03357856661751 0 0 0 0 -4.7361072646863249 -4.7105340399357374 0 -4.7105340399357374 61.647728670235665 0 0 0 0 7.6499332265520934 -8.8554077558110293 0 -8.8554077558110293 36.132964695934788 0 0 0 0 -0.72131506607271234 -0.3937746828479618 0 -0.3937746828479618 -0.80759057511315024 0 0 0 0 -0.36932133961363434 4.0257280690002517 0 4.0257280690002517 51.609781941690017 0 0 0 0 -4.2219435943370627 2.9940310442034388 0 2.9940310442034388 60.398806484558008 0 0 0 0 1.1228399599797285 -0.35304215494238633 0 -0.35304215494238633 70.111247936176369 0 0 0 0 6.3201306704181661 8.2152289331834254 0 8.2152289331834254 96.578868684642657 0 0 0 0 3.0605535458198574 4.3998732149339048 0 4.3998732149339048 82.348962195093918 0 0 0 0 -8.3542340590938693 -5.2735006061702734 0 -5.2735006061702734 102.05607238500488 0 0 0 0 -0.72609243067438456 -11.746830003070954 0 -11.746830003070954 71.394528761844413 0 0 0 0 -0.18798679883605018 -9.3369201484342739 0 -9.3369201484342739 78.157850540286745 0 0 0 0 3.8438909776114087 -2.0662881606367591 0 -2.0662881606367591 66.055978839656746 0 0 0 0 -1.2652651033358779 -3.79046759826997 0 -3.79046759826997 55.020448217963121 0 0 0 0 -1.6919428350764782 0.1753740690928467 0 0.1753740690928467 9.029962224940201 0 0 0 0 -3.7869765336958778 -12.412071632247319 0 -12.412071632247319 63.574576845847332 0 0 0 0 1.711815917927197 1.6528142720671894 0 1.6528142720671894 52.972772570072266 0 0 0 0 -11.005929590105552 -11.411068665625862 0 -11.411068665625862 61.805115310897236 0 0 0 0 -0.20688664934459666 -7.2010466985357198 0 -7.2010466985357198 54.299287304498648 0 0 0 0 -6.0135338010620831 -1.9428264949111025 0 -1.9428264949111025 56.698965322910063 0 0 0 0 -0.86822064051695591 -3.4279438473208046 0 -3.4279438473208046 34.672542113842248 0 0 0 0 -7.1536782862940527 -4.0796983270192868 0 -4.0796983270192868 61.26307047793307 0 0 0 0 -6.3910776922366495 -9.4219762466700558 0 -9.4219762466700558 73.491474594778992 0 0 0 0 -1.9543631960057324 -1.3708964223263269 0 -1.3708964223263269 69.643232421988301 0 0 0 0 -11.593785215880416 -1.3610827274542316 0 -1.3610827274542316 66.958252194730449 0 0 0 0 -19.734453708477304 -6.6656948514173564 0 -6.6656948514173564 77.13480007788894 0 0 0 0 -12.259616969665331 -1.1208240108244354 0 -1.1208240108244354 67.890385963652079 0 0 0 0 -12.631765093264221 -1.3483873086443054 0 -1.3483873086443054 67.956791477045044 0 0 0 0 -0.45070404468073377 0.22363412376726899 0 0.22363412376726899 8.8120911851515462 0 0 0 0 2.6118217053494845 -4.2405838266349747 0 -4.2405838266349747 41.146775442238777 0 0 0 0 -10.79870672729021 2.9626011273103359 0 2.9626011273103359 66.077039329087711 0 0 0 0 -2.0870044648121064 -7.5832545675876304 0 -7.5832545675876304 35.109192192884151 0 0 0 0 -6.0602370404585599 -5.5906363421127026 0 -5.5906363421127026 23.862700561207021 0 0 0 0 3.4589337560300919 -0.8721388032354298 0 -0.8721388032354298 64.931233160648844 0 0 0 0 -10.792011176907181 -0.069725265740999021 0 -0.069725265740999021 79.949593913330318 0 0 0 0 -9.7930578765376595 -7.0656427358662768 0 -7.0656427358662768 69.824760861574759 0 0 0 0 -6.850915245249098 -2.4255107453500386 0 -2.4255107453500386 61.822735674868454 0 0 0 0 -2.2999324586618046 10.224719556795037 0 10.224719556795037 2.2738368304599845 0 0 0 0 0.76848401864533145 -0.13906093525617536 0 -0.13906093525617536 -1.0463575205051825 0 0 0 0 -56.29236288297443 15.528368363069603 0 15.528368363069603 172.21357903365788 0 0 0 0 2.4314904928187389 14.760217111495876 0 14.760217111495876 69.398460230113415 0 0 0 0 18.271672625763131 8.4309806037999806 0 8.4309806037999806 21.388428652542643 0 0 0 0 -17.144193521912712 -14.868786414743226 0 -14.868786414743226 65.710995910325437 0 0 0 0 -4.7894562561104976 -16.348334450958646 0 -16.348334450958646 39.449630842445913 0 0 0 0 3.0189246761901813 -9.5303813965292647 0 -9.5303813965292647 63.382584122693515 0 0 0 0 0.72309384922370246 0.17973860720600499 0 0.17973860720600499 11.474361972736549 0 0 0 0 15.65930759834464 13.978366437229852 0 13.978366437229852 70.805450437037507 0 0 0 0 51.338099616895306 191.50533099708264 0 191.50533099708264 -153.59058014122638 0 0 0 0 5.9836345443413848 8.5822841012195568 0 8.5822841012195568 61.943004389730049 0 0 0 0 8.4279337731204578 18.659422363693011 0 18.659422363693011 70.265899852114671 0 0 0 0 -1.6503142202896015 13.229591034694749 0 13.229591034694749 72.477252211319865 0 0 0 0 -13.789267638960837 2.2803636123253455 0 2.2803636123253455 66.789092601829907 0 0 0 0 -44.773151762357884 -36.903052190238668 0 -36.903052190238668 49.837219279033889 0 0 0 0 -4.772104434043694 -8.37627158787474 0 -8.37627158787474 31.470756298646911 0 0 0 0 -2.2716964660473415 -3.76085528801935 0 -3.76085528801935 33.876543607454892 0 0 0 0 -1.0995880650530125 9.5111611590327811 0 9.5111611590327811 84.932542887159798 0 0 0 0 -2.6690168914519177 -2.4172556073949636 0 -2.4172556073949636 33.521034948345914 0 0 0 0 -3.06925229589433 -3.9466889641298621 0 -3.9466889641298621 32.25273708437112 0 0 0 0 -1.6941260886739427 -5.0682745017187685 0 -5.0682745017187685 19.938285312718744 0 0 0 0 -3.076794765059276 -3.7901013062710263 0 -3.7901013062710263 55.475403019408986 0 0 0 0 -2.2600353454345168 3.6728417604572314 0 3.6728417604572314 54.873881295523461 0 0 0 0 -6.3744225324517174 -14.441316484102572 0 -14.441316484102572 74.748464799085923 0 0 0 0 -2.7251586797216021 -4.7406275717937945 0 -4.7406275717937945 11.92829935769878 0 0 0 0 -0.83096449236973058 -7.4221497536200332 0 -7.4221497536200332 41.658311292427243 0 0 0 0 3.0582767345154025 -5.7762340051485808 0 -5.7762340051485808 68.589700459189771 0 0 0 0 -5.5074981360240631 -9.0076070885911328 0 -9.0076070885911328 43.148444798414275 0 0 0 0 -58.403305994278583 -249.3423877819987 0 -249.3423877819987 665.22576274744642 0 0 0 0 -2.2713841959609731 -8.9844740163689991 0 -8.9844740163689991 30.483487850535298 0 0 0 0 -325.47520155871962 254.53972770178189 0 254.53972770178189 953.91926941645215 0 0 0 0 -94.830680718375334 296.71136738265341 0 296.71136738265341 91.729988152656006 0 0 0 0 -0.15757893677618995 -6.9729140770250524 0 -6.9729140770250524 55.544671519062831 0 0 0 0 -0.17672170167794832 7.4249392225072626 0 7.4249392225072626 12.897437098798637 0 0 0 0 -2.4367121736540867 -1.4198286336650199 0 -1.4198286336650199 62.188253345171688 0 0 0 0 -2.1420058060048177 2.8414331475414656 0 2.8414331475414656 64.763236724154922 0 0 0 0 -0.38426880047942547 -6.1995341804582367 0 -6.1995341804582367 5.5975653600939932 0 0 0 0 0.11916655940871301 0.17197984892421658 0 0.17197984892421658 0.16629018797301143 0 0 0 0 5.7640335682954174 0.81537300801028323 0 0.81537300801028323 32.907224870017671 0 0 0 0 -15.403264273471905 -14.120746232940292 0 -14.120746232940292 91.320303329073795 0 0 0 0 10.64790560159031 17.114830435348267 0 17.114830435348267 51.057260475492512 0 0 0 0 -3.359576550247084 6.5117152838793118 0 6.5117152838793118 52.201046711961681 0 0 0 0 -10.917484459394927 -2.7763997504262079 0 -2.7763997504262079 49.081261241393804 0 0 0 0 22.805090154804784 15.722118294714164 0 15.722118294714164 64.22159686665691 0 0 0 0 -7.7577459956815495 -1.9124082752431377 0 -1.9124082752431377 39.885600799841214 0 0 0 0 -23.662339879055118 106.59437964540484 0 106.59437964540484 36.946048088549105 0 0 0 0 6.3382278839387425 25.638097177257464 0 25.638097177257464 29.921010696511242 0 0 0 0 0.46099750806342854 0.35196312068092084 0 0.35196312068092084 48.413911598477625 0 0 0 0 0.93528907416149187 1.1995893546201977 0 1.1995893546201977 2.9907621625855683 0 0 0 0 141.04160984908913 -68.175916514011988 0 -68.175916514011988 -69.83673355976498 0 0 0 0 182.84406504771141 -229.29972018485569 0 -229.29972018485569 212.852297280926 0 0 0 0 114.45353730436409 -87.103157138219103 0 -87.103157138219103 145.61693313517026 0 0 0 0 -0.032743226662647729 0.65874398905855003 0 0.65874398905855003 1.9778660195825921 0 0 0 0 0.54046035582030338 4.861352211816893 0 4.861352211816893 5.8222051230784331 0 0 0 0 -1.6393554773923853 6.7851216917028978 0 6.7851216917028978 25.017449918173952 0 0 0 0 0.34390057075594238 4.6725088579320335 0 4.6725088579320335 16.130376696809506 0 0 0 0 65.314616604489402 -1.7577101438128011 0 -1.7577101438128011 15.66268802326158 0 0 0 0 50.378871465964039 10.077937737398315 0 10.077937737398315 32.894021713709662 0 0 0 0 27.421155329217314 -23.042419251124443 0 -23.042419251124443 99.085721951894811 0 0 0 0 29.679969850021735 4.5473430416896008 0 4.5473430416896008 36.741708062465477 0 0 0 0 145.40603396969254 -68.723825848093838 0 -68.723825848093838 46.975909843413319 0 0 0 0 -12.7911117065496 -46.772738617630239 0 -46.772738617630239 172.95484568591201 0 0 0 0 -21.504646683321653 26.91535519003628 0 26.91535519003628 138.60534492063016 0 0 0 0 66.448369498976717 -114.4306414912644 0 -114.4306414912644 305.49168953717526 0 0 0 0 -53.014423862861349 3.0120953850619117 0 3.0120953850619117 112.34480445280496 0 0 0 0 -45.974718569429569 15.509097878955799 0 15.509097878955799 133.04205532903143 0 0 0 0 -68.510741225821903 -7.7495106960659541 0 -7.7495106960659541 132.7807131948648 0 0 0 0 -32.566086539030493 7.7558062425978278 0 7.7558062425978278 92.970690876340086 0 0 0 0 -17.991014368540618 13.537845564587769 0 13.537845564587769 90.650770764346817 0 0 0 0 -25.417960519838175 -9.8856233044671171 0 -9.8856233044671171 55.014683562854771 0 0 0 0 -44.691059160767963 30.737229067213775 0 30.737229067213775 63.571193708681676 0 0 0 0 -98.906474876802974 -15.023064141853865 0 -15.023064141853865 54.713902568873891 0 0 0 0 -1.7956847768330757 -0.013090782823191205 0 -0.013090782823191205 0.080879541535708199 0 0 0 0 -6.0446393904462639 -15.03773448481661 0 -15.03773448481661 4.5005212161231611 0 0 0 0 -59.570366558371688 78.789087597592697 0 78.789087597592697 -49.360077340483258 0 0 0 0 -68.002023325767937 105.86484689183908 0 105.86484689183908 -35.121240253123688 0 0 0 0 -127.92129963266382 -16.14481159035131 0 -16.14481159035131 99.826119914083392 0 0 0 0 3.5742589658834731 -40.098399076483474 0 -40.098399076483474 47.248970876317799 0 0 0 0 -12.925326489833878 3.0518023105669272 0 3.0518023105669272 -11.384979129539715 0 0 0 0 -66.701111403569712 -13.561186082186396 0 -13.561186082186396 51.237543524141074 0 0 0 0 -3.6252678312858393 1.0127711054804234 0 1.0127711054804234 36.588595976903633 0 0 0 0 -4.7030687014866004 6.6648848886618453 0 6.6648848886618453 77.741946341848234 0 0 0 0 33.65943086130801 -21.57272048134837 0 -21.57272048134837 33.231192729384929 0 0 0 0 39.549682591172314 -69.882190660529886 0 -69.882190660529886 61.936713807175693 0 0 0 0 2.6060353403909744 1.1055748033668351 0 1.1055748033668351 8.6057822861912427 0 0 0 0 57.571573681474547 15.707825767998656 0 15.707825767998656 -23.05017949064495 0 0 0 0 -0.35276254008085406 -0.14067335033966799 0 -0.14067335033966799 9.610908636028455 0 0 0 0 93.203571167041446 13.574219777940016 0 13.574219777940016 32.087561408727197 0 0 0 0 100.91055383081675 35.783072749931307 0 35.783072749931307 -98.603903231320146 0 0 0 0 134.62425181863546 -82.812490861706465 0 -82.812490861706465 74.289142539524619 0 0 0 0 -1.5033704421154033 6.8353353238417398 0 6.8353353238417398 13.315602520970799 0 0 0 0 6.9645782020525075 -6.2164770432300429 0 -6.2164770432300429 29.603973439063338 0 0 0 0 -2.4884753225386333 -21.696754538156824 0 -21.696754538156824 56.458475335522962 0 0 0 0 0.50796463662038605 -10.719731841658358 0 -10.719731841658358 45.935389129121177 0 0 0 0 -2.3915317709249848 -1.0578085530351018 0 -1.0578085530351018 53.999103971036675 0 0 0 0 -2.3223132046110324 9.3056627358597446 0 9.3056627358597446 14.934102398801215 0 0 0 0 4.1221701898741685 13.691896387034831 0 13.691896387034831 87.347282680239005 0 0 0 0 1.1177583501873749 2.3042619264528525 0 2.3042619264528525 1.7901747323546005 0 0 0 0 1.8609995129675951 -3.2468327107885671 0 -3.2468327107885671 43.711064834697027 0 0 0 0 -4.4431187456584968 8.7013161094662408 0 8.7013161094662408 22.373708528964546 0 0 0 0 -0.69123150588495719 -3.076570219875066 0 -3.076570219875066 46.647029405758076 0 0 0 0 -1.4901086185233225 -4.295796503697602 0 -4.295796503697602 64.903309939370956 0 0 0 0 1.1558788013030608 1.2314804464003828 0 1.2314804464003828 51.240566306933033 0 0 0 0 11.198789017596937 48.359815400275693 0 48.359815400275693 30.699983124894061 0 0 0 0 0.89875286953650324 -3.9074236403808271 0 -3.9074236403808271 33.478053825428503 0 0 0 0 -30.577713627396463 17.35958557367826 0 17.35958557367826 43.399454386526486 0 0 0 0 -5.7263820353969095 -8.2962469390222395 0 -8.2962469390222395 19.536770084650925 0 0 0 0 0.18014320873173206 0.64745675333142838 0 0.64745675333142838 11.785236940156125 0 0 0 0 25.227976254376586 0.90372217304684455 0 0.90372217304684455 9.0189086485479493 0 0 0 0 -63.641704812393563 -35.721811681428335 0 -35.721811681428335 106.04442149695387 0 0 0 0 14.136521882540364 -68.771114689663591 0 -68.771114689663591 49.956043475012848 0 0 0 0 -19.983119207141272 14.415008491494518 0 14.415008491494518 43.380730128845244 0 0 0 0 -17.462158923108746 1.0284829725242162 0 1.0284829725242162 111.42897547579628 0 0 0 0 22.752581986562575 9.3854642488195168 0 9.3854642488195168 66.087735939650884 0 0 0 0 -1.5226940756224394 46.289199716149596 0 46.289199716149596 132.51766941234018 0 0 0 0 -5.2329084357157285 -20.239756506255162 0 -20.239756506255162 51.92670533733326 0 0 0 0 -4.2573291479604904 -4.115179432403238 0 -4.115179432403238 39.098969657636189 0 0 0 0 0.16520001376125037 -3.3075747501370643 0 -3.3075747501370643 20.641224813181907 0 0 0 0 -2.9204650428087007 -8.4727252885422786 0 -8.4727252885422786 24.99888534017191 0 0 0 0 -5.0774004052795298 -0.80389730984575891 0 -0.80389730984575891 -0.29344710025567622 0 0 0 0 -21.439854908555844 -6.0783410701405955 0 -6.0783410701405955 27.414328123748419 0 0 0 0 -15.680605134186294 0.35045047257335682 0 0.35045047257335682 23.89789246300279 0 0 0 0 -9.1022359424525803 11.584135043709466 0 11.584135043709466 -6.1628291758534033 0 0 0 0 -5.8003266454754225 5.9101113402084593 0 5.9101113402084593 2.5606350992529769 0 0 0 0 -8.7894340830326421 -1.4687767174736237 0 -1.4687767174736237 2.8068522465153869 0 0 0 0 -3.2053556431455945 -5.1536133591871476 0 -5.1536133591871476 18.382370735318545 0 0 0 0 -21.184134296722505 -1.1479149148381111 0 -1.1479149148381111 21.273829675694287 0 0 0 0 -21.039241389337803 -9.6306743343247945 0 -9.6306743343247945 21.21553060541919 0 0 0 0 -90.655459986387768 38.858772232342744 0 38.858772232342744 36.103516844559636 0 0 0 0 -2.2743154312673663 2.8943119268461386 0 2.8943119268461386 17.941494048586051 0 0 0 0 -30.986479511828747 -4.2701947864588874 0 -4.2701947864588874 26.350868839701434 0 0 0 0 -69.712884795411242 47.87942899576592 0 47.87942899576592 26.273456537390302 0 0 0 0 -75.602150866793181 31.705479521886446 0 31.705479521886446 15.795220878266264 0 0 0 0 -72.906979959524278 48.059021912158641 0 48.059021912158641 -22.025530043552862 0 0 0 0 -7.353682900368085 16.651964700664394 0 16.651964700664394 -33.295470024109818 0 0 0 0 -75.380300062705942 37.577945838392679 0 37.577945838392679 -12.636030693305656 0 0 0 0 -2.4406022099303017 1.2200062321600331 0 1.2200062321600331 1.3504948391944822 0 0 0 0 -82.102843736306568 53.419645809291978 0 53.419645809291978 -19.916119293411612 0 0 0 0 -14.363255705229108 1.0091650375361496 0 1.0091650375361496 14.306801999831805 0 0 0 0 -7.9337675830322496 4.4117454793486104 0 4.4117454793486104 -6.7928395473682031 0 0 0 0 -7.2492197888249166 7.1376660219237564 0 7.1376660219237564 12.443609176205598 0 0 0 0 -71.645412019899368 48.153627218551264 0 48.153627218551264 -25.908427083850256 0 0 0 0 0.22644116483354093 0.92502214006846373 0 0.92502214006846373 -1.20104095748097 0 0 0 0 -2.3804606978360363 -0.30872257354143073 0 -0.30872257354143073 2.8657879567006788 0 0 0 0 32.338037932694419 114.62643532931543 0 114.62643532931543 -224.86850525856789 0 0 0 0 10.954477707620413 180.39983272937388 0 180.39983272937388 -136.60996432754473 0 0 0 0 -75.545031364368157 81.81294539028022 0 81.81294539028022 96.309890317337704 0 0 0 0 -66.262395328180901 71.07039642050222 0 71.07039642050222 -40.997667478804942 0 0 0 0 -117.7895639373703 40.553080262267031 0 40.553080262267031 37.28606506329379 0 0 0 0 -103.70493102658128 5.6264791106168559 0 5.6264791106168559 -84.672705192817375 0 0 0 0 -130.89589284997146 5.6103423315435066 0 5.6103423315435066 -84.087582425563596 0 0 0 0 -84.97092312453151 73.482624213735107 0 73.482624213735107 -71.672057958610822 0 0 0 0 -271.3575363479506 95.457518223673105 0 95.457518223673105 -64.93581908440683 0 0 0 0 -27.181882655745699 252.03328695583104 0 252.03328695583104 169.83181360096205 0 0 0 0 49.804223608406147 -167.62967106265933 0 -167.62967106265933 41.162518315992202 0 0 0 0 71.375054522169535 -144.72516040815754 0 -144.72516040815754 87.94669441512815 0 0 0 0 -29.053549090665854 -114.13238916720002 0 -114.13238916720002 240.38961171929986 0 0 0 0 32.791350234415916 -86.602001253369963 0 -86.602001253369963 32.047505597794952 0 0 0 0 -89.842162988620487 27.493118848811719 0 27.493118848811719 46.875649132722174 0 0 0 0 -68.246629759762527 23.210337941447506 0 23.210337941447506 32.698399016207986 0 0 0 0 -61.890772413287891 -15.182436646442511 0 -15.182436646442511 90.164579235018664 0 0 0 0 -79.768081797638047 -24.652789277464763 0 -24.652789277464763 92.299814867452369 0 0 0 0 31.538294006459353 -84.52282735400513 0 -84.52282735400513 90.616530216369256 0 0 0 0 -32.564172710944462 -31.805226747301276 0 -31.805226747301276 50.156342988993856 0 0 0 0 -13.591459821703438 -12.132946982659632 0 -12.132946982659632 56.734409101025449 0 0 0 0 56.370137136410371 -82.303692418297032 0 -82.303692418297032 53.661996832874138 0 0 0 0 29.021498829890334 -74.602294914689992 0 -74.602294914689992 137.40251861300203 0 0 0 0 29.352253369051368 -66.35450325853526 0 -66.35450325853526 43.259015046780405 0 0 0 0 47.336784064058293 -68.735840395256673 0 -68.735840395256673 40.103619292536678 0 0 0 0 -3.8935754475230624 12.129482205698878 0 12.129482205698878 38.703501641613911 0 0 0 0 5.3899125560528773 -1.1337538620628038 0 -1.1337538620628038 31.248536636237986 0 0 0 0 3.7194131306714553 15.095623673354567 0 15.095623673354567 81.060698885474267 0 0 0 0 1.1528789800525883 -0.6649850367389547 0 -0.6649850367389547 3.4381432109890113 0 0 0 0 30.160244568474866 -44.170657825226954 0 -44.170657825226954 -6.8391977998471702 0 0 0 0 3.141812813999536 4.8309742775636551 0 4.8309742775636551 170.32686677297716 0 0 0 0 1.8974515682432829 0.22399105993547863 0 0.22399105993547863 -0.98911983998085873 0 0 0 0 -9.1196231961614238 2.4431365314064664 0 2.4431365314064664 6.0400511406448274 0 0 0 0 -9.28099250557716 -0.45107701768210973 0 -0.45107701768210973 32.14914979092282 0 0 0 0 -6.543502614183426 5.0629940381670409 0 5.0629940381670409 6.6580582546046685 0 0 0 0 -35.128390358915567 2.8589060888079985 0 2.8589060888079985 33.994685525625755 0 0 0 0 27.220395130131465 -26.401398739802062 0 -26.401398739802062 -41.183052751934156 0 0 0 0 -15.491657105865443 19.186372262531222 0 19.186372262531222 13.641141352760314 0 0 0 0 1.1633398781996789 8.4187309740500496 0 8.4187309740500496 104.40060214498226 0 0 0 0 6.0764889751892461 -5.8388610751036296 0 -5.8388610751036296 5.0404600347573307 0 0 0 0 -17.838459652540678 -29.103014385957977 0 -29.103014385957977 10.175433891563443 0 0 0 0 16.254145345926531 -1.4577287369102123 0 -1.4577287369102123 85.22593170438995 0 0 0 0 2.9595872739155937 -1.6444203187611066 0 -1.6444203187611066 1.0801418850391542 0 0 0 0 26.504052017653976 24.555911904897584 0 24.555911904897584 90.353140159779286 0 0 0 0 52.42637957237713 -93.355330898796637 0 -93.355330898796637 -16.821419643871195 0 0 0 0 -20.171561822055537 36.389047474844119 0 36.389047474844119 324.43279720101418 0 0 0 0 9.4172301307453381 -18.114544895081053 0 -18.114544895081053 106.5566135983936 0 0 0 0 6.5563387780019866 9.4993595621926943 0 9.4993595621926943 74.102104377598152 0 0 0 0 -7.2571536631483013 -11.503001096607477 0 -11.503001096607477 72.93203309665364 0 0 0 0 9.1625144608118489 -0.051423144674117793 0 -0.051423144674117793 29.09570639305457 0 0 0 0 -9.2159095480002406 2.379375521435577 0 2.379375521435577 66.449234240101305 0 0 0 0 -5.9791046487397352 7.7331163366980036 0 7.7331163366980036 65.979110174433572 0 0 0 0 0.45756029306107848 -3.575394746294478 0 -3.575394746294478 28.447065269443556 0 0 0 0 -4.8704072756951859 -4.4558859389180725 0 -4.4558859389180725 89.889681585980725 0 0 0 0 4.1078233004450908 -19.61736490182011 0 -19.61736490182011 105.98650814370626 0 0 0 0 -11.637254009205137 4.281853679123742 0 4.281853679123742 104.29708337097691 0 0 0 0 -12.702495231794899 3.3891620631202386 0 3.3891620631202386 94.428933242495987 0 0 0 0 -8.8524780963612102 -4.8584602063419879 0 -4.8584602063419879 91.129875581347733 0 0 0 0 -1.9481084663881432 -2.94438161954713 0 -2.94438161954713 1.2739024625343518 0 0 0 0 0.86915717963847783 -20.691125344448665 0 -20.691125344448665 -8.6892305228636246 0 0 0 0 25.675600403026976 16.336942186710075 0 16.336942186710075 -9.1052478017663816 0 0 0 0 33.570449944598451 44.126636208566197 0 44.126636208566197 31.647914763998415 0 0 0 0 -6.8100667689063812 29.640868149057496 0 29.640868149057496 62.382538982243659 0 0 0 0 1.2401590192636149 18.910449860912195 0 18.910449860912195 61.484955961990636 0 0 0 0 -3.438169587967252 9.8704789513903961 0 9.8704789513903961 65.656391285308928 0 0 0 0 7.4637913287056108 8.0966325732078985 0 8.0966325732078985 21.499160331048188 0 0 0 0 -2.0414203158441637 13.87331572444964 0 13.87331572444964 65.69678319987031 0 0 0 0 -41.67819077938988 12.959405387842708 0 12.959405387842708 129.85584106480019 0 0 0 0 -9.5381733525574361 6.6117883453935065 0 6.6117883453935065 122.40031038633606 0 0 0 0 -0.045937418505007925 19.313777874553125 0 19.313777874553125 169.59209794038907 0 0 0 0 44.321366352173861 80.662661237000066 0 80.662661237000066 93.415355115139391 0 0 0 0 -0.029317025196777976 -0.0010660476174848554 0 -0.0010660476174848554 0.97948499485468687 0 0 0 0 -4.8344988876920247 41.329927113669328 0 41.329927113669328 116.64132247718226 0 0 0 0 -2.2555222625649236 53.130570618690399 0 53.130570618690399 123.95271398328259 0 0 0 0 -56.016326620270036 39.783322181114272 0 39.783322181114272 168.87687097876915 0 0 0 0 85.056740600444471 -101.61243177088909 0 -101.61243177088909 272.66694539206219 0 0 0 0 2.0656712399331125 44.389018454599864 0 44.389018454599864 117.25761834829609 0 0 0 0 -21.13182890057222 89.229440613640691 0 89.229440613640691 154.07926870245137 0 0 0 0 0.070744381367441184 -23.424024890731744 0 -23.424024890731744 32.987146341802145 0 0 0 0 -60.224175258979706 -6.4280722650801181 0 -6.4280722650801181 118.23253734193503 0 0 0 0 -0.44833866137685713 0.037497763230447845 0 0.037497763230447845 0.048144439104973458 0 0 0 0 -37.237950356885676 31.963531264234916 0 31.963531264234916 -8.7934052750424598 0 0 0 0 -21.99076878092643 -35.378276393421402 0 -35.378276393421402 180.47947986939107 0 0 0 0 -12.846536850478046 -1.2834154463744198 0 -1.2834154463744198 17.515474672445634 0 0 0 0 -17.522580494197069 0.68164882016571937 0 0.68164882016571937 22.721013342710648 0 0 0 0 -15.796006687088507 -10.496985366717126 0 -10.496985366717126 22.801726805340877 0 0 0 0 4.6418251740856249 7.1071447267277108 0 7.1071447267277108 89.803504763387537 0 0 0 0 1.9246866785014163 -0.40714644092440722 0 -0.40714644092440722 81.139076002233196 0 0 0 0 -0.62786062738264892 -0.93764170388281798 0 -0.93764170388281798 1.697085843333376 0 0 0 0 -13.40140558036283 -4.3538536737705726 0 -4.3538536737705726 7.0666239425772801 0 0 0 0 -1.2202990372262854 -0.27767604833729109 0 -0.27767604833729109 1.8610565166176229 0 0 0 0 -11.560029019384523 -8.5371251246615429 0 -8.5371251246615429 25.151003681661678 0 0 0 0 -9.5354680245277947 15.673614691750117 0 15.673614691750117 37.72811152313443 0 0 0 0 -7.7448959795453689 -7.782170179499019 0 -7.782170179499019 5.1647690448444337 0 0 0 0 -0.11598953684055735 -0.015226093549813413 0 -0.015226093549813413 0.06169030890426086 0 0 0 0 -35.177487505573779 -1.3585103636378335 0 -1.3585103636378335 9.0136936389899347 0 0 0 0 -8.8199133413861475 7.5084275579283712 0 7.5084275579283712 32.561589975011884 0 0 0 0 5.7111201659086746 -10.389748089513887 0 -10.389748089513887 -21.494079665717436 0 0 0 0 -49.791885114583735 -4.3024990366220663 0 -4.3024990366220663 8.5462791881727753 0 0 0 0 -66.662109087883977 23.731634402203781 0 23.731634402203781 22.147534196454217 0 0 0 0 -53.191378402095324 -30.353992056615425 0 -30.353992056615425 27.54966742346005 0 0 0 0 -7.8397907556075523 -11.984472961481515 0 -11.984472961481515 -8.2232048294390552 0 0 0 0 -0.33283624936124012 0.16471259063648347 0 0.16471259063648347 1.1167336027423058 0 0 0 0 -11.66080028856004 15.885122709340067 0 15.885122709340067 -13.553981838849722 0 0 0 0 -0.2242061852916139 0.15108858110951218 0 0.15108858110951218 1.1055968756006678 0 0 0 0 -32.864519335258549 -25.509877808632154 0 -25.509877808632154 -15.013730228958593 0 0 0 0 -0.037850601829053525 -14.757206911599496 0 -14.757206911599496 15.954711274944202 0 0 0 0 0.84764691960899796 2.0357373585284222 0 2.0357373585284222 20.436016081923299 0 0 0 0 9.0249759323157406 1.4415844116701919 0 1.4415844116701919 20.736026339567616 0 0 0 0 -4.1113837814758689 -8.0988391829450848 0 -8.0988391829450848 5.5001280173673877 0 0 0 0 -0.10632557189565145 -0.0046874138980967928 0 -0.0046874138980967928 0.052944124387046543 0 0 0 0 12.242378952102918 -5.5181972881546244 0 -5.5181972881546244 35.444757497727551 0 0 0 0 2.4147035291565238 -15.676144078540347 0 -15.676144078540347 76.113489088544156 0 0 0 0 0.004003122669924428 1.1779581576029159 0 1.1779581576029159 45.563440943868045 0 0 0 0 4.4610540260647573 -9.0852168640158197 0 -9.0852168640158197 49.321346214783262 0 0 0 0 3.3998650482483619 -22.443664101770992 0 -22.443664101770992 31.45509462672635 0 0 0 0 -5.4898841142721295 -8.822012160471786 0 -8.822012160471786 110.82378750558564 0 0 0 0 10.317877888024309 -9.565504423197126 0 -9.565504423197126 81.129979020653991 0 0 0 0 -3.0328080390876315 -20.877132689904101 0 -20.877132689904101 75.826690003232216 0 0 0 0 8.5493475318353003 -23.465078805212215 0 -23.465078805212215 77.937181997600419 0 0 0 0 -7.7678561875610086 18.183038595721882 0 18.183038595721882 56.284723015846794 0 0 0 0 0.19431926682037215 -0.82469437786130584 0 -0.82469437786130584 18.429297891911119 0 0 0 0 -23.222971826681679 11.682606752259289 0 11.682606752259289 56.633020045184821 0 0 0 0 -39.055264030919858 0.45659897497171187 0 0.45659897497171187 57.794384480148437 0 0 0 0 -21.25511821381091 -1.1674630428278761 0 -1.1674630428278761 35.251977931242436 0 0 0 0 -12.126453741014192 -12.581780964617792 0 -12.581780964617792 53.556784451749991 0 0 0 0 -11.745047583563803 -18.396996336719894 0 -18.396996336719894 30.421438857341855 0 0 0 0 3.230709345822234 -12.606365027058928 0 -12.606365027058928 53.51397965173237 0 0 0 0 -3.1559468836123301 -8.0368251995059836 0 -8.0368251995059836 59.725782756979243 0 0 0 0 11.008269809003721 -4.5908849639290565 0 -4.5908849639290565 82.055340545120998 0 0 0 0 -17.020367289223621 -7.3181013308585534 0 -7.3181013308585534 82.056484486834961 0 0 0 0 -4.9000778107626957 -5.2321410455551813 0 -5.2321410455551813 106.13318265802627 0 0 0 0 6.8237198163164692 18.728250502412266 0 18.728250502412266 94.174635278715868 0 0 0 0 -3.2124983909544369 2.9717672687384038 0 2.9717672687384038 81.114992030270514 0 0 0 0 1.4065130466318365 29.049307324534766 0 29.049307324534766 76.386197961619473 0 0 0 0 -0.33870278480424076 18.444312113108026 0 18.444312113108026 96.029368242251621 0 0 0 0 -2.3804562542626968 -11.471464853446378 0 -11.471464853446378 56.681259319006131 0 0 0 0 0.061878266428038842 26.133849740275764 0 26.133849740275764 65.41723489564356 0 0 0 0 43.972539653457943 2.6385903699519986 0 2.6385903699519986 76.727705277626228 0 0 0 0 -1.4504900949848789 29.646577323544307 0 29.646577323544307 137.64678229307174 0 0 0 0 18.207812842762337 63.66265165438017 0 63.66265165438017 132.49550478840138 0 0 0 0 -8.5064073131762825 -17.570383466148996 0 -17.570383466148996 85.735724741214653 0 0 0 0 -9.0722604107345433 -27.403972166912354 0 -27.403972166912354 187.17191825022746 0 0 0 0 1.9839142057151165 24.389277827422347 0 24.389277827422347 87.477691446911194 0 0 0 0 0.072238693797999076 37.829900853255822 0 37.829900853255822 91.995995814693742 0 0 0 0 -7.7392717589182212 37.519479514681734 0 37.519479514681734 79.41776529220806 0 0 0 0 6.2417856651551631 -2.8166419268563914 0 -2.8166419268563914 8.3303472386687645 0 0 0 0 23.680755252335047 1.9107280319021811 0 1.9107280319021811 17.611943757048721 0 0 0 0 7.2533277531777003 24.400124321295152 0 24.400124321295152 56.306437749626639 0 0 0 0 -7.3634532605785807 9.7177681715329527 0 9.7177681715329527 15.320287064328113 0 0 0 0 -1.943333702894714 3.220945262936084 0 3.220945262936084 1.8632847207016106 0 0 0 0 -1.3605859325542615 8.1362154706585557 0 8.1362154706585557 3.9966694954722186 0 0 0 0 -89.134164792854136 52.416385959657418 0 52.416385959657418 5.1343672650618828 0 0 0 0 -16.738274022326323 -3.2698010964813875 0 -3.2698010964813875 44.974027386539092 0 0 0 0 -5.997653666048322 4.7453022249978503 0 4.7453022249978503 7.0597377732542483 0 0 0 0 -17.501327337374278 -7.9181491664639907 0 -7.9181491664639907 20.324321513457107 0 0 0 0 -3.3138200335780539 9.8658685082154989 0 9.8658685082154989 4.525581745103409 0 0 0 0 -3.4518953106331622 -6.4413629807204416 0 -6.4413629807204416 19.8769518062727 0 0 0 0 -2.3379694513308791 -1.5931488792133521 0 -1.5931488792133521 5.5080064617409903 0 0 0 0 -6.3007615274002475 -1.3941121522843787 0 -1.3941121522843787 9.1465027600861504 0 0 0 0 -3.101969282578068 0.13957795148598962 0 0.13957795148598962 12.038660897018417 0 0 0 0 6.7574159425816021 8.8584744902309467 0 8.8584744902309467 17.764280405448517 0 0 0 0 -0.83922029000573051 -1.763388162771264 0 -1.763388162771264 2.9291680351575735 0 0 0 0 0.026607389619629607 2.9064609453694601 0 2.9064609453694601 0.15127913505819013 0 0 0 0 -3.5026315968012796 1.0535218122786318 0 1.0535218122786318 16.912682007809053 0 0 0 0 7.1777917219915253 5.18291806421621 0 5.18291806421621 9.8390505575453062 0 0 0 0 -0.80328643394987864 2.8772694483208454 0 2.8772694483208454 -0.5055603487051501 0 0 0 0 -9.22872679335768 4.2239079653554654 0 4.2239079653554654 20.640313798812713 0 0 0 0 -304.73163968229346 -156.80698657063476 0 -156.80698657063476 159.28861089537168 0 0 0 0 -102.04547274150718 -91.481690668532792 0 -91.481690668532792 -204.47902009984318 0 0 0 0 32.27690611282398 -108.01116370332744 0 -108.01116370332744 -148.42912621288087 0 0 0 0 18.60937988490241 -266.94724844668326 0 -266.94724844668326 30.499447214797328 0 0 0 0 -62.746278977723705 -112.25946273938371 0 -112.25946273938371 -74.268031430454357 0 0 0 0 -96.820328258461814 -104.05434912528835 0 -104.05434912528835 -66.029733238867266 0 0 0 0 -246.33004802768664 -155.04458044546118 0 -155.04458044546118 65.853686149930581 0 0 0 0 -128.12440038271234 -213.07834877092955 0 -213.07834877092955 -118.8955453736562 0 0 0 0 -126.16605466658984 -306.46063546652294 0 -306.46063546652294 -278.06469130370169 0 0 0 0 -239.30949487884118 -37.624063745378407 0 -37.624063745378407 173.00901211933888 0 0 0 0 -366.93251664877425 -394.13058828416615 0 -394.13058828416615 72.693388565501664 0 0 0 0 -183.29989840295639 -70.673389516676252 0 -70.673389516676252 72.38937517501472 0 0 0 0 -234.45752558844652 -115.43920637585779 0 -115.43920637585779 190.79092956951354 0 0 0 0 5.1861469265036249 10.453662498879567 0 10.453662498879567 128.17414189779811 0 0 0 0 -51.42738963325337 9.6407117993221618 0 9.6407117993221618 184.80453452262191 0 0 0 0 -1.2380609133651888 -46.207697142590405 0 -46.207697142590405 158.57274145419979 0 0 0 0 -16.106648264577188 -14.387667280061578 0 -14.387667280061578 100.56729247635303 0 0 0 0 5.6383971396807198 -5.1014567914009348 0 -5.1014567914009348 67.248663111644419 0 0 0 0 -11.012501728454026 -14.482579354071277 0 -14.482579354071277 82.338877779598079 0 0 0 0 -10.362952115576263 -5.5879603781140759 0 -5.5879603781140759 73.893957884981319 0 0 0 0 -10.846319067632638 2.3001134887317605 0 2.3001134887317605 6.0417865549433447 0 0 0 0 -129.33255654893551 -42.045717397568751 0 -42.045717397568751 5.8084602428025391 0 0 0 0 -3.1633353008921716 1.3980118011191252 0 1.3980118011191252 -1.2917520211324156 0 0 0 0 -201.29397026682818 -297.30583763385403 0 -297.30583763385403 -210.55844132095717 0 0 0 0 -124.6008011533595 -89.765448829046363 0 -89.765448829046363 83.903350895740004 0 0 0 0 -197.68867604400111 -31.982418558305653 0 -31.982418558305653 69.433912996407344 0 0 0 0 -142.97840962235068 -21.559534555854498 0 -21.559534555854498 29.42279376188344 0 0 0 0 -292.94068621019051 159.55078627274088 0 159.55078627274088 42.930404933330692 0 0 0 0 -145.11274240617649 -13.537481256147657 0 -13.537481256147657 7.2767741376519552 0 0 0 0 -189.42865674781433 -52.516486850656747 0 -52.516486850656747 120.47035547058113 0 0 0 0 -68.349013939725864 135.86507841912999 0 135.86507841912999 339.54042034348822 0 0 0 0 -232.08476970115134 -278.86214375607051 0 -278.86214375607051 298.46438684435088 0 0 0 0 99.423566563797522 0.81869717288918764 0 0.81869717288918764 187.45443239142696 0 0 0 0 47.977436519711546 -75.012382695592805 0 -75.012382695592805 441.76012274716413 0 0 0 0 68.122668278197125 83.468828705665146 0 83.468828705665146 231.19541076810219 0 0 0 0 16.020760668908224 -12.153611387071578 0 -12.153611387071578 271.76363236408361 0 0 0 0 -3.7867866280112139 -9.4031802819099539 0 -9.4031802819099539 358.98589179205283 0 0 0 0 9.8624222845479608 21.398120121712736 0 21.398120121712736 350.90793234988814 0 0 0 0 2.4519508970934112 63.798458485633091 0 63.798458485633091 417.81274227867652 0 0 0 0 59.283481250897239 66.010303898498933 0 66.010303898498933 396.44200163154346 0 0 0 0 15.557899653924324 46.93067566906484 0 46.93067566906484 450.43078323722511 0 0 0 0 8.9839638363882841 154.31380799113776 0 154.31380799113776 734.10151339849381 0 0 0 0 -22.637510935832324 -17.539918234290781 0 -17.539918234290781 286.42729233623322 0 0 0 0 -42.259555305304275 -14.242950105381169 0 -14.242950105381169 326.25664828989375 0 0 0 0 -18.383171166632565 4.699545865152686 0 4.699545865152686 332.31931821907256 0 0 0 0 -26.536801809070312 7.290511751764825 0 7.290511751764825 296.71687309983463 0 0 0 0 -24.572875196254245 36.489198496617973 0 36.489198496617973 344.73397692451545 0 0 0 0 -36.410447013264275 -5.4914963090450328 0 -5.4914963090450328 340.61400413736919 0 0 0 0 -18.467614062631583 30.055189959726704 0 30.055189959726704 394.49243098516308 0 0 0 0 32.152308301669109 60.172826304307819 0 60.172826304307819 381.97827363518172 0 0 0 0 -5.4109088966342824 38.066854639320809 0 38.066854639320809 396.8918741937523 0 0 0 0 -23.774001922553452 0.13823913182295655 0 0.13823913182295655 354.98138804716291 0 0 0 0 -0.53291943782551243 26.490651254303884 0 26.490651254303884 347.26056032315728 0 0 0 0 8.4385457250637046 37.362582245417798 0 37.362582245417798 357.4882221490476 0 0 0 0 -6.2314830849131795 14.255573162721703 0 14.255573162721703 326.79636716837922 0 0 0 0 -21.685339049075992 -3.0870038619141269 0 -3.0870038619141269 338.66938564405064 0 0 0 0 -26.615809863335016 -10.869492233477104 0 -10.869492233477104 331.91818776388391 0 0 0 0 8.4528914777147293 33.610086969509211 0 33.610086969509211 289.21906362807931 0 0 0 0 22.114246909120993 60.596739341315697 0 60.596739341315697 339.71196556605832 0 0 0 0 -10.056301322867512 17.254106493343897 0 17.254106493343897 341.52225290205388 0 0 0 0 41.885508625568036 61.728523155274161 0 61.728523155274161 285.27311986326822 0 0 0 0 67.01502409742443 112.54901942435754 0 112.54901942435754 367.17660177725338 0 0 0 0 -11.607544722324747 40.993650668609916 0 40.993650668609916 -151.87167120510276 0 0 0 0 -33.492162855553033 -184.8152620500714 0 -184.8152620500714 112.87794172622398 0 0 0 0 -50.069818696556467 217.65704257896505 0 217.65704257896505 304.74877925089459 0 0 0 0 31.048450080990733 50.725169477263989 0 50.725169477263989 278.91061398392958 0 0 0 0 14.270656953654907 53.502031119678577 0 53.502031119678577 286.33483701495743 0 0 0 0 61.514760428988666 -79.887497434997385 0 -79.887497434997385 -81.967930329776209 0 0 0 0 2.2879509495506234 -0.75071485281447536 0 -0.75071485281447536 0.20297524684374224 0 0 0 0 -80.650221551115237 -172.06843734242108 0 -172.06843734242108 298.20082776825438 0 0 0 0 13.858757222418781 -11.309828864186755 0 -11.309828864186755 7.0866435694292633 0 0 0 0 -56.304766478532201 -91.253004323859386 0 -91.253004323859386 -130.47516008107777 0 0 0 0 3.2011067854062105 -2.1359040527906323 0 -2.1359040527906323 1.6962210343542665 0 0 0 0 -4.6036071759135666 -60.056575989952762 0 -60.056575989952762 -194.52224601663875 0 0 0 0 14.550775408068148 123.9278587568333 0 123.9278587568333 484.05604283585853 0 0 0 0 9.451021098125981 -7.1842502778039297 0 -7.1842502778039297 4.6575148732391476 0 0 0 0 -66.917004079461549 -70.74822134864371 0 -70.74822134864371 -70.45053000320695 0 0 0 0 -52.733118993267908 -65.845624124548067 0 -65.845624124548067 -70.388772211825199 0 0 0 0 -69.789576721269441 -58.722979665808452 0 -58.722979665808452 72.51044613861086 0 0 0 0 -55.451793179930974 -74.37192751767725 0 -74.37192751767725 -95.686552577230032 0 0 0 0 -67.958795956539007 -88.678026870090889 0 -88.678026870090889 -64.92187649657717 0 0 0 0 -87.802575028721549 -92.359700283057464 0 -92.359700283057464 -64.204457950174401 0 0 0 0 -73.242782064148741 -99.53891737482536 0 -99.53891737482536 -58.764056726096896 0 0 0 0 -46.570046049422672 -104.76110547651842 0 -104.76110547651842 -55.331543513821089 0 0 0 0 -74.014643527892076 -98.042979695313988 0 -98.042979695313988 -45.369811063061206 0 0 0 0 -51.563437158511078 -118.95499107546311 0 -118.95499107546311 -34.899500978313881 0 0 0 0 -47.099325975172178 -132.3700126142212 0 -132.3700126142212 -33.631718656415615 0 0 0 0 -50.01444787562923 -113.89884589755911 0 -113.89884589755911 -78.765362580254077 0 0 0 0 -46.295166339130446 -90.24753785663961 0 -90.24753785663961 -65.480029207087682 0 0 0 0 -28.407584670477263 -95.489024108296462 0 -95.489024108296462 -68.063065036425542 0 0 0 0 -71.980163979264944 -72.047864573116385 0 -72.047864573116385 -27.339728799477598 0 0 0 0 -40.814405963368699 -81.294610725500206 0 -81.294610725500206 -51.051849769561159 0 0 0 0 -69.72575794434124 -95.144988982861832 0 -95.144988982861832 -54.355792937643855 0 0 0 0 43.609973814931436 -3.2111444002875942 0 -3.2111444002875942 -12.285642611797812 0 0 0 0 -0.6564533506365251 0.11455382263375213 0 0.11455382263375213 -9.7340470818526228 0 0 0 0 -28.61408950025907 -11.688859404515824 0 -11.688859404515824 28.948398306531089 0 0 0 0 -84.460519470854706 -132.1616913475973 0 -132.1616913475973 -30.810105104098284 0 0 0 0 118.32661394668867 -94.715528761525093 0 -94.715528761525093 -24.949661660004494 0 0 0 0 -17.952520386147626 -150.67903657303395 0 -150.67903657303395 -117.6846289437417 0 0 0 0 -24.889933478891635 -89.165212745916278 0 -89.165212745916278 -146.21438264345852 0 0 0 0 -90.122739045491471 -50.868443386720173 0 -50.868443386720173 -82.176451060076943 0 0 0 0 -101.9309030154709 -126.94975385365706 0 -126.94975385365706 -138.44816502234607 0 0 0 0 -6.6834826237936795 -62.303094014292583 0 -62.303094014292583 -282.64104365414642 0 0 0 0 -1.2951825444435485 0.58734100763554764 0 0.58734100763554764 0.23446317095833002 0 0 0 0 -41.864469248574096 -96.203764167446479 0 -96.203764167446479 -116.58037876814342 0 0 0 0 -1.2850376573751419 -14.520771728011823 0 -14.520771728011823 -124.6115937872928 0 0 0 0 -53.23024494582387 -85.570529224192796 0 -85.570529224192796 -52.855556683815394 0 0 0 0 -59.487500267460746 -76.715860663803142 0 -76.715860663803142 2.2258278252975288 0 0 0 0 -67.957730918479228 -63.416568821925011 0 -63.416568821925011 -62.389449822829192 0 0 0 0 -40.763425780627585 -67.628388465244825 0 -67.628388465244825 -76.496862600459281 0 0 0 0 -78.907855750991075 -65.498026927186402 0 -65.498026927186402 -8.514044802139324 0 0 0 0 -49.846125010448304 -73.332295544017143 0 -73.332295544017143 26.877072116893032 0 0 0 0 -40.335014956577652 -72.86143889439154 0 -72.86143889439154 -7.2040001962586757 0 0 0 0 -60.408823057749942 -82.813094232545154 0 -82.813094232545154 35.004556818983474 0 0 0 0 -44.399885392111173 -83.371004178459771 0 -83.371004178459771 3.6700465846772659 0 0 0 0 -50.884723072102133 -66.408796292133502 0 -66.408796292133502 -20.142814726823417 0 0 0 0 -38.370649686852175 -47.514801135785547 0 -47.514801135785547 -15.861772844178631 0 0 0 0 -48.430942050588783 -63.279144934473152 0 -63.279144934473152 -27.61972369254363 0 0 0 0 -34.616576898544736 -61.221649599501688 0 -61.221649599501688 -55.84007213319137 0 0 0 0 -33.87590145588365 -46.317670853645723 0 -46.317670853645723 -2.1935670814200421 0 0 0 0 -40.318083259984633 -57.838714153580895 0 -57.838714153580895 29.234569649821424 0 0 0 0 -36.210812744260693 -69.867527206043633 0 -69.867527206043633 -24.483253278032862 0 0 0 0 -13.33237767249193 -53.606046545309255 0 -53.606046545309255 -1.1237590084419935 0 0 0 0 -25.186887960280728 -27.047640444060107 0 -27.047640444060107 17.906066173272848 0 0 0 0 -36.238804749144037 -44.157267261090965 0 -44.157267261090965 -4.9862513708658298 0 0 0 0 5.3189210930959234 -8.7058160136857623 0 -8.7058160136857623 12.612665572989044 0 0 0 0 -25.414016827896432 -12.564226469536777 0 -12.564226469536777 7.2806041054682282 0 0 0 0 -31.464676961360965 -11.963886817380626 0 -11.963886817380626 12.363347665715992 0 0 0 0 -27.304763645417552 -39.417647916003261 0 -39.417647916003261 -1.5175190171248687 0 0 0 0 3.0824118637310676 2.4122203755841838 0 2.4122203755841838 10.716467940959319 0 0 0 0 -15.953777205912047 4.5269658481593069 0 4.5269658481593069 8.8250521372792718 0 0 0 0 -28.61481491190716 15.565394579925851 0 15.565394579925851 6.9695253514955766 0 0 0 0 -16.713772559197423 26.607691549815172 0 26.607691549815172 9.8872708121307369 0 0 0 0 -34.073600431739578 19.81251455943675 0 19.81251455943675 14.290039962994342 0 0 0 0 -37.27849756575597 24.268084187677232 0 24.268084187677232 9.9980420612118905 0 0 0 0 -58.066714415051138 -0.21438974308330216 0 -0.21438974308330216 8.5558760745661857 0 0 0 0 -60.820291049123625 13.765644164068362 0 13.765644164068362 17.277280336406875 0 0 0 0 -52.272208278456674 17.427497599037451 0 17.427497599037451 18.450439878284669 0 0 0 0 -52.986966109252535 -46.206334945130948 0 -46.206334945130948 -0.19982855191892668 0 0 0 0 -55.1521317095212 -21.639558686405508 0 -21.639558686405508 6.2780326475262882 0 0 0 0 -40.426424210016194 -11.008838724464113 0 -11.008838724464113 8.5334002063646039 0 0 0 0 -76.901389281150841 -24.31833046121028 0 -24.31833046121028 3.8761597561442613 0 0 0 0 -68.858423971622869 -69.433768374133251 0 -69.433768374133251 -27.897889470590599 0 0 0 0 -106.69576877401687 -83.410771645287241 0 -83.410771645287241 -29.658499691857514 0 0 0 0 -101.36918673311629 -60.563668590124507 0 -60.563668590124507 -17.315966019533334 0 0 0 0 -84.170334826892258 -32.115125304630055 0 -32.115125304630055 10.666748297680897 0 0 0 0 -121.92955453364266 -62.74718999866127 0 -62.74718999866127 -13.914937833720614 0 0 0 0 -111.54994297209123 3.6843669456975476 0 3.6843669456975476 36.003524955362082 0 0 0 0 -101.4700001213896 3.3291027347986528 0 3.3291027347986528 24.022860944921376 0 0 0 0 -49.591407576002894 29.208552109743323 0 29.208552109743323 31.094763346634863 0 0 0 0 -151.26761218507636 61.085745762135957 0 61.085745762135957 -6.5299245877758949 0 0 0 0 -47.361637503692691 48.608341896742786 0 48.608341896742786 15.95007791586977 0 0 0 0 -128.03735089470501 23.840189687114616 0 23.840189687114616 38.435911843645954 0 0 0 0 -0.1882463612644294 -1.0323765899811725 0 -1.0323765899811725 4.4730622978504959 0 0 0 0 -110.69623425178179 0.16438508607006952 0 0.16438508607006952 29.46707844240882 0 0 0 0 -236.87805519739049 -26.320763072646514 0 -26.320763072646514 30.935283890533924 0 0 0 0 -149.09926143788471 -102.35221824583869 0 -102.35221824583869 -52.107910746988637 0 0 0 0 -186.53997124450063 -49.670955747675976 0 -49.670955747675976 21.616010305344389 0 0 0 0 -1.1068727399826734 -2.0215286439411102 0 -2.0215286439411102 5.6305144742535163 0 0 0 0 -152.74066297191257 -103.40450766723825 0 -103.40450766723825 5.6356611038481788 0 0 0 0 -183.32975890382295 -80.379793506708666 0 -80.379793506708666 27.535685382713382 0 0 0 0 -196.35272858074222 -89.650451283112488 0 -89.650451283112488 20.936567430086143 0 0 0 0 -168.46293337924271 -76.79424153425316 0 -76.79424153425316 -44.832166867934575 0 0 0 0 3.8933863518979024 -20.956970514375371 0 -20.956970514375371 46.290350029377805 0 0 0 0 -10.944257593789644 -26.695732224890889 0 -26.695732224890889 74.800566558055834 0 0 0 0 44.685538615959558 -54.201081240784333 0 -54.201081240784333 46.592276151035549 0 0 0 0 38.439802769989001 -39.378063675967496 0 -39.378063675967496 14.903071153763449 0 0 0 0 -0.18226856719019491 -4.0081668880730419 0 -4.0081668880730419 5.1595881386719995 0 0 0 0 41.384587355836175 -76.431606355713484 0 -76.431606355713484 98.190962021199084 0 0 0 0 16.569052366844517 -47.861345643204913 0 -47.861345643204913 103.06314502519274 0 0 0 0 -17.869269295399135 33.929720633439501 0 33.929720633439501 -1.8605991188451299 0 0 0 0 -14.348206474473272 -30.807655668611527 0 -30.807655668611527 50.725605575540754 0 0 0 0 -2.7233686014933483 -3.8262036926316796 0 -3.8262036926316796 37.828948897964437 0 0 0 0 2.8263936387236015 -6.7135807022812415 0 -6.7135807022812415 13.88845235665968 0 0 0 0 -4.5386119453308815 0.64816202079778762 0 0.64816202079778762 28.356180750415227 0 0 0 0 -3.783165036764963 -3.4655335656404276 0 -3.4655335656404276 36.620915617987869 0 0 0 0 -0.84267705989077513 -11.580145253783485 0 -11.580145253783485 21.477849244781055 0 0 0 0 -48.493769618440183 24.684202076895644 0 24.684202076895644 45.281358003543573 0 0 0 0 -33.149640898494908 38.359734157547791 0 38.359734157547791 29.251727155300614 0 0 0 0 -18.240125847355557 -57.717044594857271 0 -57.717044594857271 75.130916441936847 0 0 0 0 1.1427906538489978 -19.983916726816918 0 -19.983916726816918 9.1399535428340783 0 0 0 0 1.4549323291864091 1.5806126334677355 0 1.5806126334677355 10.94314465584416 0 0 0 0 -109.29146702869298 63.500555226500524 0 63.500555226500524 126.61822707831857 0 0 0 0 -18.760909017184531 -20.999685740911104 0 -20.999685740911104 105.6101428349964 0 0 0 0 -3.6652341418605836 7.3966870190916314 0 7.3966870190916314 38.444254022953032 0 0 0 0 -21.362121086203011 22.206139723030663 0 22.206139723030663 22.75830293936815 0 0 0 0 -21.324556501175721 32.868457659934393 0 32.868457659934393 17.352354360024037 0 0 0 0 -32.808992769815632 25.376187135154396 0 25.376187135154396 15.280246272308432 0 0 0 0 -51.794836050611025 30.247959106748283 0 30.247959106748283 26.363221900923236 0 0 0 0 -48.103410723342677 26.030309564495838 0 26.030309564495838 63.673666185990442 0 0 0 0 -27.93536972801212 26.605552015663307 0 26.605552015663307 17.623831195567618 0 0 0 0 -31.796712658246179 30.44715991861267 0 30.44715991861267 15.810328047987241 0 0 0 0 -46.85284143102399 21.635751427435935 0 21.635751427435935 3.6390073213997312 0 0 0 0 -26.945103012744312 38.131384766411429 0 38.131384766411429 -0.48984554497292265 0 0 0 0 -35.634465003930018 36.609436346079747 0 36.609436346079747 17.318042814018668 0 0 0 0 -33.708229708285216 49.938121728775513 0 49.938121728775513 -41.104383926518494 0 0 0 0 -0.90078884555896366 25.103594449283264 0 25.103594449283264 -1.9537163973400311 0 0 0 0 78.860050292512369 21.042765710486719 0 21.042765710486719 19.493638674166959 0 0 0 0 -3.4664617308667403 13.24400732574486 0 13.24400732574486 -7.1366329786824281 0 0 0 0 -8.1622064139364685 11.461681664834831 0 11.461681664834831 24.526505021652369 0 0 0 0 -3.8355223091619948 0.68374693718199708 0 0.68374693718199708 8.678915830102568 0 0 0 0 -5.8405813663680419 185.86518526261261 0 185.86518526261261 -29.402939528509023 0 0 0 0 0.21017614336986412 1.9082865799867135 0 1.9082865799867135 1.5259172400825856 0 0 0 0 -65.799515952342858 -168.05269524657876 0 -168.05269524657876 153.13078634027761 0 0 0 0 102.4723683517891 -77.570148179369653 0 -77.570148179369653 -91.37414694408244 0 0 0 0 65.361985454295336 87.130348096882699 0 87.130348096882699 -103.12963788388979 0 0 0 0 20.589841001830109 -129.60818346559142 0 -129.60818346559142 161.04808438531791 0 0 0 0 -2.5183232043873431 -37.532797554616991 0 -37.532797554616991 36.137794632694295 0 0 0 0 87.30770384326388 -129.84603990967207 0 -129.84603990967207 -18.87822830725986 0 0 0 0 68.964347730804775 -174.31203842207879 0 -174.31203842207879 247.23340746537701 0 0 0 0 15.446986963254005 -63.179121825413802 0 -63.179121825413802 113.78836924322422 0 0 0 0 -4.1041889983398505 -57.146899282072809 0 -57.146899282072809 188.05234659648499 0 0 0 0 18.506386615545125 -89.747220956835008 0 -89.747220956835008 143.15097134554367 0 0 0 0 -6.0166336698234772 129.76921041548121 0 129.76921041548121 167.55049417989562 0 0 0 0 -33.382068312293086 3.8139635440838902 0 3.8139635440838902 118.11568488371176 0 0 0 0 64.802176285568294 138.52674266172562 0 138.52674266172562 1.9269406870366765 0 0 0 0 -47.328422697908195 15.779639261036664 0 15.779639261036664 510.51346597628799 0 0 0 0 51.016075317500963 290.11163486027226 0 290.11163486027226 254.84303402958903 0 0 0 0 -27.899380253341292 83.655778901491033 0 83.655778901491033 88.432279260788164 0 0 0 0 29.786341018343592 67.479295905148774 0 67.479295905148774 29.961083365827903 0 0 0 0 3.6168828689417296 55.945128409451627 0 55.945128409451627 109.21046742532053 0 0 0 0 -1.9155663870866184 -0.35145894714451131 0 -0.35145894714451131 -0.19278510360829637 0 0 0 0 -18.799294173898886 -15.281867142687247 0 -15.281867142687247 50.116239519797091 0 0 0 0 103.55656482637778 -15.810435887892254 0 -15.810435887892254 77.853633407349662 0 0 0 0 -7.6713134376987 -13.622234887746345 0 -13.622234887746345 46.324303234327317 0 0 0 0 -37.883003719032104 -27.01605407226873 0 -27.01605407226873 205.6765880424 0 0 0 0 32.628658634614112 44.928653843701795 0 44.928653843701795 81.117565719266167 0 0 0 0 -6.6794257659125833 1.8328971934463425 0 1.8328971934463425 68.181552278879053 0 0 0 0 -4.1438481682953956 -4.2753085918251283 0 -4.2753085918251283 2.9570677381538535 0 0 0 0 -2.1100881663678024 -27.465692975531056 0 -27.465692975531056 25.410583689498708 0 0 0 0 -36.205611277435764 -44.317098935563763 0 -44.317098935563763 112.59629734981991 0 0 0 0 -43.450370620848844 -12.093298456602497 0 -12.093298456602497 152.29981292726006 0 0 0 0 -45.134937485792989 -49.291693660605006 0 -49.291693660605006 177.66349417739184 0 0 0 0 -36.03857964510189 7.6138774744922557 0 7.6138774744922557 172.17486113122732 0 0 0 0 -45.980601047223445 0.84620404360202883 0 0.84620404360202883 172.04459237448282 0 0 0 0 -10.722296963621829 36.916178606467383 0 36.916178606467383 123.59712121356461 0 0 0 0 -12.750225862911066 40.014734737811523 0 40.014734737811523 131.60777452812454 0 0 0 0 -34.952826077510053 -5.5470544213549147 0 -5.5470544213549147 130.40536026471318 0 0 0 0 -43.652445617291278 -0.26922072604907044 0 -0.26922072604907044 139.84490045502844 0 0 0 0 19.268169504168327 -7.7978911774412154 0 -7.7978911774412154 467.9393019710576 0 0 0 0 238.43569734246853 -253.60010352342874 0 -253.60010352342874 222.09189501411311 0 0 0 0 4.7914473718883528 3.2500647100823699 0 3.2500647100823699 198.57459596176579 0 0 0 0 -31.82592669456767 -8.5227947638338719 0 -8.5227947638338719 225.6685608513335 0 0 0 0 12.287978270841904 -40.948775368817678 0 -40.948775368817678 319.65728613820193 0 0 0 0 58.060395950608836 98.542313315638239 0 98.542313315638239 254.59832847904136 0 0 0 0 3.0116796460010846 71.049228362004669 0 71.049228362004669 190.84267310726545 0 0 0 0 6.4815472897239488 59.788408827425428 0 59.788408827425428 226.01034776447068 0 0 0 0 0.80794015645714357 -1.2716623765938411 0 -1.2716623765938411 2.6358366406936895 0 0 0 0 143.60101390482077 173.86677597018479 0 173.86677597018479 257.6286788730722 0 0 0 0 90.044959354915136 -94.898428373637898 0 -94.898428373637898 64.22925324200969 0 0 0 0 53.982793965596102 101.12938901484813 0 101.12938901484813 428.57707489131462 0 0 0 0 59.201085759632861 -4.2644854495024447 0 -4.2644854495024447 -38.607790030023807 0 0 0 0 -2.0255162766071635 55.565261803713497 0 55.565261803713497 -20.827451057678445 0 0 0 0 53.784578174970648 27.140776165883381 0 27.140776165883381 4.0580683420948844 0 0 0 0 135.91284492901019 123.86289592856218 0 123.86289592856218 91.737369357117132 0 0 0 0 12.372560921911372 13.966662909762817 0 13.966662909762817 32.771611087608107 0 0 0 0 -53.142154712029821 3.2271922323912463 0 3.2271922323912463 40.694121457599522 0 0 0 0 0.50668967789546526 -1.9354589658765837 0 -1.9354589658765837 9.1376123325189536 0 0 0 0 45.86941075990535 15.512825486859128 0 15.512825486859128 8.9689614040630659 0 0 0 0 -13.003771875529765 11.919672393948417 0 11.919672393948417 9.060985593494479 0 0 0 0 -0.80740072467146939 -1.9162932821636769 0 -1.9162932821636769 2.5335138323879076 0 0 0 0 -13.169982528100263 32.440851525257131 0 32.440851525257131 77.809075061962176 0 0 0 0 -18.735608015034813 25.574582760310477 0 25.574582760310477 72.790802836355397 0 0 0 0 49.120728846346481 63.671715353418051 0 63.671715353418051 56.289176350199341 0 0 0 0 -7.3970949899467087 43.358883497598981 0 43.358883497598981 65.251941601813087 0 0 0 0 4.0945239261718598 49.530715351975232 0 49.530715351975232 68.534795035930074 0 0 0 0 -18.949976247702921 26.925187964415159 0 26.925187964415159 115.53323133345111 0 0 0 0 6.9466658081182686 61.865109115531595 0 61.865109115531595 121.67612378244797 0 0 0 0 14.791291549894595 30.81506589714354 0 30.81506589714354 33.550468888432988 0 0 0 0 15.599730475319575 31.911491853517873 0 31.911491853517873 30.547473951244683 0 0 0 0 -20.743478941576086 34.954991027897904 0 34.954991027897904 42.88352816439965 0 0 0 0 15.700600475556783 47.094399209812543 0 47.094399209812543 38.446251317885981 0 0 0 0 -35.777393396211664 60.153487256921835 0 60.153487256921835 51.75190608755247 0 0 0 0 -22.634635825751047 76.026401187383726 0 76.026401187383726 26.635106603655004 0 0 0 0 -3.6455138568576331 48.469399813159498 0 48.469399813159498 33.074154675352474 0 0 0 0 -2.6570061980808077 7.4593083931772526 0 7.4593083931772526 34.370234905916732 0 0 0 0 -6.8993781754704742 3.1977397542768813 0 3.1977397542768813 44.005933611683076 0 0 0 0 -6.6331184998917294 -0.72975343796840786 0 -0.72975343796840786 29.10554499678711 0 0 0 0 57.597488597964457 25.975778700748833 0 25.975778700748833 40.569508499843323 0 0 0 0 0.34170474024808239 6.9473364684149566 0 6.9473364684149566 4.930712074385629 0 0 0 0 1.7977202041579403 28.176731096891672 0 28.176731096891672 42.785961669449534 0 0 0 0 -10.845971430808504 -2.3341762329132507 0 -2.3341762329132507 34.701095436068499 0 0 0 0 -7.081441801717574 -0.2773106526437914 0 -0.2773106526437914 27.82800390934301 0 0 0 0 -0.99113102427324407 -1.2271488968555673 0 -1.2271488968555673 6.402197571485317 0 0 0 0 -4.7183187732569394 -2.2229689057271074 0 -2.2229689057271074 10.796499243566238 0 0 0 0 -5.0550174179727341 -6.1753138205747291 0 -6.1753138205747291 40.91162175076397 0 0 0 0 -1.4566241842727803 -3.6607765570287238 0 -3.6607765570287238 19.102592096310751 0 0 0 0 23.984668723681807 -16.53133116271988 0 -16.53133116271988 -13.610648623366188 0 0 0 0 -4.4798599700676505 -8.7390446173836835 0 -8.7390446173836835 10.516211204228966 0 0 0 0 1.0574741545658748 -6.5432357591238883 0 -6.5432357591238883 8.9697045333075245 0 0 0 0 1.419262538371616 -15.829551846737113 0 -15.829551846737113 24.009339864753205 0 0 0 0 5.9043768561779189 -16.844749025666715 0 -16.844749025666715 55.599643139541513 0 0 0 0 -2.2809846245100971 -26.163198456975806 0 -26.163198456975806 51.912072230496506 0 0 0 0 2.7160836160475164 -20.984474096131642 0 -20.984474096131642 8.5028076172592559 0 0 0 0 -9.9953941451904029 -29.076400461201047 0 -29.076400461201047 64.656004721375211 0 0 0 0 58.257210152883999 -30.490109440498713 0 -30.490109440498713 -25.855159038463427 0 0 0 0 -4.7816073202131975 -26.620723330243436 0 -26.620723330243436 193.65948785805176 0 0 0 0 3.5139557206483536 -3.7869611171674609 0 -3.7869611171674609 -5.4880574410441545 0 0 0 0 -4.5387329485127452 -21.184059315982978 0 -21.184059315982978 95.548599712979012 0 0 0 0 18.828988172487698 0.86090776218543397 0 0.86090776218543397 25.957955402127936 0 0 0 0 81.093062763712169 -79.104985914313829 0 -79.104985914313829 82.916915603985899 0 0 0 0 30.323539721037832 -4.5353130741461882 0 -4.5353130741461882 -1.7812636283078973 0 0 0 0 14.433773838748493 -29.120664388352452 0 -29.120664388352452 89.359707073024765 0 0 0 0 26.775449786262925 -22.047277350005061 0 -22.047277350005061 83.127836951422069 0 0 0 0 -5.7101218423197864 7.6164120867214606 0 7.6164120867214606 11.964866697631273 0 0 0 0 -25.361821267786581 18.526406026398035 0 18.526406026398035 122.35272077161062 0 0 0 0 -0.84285895451284887 -3.8819968284265087 0 -3.8819968284265087 42.87116906425581 0 0 0 0 0.69779250278565996 -6.5178729000253952 0 -6.5178729000253952 41.535843354009558 0 0 0 0 -0.73944346465399091 -14.296990504381473 0 -14.296990504381473 36.237146249176185 0 0 0 0 -3.4450477699656403 -22.911528675308091 0 -22.911528675308091 33.947853248329011 0 0 0 0 -5.4227324390394642 -4.9802551841876266 0 -4.9802551841876266 18.424729560724359 0 0 0 0 -4.9240998007853705 -30.171817618772366 0 -30.171817618772366 20.867320952113914 0 0 0 0 179.11214047385874 335.23572887245973 0 335.23572887245973 349.76521023503301 0 0 0 0 -4.5087859554100644 19.367924490767624 0 19.367924490767624 28.117800756600015 0 0 0 0 -6.5910027677855396 -65.481433486012975 0 -65.481433486012975 48.227144535958359 0 0 0 0 -6.3091336933666753 17.255859090625563 0 17.255859090625563 65.343524832307594 0 0 0 0 -923.98328554958607 -492.23111939801402 0 -492.23111939801402 1096.7956669624073 0 0 0 0 12.253697763802393 75.553683294127495 0 75.553683294127495 108.90326854756086 0 0 0 0 8.8490314810132986 -39.704167728878929 0 -39.704167728878929 24.055919934036012 0 0 0 0 -8.8226346173182719 39.488610835074951 0 39.488610835074951 208.10708561064757 0 0 0 0 124.68274312228959 94.891510304467374 0 94.891510304467374 182.96741394741457 0 0 0 0 3.5588647244458365 -2.5199782489569289 0 -2.5199782489569289 2.1720732666768754 0 0 0 0 -5.3113634193798589 -61.598781178705281 0 -61.598781178705281 -21.893296716874829 0 0 0 0 -81.514929135365492 206.01091059379223 0 206.01091059379223 405.31709428664499 0 0 0 0 -1.9570942039226793 -16.920992479998404 0 -16.920992479998404 -26.279572660437225 0 0 0 0 -30.490175988068131 -23.135766316036324 0 -23.135766316036324 15.882544955557933 0 0 0 0 -10.333828790436201 -29.865667160575867 0 -29.865667160575867 17.677245445556991 0 0 0 0 7.0900362929077811 -9.20630391318495 0 -9.20630391318495 6.992083730166156 0 0 0 0 20.056192113040197 -18.426003622163307 0 -18.426003622163307 80.813777144133837 0 0 0 0 -4.1420224119037812 13.587500551813719 0 13.587500551813719 111.94444540833956 0 0 0 0 0.0025563413063478396 4.3597545390958974 0 4.3597545390958974 0.66238567733925713 0 0 0 0 -43.363049722865526 10.866234596625873 0 10.866234596625873 175.13633806938515 0 0 0 0 -30.100426235475425 -35.790981774235661 0 -35.790981774235661 77.638271297812935 0 0 0 0 70.603316315731718 6.0189961104670147 0 6.0189961104670147 69.959724302070981 0 0 0 0 30.313920324584615 40.724698877706942 0 40.724698877706942 124.07520633392937 0 0 0 0 -51.515218051091324 -22.628141655995705 0 -22.628141655995705 155.81126647630936 0 0 0 0 -31.988270194537108 -2.0920764910788421 0 -2.0920764910788421 83.241956207065186 0 0 0 0 7.4029740830083028 60.160182016712952 0 60.160182016712952 -49.245024002053469 0 0 0 0 0.17688799660286936 -1.1669724448449061 0 -1.1669724448449061 4.8622734779834653 0 0 0 0 -6.2846050797325006 27.567573286065681 0 27.567573286065681 -4.1265759374073241 0 0 0 0 -17.65092070704759 -8.4402756801191572 0 -8.4402756801191572 77.484966915199948 0 0 0 0 -10.498927894385361 -11.872553498728848 0 -11.872553498728848 -14.896440631766382 0 0 0 0 -3.7401409684498264 8.9704307506186325 0 8.9704307506186325 40.76507787711769 0 0 0 0 -5.082277163787694 6.828435450895407 0 6.828435450895407 14.750146394405368 0 0 0 0 -43.509018983865644 -4.2953066482787108 0 -4.2953066482787108 155.16958608660002 0 0 0 0 -4.9759881510117339 7.4719350007762841 0 7.4719350007762841 51.243236088664617 0 0 0 0 3.3542176005621513 -18.684477476234406 0 -18.684477476234406 98.344941583018226 0 0 0 0 -3.7731081828676567 -4.6308761700263856 0 -4.6308761700263856 59.048523648763457 0 0 0 0 -15.921895690878955 18.896272719367516 0 18.896272719367516 115.61344437066168 0 0 0 0 3.8098078569823883 0.75805619008133363 0 0.75805619008133363 62.018297689110113 0 0 0 0 -1.50918906994184 3.4398870444329077 0 3.4398870444329077 50.191098583510666 0 0 0 0 -1.2774760994516328 8.9822722687749774 0 8.9822722687749774 58.550683954066699 0 0 0 0 0.10925786067352306 -3.9006450656634257 0 -3.9006450656634257 70.49240600518533 0 0 0 0 -0.12412176249151585 -0.10043354182658248 0 -0.10043354182658248 14.18138318973827 0 0 0 0 2.0671729976954882 8.2754293751712673 0 8.2754293751712673 11.403826748030411 0 0 0 0 -4.7197377515580303 16.575773328669833 0 16.575773328669833 23.940564383847466 0 0 0 0 39.620283969234151 64.388716438151278 0 64.388716438151278 18.645259900872787 0 0 0 0 5.3096473060663296 -3.6716423387680628 0 -3.6716423387680628 64.120942563307835 0 0 0 0 3.2379059205259182 -5.5850386798720137 0 -5.5850386798720137 64.343746161775925 0 0 0 0 5.6558817348459343 -10.854144539669505 0 -10.854144539669505 71.84281751107801 0 0 0 0 -0.79034049116546612 -0.60124894737128898 0 -0.60124894737128898 48.38562077187089 0 0 0 0 -0.80079461379227723 -0.48080680420571298 0 -0.48080680420571298 63.018797827819071 0 0 0 0 -2.1343323902456177 7.1879130560719204 0 7.1879130560719204 55.665333378927244 0 0 0 0 -4.6246049592728014 4.5429820066092361 0 4.5429820066092361 43.880076708409433 0 0 0 0 -0.63124182009414653 -9.6233933782423264 0 -9.6233933782423264 80.053974267446847 0 0 0 0 -4.8169934792769844 8.0437530544169178 0 8.0437530544169178 11.50691373320776 0 0 0 0 -0.9234752942174449 3.476345558921853 0 3.476345558921853 2.5443063309508638 0 0 0 0 13.161256817519643 -0.23571184159209224 0 -0.23571184159209224 60.085322326987807 0 0 0 0 -0.55865343627399966 -3.1001730308111775 0 -3.1001730308111775 1.8655093735983881 0 0 0 0 -2.2257908523843071 4.0224499996184022 0 4.0224499996184022 61.119291682851326 0 0 0 0 -2.1837100306881894 3.9418372476466175 0 3.9418372476466175 52.017884558445076 0 0 0 0 0.3187375303805311 -6.2472679020538635 0 -6.2472679020538635 50.778398643103628 0 0 0 0 2.8437732368511206 -2.1721371934945637 0 -2.1721371934945637 47.012792640080079 0 0 0 0 -8.4581731079470046 -17.74095725294319 0 -17.74095725294319 74.493997433510231 0 0 0 0 0.47469515991164712 0.31422324916331235 0 0.31422324916331235 -0.21346039990632448 0 0 0 0 -0.34744121813582751 -2.6599506386955909 0 -2.6599506386955909 32.226521498481816 0 0 0 0 5.8394784828394677 -0.84783836882070318 0 -0.84783836882070318 56.316510796266812 0 0 0 0 0.94170285959118161 -0.22123866030426598 0 -0.22123866030426598 7.9996316194093744 0 0 0 0 -0.77996661463294004 -7.7348110898165032 0 -7.7348110898165032 59.523808198731786 0 0 0 0 -1.0650334052542902 2.8294834586578617 0 2.8294834586578617 7.0757192236396911 0 0 0 0 2.9624353063841227 4.8505720328621464 0 4.8505720328621464 44.205938633700498 0 0 0 0 2.3094906136911959 8.34556102786064 0 8.34556102786064 48.946550687778654 0 0 0 0 0.25602375246790032 0.64837733413293108 0 0.64837733413293108 30.20607093183753 0 0 0 0 -0.88348759492590112 -2.3674127271147398 0 -2.3674127271147398 4.6910196979487306 0 0 0 0 0.30245370598747456 4.2048750437667906 0 4.2048750437667906 36.199073302021134 0 0 0 0 -0.79895964463366909 2.5504511360782089 0 2.5504511360782089 37.887092175016733 0 0 0 0 -0.75412297163009867 3.9540193944684008 0 3.9540193944684008 37.310604592200121 0 0 0 0 -4.2212712841537723 0.31525541993323714 0 0.31525541993323714 37.104842460781583 0 0 0 0 -1.728970305306575 5.0189708232719568 0 5.0189708232719568 36.819493935798391 0 0 0 0 -2.3803554501619146 4.5305676246734947 0 4.5305676246734947 35.633221803593187 0 0 0 0 -2.2483515458382044 2.4934699766472477 0 2.4934699766472477 32.076526432589162 0 0 0 0 -3.8799936866562348 -1.813514952591504 0 -1.813514952591504 31.676881542970023 0 0 0 0 -10.384540368853777 0.053635979907994624 0 0.053635979907994624 32.414738478688378 0 0 0 0 -3.7676165856264561 2.0740246399318494 0 2.0740246399318494 26.969375714304988 0 0 0 0 0.93308542753822343 -0.57220080688361641 0 -0.57220080688361641 23.412326477741878 0 0 0 0 -0.27973349751573551 -1.6438970639810577 0 -1.6438970639810577 30.504695610074123 0 0 0 0 -1.9343565526796738 -1.9645321426924056 0 -1.9645321426924056 31.913355457501893 0 0 0 0 -0.97791402019028162 -0.65060196777714818 0 -0.65060196777714818 27.628735010915463 0 0 0 0 -2.6956393590987968 -1.2740144150788026 0 -1.2740144150788026 17.959776025406459 0 0 0 0 -2.6510279481444741 -2.4497092733472527 0 -2.4497092733472527 31.626319127327406 0 0 0 0 -5.6248034037726029 -6.2128692206729283 0 -6.2128692206729283 27.679955442970822 0 0 0 0 -5.4717271516667765 -7.0877938121408413 0 -7.0877938121408413 19.230932258343053 0 0 0 0 -11.619344246641049 18.508625074969814 0 18.508625074969814 123.52615593318092 0 0 0 0 -8.3336537706326759 -6.6886852144380153 0 -6.6886852144380153 35.365853803527756 0 0 0 0 -2.798861163759284 -2.3720099636029772 0 -2.3720099636029772 31.470302585083118 0 0 0 0 -5.4058815750995564 -3.4877045235280093 0 -3.4877045235280093 32.080149477449595 0 0 0 0 -2.8778033785665329 -1.3480168543905968 0 -1.3480168543905968 28.643631014930975 0 0 0 0 -4.2612041363427124 -2.5811921942404297 0 -2.5811921942404297 32.451496652638525 0 0 0 0 7.14891765595344 -0.84820700336734944 0 -0.84820700336734944 40.991417551093036 0 0 0 0 -2.8243427344365122 -1.2386677273078686 0 -1.2386677273078686 31.958563306047118 0 0 0 0 -3.4818430239938607 -4.496817381494111 0 -4.496817381494111 29.635330613935366 0 0 0 0 -5.3798502285834289 8.7887342104321746 0 8.7887342104321746 58.114041067913675 0 0 0 0 -11.763711648503886 8.8952871229230368 0 8.8952871229230368 62.847636126681891 0 0 0 0 106.05191731105879 38.777231202594521 0 38.777231202594521 -60.270644399538128 0 0 0 0 -9.964611892040466 11.856040076043541 0 11.856040076043541 55.011582902983719 0 0 0 0 2.6485261119553094 -0.46475340939750875 0 -0.46475340939750875 5.122585280031732 0 0 0 0 -12.10879539608969 -16.203653910741579 0 -16.203653910741579 5.7181935164007882 0 0 0 0 3.7392836034341599 6.7682601606625212 0 6.7682601606625212 52.720116516204143 0 0 0 0 -0.4859735188420754 -13.454625655332157 0 -13.454625655332157 21.423568657497398 0 0 0 0 -26.42849006574761 -3.7563050040918142 0 -3.7563050040918142 58.706011270372073 0 0 0 0 -0.89384714820164035 -1.9402582821529926 0 -1.9402582821529926 33.265837197090825 0 0 0 0 21.753027077929502 19.327376795139884 0 19.327376795139884 76.020362554438179 0 0 0 0 -12.751438476982003 -6.0497391866210819 0 -6.0497391866210819 22.998418781321561 0 0 0 0 -4.8384572351334576 -4.2431570693796488 0 -4.2431570693796488 37.190216671198023 0 0 0 0 -8.5803374858514871 8.8440189637803996 0 8.8440189637803996 137.96535463576583 0 0 0 0 1.0023890414964978 1.6542063402110614 0 1.6542063402110614 8.6661858253751518 0 0 0 0 4.8872379494650886 -13.099435241734682 0 -13.099435241734682 97.677770416497879 0 0 0 0 5.8801796197658405 27.416923696951926 0 27.416923696951926 104.07027401546657 0 0 0 0 -10.933144140207901 -1.868771234524047 0 -1.868771234524047 113.82523965053406 0 0 0 0 -15.07294015323896 -20.287889968283707 0 -20.287889968283707 78.361532265337473 0 0 0 0 -3.7107911615289577 -11.708046292593179 0 -11.708046292593179 38.519514443050447 0 0 0 0 -1.6980963056893827 -4.4438892162501791 0 -4.4438892162501791 34.910404408988349 0 0 0 0 -8.2737566063342456 -1.7871707075646555 0 -1.7871707075646555 38.8246458362064 0 0 0 0 -0.16336180479811446 -4.8013765995310678 0 -4.8013765995310678 49.237935026661944 0 0 0 0 1.8472425081349684 -3.3194501614277669 0 -3.3194501614277669 38.821495926124044 0 0 0 0 7.1837917112625291 -1.9714691140979994 0 -1.9714691140979994 37.594814567684807 0 0 0 0 2.070682970848793 -5.6028082372795325 0 -5.6028082372795325 42.333535307567217 0 0 0 0 4.8521316867690985 -0.55952605830680113 0 -0.55952605830680113 44.978685818379745 0 0 0 0 1.8115481878221544 -7.3599097925907699 0 -7.3599097925907699 43.850903748669225 0 0 0 0 -3.7471957487014151 -4.4523757467559335 0 -4.4523757467559335 63.137428961836122 0 0 0 0 -24.646277735137119 2.74029774148039 0 2.74029774148039 39.370486724063994 0 0 0 0 -0.16885797592214757 0.0092260892090365587 0 0.0092260892090365587 0.15408825909838741 0 0 0 0 31.972039190039141 4.8405699868490046 0 4.8405699868490046 9.3618575979526213 0 0 0 0 1.0855721118659858 -9.6870385396123311 0 -9.6870385396123311 54.934552412201811 0 0 0 0 47.088702146323158 -37.689304416871892 0 -37.689304416871892 41.293245817585557 0 0 0 0 3.2568904472691429 -19.118392466762089 0 -19.118392466762089 121.46455726119802 0 0 0 0 27.483899828465837 9.1929022029235057 0 9.1929022029235057 107.98532167026497 0 0 0 0 -18.668799747162666 11.106215386216718 0 11.106215386216718 117.00349870931313 0 0 0 0 18.364378943517295 19.604241043332877 0 19.604241043332877 104.11279006002951 0 0 0 0 -0.32178490495607548 18.403250939460122 0 18.403250939460122 113.71052094922925 0 0 0 0 6.5700642516903827 2.9802664881663077 0 2.9802664881663077 79.611364594406041 0 0 0 0 -16.229339923293082 -8.0527709926609532 0 -8.0527709926609532 93.148241260381837 0 0 0 0 -9.8154508077877836 -23.776664569377317 0 -23.776664569377317 57.8162515175718 0 0 0 0 -35.293802550044347 -2.2538842779977131 0 -2.2538842779977131 81.831559897976149 0 0 0 0 -1.1933312215423939 1.7217472682132211 0 1.7217472682132211 56.291907306625944 0 0 0 0 2.8799175065405507 -9.7035476120672683 0 -9.7035476120672683 44.051258862238683 0 0 0 0 -17.26549036763663 28.090574813085084 0 28.090574813085084 111.52551077656014 0 0 0 0 -15.463012380725559 -11.138790569129469 0 -11.138790569129469 75.970989657013888 0 0 0 0 -14.568861778362134 -2.0205526323782124 0 -2.0205526323782124 95.014519540020956 0 0 0 0 25.092379472249377 41.40440330207548 0 41.40440330207548 135.15991441694132 0 0 0 0 -1.032120504592281 -7.0384989447109119 0 -7.0384989447109119 -1.7373320405149428 0 0 0 0 -15.709985828588124 -17.725968258732877 0 -17.725968258732877 41.707168967427251 0 0 0 0 -20.169497717193401 9.3943160586741215 0 9.3943160586741215 53.837005068078724 0 0 0 0 -3.5738906537604862 -49.192490970737254 0 -49.192490970737254 30.615095070166717 0 0 0 0 -5.613353423963872 45.232566314639371 0 45.232566314639371 83.615044214547879 0 0 0 0 -7.1630319652816157 8.4371505836095437 0 8.4371505836095437 43.212459181838689 0 0 0 0 -4.9077930732522717 -15.176427493755 0 -15.176427493755 57.931396692367343 0 0 0 0 -9.353622824602553 -15.23745371417499 0 -15.23745371417499 64.287967531734125 0 0 0 0 -7.8222849457448547 10.824617947705406 0 10.824617947705406 13.670279800055141 0 0 0 0 -12.004870740740103 -6.5797636143322507 0 -6.5797636143322507 38.355112191484295 0 0 0 0 -4.6047280600030893 0.28902771056860388 0 0.28902771056860388 33.163111388636068 0 0 0 0 -6.2334810823588427 -13.465250960496633 0 -13.465250960496633 56.490031996079324 0 0 0 0 -4.8357285372576371 1.8828765723692413 0 1.8828765723692413 27.76285516799544 0 0 0 0 -9.6697876501640856 -0.89085951576932443 0 -0.89085951576932443 25.660635140897785 0 0 0 0 -5.6196103385614151 5.5017509397862341 0 5.5017509397862341 36.855908195441089 0 0 0 0 -2.2571801194588339 -1.1443210358089573 0 -1.1443210358089573 25.146165337602724 0 0 0 0 -5.5990172000109908 1.8652881294396764 0 1.8652881294396764 28.044842358115602 0 0 0 0 -6.612803357987393 -0.3780374842987424 0 -0.3780374842987424 27.652443184739017 0 0 0 0 -11.808713232962077 -5.8616838605809107 0 -5.8616838605809107 31.708941042001243 0 0 0 0 6.3295498561458317 27.205088578141016 0 27.205088578141016 93.099579386175151 0 0 0 0 -9.0382069133735179 -4.6043719084683108 0 -4.6043719084683108 21.595366113010009 0 0 0 0 -8.1331481134220667 -1.7406102018294405 0 -1.7406102018294405 31.765470835115593 0 0 0 0 -5.5848827282297862 2.1958291102555449 0 2.1958291102555449 30.565604642804828 0 0 0 0 -7.1369621505727991 -0.14383667160655023 0 -0.14383667160655023 33.731914911855711 0 0 0 0 -8.6468542124912346 -1.2053958675387548 0 -1.2053958675387548 41.057555354982469 0 0 0 0 -0.69098946816646745 1.0900223335784061 0 1.0900223335784061 6.8853785645129379 0 0 0 0 6.7841446455331607 20.939746643518902 0 20.939746643518902 46.877092842805382 0 0 0 0 3.7498120060472502 37.064882641089582 0 37.064882641089582 79.307544123634671 0 0 0 0 1.8308865352291832 -32.270270478432963 0 -32.270270478432963 92.151796729707485 0 0 0 0 60.249499834802009 64.981254336380459 0 64.981254336380459 44.001676122400795 0 0 0 0 18.765928867847833 21.810489398340678 0 21.810489398340678 113.03871996969724 0 0 0 0 2.0572164642448563 1.9515735536651357 0 1.9515735536651357 7.1645922876887553 0 0 0 0 20.916289531289294 -17.706435077170909 0 -17.706435077170909 38.822086458191848 0 0 0 0 2.0588606705277925 -48.897965319831428 0 -48.897965319831428 71.942376213324223 0 0 0 0 -6.4452735423255945 1.0717114027365824 0 1.0717114027365824 18.919536525618241 0 0 0 0 -9.2841328974343611 -13.597231163297433 0 -13.597231163297433 16.977218109089108 0 0 0 0 1.118208005989203 -1.3890051623753994 0 -1.3890051623753994 -2.8427840723781017 0 0 0 0 43.807911763855373 100.84678802442795 0 100.84678802442795 105.58819789688624 0 0 0 0 7.9105048928431643 67.853732705817151 0 67.853732705817151 96.384242426235687 0 0 0 0 0.9046812254745582 -0.42928702428878829 0 -0.42928702428878829 0.17387030118774893 0 0 0 0 2.2235795711098945 14.27846586515679 0 14.27846586515679 116.79136718930545 0 0 0 0 17.58023051138116 7.2053419749618115 0 7.2053419749618115 54.471220183570267 0 0 0 0 -26.752621600428029 -54.509138633659518 0 -54.509138633659518 47.345030341918687 0 0 0 0 -59.274051520049397 63.301661914797705 0 63.301661914797705 129.61044373234796 0 0 0 0 -79.929149126969378 -64.721855729265144 0 -64.721855729265144 78.205651749449316 0 0 0 0 -3.4573995652404514 -5.2091249019541461 0 -5.2091249019541461 59.693791023115551 0 0 0 0 -8.6869672171361643 3.1141570698139889 0 3.1141570698139889 5.6248545425562462 0 0 0 0 -95.579845665328776 24.428304144972415 0 24.428304144972415 93.858122507343069 0 0 0 0 -15.632538233141531 17.343640087682843 0 17.343640087682843 14.686458374561596 0 0 0 0 11.872308654703374 -91.410629140604215 0 -91.410629140604215 45.947833253900171 0 0 0 0 14.444861576004769 3.3476972726512031 0 3.3476972726512031 19.088618538951778 0 0 0 0 -4.4241827040947133 -3.3954728540731729 0 -3.3954728540731729 4.2490278775060375 0 0 0 0 15.539871318064797 -14.271624608353704 0 -14.271624608353704 36.412161882070905 0 0 0 0 -37.320368323107687 -87.229498866710856 0 -87.229498866710856 70.379317036574321 0 0 0 0 -79.381122416462404 36.446163927262205 0 36.446163927262205 77.882149831755669 0 0 0 0 -27.061715463150904 -35.313883271091072 0 -35.313883271091072 51.679440667532617 0 0 0 0 -0.075855024634192247 -3.2172968316632167 0 -3.2172968316632167 62.452265315981151 0 0 0 0 -176.74100457011991 -43.513326681373655 0 -43.513326681373655 129.19811432358438 0 0 0 0 -140.26191317612802 -43.722593314580166 0 -43.722593314580166 107.13805729744718 0 0 0 0 21.812623151235357 62.172453720634081 0 62.172453720634081 91.758895549766748 0 0 0 0 38.318416932465425 13.067931559066778 0 13.067931559066778 52.821825966974984 0 0 0 0 -98.685595191644552 7.6186013930076228 0 7.6186013930076228 93.455549574139695 0 0 0 0 35.087074240716902 70.816604832464463 0 70.816604832464463 91.036046176345735 0 0 0 0 -8.9292241062612447 47.34931037748612 0 47.34931037748612 95.005365578052078 0 0 0 0 0.030015624299267074 41.605032953125715 0 41.605032953125715 75.756158688803225 0 0 0 0 0.42338027453479299 14.197059629274463 0 14.197059629274463 137.20326585180464 0 0 0 0 -0.649228423455952 47.877236174628635 0 47.877236174628635 162.77293266595643 0 0 0 0 -34.314572312217933 -11.157793370390095 0 -11.157793370390095 132.61437658373268 0 0 0 0 -24.528312299624304 5.8774315386253875 0 5.8774315386253875 162.05656403017576 0 0 0 0 19.402241665360634 -61.915158665153967 0 -61.915158665153967 82.88847084507006 0 0 0 0 -36.236469665644108 3.0295348634645052 0 3.0295348634645052 51.983988099923067 0 0 0 0 -77.137246067225078 -49.429241943437717 0 -49.429241943437717 69.096535696630653 0 0 0 0 -29.109116252471495 -24.446528850921567 0 -24.446528850921567 52.179859606781292 0 0 0 0 32.945123199066984 -26.549701270089827 0 -26.549701270089827 40.996190515379112 0 0 0 0 -10.564720070167823 -48.009982404349728 0 -48.009982404349728 79.097738082468368 0 0 0 0 -11.769316133709481 -16.351586405568909 0 -16.351586405568909 38.934066619480745 0 0 0 0 -16.414638983535269 -35.103269928492324 0 -35.103269928492324 40.582681844257536 0 0 0 0 -4.4561417621498549 -22.3142217337072 0 -22.3142217337072 37.326444823619624 0 0 0 0 -73.205750779117807 3.1046614574879641 0 3.1046614574879641 58.899025644538597 0 0 0 0 -42.017740881270583 39.16772212338401 0 39.16772212338401 64.823652081689943 0 0 0 0 -47.063728944979175 45.598967078381975 0 45.598967078381975 56.837736572604626 0 0 0 0 -58.37739684673943 35.942045289646558 0 35.942045289646558 75.794851910213765 0 0 0 0 32.953371513625825 41.232934831730745 0 41.232934831730745 71.573860587654053 0 0 0 0 -4.7180815165474996 3.8723845393342344 0 3.8723845393342344 82.940360877540115 0 0 0 0 -58.196952824112714 50.280426306021354 0 50.280426306021354 118.54243420417333 0 0 0 0 -0.27965480811836763 -3.9472019572241805 0 -3.9472019572241805 61.482583121188014 0 0 0 0 -159.14397598613732 0.32546727500175621 0 0.32546727500175621 108.31401495370301 0 0 0 0 -21.285025998673859 12.144549923656982 0 12.144549923656982 109.83388172108926 0 0 0 0 41.15470670929426 18.237986230716615 0 18.237986230716615 73.514565558137292 0 0 0 0 -11.656954476907231 -40.460657695314922 0 -40.460657695314922 68.56345320256662 0 0 0 0 11.787934073843644 3.1914673981373198 0 3.1914673981373198 115.25858082516061 0 0 0 0 11.787934073840006 3.1914673981518717 0 3.1914673981518717 115.25858082516788 0 0 0 0 -5.8624919213034445 4.7924510786942847 0 4.7924510786942847 115.1354722921169 0 0 0 0 11.787934073844553 3.1914673981409578 0 3.1914673981409578 115.25858082520426 0 0 0 0 6.7759787306313228 17.543845974851138 0 17.543845974851138 113.78863590082619 0 0 0 0 -0.49433019827847602 -38.181498354741962 0 -38.181498354741962 12.352834395522564 0 0 0 0 13.328278573848365 14.160683309586602 0 14.160683309586602 112.75002940525155 0 0 0 0 -9.6648378785963587 -30.663836767029125 0 -30.663836767029125 20.817398025489254 0 0 0 0 -48.223225002775507 0.014121076316200742 0 0.014121076316200742 161.37555687557597 0 0 0 0 1.2747972744673461 76.845726819348101 0 76.845726819348101 188.25497042326856 0 0 0 0 24.058876197992504 23.106767826526493 0 23.106767826526493 129.10696198714254 0 0 0 0 90.247171438641089 89.164944831478351 0 89.164944831478351 411.27815670380824 0 0 0 0 0.90641916624024788 -0.93490192803327687 0 -0.93490192803327687 1.1173280518381521 0 0 0 0 16.754247326297332 134.42293623564348 0 134.42293623564348 384.43252706737894 0 0 0 0 63.406973969299543 -49.362394547497388 0 -49.362394547497388 -36.268344686048295 0 0 0 0 1.4729973123030504 -41.836419702653075 0 -41.836419702653075 -37.173442780886489 0 0 0 0 -7.7471845468202787 -29.563505587050262 0 -29.563505587050262 25.035727410949754 0 0 0 0 32.256914439618413 38.01497912439936 0 38.01497912439936 -120.35780924064511 0 0 0 0 -6.5117428484663833 -27.466654170453694 0 -27.466654170453694 9.4925926900600643 0 0 0 0 5.8938594233549075 -7.2848408511651979 0 -7.2848408511651979 -8.4657707992336579 0 0 0 0 1.7891455977132864 -79.035251653546084 0 -79.035251653546084 191.09726817079445 0 0 0 0 6.4776443852460943 -106.51455253464292 0 -106.51455253464292 221.49144476985634 0 0 0 0 65.029487215445442 -9.1289869366289622 0 -9.1289869366289622 449.26559885471443 0 0 0 0 83.285772269685367 -64.541496109575974 0 -64.541496109575974 81.044150062683912 0 0 0 0 51.462042724038838 67.401894878033886 0 67.401894878033886 190.65539126874364 0 0 0 0 0.76176739619434031 -2.7013929689473901 0 -2.7013929689473901 0.84881553879220917 0 0 0 0 91.78127714011498 89.129433722782892 0 89.129433722782892 28.827328188167485 0 0 0 0 39.064520904332312 13.961578818232056 0 13.961578818232056 27.498098763875078 0 0 0 0 88.249602617459459 84.422447811461552 0 84.422447811461552 53.212727521147826 0 0 0 0 77.969045217920211 85.91693677488604 0 85.91693677488604 178.37757844422958 0 0 0 0 31.871240288696299 68.672669837191222 0 68.672669837191222 172.61526723118004 0 0 0 0 126.51253713869664 34.047521929798222 0 34.047521929798222 162.27307372569726 0 0 0 0 103.34649680592338 89.940442363259308 0 89.940442363259308 178.920672760804 0 0 0 0 48.243922572431984 -15.493656552362495 0 -15.493656552362495 4.193020047823893 0 0 0 0 4.5644448367711448 44.15842787799366 0 44.15842787799366 306.63254789098119 0 0 0 0 18.253338904651173 -66.800709459540485 0 -66.800709459540485 225.97278394115813 0 0 0 0 73.230705993220909 -61.512625211601801 0 -61.512625211601801 63.947309873556151 0 0 0 0 11.976854401445962 -2.9286783243572927 0 -2.9286783243572927 43.279420154725415 0 0 0 0 27.570686491750166 6.9138210192934366 0 6.9138210192934366 33.158397829331761 0 0 0 0 -32.888961540983473 21.631737654860274 0 21.631737654860274 32.690526390297009 0 0 0 0 -107.38177380038724 -4.8851478372944257 0 -4.8851478372944257 41.521380963367299 0 0 0 0 -0.29575519180525589 -9.8139934801877189 0 -9.8139934801877189 41.431952459422064 0 0 0 0 27.880378541844038 28.599699660959345 0 28.599699660959345 15.545251948111201 0 0 0 0 -2.5344671970633499 39.401961733759208 0 39.401961733759208 14.505863485792844 0 0 0 0 7.7433169414307486 22.768198319748876 0 22.768198319748876 23.766180122853655 0 0 0 0 -6.6863566774441097 2.0308830293954543 0 2.0308830293954543 3.4568067881091338 0 0 0 0 2.8787168073922338 -2.9606073405054332 0 -2.9606073405054332 2.7841237885265331 0 0 0 0 36.969861691147798 16.686528229876217 0 16.686528229876217 6.2397174460694487 0 0 0 0 9.0053092413099876 9.4982360526103093 0 9.4982360526103093 20.183352327117291 0 0 0 0 77.997915184725571 -18.729815964893987 0 -18.729815964893987 30.92202133559374 0 0 0 0 -1.9855223883787403 -4.7961725215341175 0 -4.7961725215341175 43.39369851582444 0 0 0 0 13.391708240549633 -24.811023970436793 0 -24.811023970436793 15.841703222675278 0 0 0 0 5.7115753598208236 -4.9678220688546597 0 -4.9678220688546597 2.8031489504475813 0 0 0 0 9.0737947561538022 44.150298399620169 0 44.150298399620169 142.90967352052894 0 0 0 0 24.627667055492566 20.326372289723054 0 20.326372289723054 29.384579323852904 0 0 0 0 -30.699995362980189 15.224330554379549 0 15.224330554379549 123.7822443715333 0 0 0 0 18.029261098219649 -29.434849809646209 0 -29.434849809646209 71.611005584923305 0 0 0 0 24.797807233885578 -6.3269466877464993 0 -6.3269466877464993 56.73547652406387 0 0 0 0 98.900722693931357 -81.472604758415159 0 -81.472604758415159 132.86724773673609 0 0 0 0 43.85713027255224 77.274490366397913 0 77.274490366397913 195.76883384029176 0 0 0 0 1.2244580299026868 -1.4149373353218415 0 -1.4149373353218415 0.25196735845423124 0 0 0 0 83.342476157326018 -74.216956768440923 0 -74.216956768440923 26.765292857594943 0 0 0 0 6.9521089935497002 -92.999671736784933 0 -92.999671736784933 145.09380666412969 0 0 0 0 -36.0632534531087 -37.956215165242241 0 -37.956215165242241 76.331440466903643 0 0 0 0 12.3044302958142 41.067557217208162 0 41.067557217208162 139.88918008145504 0 0 0 0 130.48646305040393 17.903090634337985 0 17.903090634337985 24.761027859193518 0 0 0 0 37.760846738867258 38.31430831188095 0 38.31430831188095 24.268073496382158 0 0 0 0 -133.44142662220202 5.3062043622120711 0 5.3062043622120711 88.00201948989843 0 0 0 0 -17.788115292867587 68.105185850245391 0 68.105185850245391 -3.92229727531344 0 0 0 0 -28.586962909294016 -36.776193686629995 0 -36.776193686629995 -5.6865439096554748 0 0 0 0 -29.907265540710341 -31.922832216212214 0 -31.922832216212214 75.532361099031391 0 0 0 0 -35.247249718295279 -17.055887832082821 0 -17.055887832082821 90.622278582685638 0 0 0 0 8.22720434632447 -13.700640672737732 0 -13.700640672737732 90.822216231529538 0 0 0 0 -7.9998637109893025 -16.236077372202971 0 -16.236077372202971 109.52083371005212 0 0 0 0 -7.4057117327196096 -0.7665133603064691 0 -0.7665133603064691 -0.75524771366871013 0 0 0 0 2.6459908338620153 -1.7213013576304945 0 -1.7213013576304945 61.631197738352981 0 0 0 0 24.956633184611292 -32.449279369007137 0 -32.449279369007137 61.709558871264719 0 0 0 0 5.4597031435641838 -45.274464022364754 0 -45.274464022364754 76.898851490664129 0 0 0 0 4.1912707444826083 1.5519198060073762 0 1.5519198060073762 6.4053982227828499 0 0 0 0 -30.131959904980249 -10.014965566753972 0 -10.014965566753972 62.393738181024148 0 0 0 0 -0.91470138503649068 4.9769318929325372 0 4.9769318929325372 8.2660107221972936 0 0 0 0 -12.730779411338318 -2.4515844005894527 0 -2.4515844005894527 16.867661282710639 0 0 0 0 52.396030892514318 -17.475621148326056 0 -17.475621148326056 -2.3966881310035388 0 0 0 0 -12.619574687178101 -13.708407326830494 0 -13.708407326830494 80.62375787532585 0 0 0 0 -26.095367321049707 7.8564589665918589 0 7.8564589665918589 94.887655190062418 0 0 0 0 -3.178881510910287 -4.4187578548943662 0 -4.4187578548943662 96.410980046276151 0 0 0 0 -8.2444401491604573 -12.231298181369517 0 -12.231298181369517 62.711060806369829 0 0 0 0 -13.697951358077262 23.042441616503908 0 23.042441616503908 34.058786192726501 0 0 0 0 -4.6536501047757994 -3.1739942513057073 0 -3.1739942513057073 8.5542861012773699 0 0 0 0 -11.444321127935837 -3.4415286012990691 0 -3.4415286012990691 107.38411386198118 0 0 0 0 -20.83573618065202 19.410687528961716 0 19.410687528961716 55.429585924954836 0 0 0 0 11.544128591013759 -14.652896531190891 0 -14.652896531190891 76.238911778003967 0 0 0 0 -3.8209901979466991 0.088563469356270019 0 0.088563469356270019 13.971450737359607 0 0 0 0 -4.2790032210818509 12.946128241539867 0 12.946128241539867 49.378995858039296 0 0 0 0 -7.3694897452678561 4.7982318008635048 0 4.7982318008635048 84.661939419855116 0 0 0 0 -3.7225371413337598 50.455850690129836 0 50.455850690129836 34.220790888240117 0 0 0 0 0.6957354114025911 20.424728264571275 0 20.424728264571275 23.193931725360912 0 0 0 0 83.83679081844366 25.66572983361084 0 25.66572983361084 -77.444538179235906 0 0 0 0 -15.64665931684948 14.375639671083547 0 14.375639671083547 67.057892752669432 0 0 0 0 8.8345963645451775 45.690827500748128 0 45.690827500748128 20.117980042695308 0 0 0 0 -2.777022313504073 22.086834021823403 0 22.086834021823403 12.755787365169063 0 0 0 0 -19.094272833818991 39.252528693610088 0 39.252528693610088 38.358851827135368 0 0 0 0 -28.298679590558095 52.200316335969546 0 52.200316335969546 44.012227930150402 0 0 0 0 -23.196468677718258 44.098545520605512 0 44.098545520605512 56.333573029791296 0 0 0 0 -52.730972566011133 33.266503583335179 0 33.266503583335179 64.907754670586655 0 0 0 0 -1.3889958546982508 -0.78716219923451902 0 -0.78716219923451902 59.722534511916912 0 0 0 0 -40.204384892706912 28.527834438078116 0 28.527834438078116 62.042389164182168 0 0 0 0 -28.571461135046775 -17.941879872377967 0 -17.941879872377967 53.255722374625066 0 0 0 0 -3.5189787396781433 -1.4859090589688311 0 -1.4859090589688311 9.7167044919426644 0 0 0 0 -0.87396838512444575 -0.33650959981977624 0 -0.33650959981977624 -0.47587906427111859 0 0 0 0 -67.323141174927514 63.714250346277538 0 63.714250346277538 -30.587983328166843 0 0 0 0 -10.730779617694679 -40.55544155541611 0 -40.55544155541611 30.672420555461144 0 0 0 0 -76.636688038902321 -7.7266312234195027 0 -7.7266312234195027 81.004053523393623 0 0 0 0 -17.958058205483212 0.017799867926953539 0 0.017799867926953539 39.070907421790878 0 0 0 0 -19.075662600821431 8.4019645368075793 0 8.4019645368075793 27.452994622049459 0 0 0 0 5.7276868669459873 -17.906784546441422 0 -17.906784546441422 51.692384591646885 0 0 0 0 1.0640726331292112 0.067764070000034593 0 0.067764070000034593 10.355745336500558 0 0 0 0 -41.06145763607492 -16.835109098468514 0 -16.835109098468514 95.250821461294507 0 0 0 0 -33.824681029864223 -20.171244908596446 0 -20.171244908596446 81.465774956132051 0 0 0 0 -2.4258885015811913 -0.33852355381837174 0 -0.33852355381837174 0.094986065596542046 0 0 0 0 -45.19154621315829 -2.0282702161087514 0 -2.0282702161087514 131.83604952938964 0 0 0 0 -81.85120395154263 -39.949885908662054 0 -39.949885908662054 94.687309620822148 0 0 0 0 -142.08476854124638 101.23081317462166 0 101.23081317462166 911.51095088906516 0 0 0 0 254.95417408407229 -60.627776795246092 0 -60.627776795246092 -142.52734575552296 0 0 0 0 0.18216819601661127 -1.4207489667457498 0 -1.4207489667457498 4.6099948586753019 0 0 0 0 -126.72951942326654 83.747131865090523 0 83.747131865090523 954.63243613467421 0 0 0 0 147.1694310405228 180.70122267006423 0 180.70122267006423 229.07577357716491 0 0 0 0 257.02198265242259 533.31784541117156 0 533.31784541117156 429.33578861860633 0 0 0 0 501.37780423176264 357.99753950350021 0 357.99753950350021 -103.50137472403094 0 0 0 0 -61.346795807272088 -117.93339491960819 0 -117.93339491960819 -157.19285059584263 0 0 0 0 330.87839630037161 -31.657834750141774 0 -31.657834750141774 -317.59634178456736 0 0 0 0 -92.150347480431265 65.244183828728183 0 65.244183828728183 9.4237495779007077 0 0 0 0 131.0850800373064 78.743870156022467 0 78.743870156022467 -111.4759880092459 0 0 0 0 5.3279591727477964 102.97907583398944 0 102.97907583398944 -108.21506977727404 0 0 0 0 -133.86181619867602 119.57816715411136 0 119.57816715411136 274.68308167411124 0 0 0 0 -75.167475563566768 -24.147266822390065 0 -24.147266822390065 326.61400232993628 0 0 0 0 -121.61883377410049 33.431083620621621 0 33.431083620621621 301.14993757535558 0 0 0 0 -74.045627183521901 29.412430722096133 0 29.412430722096133 188.83685003428764 0 0 0 0 -69.763907297155129 29.808875705565697 0 29.808875705565697 170.2323840877998 0 0 0 0 -65.660290513897053 33.780929457812363 0 33.780929457812363 45.411356672390639 0 0 0 0 -64.903443739016438 24.360026734220355 0 24.360026734220355 58.126376054492084 0 0 0 0 -44.089059727191398 1.4062855846609637 0 1.4062855846609637 49.411934959400241 0 0 0 0 -25.639446140278778 32.262784446113926 0 32.262784446113926 40.953055092312297 0 0 0 0 -6.4269662556298499 15.511800423419118 0 15.511800423419118 6.8450928217353066 0 0 0 0 -2.8784029765965471 14.375788032506657 0 14.375788032506657 6.6098271557266202 0 0 0 0 -5.7957461192327173 55.173200993392356 0 55.173200993392356 6.2812468227066347 0 0 0 0 -2.6849900754470077 2.7509574098331862 0 2.7509574098331862 10.535477384536296 0 0 0 0 -1.6191743521758326 63.350677484356311 0 63.350677484356311 -144.23979549387923 0 0 0 0 -117.09747661007941 203.87801934039263 0 203.87801934039263 52.895479733549564 0 0 0 0 -150.72681305221067 126.43161183947586 0 126.43161183947586 625.99064601730061 0 0 0 0 2.5764819386094278 -1.6273182664815042 0 -1.6273182664815042 1.9974000607199009 0 0 0 0 -167.2282131066404 330.20598351786066 0 330.20598351786066 399.85285584988469 0 0 0 0 2.9832383985811539 3.4233779004040787 0 3.4233779004040787 12.312312526638571 0 0 0 0 -284.01965389020279 -171.87348838965863 0 -171.87348838965863 -34.089022719708737 0 0 0 0 6.6211216319465969 -7.8734413749146777 0 -7.8734413749146777 9.9674584166737379 0 0 0 0 -58.284036532913888 -20.46322481328707 0 -20.46322481328707 26.319068983796001 0 0 0 0 6.9229271711737965 -1.5889178554070895 0 -1.5889178554070895 28.637995851218989 0 0 0 0 -3.7014664239669042 5.5811739024453022 0 5.5811739024453022 15.478821864617887 0 0 0 0 -0.78456959081449895 4.2351904740053214 0 4.2351904740053214 8.4915363562795392 0 0 0 0 -2.0017723258515616 12.198243641145382 0 12.198243641145382 16.253295988701211 0 0 0 0 0.42442759192124058 9.2911099297224489 0 9.2911099297224489 9.5963707508516265 0 0 0 0 -7.5576818161543713 9.8140200980020182 0 9.8140200980020182 14.963064857280315 0 0 0 0 -5.9882980167111626 5.9337101067391824 0 5.9337101067391824 0.80912099819692429 0 0 0 0 -5.6179974980186671 14.927281373874848 0 14.927281373874848 21.797575394688465 0 0 0 0 0.65310211245218852 19.653199887325854 0 19.653199887325854 21.324269886317779 0 0 0 0 -0.84769535526174877 13.094935330656881 0 13.094935330656881 14.841764043509102 0 0 0 0 -0.020473712316185555 6.3455922434608496 0 6.3455922434608496 9.4447030812027499 0 0 0 0 3.3796181922862161 6.6250813926480987 0 6.6250813926480987 3.1732525173301838 0 0 0 0 -5.0843465447198923 15.364038411052434 0 15.364038411052434 9.5935692865132296 0 0 0 0 -1.3943653226915558 11.347314047137843 0 11.347314047137843 11.86994472022343 0 0 0 0 -7.2748038507259025 7.20379656891987 0 7.20379656891987 10.688766609342565 0 0 0 0 -1.8967236771566149 13.049797462899278 0 13.049797462899278 8.3549497043568408 0 0 0 0 2.7890616661510421 11.721877763855503 0 11.721877763855503 7.2387219986794662 0 0 0 0 -4.2040797117651927 3.8072524518806006 0 3.8072524518806006 -0.95975117827534007 0 0 0 0 -17.791462259690888 39.429218096087425 0 39.429218096087425 -0.60215203828920494 0 0 0 0 -28.82034819735054 32.636212779021662 0 32.636212779021662 -1.3249960664973059 0 0 0 0 -93.229184166551931 -4.7169174191640195 0 -4.7169174191640195 8.2998417985199922 0 0 0 0 -7.1984848204238006 2.1360310423169722 0 2.1360310423169722 8.8426259767438751 0 0 0 0 -39.19223633294223 16.60625723760495 0 16.60625723760495 11.808684995739895 0 0 0 0 -4.3461859416818243 24.37649134927824 0 24.37649134927824 7.4964899258065998 0 0 0 0 -6.1558497630394413 13.667632327762476 0 13.667632327762476 17.301619250516069 0 0 0 0 -5.5673922687018269 12.402174845053885 0 12.402174845053885 0.26740631514780588 0 0 0 0 12.369356271485003 -7.4509472291044858 0 -7.4509472291044858 -24.890391333145089 0 0 0 0 -0.22416300704072434 1.8530650766573977 0 1.8530650766573977 0.38381665379620244 0 0 0 0 155.61430485049459 69.744722389788876 0 69.744722389788876 -18.176120485848514 0 0 0 0 30.465049085971259 40.196313643495159 0 40.196313643495159 11.886761096139708 0 0 0 0 2.0524837617740559 87.472011721707531 0 87.472011721707531 63.73652294457861 0 0 0 0 -131.51219779791427 85.865673670461547 0 85.865673670461547 63.889156233633685 0 0 0 0 303.59609286096747 86.148863899779826 0 86.148863899779826 -114.50357382136099 0 0 0 0 -21.12624533741382 78.781187028682325 0 78.781187028682325 302.8337502890281 0 0 0 0 -73.199448720132295 220.66935584130215 0 220.66935584130215 -29.884111228617257 0 0 0 0 -0.61578166337876183 0.54803259228676993 0 0.54803259228676993 0.082920490456346307 0 0 0 0 45.918067411831544 120.19719451602214 0 120.19719451602214 180.6182931274634 0 0 0 0 -6.4755512062420166 36.200402320493595 0 36.200402320493595 137.19943480255279 0 0 0 0 15.164719548882204 39.872677929771271 0 39.872677929771271 127.62881768393345 0 0 0 0 24.753760283761949 30.477558034170215 0 30.477558034170215 135.10637587849305 0 0 0 0 -6.1283355868490617 94.175489703806306 0 94.175489703806306 118.6542824744065 0 0 0 0 -17.125700096078617 45.521801584982313 0 45.521801584982313 145.82768786515044 0 0 0 0 28.484800282064953 70.710105393884191 0 70.710105393884191 157.33872516368137 0 0 0 0 18.829824918907775 54.162751649474103 0 54.162751649474103 133.51233895645419 0 0 0 0 -59.061869292800111 -39.4836353645278 0 -39.4836353645278 -39.093289346859819 0 0 0 0 13.77057663830783 17.598102273648692 0 17.598102273648692 209.32239335090162 0 0 0 0 -2.7367268460457126 45.956204397450165 0 45.956204397450165 4.2013035651380051 0 0 0 0 -2.0491270053457598 1.4608420320361155 0 1.4608420320361155 -0.036773241141280444 0 0 0 0 -2.9364313405076246 58.953904313273597 0 58.953904313273597 142.9050590128395 0 0 0 0 71.883560854431835 -71.302803700690674 0 -71.302803700690674 13.060223985412449 0 0 0 0 -1.837295059515057 0.8199903761586107 0 0.8199903761586107 -0.5678958929967628 0 0 0 0 -3.1583703187597507 33.654297939184289 0 33.654297939184289 29.358046568770078 0 0 0 0 1.0527357795435819 89.826665866679832 0 89.826665866679832 67.725252517137051 0 0 0 0 -2.3664523177565115 45.979078107340968 0 45.979078107340968 124.5293362572047 0 0 0 0 5.1260582725390123 93.793133185927218 0 93.793133185927218 63.918704448689823 0 0 0 0 1.2000555727699975 73.395792317747691 0 73.395792317747691 144.18571629987491 0 0 0 0 1.182616111183961 84.93796186583495 0 84.93796186583495 88.290604752897707 0 0 0 0 5.2005978057895845 104.72941364882354 0 104.72941364882354 107.88208473350096 0 0 0 0 -16.576525249598035 111.68772488480272 0 111.68772488480272 107.10769138144678 0 0 0 0 -10.813747770245755 93.514059750014439 0 93.514059750014439 118.83783426176888 0 0 0 0 -13.137048456398588 106.93020283295482 0 106.93020283295482 94.905912313502995 0 0 0 0 38.316441980049603 105.89851717366582 0 105.89851717366582 94.480587829828437 0 0 0 0 -10.098713229557688 124.0172542064538 0 124.0172542064538 127.44908742472944 0 0 0 0 44.477631040217602 111.69932015403265 0 111.69932015403265 129.29404871189763 0 0 0 0 -45.111739771549765 137.84276553525797 0 137.84276553525797 190.02874791695243 0 0 0 0 -51.649408606786722 67.215045666188416 0 67.215045666188416 113.88651585775551 0 0 0 0 -271.67144912367348 87.001679473827608 0 87.001679473827608 219.50956392414264 0 0 0 0 -0.27296425241815747 -0.10012803032026341 0 -0.10012803032026341 -0.11853931102306348 0 0 0 0 124.46673157539362 -159.33957240646032 0 -159.33957240646032 120.74279841188581 0 0 0 0 -35.346360836009808 -21.19984274732451 0 -21.19984274732451 186.84505402755394 0 0 0 0 -80.718880364842335 32.54672763835697 0 32.54672763835697 127.68065947627838 0 0 0 0 -18.655070039665588 97.398069877794114 0 97.398069877794114 117.36673965842192 0 0 0 0 -43.561103609919883 56.989916570925743 0 56.989916570925743 97.348803610861069 0 0 0 0 -96.810532534784215 16.535749813940129 0 16.535749813940129 211.20318781638048 0 0 0 0 -30.059174619456371 -13.100937057085503 0 -13.100937057085503 107.53850821326341 0 0 0 0 -28.347336669117794 0.44118464414168557 0 0.44118464414168557 206.63547120034673 0 0 0 0 -46.559069061383525 -5.411150317123429 0 -5.411150317123429 285.64901414334599 0 0 0 0 -54.591794625049715 -17.619674603573458 0 -17.619674603573458 285.30058806069064 0 0 0 0 -29.273407899422295 50.854291972791543 0 50.854291972791543 223.97549941607394 0 0 0 0 -31.163558769695555 111.89805217123103 0 111.89805217123103 170.89110750735108 0 0 0 0 22.276057429627713 47.159953997547063 0 47.159953997547063 207.43279367326068 0 0 0 0 -79.224844877215219 23.388474104622219 0 23.388474104622219 210.05757310848094 0 0 0 0 -51.728127720802149 64.632002176245805 0 64.632002176245805 87.06553782735773 0 0 0 0 7.6825718735303781 97.096612589311462 0 97.096612589311462 98.933165385164102 0 0 0 0 -83.85720382645286 182.45566378129843 0 182.45566378129843 -55.623755133328814 0 0 0 0 2.9436809361680503 50.789060367786533 0 50.789060367786533 -230.71017445337202 0 0 0 0 1.7552010455592608 123.69977331792961 0 123.69977331792961 33.799595446766034 0 0 0 0 -2.8611597540311777 69.775204644909536 0 69.775204644909536 15.961837360979189 0 0 0 0 -2.2713917164055601 75.232349807312858 0 75.232349807312858 10.686437664189725 0 0 0 0 -3.1161788411803677 1.3933811125044357 0 1.3933811125044357 -0.11225552196082056 0 0 0 0 -313.20649043494632 120.3641596385205 0 120.3641596385205 70.69381499121755 0 0 0 0 18.912091868853167 56.001071399891771 0 56.001071399891771 -24.658771201538912 0 0 0 0 166.24863207011981 194.11648771477735 0 194.11648771477735 -85.060043286524888 0 0 0 0 -1.7172735083404724 0.24052717882500119 0 0.24052717882500119 -0.014340378229993789 0 0 0 0 -77.743347184414233 9.5807535224030289 0 9.5807535224030289 227.91097595422616 0 0 0 0 201.41344886355148 -62.477193602206853 0 -62.477193602206853 41.29566804613205 0 0 0 0 -179.01568742021436 141.94096261645973 0 141.94096261645973 79.471937353042449 0 0 0 0 -175.72145764528887 135.33375676774995 0 135.33375676774995 1.2424923357016269 0 0 0 0 -207.58798064711846 74.403462417837545 0 74.403462417837545 122.74306951670587 0 0 0 0 -55.105963840350796 14.070226975704372 0 14.070226975704372 -49.896135166185559 0 0 0 0 -32.1441334096221 76.288064177612796 0 76.288064177612796 90.823186966117873 0 0 0 0 14.524865055080681 80.439904975659374 0 80.439904975659374 -146.13236128993049 0 0 0 0 7.8428035002052638 76.53548596528708 0 76.53548596528708 -133.14736967751378 0 0 0 0 12.3546112992899 4.5756563204777194 0 4.5756563204777194 -140.75358622551789 0 0 0 0 -2.1186147634387567 0.64877206056483061 0 0.64877206056483061 0.091767701060021523 0 0 0 0 -106.63297768859502 13.99056822417333 0 13.99056822417333 19.972244098676128 0 0 0 0 -66.370506777767332 206.61648940779105 0 206.61648940779105 -7.0278159040153696 0 0 0 0 29.224243393950019 140.41544318289016 0 140.41544318289016 34.54890918664023 0 0 0 0 -147.7149788576271 132.50494551448173 0 132.50494551448173 19.446396552089936 0 0 0 0 46.772605341722738 78.874857455750316 0 78.874857455750316 -18.714802593112836 0 0 0 0 -7.8573591649983427 47.061724708408292 0 47.061724708408292 -25.156767911596489 0 0 0 0 18.90048404258232 53.479845906233095 0 53.479845906233095 3.0401225168398014 0 0 0 0 6.731886349942215 81.820564052860391 0 81.820564052860391 -55.174781209716457 0 0 0 0 13.071170513361722 -3.2826821670550999 0 -3.2826821670550999 -63.335975782996456 0 0 0 0 19.324879917278849 22.20933551334474 0 22.20933551334474 -2.5564607786582201 0 0 0 0 -4.7615315066410027 2.3443252820703862 0 2.3443252820703862 -1.3053557723423452 0 0 0 0 -1.3138964103618491 9.8302282476415712 0 9.8302282476415712 14.540420359429845 0 0 0 0 5.3660856107744621 29.516080725621578 0 29.516080725621578 0.27105506420411984 0 0 0 0 -6.9846137777785771 25.803065386377057 0 25.803065386377057 -1.1853813767647807 0 0 0 0 -4.7199881573865241 6.4360975269669325 0 6.4360975269669325 25.478290182563796 0 0 0 0 8.4726691906903397 -12.191515538262593 0 -12.191515538262593 29.848347141563863 0 0 0 0 -1.5451956729502854 3.356699184880199 0 3.356699184880199 17.770251605226804 0 0 0 0 4.6292911145573648 2.0878761011273568 0 2.0878761011273568 1.6954087895363124 0 0 0 0 -19.605300540281405 10.03382458913029 0 10.03382458913029 33.80536844371818 0 0 0 0 125.06772885576993 39.094531604636359 0 39.094531604636359 -55.298400725046122 0 0 0 0 786.23352119802803 200.5873003886536 0 200.5873003886536 282.05476727491805 0 0 0 0 10.853650518683956 6.1905171092606324 0 6.1905171092606324 2.3104398190567892 0 0 0 0 -11.60730280505777 38.200274363991412 0 38.200274363991412 -4.1383894327968846 0 0 0 0 -30.859444743306085 28.348853053905259 0 28.348853053905259 18.275174498084198 0 0 0 0 -368.80621065191735 -335.94773585919484 0 -335.94773585919484 618.16381919496234 0 0 0 0 84.722988761622446 198.41447237034572 0 198.41447237034572 78.595579915836424 0 0 0 0 33.261327585338677 73.368600235361555 0 73.368600235361555 47.039217795788318 0 0 0 0 50.549606706166742 69.787806002746038 0 69.787806002746038 38.550332209743829 0 0 0 0 214.90740519239989 239.12638877764402 0 239.12638877764402 154.90005910444961 0 0 0 0 15.096502607840193 134.35663132704849 0 134.35663132704849 269.45584237456842 0 0 0 0 24.406088955423591 77.019691541371472 0 77.019691541371472 184.58064594117423 0 0 0 0 23.47354215168248 38.231461049585207 0 38.231461049585207 618.09890115405142 0 0 0 0 418.37144348128095 -57.294613647011829 0 -57.294613647011829 139.68892208734269 0 0 0 0 69.757659446660455 29.315087853682599 0 29.315087853682599 118.43825679846668 0 0 0 0 155.13186897449305 -22.364784965589024 0 -22.364784965589024 26.971696963717477 0 0 0 0 50.716849947944866 -60.477372931777154 0 -60.477372931777154 194.3241967821541 0 0 0 0 72.404138302859792 4.9774778307464658 0 4.9774778307464658 25.341255530249327 0 0 0 0 80.06487924103385 22.15162714383996 0 22.15162714383996 -16.510276599104145 0 0 0 0 66.23563571375189 83.030987120516329 0 83.030987120516329 -90.510850127555386 0 0 0 0 109.45209236543906 13.184385018086687 0 13.184385018086687 -51.979208771947015 0 0 0 0 31.282177433603465 67.148343824540007 0 67.148343824540007 42.738714594122939 0 0 0 0 59.725677892040039 64.375068767537414 0 64.375068767537414 -53.458804042756384 0 0 0 0 58.470420443267358 60.697029829101211 0 60.697029829101211 -63.31638533730802 0 0 0 0 3.4749626713582895 6.894730878945424 0 6.894730878945424 13.490528058907508 0 0 0 0 -22.418423987295682 64.357800597989808 0 64.357800597989808 -57.741441025240874 0 0 0 0 27.562269569798445 43.444211402175824 0 43.444211402175824 -28.415050221372894 0 0 0 0 42.226377696486452 30.614805417481875 0 30.614805417481875 -26.490090073606552 0 0 0 0 54.151935439949739 18.64300946410367 0 18.64300946410367 -15.636666592425172 0 0 0 0 76.660962517731605 43.750413653579926 0 43.750413653579926 -29.199871005255773 0 0 0 0 12.255111414412045 9.0286101601953259 0 9.0286101601953259 2.9247597648864549 0 0 0 0 13.515806698691904 -4.1065360064276319 0 -4.1065360064276319 -26.331108327633501 0 0 0 0 -51.513741914134698 101.16266122214438 0 101.16266122214438 -39.897135209484986 0 0 0 0 7.5075227040332404 9.9112350274804353 0 9.9112350274804353 11.542422972379441 0 0 0 0 -20.940393595218666 110.56649317724714 0 110.56649317724714 -63.142951215613721 0 0 0 0 6.1319706925442006 -15.40564483590606 0 -15.40564483590606 1.3108373104805651 0 0 0 0 29.026708496642641 -22.235060100481405 0 -22.235060100481405 1.5569032785188028 0 0 0 0 124.23452294456001 -1.198140229972978 0 -1.198140229972978 -69.386568731835723 0 0 0 0 -75.893623070274771 -28.304977351162961 0 -28.304977351162961 56.434513840640648 0 0 0 0 91.17896599413416 -10.919332875385408 0 -10.919332875385408 -27.744992263168115 0 0 0 0 0.96908937709528598 4.4296346869255725 0 4.4296346869255725 12.749637779244146 0 0 0 0 -198.46763401796352 261.89201511844158 0 261.89201511844158 42.575271714829796 0 0 0 0 -311.45707929240598 -180.18440560311865 0 -180.18440560311865 997.6552860347665 0 0 0 0 -50.179554268506763 -131.58581520653661 0 -131.58581520653661 6.0850857334261264 0 0 0 0 71.821108548966095 240.59711999880255 0 240.59711999880255 785.64745655946354 0 0 0 0 1.0661270141725918 2.4551228594917305 0 2.4551228594917305 5.2147792070269325 0 0 0 0 267.72680947622484 264.79819205327999 0 264.79819205327999 228.45595072744618 0 0 0 0 -210.52825182396464 -225.23936070191075 0 -225.23936070191075 695.47381300099187 0 0 0 0 28.723757696689972 425.15735542646325 0 425.15735542646325 616.3816222186897 0 0 0 0 -98.978225313027906 225.73857494343929 0 225.73857494343929 559.72242318648932 0 0 0 0 6.6111722588880184 69.646576961747314 0 69.646576961747314 557.38873923294341 0 0 0 0 62.865474659971369 128.07220997397962 0 128.07220997397962 325.80057136287087 0 0 0 0 66.120071991294935 164.02626771470386 0 164.02626771470386 328.23017543786409 0 0 0 0 3.863367195837327 92.045229495954572 0 92.045229495954572 406.82756638422234 0 0 0 0 -2.2833461129785064 48.212948812072227 0 48.212948812072227 420.38741883905004 0 0 0 0 58.086367862866609 14.417748664173587 0 14.417748664173587 73.624387501621641 0 0 0 0 149.60821564137132 145.5801884267612 0 145.5801884267612 224.40854764320648 0 0 0 0 110.81755061144941 21.079997242351055 0 21.079997242351055 14.538617742575298 0 0 0 0 51.899887355809369 69.468650672090916 0 69.468650672090916 295.96684940634259 0 0 0 0 46.116278374574904 -248.40388051295986 0 -248.40388051295986 196.64969584900064 0 0 0 0 10.187364648370931 -295.88395318531116 0 -295.88395318531116 144.82936984096159 0 0 0 0 -71.397395481867306 -115.40245930044034 0 -115.40245930044034 77.895484386185672 0 0 0 0 -9.1493475522247536 419.99149252768683 0 419.99149252768683 885.47287976813641 0 0 0 0 8.484502901259475 -147.00020054458719 0 -147.00020054458719 -51.996399130775671 0 0 0 0 2.6761834227457371 -2.4115455914854604 0 -2.4115455914854604 2.7562076941484204 0 0 0 0 116.3704871334312 95.838681270666711 0 95.838681270666711 362.51251040907027 0 0 0 0 73.421680878061125 -125.46025844798532 0 -125.46025844798532 -106.68817557687817 0 0 0 0 -277.32703435469739 -108.98667648803894 0 -108.98667648803894 707.76855658073373 0 0 0 0 237.62184506962058 387.15775503881923 0 387.15775503881923 307.47970758842257 0 0 0 0 -50.446700026086546 43.463290900725724 0 43.463290900725724 2.5823604562267519 0 0 0 0 10.097869860987474 11.760530180259348 0 11.760530180259348 12.869015292669488 0 0 0 0 20.677299926216619 1.2807772978794247 0 1.2807772978794247 -2.6155253384032449 0 0 0 0 1.7118473511268348 28.936238026720076 0 28.936238026720076 22.290395378548737 0 0 0 0 36.058284317336984 133.97197508690874 0 133.97197508690874 -140.68904452181266 0 0 0 0 16.250311921422554 14.580317972486181 0 14.580317972486181 10.894472763571306 0 0 0 0 1.0138307728428799 38.235875673774899 0 38.235875673774899 -4.1623404578595 0 0 0 0 9.5392637246925158 9.6138898694119792 0 9.6138898694119792 7.0149440647194998 0 0 0 0 -6.9724862681798641 31.74316919702369 0 31.74316919702369 2.5959806108958219 0 0 0 0 1.1750779449433821 29.601844432045709 0 29.601844432045709 -21.343912911793268 0 0 0 0 24.313662128583928 -7.435581590142192 0 -7.435581590142192 36.673523569291547 0 0 0 0 57.646202220723239 -18.525685835576922 0 -18.525685835576922 -13.332778780340959 0 0 0 0 51.477157293533651 52.165665989454453 0 52.165665989454453 52.824993214837377 0 0 0 0 3.3001140201968155 -12.155242703669956 0 -12.155242703669956 -11.486246309954367 0 0 0 0 23.565909515780106 12.08698382743205 0 12.08698382743205 4.2240503146795163 0 0 0 0 13.241998375610473 11.267422262987159 0 11.267422262987159 6.4497298487438748 0 0 0 0 61.088713770593131 14.939701520291692 0 14.939701520291692 -99.049676043380714 0 0 0 0 12.900468916394857 12.867991037755473 0 12.867991037755473 3.1989043606472478 0 0 0 0 11.938627294189246 21.272194483544808 0 21.272194483544808 -29.201453261763163 0 0 0 0 14.322101812212646 11.670504025441394 0 11.670504025441394 6.7526642267291255 0 0 0 0 11.482140333202853 12.108239671380058 0 12.108239671380058 9.1484156529133909 0 0 0 0 15.084899110483406 15.471716114480557 0 15.471716114480557 10.080946109446813 0 0 0 0 13.902806870081804 9.6489146613434968 0 9.6489146613434968 6.3431416058297145 0 0 0 0 -2.1895353382549843 26.67282743388796 0 26.67282743388796 -0.57070148838556634 0 0 0 0 15.796591584071166 10.588264219903976 0 10.588264219903976 12.84546984417284 0 0 0 0 -15.198326435933438 35.230744798296882 0 35.230744798296882 35.427879012673657 0 0 0 0 -0.72848406012692957 -0.40686428424113608 0 -0.40686428424113608 0.72521023694874032 0 0 0 0 18.822963999805097 31.72873286711183 0 31.72873286711183 -82.18417548344587 0 0 0 0 16.920769222391982 37.513326436583156 0 37.513326436583156 31.246796773091774 0 0 0 0 51.191995248509329 62.170016451226161 0 62.170016451226161 -21.199229396115697 0 0 0 0 0.50801492028163775 1.3674531870872926 0 1.3674531870872926 2.4240603957691 0 0 0 0 21.115406362800513 31.905798235737166 0 31.905798235737166 27.627153905338218 0 0 0 0 -19.532073453688326 55.777036077503908 0 55.777036077503908 -20.417739683477947 0 0 0 0 -17.931919053182583 50.734141445655041 0 50.734141445655041 -4.0504381849423226 0 0 0 0 -17.693536040317895 63.532620209949982 0 63.532620209949982 -4.3722318173695385 0 0 0 0 -32.330838802680681 51.669665249592072 0 51.669665249592072 -3.8624672096480026 0 0 0 0 -6.4543911844908166 38.958444070791302 0 38.958444070791302 0.39311619297131983 0 0 0 0 -3.7390671666548378 26.760328556491004 0 26.760328556491004 2.6173211128098046 0 0 0 0 -15.409619854503518 54.638651894543841 0 54.638651894543841 -71.572229743645948 0 0 0 0 -24.815507575125224 59.744455425882961 0 59.744455425882961 -14.321025881172318 0 0 0 0 -23.724529534720944 30.921643074274471 0 30.921643074274471 -42.814293910026208 0 0 0 0 -20.063341383779971 26.630426174559943 0 26.630426174559943 -20.624722463750913 0 0 0 0 -18.010068969919757 55.152076337184099 0 55.152076337184099 -15.546103359924018 0 0 0 0 -3.5983817062607102 23.476398175288978 0 23.476398175288978 69.866667227894141 0 0 0 0 5.5311344978148327 44.649202759178479 0 44.649202759178479 118.84932563296297 0 0 0 0 -23.743442873093329 63.263281199735502 0 63.263281199735502 -74.540057122735561 0 0 0 0 3.1706896228754187 1.772984423442157 0 1.772984423442157 0.7564521666184163 0 0 0 0 -53.912360814366934 48.580323829812187 0 48.580323829812187 -50.084307648796312 0 0 0 0 -4.0518383628825632 33.614696179806288 0 33.614696179806288 158.06106344730688 0 0 0 0 4.8987211243699562 52.957888658459524 0 52.957888658459524 103.27811844758708 0 0 0 0 43.089371621837813 103.89669158723518 0 103.89669158723518 94.881962622206856 0 0 0 0 23.644839256930254 129.62184135188454 0 129.62184135188454 192.96714718634939 0 0 0 0 71.956523211671538 161.28775342794142 0 161.28775342794142 16.0068693546541 0 0 0 0 1.3882593626168469 0.37157403934137534 0 0.37157403934137534 0.18544844883751388 0 0 0 0 54.023938243139128 104.31477823311161 0 104.31477823311161 -164.88986698171811 0 0 0 0 -29.507738156472669 25.867968697065407 0 25.867968697065407 -79.96741115477198 0 0 0 0 -20.699495706362256 49.263548289842902 0 49.263548289842902 386.04751986919473 0 0 0 0 105.42337834322029 125.09779909704139 0 125.09779909704139 177.67281650201858 0 0 0 0 41.248205242598942 18.067022054231529 0 18.067022054231529 176.17561897864493 0 0 0 0 16.274812467287575 52.409277759200904 0 52.409277759200904 129.80774330533859 0 0 0 0 -7.2803012762992694 33.045773696646393 0 33.045773696646393 123.36595005563322 0 0 0 0 24.697938909704135 107.8630479206704 0 107.8630479206704 61.410377258165681 0 0 0 0 23.210706858476442 91.254359983909126 0 91.254359983909126 121.42549084497355 0 0 0 0 40.602405791887577 103.91747912758274 0 103.91747912758274 60.667023356505524 0 0 0 0 -6.7659678055904351 32.672424143968556 0 32.672424143968556 15.37954207007715 0 0 0 0 -1.2263846484523491 1.8578896721540374 0 1.8578896721540374 6.6428196064902103 0 0 0 0 59.877011939155636 17.889271542803726 0 17.889271542803726 25.756489112642157 0 0 0 0 46.106866013170475 107.12468264463951 0 107.12468264463951 43.838494473310448 0 0 0 0 -4.4454632622355348 50.13494488221022 0 50.13494488221022 96.762580702514242 0 0 0 0 12.567541168883736 60.41015774669404 0 60.41015774669404 32.051902349674492 0 0 0 0 -18.772157840888212 25.087936132926643 0 25.087936132926643 104.1745877883659 0 0 0 0 -5.6288467861908202 33.096194398941634 0 33.096194398941634 88.151813859958565 0 0 0 0 -20.282083033052913 17.636211858664865 0 17.636211858664865 68.544879999302793 0 0 0 0 -20.719949065547553 15.933185416601191 0 15.933185416601191 52.348939833858822 0 0 0 0 -14.638357387629185 0.48465871426697049 0 0.48465871426697049 50.918133150855283 0 0 0 0 -9.4755799706791741 1.4698172663800833 0 1.4698172663800833 29.799198381391108 0 0 0 0 -1.8817426324934559 -1.8831872212110738 0 -1.8831872212110738 29.312599360054719 0 0 0 0 -4.390295455909154 9.8594555014334446 0 9.8594555014334446 46.446715914187052 0 0 0 0 -3.3964542695422111 10.342709684530845 0 10.342709684530845 45.847123505573109 0 0 0 0 -9.8498113716955231 30.449902809204104 0 30.449902809204104 74.336293526904001 0 0 0 0 2.7908257621046655 14.631734292353215 0 14.631734292353215 39.692116836422585 0 0 0 0 -10.41624748195316 -7.6285423224182054 0 -7.6285423224182054 25.901635776931823 0 0 0 0 5.5724711072716673 23.349324467839779 0 23.349324467839779 50.43421396273925 0 0 0 0 1.2828254645344259 5.9538581336162224 0 5.9538581336162224 119.66053573462887 0 0 0 0 17.077335096506431 68.501608585165741 0 68.501608585165741 113.02594491579271 0 0 0 0 72.683439940054086 143.24265753527925 0 143.24265753527925 175.86656564254008 0 0 0 0 -6.3431656840177766 3.4438832484561317 0 3.4438832484561317 235.33226385853413 0 0 0 0 8.5427721090544253 19.233019303229071 0 19.233019303229071 54.106151938016183 0 0 0 0 6.8818666693730766 7.0699693238677384 0 7.0699693238677384 47.035226185312695 0 0 0 0 51.427348643574987 29.553659533765767 0 29.553659533765767 -35.417859806261731 0 0 0 0 29.717445657916993 28.869177854079346 0 28.869177854079346 13.175866493484607 0 0 0 0 -9.9547176635761208 -5.8282160730521504 0 -5.8282160730521504 29.068600788952196 0 0 0 0 16.371794938981111 57.346016039196229 0 57.346016039196229 82.710999058919697 0 0 0 0 31.807849614490429 27.619054198934869 0 27.619054198934869 5.701678070592461 0 0 0 0 84.359870719484206 57.13693010098541 0 57.13693010098541 -20.9877988606695 0 0 0 0 35.90667966978026 71.029183737243329 0 71.029183737243329 59.788010709267837 0 0 0 0 58.465053461146454 63.000629858056527 0 63.000629858056527 59.382612155532115 0 0 0 0 8.1208488359143303 33.327471639334362 0 33.327471639334362 75.863788150587425 0 0 0 0 41.627536014276302 32.722609297547024 0 32.722609297547024 6.4309943382322672 0 0 0 0 14.04471890503997 11.839577208961984 0 11.839577208961984 -9.0198566670620508 0 0 0 0 96.156298008289923 77.298380483985966 0 77.298380483985966 2.0319867666439677 0 0 0 0 178.01194758818474 17.727136255913138 0 17.727136255913138 61.750764546749451 0 0 0 0 -5.4774261205182029 100.61537782876258 0 100.61537782876258 41.991793388642691 0 0 0 0 32.443464670985804 9.107437543309743 0 9.107437543309743 76.469174286681664 0 0 0 0 51.107704474256934 15.657052232581918 0 15.657052232581918 38.191386771241014 0 0 0 0 13.884066237769048 15.070529839032133 0 15.070529839032133 18.664619003537041 0 0 0 0 14.146747178985857 8.9531875567226855 0 8.9531875567226855 -0.19909237634949273 0 0 0 0 21.447871376236435 81.471995285326557 0 81.471995285326557 40.712325543403836 0 0 0 0 3.7240714163612312 -0.54463867619543294 0 -0.54463867619543294 -3.6743382937836415 0 0 0 0 34.763282470489685 76.393593732163936 0 76.393593732163936 90.004434865436451 0 0 0 0 37.863187787004108 45.096824794089116 0 45.096824794089116 63.444661160085161 0 0 0 0 38.45248413131776 33.781591858838055 0 33.781591858838055 129.06163722169003 0 0 0 0 31.292822049995721 63.362923655262421 0 63.362923655262421 43.775605611566789 0 0 0 0 8.7220441742992989 42.657711203578856 0 42.657711203578856 103.57552222250888 0 0 0 0 57.942353166452449 94.730083703839568 0 94.730083703839568 59.863306915405701 0 0 0 0 36.850209076290412 104.41022371257895 0 104.41022371257895 83.863639510136636 0 0 0 0 33.136466416962321 81.111134723028954 0 81.111134723028954 81.599645116555621 0 0 0 0 35.233046660415312 114.56093481065909 0 114.56093481065909 99.793705810072424 0 0 0 0 48.911129871855337 83.858130748252734 0 83.858130748252734 99.028249928433297 0 0 0 0 -1.3304513704282037 -2.6399318577376825 0 -2.6399318577376825 4.6781982732758465 0 0 0 0 177.35415899232157 88.175267907687157 0 88.175267907687157 58.990129370293289 0 0 0 0 79.471829961137246 -31.915467094268934 0 -31.915467094268934 217.66207985887741 0 0 0 0 65.378361314529229 135.52455732751423 0 135.52455732751423 225.49581311253132 0 0 0 0 59.32833319742349 28.120686666708934 0 28.120686666708934 75.476082649841032 0 0 0 0 31.929616601022644 92.040900120219703 0 92.040900120219703 129.39489574291656 0 0 0 0 47.479568886469224 -23.465941263026025 0 -23.465941263026025 16.297080670559808 0 0 0 0 2.7114190283278568 5.2512963212553476 0 5.2512963212553476 8.2018807926264685 0 0 0 0 22.485254969047674 -22.408262928881413 0 -22.408262928881413 35.2479667942589 0 0 0 0 37.316391161728461 -0.11997840050662489 0 -0.11997840050662489 17.12736378653608 0 0 0 0 7.8028861400089227 -18.827683158355285 0 -18.827683158355285 24.55347784526748 0 0 0 0 -7.2009324767495855 -6.8051710048330278 0 -6.8051710048330278 28.728330212790752 0 0 0 0 167.93128884786529 -0.8295732431192846 0 -0.8295732431192846 -103.96642540935727 0 0 0 0 -4.145745833433466 0.80772201031209079 0 0.80772201031209079 37.868298878414862 0 0 0 0 -29.922601023406969 -90.700502938148475 0 -90.700502938148475 -144.67426615204522 0 0 0 0 92.363786062693407 196.52661006146593 0 196.52661006146593 -497.13689734565105 0 0 0 0 2.3118997277317259 3.8181950842770842 0 3.8181950842770842 20.148902968926933 0 0 0 0 11.128701690129674 -13.902705612263162 0 -13.902705612263162 12.278052339186161 0 0 0 0 54.440942975710641 198.68315967865396 0 198.68315967865396 257.08493430351336 0 0 0 0 0.95831823958815221 2.6095144629812239 0 2.6095144629812239 26.789081079545213 0 0 0 0 487.61818226435753 271.2200218190884 0 271.2200218190884 -247.2538708625068 0 0 0 0 -139.72780486392003 -105.90768077737468 0 -105.90768077737468 156.15052225546387 0 0 0 0 -0.5176946005775136 -5.5286582121898036 0 -5.5286582121898036 48.689630273621574 0 0 0 0 6.0360700108194578 -91.984137777541946 0 -91.984137777541946 69.579344785495778 0 0 0 0 69.416053029699469 68.928113506717423 0 68.928113506717423 20.91049953472367 0 0 0 0 -3.2399984930704324 -11.936173669114723 0 -11.936173669114723 55.211030052312964 0 0 0 0 -62.383078676360128 7.3860747879834889 0 7.3860747879834889 82.899954395590612 0 0 0 0 -42.116485191429092 31.908046161996026 0 31.908046161996026 111.93665564706316 0 0 0 0 -67.89820230141504 -67.940312070668341 0 -67.940312070668341 71.387811593384512 0 0 0 0 -25.272541026053659 6.4984475588416899 0 6.4984475588416899 343.16752019504088 0 0 0 0 -114.77200447960149 147.79684347150499 0 147.79684347150499 787.46750325028154 0 0 0 0 36.812897789019189 -89.808741744094505 0 -89.808741744094505 361.9417069945124 0 0 0 0 3.2919340625980702 0.62512983541345002 0 0.62512983541345002 0.22872809913798697 0 0 0 0 -39.296273674567601 55.126034646519372 0 55.126034646519372 359.9149309353935 0 0 0 0 80.75307353059361 -23.397681871116788 0 -23.397681871116788 247.4189017309119 0 0 0 0 30.492865080167576 68.901064174681807 0 68.901064174681807 198.62247991666663 0 0 0 0 13.371185481752946 6.7999331971975323 0 6.7999331971975323 29.745103938790685 0 0 0 0 -27.128525185205945 -29.372306435330444 0 -29.372306435330444 123.55261456221126 0 0 0 0 -62.648750503431529 -16.147267208994407 0 -16.147267208994407 263.93594897983326 0 0 0 0 -46.219994212807705 16.297698996744717 0 16.297698996744717 262.01479240359072 0 0 0 0 44.146305607836439 48.289077790773717 0 48.289077790773717 -420.70379624824864 0 0 0 0 8.3687335745280045 4.5003636457790108 0 4.5003636457790108 1.1666606515188025 0 0 0 0 -68.877868927529221 117.86472058821894 0 117.86472058821894 -88.947132350383981 0 0 0 0 114.63471341830882 58.837350390748725 0 58.837350390748725 -105.27225571968688 0 0 0 0 -38.602032131159035 104.11138282302613 0 104.11138282302613 -28.841999566037885 0 0 0 0 -32.668441394288493 118.2235849581275 0 118.2235849581275 -25.251806611798202 0 0 0 0 12.040183700672953 6.7793674043659449 0 6.7793674043659449 1.6249997335834656 0 0 0 0 49.580105076648579 71.092364563273122 0 71.092364563273122 -302.10353159877104 0 0 0 0 124.39725997976711 130.92078625419495 0 130.92078625419495 92.881607177264613 0 0 0 0 -1.7548591045342619 232.06276443748996 0 232.06276443748996 488.76558625289471 0 0 0 0 -77.188953796829082 75.317366542738654 0 75.317366542738654 232.29367122560029 0 0 0 0 -49.772282000485575 -85.271207545469167 0 -85.271207545469167 -45.013452583235789 0 0 0 0 -160.43083201799027 -177.02019401871956 0 -177.02019401871956 559.75269915739921 0 0 0 0 311.77603968914627 100.66481614553555 0 100.66481614553555 106.61833865027751 0 0 0 0 -37.664727733070777 -19.038979873428715 0 -19.038979873428715 101.19218775378437 0 0 0 0 45.39186962081601 8.1731044719386716 0 8.1731044719386716 -49.20885826961694 0 0 0 0 44.77719585435716 29.69682908984089 0 29.69682908984089 232.31526620315481 0 0 0 0 3.9514073521630699 4.3747244833363155 0 4.3747244833363155 5.3587000475454944 0 0 0 0 40.89210341485375 217.38477246557915 0 217.38477246557915 27.364581145527268 0 0 0 0 50.86476866889825 267.77792159058271 0 267.77792159058271 281.52566288753599 0 0 0 0 -29.663534335661097 -330.86359998234866 0 -330.86359998234866 273.65883523639104 0 0 0 0 -45.312294396218931 -402.35160106732474 0 -402.35160106732474 810.7496285573294 0 0 0 0 -56.924581319821755 -196.37372012723961 0 -196.37372012723961 462.69618948620973 0 0 0 0 -80.562805438705254 -34.798221969150063 0 -34.798221969150063 33.697866590161482 0 0 0 0 24.30287271923271 -32.843752788836383 0 -32.843752788836383 22.813295313817548 0 0 0 0 -41.675785799964615 -12.434181058841261 0 -12.434181058841261 42.757381246218301 0 0 0 0 76.95054869912201 2.171990361571261 0 2.171990361571261 -30.858189530120171 0 0 0 0 12.894153482296801 7.7671835132337232 0 7.7671835132337232 1.9919324807485239 0 0 0 0 -27.221895657048663 39.516366431410461 0 39.516366431410461 -55.706449150172375 0 0 0 0 26.558934277339176 89.754151031366746 0 89.754151031366746 -218.09339068189797 0 0 0 0 -16.354761268322818 73.877855494311007 0 73.877855494311007 -45.817662096636013 0 0 0 0 4.6268391723923514 57.761954304272649 0 57.761954304272649 -94.860398584661652 0 0 0 0 11.74940341543688 7.5634432978777371 0 7.5634432978777371 1.5833287178933526 0 0 0 0 13.375858869231706 43.603249318591224 0 43.603249318591224 7.6660428125940712 0 0 0 0 -5.3680918615220889 59.073223512294135 0 59.073223512294135 -43.27692302806679 0 0 0 0 -12.868039009351151 74.382691488124692 0 74.382691488124692 9.274655433211592 0 0 0 0 -11.214684271203254 84.670525274069462 0 84.670525274069462 26.930993372352532 0 0 0 0 3.7918076295300125 59.08298015942546 0 59.08298015942546 -48.966293309981666 0 0 0 0 -13.219048520622891 18.991834936362466 0 18.991834936362466 52.628132002806979 0 0 0 0 26.445466145801447 35.929818240969325 0 35.929818240969325 59.41042218369148 0 0 0 0 -1.0573515144728844 8.2579718006959411 0 8.2579718006959411 -0.54652550848277315 0 0 0 0 4.2760088631602571 0.83475890520331397 0 0.83475890520331397 0.11478522067456609 0 0 0 0 -34.697262504288119 6.9808895952492094 0 6.9808895952492094 133.94610943254247 0 0 0 0 4.4359761653632468 2.4314250352353053 0 2.4314250352353053 0.94511326792125061 0 0 0 0 -15.318018313326775 60.473640099386557 0 60.473640099386557 14.558136529793046 0 0 0 0 -19.827476537035508 29.689456614874814 0 29.689456614874814 18.744987605956339 0 0 0 0 -3.9518658118490748 15.939477272715521 0 15.939477272715521 -13.337174361377038 0 0 0 0 0.56315422098227508 0.99596828341180554 0 0.99596828341180554 1.659395171227569 0 0 0 0 23.119505936436184 7.1723064597645134 0 7.1723064597645134 18.554094878640171 0 0 0 0 13.726040298228952 17.76682316703409 0 17.76682316703409 10.40023796457308 0 0 0 0 16.501199455508697 23.121314931889174 0 23.121314931889174 27.15304316066613 0 0 0 0 34.739648879859175 40.840502688811284 0 40.840502688811284 33.236098426615172 0 0 0 0 27.713944612460296 20.790266234161209 0 20.790266234161209 5.6837880307739397 0 0 0 0 0.61146091647367484 1.9577113913305766 0 1.9577113913305766 24.304188257478017 0 0 0 0 87.907115312796407 54.981377420575882 0 54.981377420575882 30.088295787804782 0 0 0 0 3.8848214804454813 -10.412223609394118 0 -10.412223609394118 -0.42083100760282832 0 0 0 0 0.61594008276531964 0.28701708749887977 0 0.28701708749887977 2.2568030173963756 0 0 0 0 6.2300855218545621 -4.6291344930341438 0 -4.6291344930341438 6.4817510438856516 0 0 0 0 -8.5509318113545305 2.7186615629007065 0 2.7186615629007065 12.286838618320871 0 0 0 0 3.6260728879540238 -9.4914612513148313 0 -9.4914612513148313 -2.6110002544137387 0 0 0 0 1.2884783847464547 -2.895518384823264 0 -2.895518384823264 3.9966907327897374 0 0 0 0 -62.739436530649982 -41.563065941095374 0 -41.563065941095374 -9.96825234857738 0 0 0 0 -113.06397171762001 23.771936941724107 0 23.771936941724107 8.9829999847797808 0 0 0 0 7.4396526380122623 -12.966708336426677 0 -12.966708336426677 12.167627843706214 0 0 0 0 1.8317438527632515 -0.38831459582832029 0 -0.38831459582832029 -1.4997844231554751 0 0 0 0 -5.5081593372469797 -5.9123840163101704 0 -5.9123840163101704 18.352602919807396 0 0 0 0 -61.512861029601936 43.635399192946352 0 43.635399192946352 -23.457357125748786 0 0 0 0 1.673911742671395 -0.47186525616606545 0 -0.47186525616606545 -0.21328965459455063 0 0 0 0 16.55460650236455 69.083076695584168 0 69.083076695584168 49.317447275815539 0 0 0 0 -18.136555420968307 19.183967183629647 0 19.183967183629647 2.608533248051117 0 0 0 0 -57.186827141256572 -4.2456092901832108 0 -4.2456092901832108 287.82399906118917 0 0 0 0 -25.359011372376699 21.217160953495522 0 21.217160953495522 86.769050516707466 0 0 0 0 60.934796556996844 128.9019072474689 0 128.9019072474689 -22.670314846933707 0 0 0 0 30.989402375791542 111.76061610552188 0 111.76061610552188 153.73322950110287 0 0 0 0 9.993930139260101 78.069306133384544 0 78.069306133384544 152.83468414775962 0 0 0 0 126.82850520508146 84.902805231095044 0 84.902805231095044 152.19704687536569 0 0 0 0 151.20830772868248 119.10549234572045 0 119.10549234572045 186.503551405498 0 0 0 0 156.65363573851391 43.047281102431043 0 43.047281102431043 261.85188730079972 0 0 0 0 230.777618415701 154.95132839727376 0 154.95132839727376 202.57891660848145 0 0 0 0 34.381356086181768 128.53610559437584 0 128.53610559437584 187.94944564098296 0 0 0 0 77.549419803150158 39.38997622469833 0 39.38997622469833 157.29293044342285 0 0 0 0 -21.592950504003056 130.42052030197533 0 130.42052030197533 106.81151436857544 0 0 0 0 2.2155958822058892 92.723125599396553 0 92.723125599396553 165.19205821764308 0 0 0 0 -62.777414844262239 -61.288956698926995 0 -61.288956698926995 92.255732442928092 0 0 0 0 19.63265965026585 7.6883918242756408 0 7.6883918242756408 18.953060546383313 0 0 0 0 -112.48668428206199 -11.075509155698683 0 -11.075509155698683 68.70190374557933 0 0 0 0 23.033417417746023 -10.051977852914206 0 -10.051977852914206 42.476876753833494 0 0 0 0 14.854738447752425 -68.002966702861158 0 -68.002966702861158 46.848191134766239 0 0 0 0 -17.701337815112765 -34.274829970408746 0 -34.274829970408746 13.296166777341568 0 0 0 0 -25.598728673656296 -58.657507747933778 0 -58.657507747933778 5.0874770205991808 0 0 0 0 63.945829325812156 -23.630359957334804 0 -23.630359957334804 8.6346312859719774 0 0 0 0 67.084407007087066 -40.987653270964074 0 -40.987653270964074 50.736040195792157 0 0 0 0 143.2829489016458 -17.328897538972342 0 -17.328897538972342 47.615335613723801 0 0 0 0 187.33493247132083 25.13506620400949 0 25.13506620400949 161.53924668496256 0 0 0 0 34.506549269877723 -42.409459873818378 0 -42.409459873818378 127.11336589291386 0 0 0 0 98.367953175758885 0.88917715030402178 0 0.88917715030402178 99.387500901835665 0 0 0 0 17.58116889303966 40.340025814531316 0 40.340025814531316 197.67383842556956 0 0 0 0 107.77982269321274 93.614530468001249 0 93.614530468001249 243.55903789979493 0 0 0 0 115.07692473630414 -46.793149283049388 0 -46.793149283049388 226.22456541107749 0 0 0 0 220.11679339066541 154.78314966101425 0 154.78314966101425 452.06904850617502 0 0 0 0 264.44301630891096 -84.945027496723924 0 -84.945027496723924 317.70799250185428 0 0 0 0 401.80848354807131 91.448036207226323 0 91.448036207226323 150.26845991635855 0 0 0 0 176.5491446169799 199.89033447800011 0 199.89033447800011 328.88731748655482 0 0 0 0 154.5122172938045 59.094283604470547 0 59.094283604470547 147.33005823553481 0 0 0 0 181.06822789577336 128.33124359072872 0 128.33124359072872 139.71472925048874 0 0 0 0 151.71792168153661 -46.178036684113977 0 -46.178036684113977 119.78340823774215 0 0 0 0 110.07404661884539 13.045245034825712 0 13.045245034825712 54.788870702250279 0 0 0 0 213.24330340250617 48.38844964590362 0 48.38844964590362 64.269897565111023 0 0 0 0 144.102406705666 37.353990411063023 0 37.353990411063023 13.320645760268235 0 0 0 0 97.991044908173535 77.906103828872801 0 77.906103828872801 84.532516942585062 0 0 0 0 142.56274792323984 -0.94520936568005709 0 -0.94520936568005709 4.279357057683228 0 0 0 0 41.719540426165622 41.659209936437037 0 41.659209936437037 40.605649273142149 0 0 0 0 47.535759079988566 61.915110820385962 0 61.915110820385962 101.9373417381903 0 0 0 0 91.427301906154753 55.316487277221313 0 55.316487277221313 28.106886002704755 0 0 0 0 81.950192183972831 62.142282308916037 0 62.142282308916037 96.770435606457795 0 0 0 0 82.804273441306577 90.480063151317154 0 90.480063151317154 113.7708545999003 0 0 0 0 2.9078567409076186 63.948097469040817 0 63.948097469040817 179.44139795061346 0 0 0 0 40.527165229959792 83.717558489592193 0 83.717558489592193 231.84867389052488 0 0 0 0 41.095823025882055 83.485608195667737 0 83.485608195667737 189.41436954399796 0 0 0 0 -26.373959622720577 48.582839103746664 0 48.582839103746664 251.85516641022514 0 0 0 0 2.3686609692467755 -3.1239420675883594 0 -3.1239420675883594 9.2063623183958043 0 0 0 0 2.017752010239235 -1.3693563284823291 0 -1.3693563284823291 0.74129420359468678 0 0 0 0 18.253644449299827 6.6720853706074195 0 6.6720853706074195 57.365150743911727 0 0 0 0 9.2231405948477914 -55.587469106409117 0 -55.587469106409117 155.96667612115743 0 0 0 0 156.8562000146776 -32.705802138378203 0 -32.705802138378203 15.316927345222211 0 0 0 0 2.0799980545748227 0.88826229184290462 0 0.88826229184290462 0.9006669714087181 0 0 0 0 5.0218106407464802 -5.4612200452293109 0 -5.4612200452293109 391.93691512404257 0 0 0 0 -29.561998951621717 -249.64619221513021 0 -249.64619221513021 -188.90082260275176 0 0 0 0 476.68362908634572 678.87010620960075 0 678.87010620960075 627.97654246856109 0 0 0 0 453.38845666469206 149.80014438140461 0 149.80014438140461 192.26705980094994 0 0 0 0 313.36119871089977 51.983704056639908 0 51.983704056639908 131.48343362006563 0 0 0 0 190.25148681721112 28.85309054856225 0 28.85309054856225 134.38161574071637 0 0 0 0 -1.161776883008919 -0.66662858019018323 0 -0.66662858019018323 1.3858134277303762 0 0 0 0 185.95765891896099 -15.547056086387101 0 -15.547056086387101 31.820303962454091 0 0 0 0 1.175078617670227 1.7241712260348034 0 1.7241712260348034 2.3839992193258723 0 0 0 0 264.09640350375776 31.258473823869735 0 31.258473823869735 52.514074973535571 0 0 0 0 66.011540005403731 -36.410953363640147 0 -36.410953363640147 -10.078659918509175 0 0 0 0 34.72099002545383 28.86225512057581 0 28.86225512057581 4.7939342042736826 0 0 0 0 -15.291588162874177 -6.6750626875036687 0 -6.6750626875036687 40.931445731285294 0 0 0 0 -0.86837589477905652 1.2471801163592344 0 1.2471801163592344 3.6968406188406817 0 0 0 0 1.6374150225600479 -1.0604269045877324 0 -1.0604269045877324 0.6448721360125802 0 0 0 0 -19.708354722806121 -75.537989229911091 0 -75.537989229911091 113.51683285936542 0 0 0 0 177.61524370495272 -121.25975822369492 0 -121.25975822369492 -95.78330704290056 0 0 0 0 -8.9177218699023797 -50.517742453786013 0 -50.517742453786013 34.932964372834249 0 0 0 0 -17.521492873110901 -21.923664402554095 0 -21.923664402554095 54.647138519803775 0 0 0 0 25.450049789515106 -15.390581615380142 0 -15.390581615380142 -60.572212605347886 0 0 0 0 8.4731121447612168 12.330448943383089 0 12.330448943383089 9.0330636896469514 0 0 0 0 25.190976666947336 24.05997394575752 0 24.05997394575752 17.209827412057166 0 0 0 0 33.718804935466324 32.235963120072483 0 32.235963120072483 -15.185035273631001 0 0 0 0 25.717327217548927 3.1343873705952774 0 3.1343873705952774 -44.734644534997642 0 0 0 0 44.955997035003747 45.975185685629185 0 45.975185685629185 -6.0970513147076417 0 0 0 0 66.02417313197293 37.450581823807624 0 37.450581823807624 -36.697421234530339 0 0 0 0 63.842952067032456 53.785441275367702 0 53.785441275367702 28.03874823477895 0 0 0 0 45.379625311103155 56.979308243511696 0 56.979308243511696 39.728102720360539 0 0 0 0 69.987354082096317 50.892109351334511 0 50.892109351334511 -5.4386375332105672 0 0 0 0 97.883235724869337 3.1955667810707382 0 3.1955667810707382 -31.640510606910539 0 0 0 0 62.686325705859417 -16.736476611760736 0 -16.736476611760736 5.3912801081929729 0 0 0 0 93.174123518294437 38.155939957401642 0 38.155939957401642 -20.111543298808101 0 0 0 0 73.989684501799275 29.186772080611263 0 29.186772080611263 15.339948046457266 0 0 0 0 47.321801230968049 23.160010981142477 0 23.160010981142477 -22.909969219482718 0 0 0 0 35.436499922676376 -2.8850240940646472 0 -2.8850240940646472 -27.479510110784759 0 0 0 0 13.531782006404683 10.880355328055884 0 10.880355328055884 -55.339235054552773 0 0 0 0 49.204285968123258 2.0510313526674508 0 2.0510313526674508 -90.489679360338414 0 0 0 0 16.458885942329886 -3.235729824030372 0 -3.235729824030372 -0.001309822813098549 0 0 0 0 0.0058963407163901138 -40.316271840554236 0 -40.316271840554236 -60.212157910311362 0 0 0 0 67.062785851879198 10.167627413588889 0 10.167627413588889 -57.418516164154425 0 0 0 0 11.981021839333561 -2.8636713574343204 0 -2.8636713574343204 0.49270778921102476 0 0 0 0 29.384576882112924 -43.922607081091883 0 -43.922607081091883 -102.07358580885375 0 0 0 0 15.406999593838009 -7.4562238041435194 0 -7.4562238041435194 28.891069069058631 0 0 0 0 -44.018631136126714 -17.644742280386708 0 -17.644742280386708 144.37483105609863 0 0 0 0 2.3173071434199777 0.4786073961356152 0 0.4786073961356152 -0.80223551865286424 0 0 0 0 -8.5289016805054416 -21.847599946620903 0 -21.847599946620903 -68.052695657827826 0 0 0 0 26.0600849464563 -33.389048948783966 0 -33.389048948783966 -30.807231257032981 0 0 0 0 55.55758922276982 -17.86087730586587 0 -17.86087730586587 -61.02333550418814 0 0 0 0 -14.284940669504067 -51.349960049592482 0 -51.349960049592482 -22.845431488668055 0 0 0 0 33.378617286777626 -37.986641388434691 0 -37.986641388434691 -62.311255515167431 0 0 0 0 31.783513907743327 -52.932065183627856 0 -52.932065183627856 7.1162563952407254 0 0 0 0 27.356981692665613 -39.323805016049846 0 -39.323805016049846 -24.566253175489692 0 0 0 0 74.604033983047884 -20.981649672185995 0 -20.981649672185995 -33.415458522216795 0 0 0 0 -62.618396718356053 -44.685339380081132 0 -44.685339380081132 6.3528536600733787 0 0 0 0 -0.20507509196772844 -64.833326003468756 0 -64.833326003468756 -51.21405544899244 0 0 0 0 -25.420069707061884 -36.525283000933996 0 -36.525283000933996 -37.648607235889358 0 0 0 0 -0.47397556484065717 -68.539797094226742 0 -68.539797094226742 3.0942295584245585 0 0 0 0 -5.6971610519080969 -8.3791459428830422 0 -8.3791459428830422 4.0558489717295743 0 0 0 0 1.160258727451037 19.295930239353766 0 19.295930239353766 51.026079641294928 0 0 0 0 0.66481717611881841 -1.5883212530384476 0 -1.5883212530384476 0.72001706803090926 0 0 0 0 -36.099603496603322 -67.22286016507519 0 -67.22286016507519 -46.312944348002929 0 0 0 0 6.7449016302258222 -2.8980441534283656 0 -2.8980441534283656 0.95332081375636335 0 0 0 0 27.138696378239729 -23.711919015975582 0 -23.711919015975582 -23.788775017888838 0 0 0 0 5.5560422725425829 -2.6107110153801685 0 -2.6107110153801685 1.2351840780125158 0 0 0 0 0.10583072938243276 -40.301761747670753 0 -40.301761747670753 14.729871460024697 0 0 0 0 -30.17560562292817 -81.93086728167691 0 -81.93086728167691 -56.013909661218349 0 0 0 0 13.460757358063745 -60.892935058043804 0 -60.892935058043804 -76.028982724768866 0 0 0 0 23.741774564022215 -64.27981958397686 0 -64.27981958397686 -115.52281118186329 0 0 0 0 20.93965661042003 -26.119624531350382 0 -26.119624531350382 -35.322653288167203 0 0 0 0 18.30103951127218 5.0928962453835993 0 5.0928962453835993 26.471264706171496 0 0 0 0 41.783157360316864 11.76678462048767 0 11.76678462048767 -53.237460095438109 0 0 0 0 17.924428936273785 35.350378988236116 0 35.350378988236116 19.397272673897533 0 0 0 0 26.101316362731382 -13.089311243240445 0 -13.089311243240445 -33.609826394822448 0 0 0 0 30.468266837614181 -13.864925579144256 0 -13.864925579144256 -45.747195263764297 0 0 0 0 4.3300867499200422 25.793480012580403 0 25.793480012580403 -111.00488680438866 0 0 0 0 31.083575244255144 -4.136859716672916 0 -4.136859716672916 -129.20065859914757 0 0 0 0 36.030514038589899 -28.721730951408972 0 -28.721730951408972 -103.26870838250761 0 0 0 0 7.3925026232000164 12.370317506822175 0 12.370317506822175 -66.011041989972 0 0 0 0 23.829190253652541 -2.391773329768057 0 -2.391773329768057 -15.856771447461142 0 0 0 0 22.203062176937237 -72.838472378123697 0 -72.838472378123697 -68.982632016401112 0 0 0 0 -1.0640198210330709 68.039178551727673 0 68.039178551727673 42.99523481639244 0 0 0 0 5.0411438739972345 -2.4169333691120514 0 -2.4169333691120514 1.0329650199959133 0 0 0 0 -64.274241310355137 -43.758049348889472 0 -43.758049348889472 -14.356272951335995 0 0 0 0 -20.989362207347199 -49.755493503034813 0 -49.755493503034813 -14.90843011796278 0 0 0 0 -65.482313239091582 11.057904713248718 0 11.057904713248718 -37.477855689809076 0 0 0 0 64.170321289858919 14.141423638057859 0 14.141423638057859 18.473631423712504 0 0 0 0 21.058098796958177 -34.796698260177436 0 -34.796698260177436 45.950095484433405 0 0 0 0 84.247853952829246 58.27729710987478 0 58.27729710987478 64.362392840595021 0 0 0 0 25.371344648820127 21.155943638067583 0 21.155943638067583 101.33536258762797 0 0 0 0 67.733523358592123 109.37011627625543 0 109.37011627625543 141.59105626309793 0 0 0 0 62.778813121383322 63.394206635503906 0 63.394206635503906 37.042440267792699 0 0 0 0 28.717001130869505 10.534632878827324 0 10.534632878827324 46.92301884394692 0 0 0 0 61.96089767708429 87.889443390648012 0 87.889443390648012 149.8280120906129 0 0 0 0 54.295584971079066 47.173519918802413 0 47.173519918802413 85.99844702073824 0 0 0 0 81.192653003146759 93.135482001624041 0 93.135482001624041 73.306145380691305 0 0 0 0 80.514847873464319 82.279075130456476 0 82.279075130456476 175.22175550980683 0 0 0 0 143.32733982121118 125.81089012473967 0 125.81089012473967 127.76663149810429 0 0 0 0 100.30253040747027 172.68963829895711 0 172.68963829895711 216.00796958803312 0 0 0 0 97.810338653096466 112.45370563999131 0 112.45370563999131 160.44804051679512 0 0 0 0 31.600172628105163 104.70908077758526 0 104.70908077758526 200.06429894271059 0 0 0 0 177.29382421471078 223.03911645657899 0 223.03911645657899 174.56006888541197 0 0 0 0 32.694867391864861 9.7239281916536129 0 9.7239281916536129 -1.1317106036367477 0 0 0 0 14.451923812161951 53.305559741365869 0 53.305559741365869 104.82890418613533 0 0 0 0 8.598477772412922 6.9562758000856775 0 6.9562758000856775 38.49375307437731 0 0 0 0 34.869106429483551 106.21113902745856 0 106.21113902745856 124.04749743468437 0 0 0 0 101.93917869879581 121.98200641550375 0 121.98200641550375 88.897473630702734 0 0 0 0 53.61650559628108 71.05136715990011 0 71.05136715990011 57.925913912316901 0 0 0 0 9.1539923070977807 43.813917612666046 0 43.813917612666046 83.825848517992199 0 0 0 0 35.493275755376835 38.947738294988085 0 38.947738294988085 17.84749562718207 0 0 0 0 -23.987808547395531 -28.993154134248471 0 -28.993154134248471 0.72962845355232275 0 0 0 0 11.81558488550742 27.085668579438789 0 27.085668579438789 -8.033393433848687 0 0 0 0 -8.4030127072032883 -25.152748202192015 0 -25.152748202192015 -14.63281260329677 0 0 0 0 -4.2354730456252128 -0.22839703235968045 0 -0.22839703235968045 20.782919273849984 0 0 0 0 32.493673625822339 77.735706591069174 0 77.735706591069174 -38.346996620341088 0 0 0 0 -71.384934116173341 -63.89568264182526 0 -63.89568264182526 -30.733730009456849 0 0 0 0 0.099610749443580282 -0.39283338829560677 0 -0.39283338829560677 0.2109176684281362 0 0 0 0 -43.429247632152681 -38.781647944067799 0 -38.781647944067799 64.1958154310596 0 0 0 0 -84.866990729069599 12.577264242539968 0 12.577264242539968 -3.1192313467231543 0 0 0 0 20.508031629376532 48.986199545877753 0 48.986199545877753 -33.630833223982336 0 0 0 0 2.4305059899345451 -13.880344837536086 0 -13.880344837536086 6.1738279413548298 0 0 0 0 4.1554728891092054 -14.685772965836804 0 -14.685772965836804 -7.838362699469144 0 0 0 0 -0.7584067741954641 4.4000318346074891 0 4.4000318346074891 4.7660819094198814 0 0 0 0 2.9198146588443503 -2.0253731202084495 0 -2.0253731202084495 1.2774227089841474 0 0 0 0 4.9524602511230569 8.2422095143265324 0 8.2422095143265324 17.727585334097967 0 0 0 0 24.433234778181259 40.984892945350566 0 40.984892945350566 -11.945308574308001 0 0 0 0 1.3774025927999336 0.45690476444580952 0 0.45690476444580952 3.9807322525266358 0 0 0 0 4.7663124264997947 -10.028657650148176 0 -10.028657650148176 -3.0098493101577333 0 0 0 0 -0.30672438597980678 0.20527328721603766 0 0.20527328721603766 1.7786265048293046 0 0 0 0 67.991162803577595 -33.976294722957391 0 -33.976294722957391 -64.883974734439107 0 0 0 0 66.245652093926765 -16.773706339510682 0 -16.773706339510682 0.448840852950525 0 0 0 0 5.6917974924393588 -1.9913645437477712 0 -1.9913645437477712 1.6052179381036744 0 0 0 0 -27.981638926870176 -13.128476735656022 0 -13.128476735656022 100.39381275888991 0 0 0 0 326.24001370314852 48.173640290798176 0 48.173640290798176 25.793460442371725 0 0 0 0 254.27274082563656 255.71777743686562 0 255.71777743686562 170.76748756061806 0 0 0 0 1.7129344549831012 1.2682732877262985 0 1.2682732877262985 1.8493240060931697 0 0 0 0 51.270643090398607 -31.375096792980912 0 -31.375096792980912 10.908086730414652 0 0 0 0 197.10884662883728 27.553978239877324 0 27.553978239877324 -41.962224962746404 0 0 0 0 29.620747683079571 14.379470641606531 0 14.379470641606531 20.800745922970236 0 0 0 0 33.091524141889863 6.8377972676844365 0 6.8377972676844365 16.583937027258798 0 0 0 0 29.488242018549613 15.846937135534972 0 15.846937135534972 12.204149755591061 0 0 0 0 32.956548679112984 8.2641532899087906 0 8.2641532899087906 7.7106856835744111 0 0 0 0 27.212252895717654 76.6769180179881 0 76.6769180179881 49.66767459554103 0 0 0 0 113.02086351760943 124.54446315030327 0 124.54446315030327 52.019684448721819 0 0 0 0 93.496759402552172 165.465023730447 0 165.465023730447 121.33002363650485 0 0 0 0 140.44995887161679 153.29578297347416 0 153.29578297347416 81.438639014333603 0 0 0 0 88.282226706555875 146.68468106149612 0 146.68468106149612 99.719651943865756 0 0 0 0 61.828139111554279 133.74736600474967 0 133.74736600474967 150.95486604213693 0 0 0 0 64.745080485073345 153.59712709500855 0 153.59712709500855 285.95709431232899 0 0 0 0 247.77833447113997 169.65920834718918 0 169.65920834718918 165.70551915738361 0 0 0 0 205.65300747324346 81.224172490525234 0 81.224172490525234 161.41049598879999 0 0 0 0 49.168938440105734 144.95879300216075 0 144.95879300216075 204.66801987054714 0 0 0 0 72.686805066994395 57.749849759460631 0 57.749849759460631 154.91158806780004 0 0 0 0 124.98162953081771 162.98990064628106 0 162.98990064628106 361.35160230817019 0 0 0 0 212.56508619772671 167.28247085151816 0 167.28247085151816 165.95900633263136 0 0 0 0 74.465843647067231 -58.965767879430132 0 -58.965767879430132 335.56126547803876 0 0 0 0 58.39194498487899 106.30031222093021 0 106.30031222093021 756.35647042157507 0 0 0 0 65.59997587323268 -2.052360005896162 0 -2.052360005896162 163.09985228714504 0 0 0 0 -287.52200199672848 -256.88852922676892 0 -256.88852922676892 605.38231897154583 0 0 0 0 -230.28946145133906 -878.36455659927833 0 -878.36455659927833 1495.5660157767861 0 0 0 0 -262.7499570821995 -250.83606557247094 0 -250.83606557247094 348.24198079474263 0 0 0 0 -0.60471236967226338 -0.59061150544186347 0 -0.59061150544186347 1.7446221584398245 0 0 0 0 149.07385296829398 368.13024694397063 0 368.13024694397063 862.00191371906476 0 0 0 0 67.906858237450592 201.56006224608791 0 201.56006224608791 672.44109128390392 0 0 0 0 91.6906915182783 335.22593726050582 0 335.22593726050582 745.70517404676957 0 0 0 0 126.89589026842941 266.41722627883996 0 266.41722627883996 559.81422670445318 0 0 0 0 -1.632768597734076 -1.1126687408504203 0 -1.1126687408504203 3.5158141046078057 0 0 0 0 -246.34943114906912 100.99835466362492 0 100.99835466362492 1500.4106217419976 0 0 0 0 -17.155319858803523 200.25080722576604 0 200.25080722576604 888.63170284579974 0 0 0 0 -1.1270921134295735 -0.28099378820525445 0 -0.28099378820525445 3.2713609692954684 0 0 0 0 152.46583755009331 523.95895547455802 0 523.95895547455802 1499.3931290125311 0 0 0 0 117.80076106934315 252.12352746159991 0 252.12352746159991 633.35565665767717 0 0 0 0 115.92691856493821 212.74673445795088 0 212.74673445795088 484.15685769477568 0 0 0 0 78.13964240658575 290.08136720971743 0 290.08136720971743 617.02293566728258 0 0 0 0 152.39274313195065 178.89241288066887 0 178.89241288066887 343.70135014755033 0 0 0 0 107.58989911770695 242.15142061721963 0 242.15142061721963 473.87807674160831 0 0 0 0 178.90439918232104 139.76161480730389 0 139.76161480730389 326.2194318812908 0 0 0 0 117.51521848875223 152.86904336947191 0 152.86904336947191 540.0935799848769 0 0 0 0 169.04147184402976 158.86893877613284 0 158.86893877613284 325.19643396122956 0 0 0 0 184.39663769391603 164.11569612569247 0 164.11569612569247 209.81488063953293 0 0 0 0 98.28009328419887 155.46560479165782 0 155.46560479165782 350.61250581377681 0 0 0 0 148.3176073026967 168.65479582359967 0 168.65479582359967 203.8988705559168 0 0 0 0 103.23935882046956 92.235051689052852 0 92.235051689052852 198.11634595927535 0 0 0 0 132.50989128028945 94.717470498778312 0 94.717470498778312 121.54003048964296 0 0 0 0 86.123246682178205 42.894924945224375 0 42.894924945224375 72.686986577878997 0 0 0 0 65.837394510538104 40.296443887331861 0 40.296443887331861 173.60982032488209 0 0 0 0 183.17702747009841 104.82525102473301 0 104.82525102473301 145.09382807083148 0 0 0 0 160.43608824516696 150.72913389471614 0 150.72913389471614 243.92079615632974 0 0 0 0 202.16053141034732 234.0241431838424 0 234.0241431838424 305.36147095781416 0 0 0 0 102.80125121999009 219.75174106292798 0 219.75174106292798 430.02162853258807 0 0 0 0 172.60848051836138 471.02035655478539 0 471.02035655478539 698.59179059002417 0 0 0 0 80.494082701013269 304.95403433755746 0 304.95403433755746 432.36842032669693 0 0 0 0 -97.479423389207795 321.35154516825241 0 321.35154516825241 779.92557814164502 0 0 0 0 4.8742421756561782 212.52348918519783 0 212.52348918519783 648.64978379491004 0 0 0 0 50.874925345414489 724.54267103143229 0 724.54267103143229 1494.3341249943787 0 0 0 0 499.82241371181595 376.40389573307857 0 376.40389573307857 184.36759132289808 0 0 0 0 -19.726447400922098 47.684664815689757 0 47.684664815689757 163.09529624546485 0 0 0 0 280.84695720110892 88.76376502237963 0 88.76376502237963 42.626382871403621 0 0 0 0 70.330806282002612 -217.49165884729427 0 -217.49165884729427 1593.8030016421035 0 0 0 0 1001.297557816382 716.12674108566989 0 716.12674108566989 332.70497748950038 0 0 0 0 2.4584552739641135 3.0750100846522415 0 3.0750100846522415 5.9274636152568405 0 0 0 0 139.18480081139563 -179.69527267952208 0 -179.69527267952208 12.434644663109793 0 0 0 0 275.76324868440304 -738.04755295445648 0 -738.04755295445648 1633.8112650078474 0 0 0 0 521.37173948412703 -979.51612036589722 0 -979.51612036589722 1359.2892711502045 0 0 0 0 -0.39659388522617856 0.38721139161392415 0 0.38721139161392415 5.5418456815324006 0 0 0 0 703.17468602206623 -218.6175126591188 0 -218.6175126591188 1498.1861524830874 0 0 0 0 519.20507579438333 -824.32438610596364 0 -824.32438610596364 968.37926685893763 0 0 0 0 30.480993061214804 87.421197617919461 0 87.421197617919461 29.560581143964555 0 0 0 0 20.724672358328689 -22.897939522860725 0 -22.897939522860725 -31.390434831696439 0 0 0 0 3.1523248755478424 6.8119580867884117 0 6.8119580867884117 14.744201952462717 0 0 0 0 47.606993170792975 -40.313128747622613 0 -40.313128747622613 18.414124121114583 0 0 0 0 -60.850010337814638 119.4093165072627 0 119.4093165072627 99.887682299056905 0 0 0 0 178.75613761687998 11.938530436221072 0 11.938530436221072 57.895952704468073 0 0 0 0 28.292208338841874 21.471621748037251 0 21.471621748037251 130.34067629111814 0 0 0 0 54.079310228143754 -39.348448605260501 0 -39.348448605260501 35.914438591080398 0 0 0 0 3.2076308521611168 8.4010437734168875 0 8.4010437734168875 18.321658470558056 0 0 0 0 -63.59153737522206 52.898122140469241 0 52.898122140469241 -40.909223368189942 0 0 0 0 -42.449907458046994 -34.68096178186579 0 -34.68096178186579 65.396525000884139 0 0 0 0 2.585218123692357 44.460122620771926 0 44.460122620771926 90.038870842679898 0 0 0 0 -3.3567683314913666 23.987557049724273 0 23.987557049724273 84.84798911086682 0 0 0 0 -19.035203636436655 -9.5018137245856593 0 -9.5018137245856593 52.799188371661849 0 0 0 0 -30.940787336065114 -28.094614391566211 0 -28.094614391566211 48.540224082116765 0 0 0 0 13.941210992188644 23.405835037011911 0 23.405835037011911 83.209217335751873 0 0 0 0 21.037801603878052 29.08254707993342 0 29.08254707993342 77.67064326246782 0 0 0 0 38.033070622089326 43.872854586861195 0 43.872854586861195 64.905759264030621 0 0 0 0 29.711872739925639 56.003512003897413 0 56.003512003897413 33.724262520420325 0 0 0 0 23.103316947090207 28.427104485062046 0 28.427104485062046 43.409242531359951 0 0 0 0 29.491279899631991 53.109757092739983 0 53.109757092739983 74.184662671016667 0 0 0 0 60.115949020470225 108.05368190514676 0 108.05368190514676 78.826471769893942 0 0 0 0 -11.579943788088713 59.511477460104288 0 59.511477460104288 121.41197782669906 0 0 0 0 -1.7650791041346565 49.011197046356187 0 49.011197046356187 99.045069155968122 0 0 0 0 7.5145651956067923 -6.0471675638436864 0 -6.0471675638436864 43.278414820913895 0 0 0 0 -57.534688916691266 -18.535133850932198 0 -18.535133850932198 117.14793809684033 0 0 0 0 14.548777603730287 -85.846114840528116 0 -85.846114840528116 268.01289598831045 0 0 0 0 45.441247445230147 147.83099992422513 0 147.83099992422513 230.06196508111589 0 0 0 0 2.8205024846831908 2.3411540845195606 0 2.3411540845195606 -0.41234776835853992 0 0 0 0 -5.4134352909358938 -2.7372393151617977 0 -2.7372393151617977 12.744256347640992 0 0 0 0 -26.755775092116437 -49.097729596471254 0 -49.097729596471254 52.892370576941175 0 0 0 0 -18.272346433663301 -5.5257592416163961 0 -5.5257592416163961 53.801215151976706 0 0 0 0 -3.7352745871410207 8.0682492047362757 0 8.0682492047362757 75.233931196321464 0 0 0 0 -19.479481918027222 -8.9888412770073796 0 -8.9888412770073796 52.120905738276491 0 0 0 0 -37.817317689379479 -12.516710469569716 0 -12.516710469569716 82.306822831049431 0 0 0 0 -3.3220372425132609 -13.892749160374478 0 -13.892749160374478 46.251573559289682 0 0 0 0 -15.370487660187564 7.2284999047892597 0 7.2284999047892597 138.03986318349416 0 0 0 0 33.134721680391294 36.593940685393136 0 36.593940685393136 100.15399135294319 0 0 0 0 -10.646391332586745 59.0219481363456 0 59.0219481363456 167.95700652350024 0 0 0 0 24.143883531888832 86.208854288860039 0 86.208854288860039 140.41011114063258 0 0 0 0 -59.047762836318384 54.657106600256157 0 54.657106600256157 128.7389081069955 0 0 0 0 -28.335562679231316 14.88818378486485 0 14.88818378486485 107.8712552454831 0 0 0 0 -51.658356983356768 -16.675806862001252 0 -16.675806862001252 72.156913463268211 0 0 0 0 29.945326000392356 138.36786991204463 0 138.36786991204463 119.18631233792621 0 0 0 0 1.2031558140916445 116.6066784351442 0 116.6066784351442 106.12546555035806 0 0 0 0 -23.56908264645358 117.58861314845944 0 117.58861314845944 187.98336612293588 0 0 0 0 -2.4557114670898272 122.2428180343054 0 122.2428180343054 157.45948264784238 0 0 0 0 -65.419649516734466 135.4015300349829 0 135.4015300349829 154.94738094907007 0 0 0 0 -12.508273584749489 150.60790046758575 0 150.60790046758575 133.70319697750892 0 0 0 0 -16.455670143086763 162.70949507024125 0 162.70949507024125 194.44358327924056 0 0 0 0 -90.19890713371035 89.748360972236696 0 89.748360972236696 162.15331609752502 0 0 0 0 -192.23428689916091 -46.649794654827019 0 -46.649794654827019 60.935897473393752 0 0 0 0 -129.19133328286301 153.46596268181565 0 153.46596268181565 58.156877160086879 0 0 0 0 2.9274387515585545 49.543858948677553 0 49.543858948677553 104.08099258544144 0 0 0 0 -37.177575847080618 164.37984497636444 0 164.37984497636444 178.62238196837643 0 0 0 0 -21.908533462192281 -11.361916111172832 0 -11.361916111172832 46.784413972395669 0 0 0 0 -220.18674728578617 -27.631713505190419 0 -27.631713505190419 102.59376923313357 0 0 0 0 -45.992188954252242 46.303662531432565 0 46.303662531432565 133.93129490571846 0 0 0 0 -31.89193787586828 -52.079356562661815 0 -52.079356562661815 37.206200251390328 0 0 0 0 -3.7810541501746502 -2.5723050916302128 0 -2.5723050916302128 10.989573655083532 0 0 0 0 -16.251609265164078 -7.4562441909759425 0 -7.4562441909759425 55.565478483470571 0 0 0 0 -20.997450316089953 -19.856664544102387 0 -19.856664544102387 41.272225687029277 0 0 0 0 50.191843284557507 71.416553418726664 0 71.416553418726664 1.0727769840095789 0 0 0 0 15.762383449791525 21.127656663078149 0 21.127656663078149 32.070818436547647 0 0 0 0 -243.95412168728092 8.2234292638768238 0 8.2234292638768238 44.985601460651196 0 0 0 0 -270.59905533565484 67.343972608819968 0 67.343972608819968 24.100892916860175 0 0 0 0 0.12929250643491227 -5.5442216855250877 0 -5.5442216855250877 24.662339798142472 0 0 0 0 86.5825831071067 120.64120691387552 0 120.64120691387552 228.99290946145913 0 0 0 0 24.478009055617321 -57.375278074168818 0 -57.375278074168818 226.39293179413198 0 0 0 0 -148.00602862676487 -58.011148503272125 0 -58.011148503272125 114.06445023415563 0 0 0 0 -100.19768041352657 81.073127006873619 0 81.073127006873619 164.48220126874367 0 0 0 0 -247.97011356302156 -34.162114403885141 0 -34.162114403885141 110.42081124595279 0 0 0 0 -290.32083936359351 31.939751214854141 0 31.939751214854141 90.982943630899172 0 0 0 0 -471.0774658361247 -220.14146639483351 0 -220.14146639483351 96.22896066686576 0 0 0 0 -178.20386465008505 -20.384168847663204 0 -20.384168847663204 67.202365825162815 0 0 0 0 -80.575363043602749 70.703883212693654 0 70.703883212693654 269.07761829412448 0 0 0 0 -92.672840998500249 -41.646448678299976 0 -41.646448678299976 -186.42842152669436 0 0 0 0 -9.4095748302207198 -276.59328712683237 0 -276.59328712683237 433.01305845868228 0 0 0 0 -0.82023724913591201 -6.9346689356045363 0 -6.9346689356045363 17.888771188596387 0 0 0 0 406.83564145531682 888.11413635680992 0 888.11413635680992 1498.2588858787631 0 0 0 0 -167.90699321339679 -693.27348272746622 0 -693.27348272746622 -42.706134684569406 0 0 0 0 0.042036712922936925 -2.4126336478359534 0 -2.4126336478359534 8.2053192820709739 0 0 0 0 7.1247647274490049 229.45158439924887 0 229.45158439924887 691.56705333501577 0 0 0 0 -81.927350211877524 25.623072259569199 0 25.623072259569199 990.71170859419681 0 0 0 0 36.013131707101195 244.36311493479388 0 244.36311493479388 755.17709888497575 0 0 0 0 115.5328135067723 423.35521852964985 0 423.35521852964985 763.07059163707231 0 0 0 0 -213.73068564013917 348.84152966993474 0 348.84152966993474 1499.874193585691 0 0 0 0 -197.18271903596101 189.40559359267968 0 189.40559359267968 1052.3599218635509 0 0 0 0 -187.42544551820748 76.924906894028027 0 76.924906894028027 1500.0580442131575 0 0 0 0 -30.253238179274547 -83.711383376882623 0 -83.711383376882623 1207.9655759356374 0 0 0 0 27.846252372413471 -25.585054249519601 0 -25.585054249519601 1009.366092328406 0 0 0 0 18.785453328250618 -56.949126587703063 0 -56.949126587703063 1029.2107228244395 0 0 0 0 -74.528177507854849 74.205426273842022 0 74.205426273842022 1013.6143825568865 0 0 0 0 -4.5656090381488355 -121.48631233596097 0 -121.48631233596097 361.87014035678476 0 0 0 0 23.052750177185814 -55.118444597454527 0 -55.118444597454527 837.06138416743897 0 0 0 0 43.736176327912119 23.64163692056627 0 23.64163692056627 29.612036481894847 0 0 0 0 19.179852414587771 20.947456826738289 0 20.947456826738289 17.111050751600807 0 0 0 0 3.2355383158076014 4.251444303344952 0 4.251444303344952 7.5473825433149662 0 0 0 0 -53.668603231148609 -7.6779776396206216 0 -7.6779776396206216 3.6296317510768503 0 0 0 0 7.3185076313578206 6.903224242714133 0 6.903224242714133 2.9315473556405465 0 0 0 0 10.873769898662447 10.069995840412624 0 10.069995840412624 9.0346519523627578 0 0 0 0 -54.90911585522008 47.97600413280361 0 47.97600413280361 2.6697011777021462 0 0 0 0 45.451799041529739 10.471116195935792 0 10.471116195935792 -1.7903570017169841 0 0 0 0 12.809664187123417 27.180649053187153 0 27.180649053187153 69.121913293634861 0 0 0 0 29.094722671427917 20.56435197751091 0 20.56435197751091 62.313339954911498 0 0 0 0 1.0733283324321974 -2.2441370022293903 0 -2.2441370022293903 0.19582134374854832 0 0 0 0 6.7573147893108398 20.227895710578196 0 20.227895710578196 78.17346441923462 0 0 0 0 20.455092179621261 34.644572455272055 0 34.644572455272055 30.295112894385966 0 0 0 0 4.5588262893283513 -4.2361180870298654 0 -4.2361180870298654 21.994306761533153 0 0 0 0 6.7367710338888038 8.5393698332824055 0 8.5393698332824055 2.7165264771377373 0 0 0 0 4.2785548991766618 -4.6124821950185186 0 -4.6124821950185186 6.5689744180750083 0 0 0 0 22.089341212112231 37.189312424679883 0 37.189312424679883 95.614330414868164 0 0 0 0 -50.16592383930697 -25.672482053355736 0 -25.672482053355736 79.288452019234228 0 0 0 0 -60.016937151182447 62.995032413432341 0 62.995032413432341 90.776855955595906 0 0 0 0 -20.113809235181535 -130.67118880855207 0 -130.67118880855207 93.288828503732475 0 0 0 0 124.03313785534101 -0.369412894100833 0 -0.369412894100833 -95.045246694450611 0 0 0 0 355.91908501372546 506.30712153139359 0 506.30712153139359 633.04915146878443 0 0 0 0 115.21612755029469 49.222438033128498 0 49.222438033128498 -75.049258571495102 0 0 0 0 3.9075195949046502 3.518511553063556 0 3.518511553063556 4.3938509349384312 0 0 0 0 -10.004402541497129 -129.33840340669929 0 -129.33840340669929 2156.5530610946944 0 0 0 0 508.6996896170852 176.98726402490658 0 176.98726402490658 1499.9084807449883 0 0 0 0 396.03475810854513 -65.963245623362496 0 -65.963245623362496 1544.2425185538305 0 0 0 0 -10.996896448809924 199.43115443993111 0 199.43115443993111 1500.0914352701279 0 0 0 0 -148.39209392240048 242.09870843790316 0 242.09870843790316 1357.9469407023012 0 0 0 0 -213.09268060810604 173.54544745751969 0 173.54544745751969 1574.6504487680027 0 0 0 0 -166.56825427911596 103.09588584994913 0 103.09588584994913 1342.9482327641383 0 0 0 0 -56.482933521582119 398.00517121823253 0 398.00517121823253 1237.1913959787985 0 0 0 0 -136.14551767035201 262.72845716556674 0 262.72845716556674 1736.6104182040435 0 0 0 0 -83.717127459115858 16.970574950889386 0 16.970574950889386 784.93534642395116 0 0 0 0 83.154378403368909 307.17168668925592 0 307.17168668925592 1546.5864028987326 0 0 0 0 -112.88933456326826 167.78047728459774 0 167.78047728459774 1500.1110531045695 0 0 0 0 -13.379215594954033 -48.495993864801221 0 -48.495993864801221 1512.2136560494423 0 0 0 0 -10.096879908028228 113.53910700595702 0 113.53910700595702 2095.0943202106105 0 0 0 0 99.515507657683855 111.84740604887361 0 111.84740604887361 -266.03216054450877 0 0 0 0 -33.61665596347612 121.56390942626649 0 121.56390942626649 1056.5760477777997 0 0 0 0 6.9991595172292964 8.4907293172122102 0 8.4907293172122102 4.1246468625218569 0 0 0 0 -40.152834504066959 96.005029424829445 0 96.005029424829445 -52.937994377453833 0 0 0 0 -73.466680757078393 17.337702987817465 0 17.337702987817465 50.228745784281273 0 0 0 0 -85.159563027352874 119.59731741606765 0 119.59731741606765 123.05327764699541 0 0 0 0 -68.168594828155847 -6.687916876788222 0 -6.687916876788222 133.19005091513321 0 0 0 0 8.6634310782348152 10.294864133447714 0 10.294864133447714 4.0898721988526248 0 0 0 0 243.75789254200723 335.97058228880047 0 335.97058228880047 273.67204733170047 0 0 0 0 -17.7806425041083 25.584666841148191 0 25.584666841148191 31.051577984901087 0 0 0 0 -19.191215542076407 5.4853342485366738 0 5.4853342485366738 31.965134684226314 0 0 0 0 6.7103948525937938 6.5136914239086536 0 6.5136914239086536 17.951103608686026 0 0 0 0 -20.768824716142944 -5.5295144255683226 0 -5.5295144255683226 14.507013345209089 0 0 0 0 244.44276443054605 13.713050798084623 0 13.713050798084623 32.630362533763424 0 0 0 0 41.216613847625013 -43.843789685592327 0 -43.843789685592327 32.242037797771445 0 0 0 0 3.5030583060109457 -4.9775591477515757 0 -4.9775591477515757 5.0817737318934544 0 0 0 0 -23.788246499305103 -15.949823464230235 0 -15.949823464230235 0.0053791592436027713 0 0 0 0 -51.700225837161952 -23.734048002992495 0 -23.734048002992495 65.180440584024382 0 0 0 0 -54.394902094606323 -12.559727449493494 0 -12.559727449493494 101.95587566820177 0 0 0 0 -34.29428680975775 -64.118144547553129 0 -64.118144547553129 95.496221820556457 0 0 0 0 -40.945701874467431 -30.286449190296025 0 -30.286449190296025 10.383999630181279 0 0 0 0 -59.350156760876644 -30.78545267424488 0 -30.78545267424488 10.856198246656504 0 0 0 0 -44.500215701633124 -57.810534322044987 0 -57.810534322044987 -11.845822392881928 0 0 0 0 1.8181406984978619 -3.5793840973705695 0 -3.5793840973705695 4.3258052229838704 0 0 0 0 -120.20783679525829 -56.811070351827311 0 -56.811070351827311 -46.932843393221447 0 0 0 0 -12.554421962238962 -30.526740215250811 0 -30.526740215250811 -45.647924928597604 0 0 0 0 0.13189811543828167 -1.3183838511259633 0 -1.3183838511259633 2.0136257527125885 0 0 0 0 22.179230972446646 129.65196718843322 0 129.65196718843322 237.87699293923833 0 0 0 0 1.2925210402418088 1.848916038774405 0 1.848916038774405 227.5473922379739 0 0 0 0 24.686622143759678 63.760478711662472 0 63.760478711662472 148.0395339515926 0 0 0 0 53.940702368493021 92.491913745898728 0 92.491913745898728 134.93716383535138 0 0 0 0 16.250158423287303 77.494897732039135 0 77.494897732039135 88.021227563315733 0 0 0 0 16.824225463175935 81.68730124936792 0 81.68730124936792 118.19588859948271 0 0 0 0 168.54877227546604 83.249465475610123 0 83.249465475610123 11.96977429054698 0 0 0 0 65.977084458781974 63.091136731864935 0 63.091136731864935 64.915936770888948 0 0 0 0 19.302934908497264 -6.9616386348352535 0 -6.9616386348352535 21.787988884638708 0 0 0 0 86.232196641584096 168.07473807221663 0 168.07473807221663 176.99776124468553 0 0 0 0 -37.989335327775734 76.61971262581983 0 76.61971262581983 270.63507876199037 0 0 0 0 -31.229861944981167 26.365233053199972 0 26.365233053199972 137.65630811310984 0 0 0 0 127.65903084765262 -10.299609115770181 0 -10.299609115770181 -18.897242892728173 0 0 0 0 274.60272271304217 38.513863719355868 0 38.513863719355868 135.88891025558041 0 0 0 0 99.847396933383209 92.753363624806298 0 92.753363624806298 68.264182400125719 0 0 0 0 0.058230159129961545 -0.19610780496211078 0 -0.19610780496211078 0.68251382018580031 0 0 0 0 30.42696869520816 193.51172265841069 0 193.51172265841069 350.6596173447324 0 0 0 0 39.630544937190905 34.317816415986272 0 34.317816415986272 70.619345944543966 0 0 0 0 45.04168378613366 31.770127887893977 0 31.770127887893977 61.470749785083171 0 0 0 0 58.205305223757819 25.597437204973176 0 25.597437204973176 57.1109607166145 0 0 0 0 -132.97384774734905 -26.956314205081981 0 -26.956314205081981 46.5130307187992 0 0 0 0 -16.35743169428963 -20.710999886452555 0 -20.710999886452555 57.560753185554859 0 0 0 0 -15.791275413844005 -21.704272100253547 0 -21.704272100253547 4.8100170440138754 0 0 0 0 40.540370173330246 -19.105456038730836 0 -19.105456038730836 5.6044095771685534 0 0 0 0 -0.0017845507160573204 1.2720219240960162 0 1.2720219240960162 6.5019599278689952 0 0 0 0 -155.25422645529261 18.085814535250393 0 18.085814535250393 52.59140611838302 0 0 0 0 -162.95745621061656 -47.740540877440253 0 -47.740540877440253 218.82187228365001 0 0 0 0 -106.26665278668656 97.553148624544065 0 97.553148624544065 44.16912956954252 0 0 0 0 4.4075025533027201 17.204963117354964 0 17.204963117354964 30.029012584867814 0 0 0 0 -7.8313918416075694 -55.232000703359518 0 -55.232000703359518 -32.970080948931354 0 0 0 0 60.28780746713835 48.118252388385372 0 48.118252388385372 14.274805341509818 0 0 0 0 -73.849563008104241 33.163447409378477 0 33.163447409378477 147.88547022478815 0 0 0 0 0.18913256319817634 1.451089281126329 0 1.451089281126329 5.9161657823527705 0 0 0 0 -51.565057332373613 -34.060791065687226 0 -34.060791065687226 1.9419662070595223 0 0 0 0 105.17593037942328 -125.12003539168063 0 -125.12003539168063 121.76973279841332 0 0 0 0 15.227157979304764 -14.649258109346874 0 -14.649258109346874 6.3000642011302261 0 0 0 0 273.64622791240976 273.33459326688035 0 273.33459326688035 143.87758094927176 0 0 0 0 213.62567944411376 100.65457111370779 0 100.65457111370779 -8.6615888504438772 0 0 0 0 0.48824284764575498 1.0421096600917461 0 1.0421096600917461 2.403833474909483 0 0 0 0 221.90754219204649 211.83050358432658 0 211.83050358432658 12.08481405645216 0 0 0 0 183.32735853617532 233.0754552693752 0 233.0754552693752 27.747056889345913 0 0 0 0 137.05883185140959 189.36023288696879 0 189.36023288696879 167.89473340269069 0 0 0 0 198.08784526947275 222.06846624040872 0 222.06846624040872 -192.12349435764008 0 0 0 0 1.3997979220927532 1.1582707897673039 0 1.1582707897673039 0.74388493809922096 0 0 0 0 -45.754521740466828 69.730855056188375 0 69.730855056188375 420.45237133818773 0 0 0 0 87.098283658281503 11.890530861168827 0 11.890530861168827 -100.31681712395402 0 0 0 0 100.18841288570002 103.8595069621424 0 103.8595069621424 225.22668474322609 0 0 0 0 -23.030483042449532 38.812380732718793 0 38.812380732718793 630.73469204811045 0 0 0 0 134.05850650082144 186.06952111751889 0 186.06952111751889 254.78182030728931 0 0 0 0 109.52819507594019 132.20057060689999 0 132.20057060689999 494.84032459332775 0 0 0 0 24.936745081172987 43.28302159859868 0 43.28302159859868 906.47366291868002 0 0 0 0 15.99774501550273 108.83718600457814 0 108.83718600457814 661.24640914390693 0 0 0 0 -36.28625980629333 -74.64475132904704 0 -74.64475132904704 312.52649548570116 0 0 0 0 238.57083676666008 227.1551056826338 0 227.1551056826338 530.05296576947012 0 0 0 0 14.094458171010899 138.60816149728771 0 138.60816149728771 1187.1600408334707 0 0 0 0 248.49316846125737 345.780833366141 0 345.780833366141 907.15785693480393 0 0 0 0 2.68989745804884 3.1673502928911699 0 3.1673502928911699 2.477822254795492 0 0 0 0 260.9514629999411 429.53352574673681 0 429.53352574673681 318.98379516090915 0 0 0 0 223.03186892642628 297.3487489942836 0 297.3487489942836 1626.3942353854427 0 0 0 0 135.81072750164839 49.634145723483357 0 49.634145723483357 1134.4307191691823 0 0 0 0 162.41304765276641 194.02168258903839 0 194.02168258903839 1499.72278623789 0 0 0 0 -132.06356750340319 -71.342544775566239 0 -71.342544775566239 1079.0910120522849 0 0 0 0 -117.83823322358718 78.405764732848183 0 78.405764732848183 1500.0104691403349 0 0 0 0 -164.57349782507117 -64.000157688960144 0 -64.000157688960144 1081.1641810115325 0 0 0 0 -271.33751843670274 -197.64265473058231 0 -197.64265473058231 1499.4541827586336 0 0 0 0 -140.46950353351804 -199.47716872086312 0 -199.47716872086312 970.93066852121979 0 0 0 0 -222.72420678408221 -255.73056508931768 0 -255.73056508931768 958.03546793017813 0 0 0 0 -134.96077281738695 -520.9489076202035 0 -520.9489076202035 1500.5695543862748 0 0 0 0 -150.15624944401557 -470.80561935282503 0 -470.80561935282503 1651.9169387548936 0 0 0 0 -163.54424672873483 -411.40433499712481 0 -411.40433499712481 1497.402076421693 0 0 0 0 43.684913348855787 -137.12762430261773 0 -137.12762430261773 -342.14879441351013 0 0 0 0 0.12364716763575412 -2.8608556993002132 0 -2.8608556993002132 0.46327808509651147 0 0 0 0 -112.67502770991601 -248.21566758582412 0 -248.21566758582412 237.68564715742468 0 0 0 0 -79.225225831463135 -86.184615177970954 0 -86.184615177970954 103.26434246153349 0 0 0 0 15.09776105884643 -33.914907954168939 0 -33.914907954168939 81.804479218745655 0 0 0 0 -65.396419808799777 46.888930680389421 0 46.888930680389421 347.14987620712486 0 0 0 0 -121.42251600510264 21.442204989047241 0 21.442204989047241 503.38337645574666 0 0 0 0 -39.924797391706477 22.367772321208122 0 22.367772321208122 253.16496070524317 0 0 0 0 -1.2054305815550634 89.792790405858113 0 89.792790405858113 286.70959566707461 0 0 0 0 -111.73406263828775 55.703044866961591 0 55.703044866961591 545.25565323161845 0 0 0 0 -79.111100576017236 -86.212616045538653 0 -86.212616045538653 547.37114475910403 0 0 0 0 -206.54498758398341 390.29407095968782 0 390.29407095968782 1500.0867853801374 0 0 0 0 -115.38180462760187 150.95929096104373 0 150.95929096104373 1168.7972822925203 0 0 0 0 687.67479067971146 317.38301448693528 0 317.38301448693528 938.71816406688777 0 0 0 0 577.13743653972142 718.60980933332416 0 718.60980933332416 1122.1084399229112 0 0 0 0 7.6989906024961652 0.77864058624797394 0 0.77864058624797394 7.5108130154600437 0 0 0 0 2.27710373864603 -2.0219164964630814 0 -2.0219164964630814 8.6347826687792448 0 0 0 0 545.02304525259171 841.68146285326156 0 841.68146285326156 1497.7832755981017 0 0 0 0 522.4572074420638 -390.31530625455616 0 -390.31530625455616 307.55816920024427 0 0 0 0 -2.9392721088122027 -4.0985868366821236 0 -4.0985868366821236 7.0732769890171854 0 0 0 0 -22.96271646791746 -75.249734789351351 0 -75.249734789351351 -75.102824146117996 0 0 0 0 -77.887748875136424 -9.9475569776545854 0 -9.9475569776545854 196.25891892272375 0 0 0 0 -45.635517311834519 -10.232790353542441 0 -10.232790353542441 42.976401822276785 0 0 0 0 -71.588109593971069 -72.372325767501479 0 -72.372325767501479 55.44451116320397 0 0 0 0 -8.1815140073779364 -1.6321472757955124 0 -1.6321472757955124 37.944633330570596 0 0 0 0 663.62610476392149 140.32259013536805 0 140.32259013536805 -107.94744789896868 0 0 0 0 389.3797496013467 -141.32320693907423 0 -141.32320693907423 101.87071257754747 0 0 0 0 -532.50711648222023 311.71013511708952 0 311.71013511708952 1270.459236805822 0 0 0 0 -6.7450819018058734 -6.8260721620962368 0 -6.8260721620962368 52.661044395443611 0 0 0 0 -83.322700228118464 -28.921409405310897 0 -28.921409405310897 74.592064527392722 0 0 0 0 -117.80934867833486 689.19879238289286 0 689.19879238289286 -224.82342715647655 0 0 0 0 3.6850151426073214 6.1935301692480422 0 6.1935301692480422 7.3385795317328473 0 0 0 0 -62.450035881494301 1113.6317050812468 0 1113.6317050812468 -893.82912133317222 0 0 0 0 68.003310577551701 310.45876364829292 0 310.45876364829292 -785.92922001435363 0 0 0 0 188.30731142002827 696.18398736371364 0 696.18398736371364 429.17408419238927 0 0 0 0 -32.087123204590412 -12.436173256485972 0 -12.436173256485972 51.49450759771571 0 0 0 0 -5.3577848820569969 -14.258686278282321 0 -14.258686278282321 54.222136448320356 0 0 0 0 498.79615659168826 -417.42157698989649 0 -417.42157698989649 -754.6747342637791 0 0 0 0 -5.7615466445115544 23.286365535509503 0 23.286365535509503 68.886925742245694 0 0 0 0 -33.775143447252162 9.548392335123026 0 9.548392335123026 89.172960206697098 0 0 0 0 -17.782706427262795 69.208196465046001 0 69.208196465046001 100.59147796966317 0 0 0 0 -21.048284115287174 23.773237330155098 0 23.773237330155098 96.184472041808476 0 0 0 0 -16.046573228034276 85.658075191606258 0 85.658075191606258 130.46718726196923 0 0 0 0 9.2244148185674248 48.995632900670898 0 48.995632900670898 113.89987592864964 0 0 0 0 -2.8431214615737304 63.078325083422442 0 63.078325083422442 144.10345123202569 0 0 0 0 3.2709692500353782 49.375513600783961 0 49.375513600783961 144.20879392229836 0 0 0 0 -15.329453623252846 55.453945232097794 0 55.453945232097794 237.56098088510589 0 0 0 0 11.152490357003671 42.230581863655971 0 42.230581863655971 203.98005600864053 0 0 0 0 -5.0064760514742375 49.000482449815081 0 49.000482449815081 206.69701586914016 0 0 0 0 -5.0396052693770343 41.991622872407333 0 41.991622872407333 279.60968619888808 0 0 0 0 9.5996398156673877 78.805061870505597 0 78.805061870505597 203.56828738124386 0 0 0 0 12.639805450230824 30.188944476928555 0 30.188944476928555 237.94645814317846 0 0 0 0 10.094189444526023 70.658488410185782 0 70.658488410185782 154.34129390152339 0 0 0 0 8.5081931246484359 40.763855073594954 0 40.763855073594954 152.68512116053898 0 0 0 0 18.587120428795515 61.433974597173801 0 61.433974597173801 113.46659184130931 0 0 0 0 5.7029553565561173 30.202094816132558 0 30.202094816132558 132.86011709701779 0 0 0 0 25.132481707259103 35.055482155129539 0 35.055482155129539 49.452297779265791 0 0 0 0 0.33688018981365531 92.825339023183915 0 92.825339023183915 148.30665111047892 0 0 0 0 13.05768445456745 37.236434155519191 0 37.236434155519191 208.00242096780858 0 0 0 0 1.8174542116817065 61.82556863186619 0 61.82556863186619 283.36197879780593 0 0 0 0 9.707942911857117 22.125977518771833 0 22.125977518771833 316.5524293201579 0 0 0 0 10.24391254506827 85.786281409349613 0 85.786281409349613 254.86611858212927 0 0 0 0 1.4837683116655853 44.499090196372663 0 44.499090196372663 275.0782444155484 0 0 0 0 39.400083785154493 102.19814315372787 0 102.19814315372787 209.60607021369469 0 0 0 0 -19.986497660374425 101.71252573743004 0 101.71252573743004 352.85732490480041 0 0 0 0 -25.413444766618341 83.93797264854993 0 83.93797264854993 492.80839336595818 0 0 0 0 61.011164547606654 13.273143099477693 0 13.273143099477693 93.086151523028093 0 0 0 0 9.4477425987897732 10.984457087582086 0 10.984457087582086 105.86330904943134 0 0 0 0 43.957000701025095 43.580329049867032 0 43.580329049867032 123.18174724757773 0 0 0 0 -33.15100560475048 45.634456866457185 0 45.634456866457185 125.85637202836642 0 0 0 0 46.424693844802505 20.11048002680036 0 20.11048002680036 19.478903614446608 0 0 0 0 -0.14237132093726679 -0.93393056153908205 0 -0.93393056153908205 11.59195778697233 0 0 0 0 -41.369202022601364 85.151683416520882 0 85.151683416520882 40.17251034194669 0 0 0 0 -43.596020327264014 39.81917240105804 0 39.81917240105804 312.864491662207 0 0 0 0 -123.1431236855185 33.228167913051038 0 33.228167913051038 271.27179405215065 0 0 0 0 1.979236853494077 2.4208212794445743 0 2.4208212794445743 1.7481761016031498 0 0 0 0 -63.094804258289969 160.06725084860614 0 160.06725084860614 118.80156132838601 0 0 0 0 0.7784943543280477 1.0577603456309426 0 1.0577603456309426 0.93740977208623022 0 0 0 0 -3.0500259596170594 114.97544773264508 0 114.97544773264508 -130.34727478900459 0 0 0 0 -24.664123810092477 106.27667261612078 0 106.27667261612078 82.207138442212454 0 0 0 0 -4.6515946331149394 44.441032540538799 0 44.441032540538799 72.795454499905645 0 0 0 0 -48.507965608424193 30.128496031636587 0 30.128496031636587 84.30129729365126 0 0 0 0 -41.853398087470417 75.230864204792169 0 75.230864204792169 145.63119350295892 0 0 0 0 -48.114102684838784 43.190303688847052 0 43.190303688847052 159.76819148573122 0 0 0 0 -17.269839039306447 34.992683696453241 0 34.992683696453241 205.23159128103725 0 0 0 0 -12.721091396767749 58.549469677628963 0 58.549469677628963 166.23019974674753 0 0 0 0 -27.717593390505495 54.339258194062495 0 54.339258194062495 166.96073904027617 0 0 0 0 -35.284150275548313 58.342534389730645 0 58.342534389730645 197.56826204709733 0 0 0 0 -28.033639138249914 56.419625050971717 0 56.419625050971717 155.74909235227278 0 0 0 0 23.003402806578663 114.6792045876382 0 114.6792045876382 163.48816705513252 0 0 0 0 -33.052852103324611 16.067753241864921 0 16.067753241864921 150.18323280602817 0 0 0 0 27.694351786742018 160.56630043365112 0 160.56630043365112 195.32768509916423 0 0 0 0 0.061263068276695587 -0.31195185703964157 0 -0.31195185703964157 0.94612319923438903 0 0 0 0 14.276974719091214 129.20415358872879 0 129.20415358872879 166.50136505110459 0 0 0 0 39.945282005952521 38.041227707100006 0 38.041227707100006 103.90240318464748 0 0 0 0 30.017986970561793 47.991002312067849 0 47.991002312067849 110.83508949629868 0 0 0 0 17.494486005828151 6.494909233180806 0 6.494909233180806 151.31766181910098 0 0 0 0 -7.7377034933678885 -23.148497942467998 0 -23.148497942467998 109.06656183733321 0 0 0 0 2.2739146565485129 1.3936028300618091 0 1.3936028300618091 150.40767116588177 0 0 0 0 -1.6049408793176845 4.4689865493915022 0 4.4689865493915022 207.43757921702309 0 0 0 0 2.2442899872712587 -11.33468356730009 0 -11.33468356730009 98.342778869493486 0 0 0 0 4.7088559087511959 0.38882250780834937 0 0.38882250780834937 0.019892389482484951 0 0 0 0 24.379660120557418 23.324025558144967 0 23.324025558144967 220.0377422667043 0 0 0 0 10.044827322426954 14.970965445500042 0 14.970965445500042 95.078814127134592 0 0 0 0 36.359389183366041 76.713017673685499 0 76.713017673685499 187.34875477291484 0 0 0 0 -0.22618253354361798 -0.13178665157845515 0 -0.13178665157845515 0.72021008539749332 0 0 0 0 19.818852642571919 83.5175665877764 0 83.5175665877764 274.66168619489326 0 0 0 0 -31.994223739952375 10.416234355850065 0 10.416234355850065 148.9891621489744 0 0 0 0 -33.665178059442951 0.056872022190873395 0 0.056872022190873395 229.80070715061083 0 0 0 0 -9.8931387837579337 14.053252513798725 0 14.053252513798725 196.33411724899202 0 0 0 0 -23.702599515942325 17.018919453218359 0 17.018919453218359 282.83744273713091 0 0 0 0 -16.793725735028772 27.383019309758311 0 27.383019309758311 225.67378499980987 0 0 0 0 -34.983311423058069 15.380961587996353 0 15.380961587996353 279.95815285248318 0 0 0 0 5.0858249281679484 10.186598141941591 0 10.186598141941591 2.0210893895492923 0 0 0 0 12.787826159671567 28.953373819538683 0 28.953373819538683 -33.397805221959061 0 0 0 0 6.0985613005311299 0.80434290831917821 0 0.80434290831917821 3.0037910388177655 0 0 0 0 -19.821271409114956 1.2482481941724473 0 1.2482481941724473 300.73504461674202 0 0 0 0 7.5599832380569012 0.63582048609828234 0 0.63582048609828234 99.299285267978121 0 0 0 0 1.1495013237451701 -4.0037634043146682 0 -4.0037634043146682 265.75061179918316 0 0 0 0 0.31185702095069701 -5.200573370564598 0 -5.200573370564598 274.49208257011651 0 0 0 0 -3.7861924408016421 11.893189940878074 0 11.893189940878074 5.0526209073796053 0 0 0 0 -0.48626950811740244 11.637397299626173 0 11.637397299626173 -3.7104413370470866 0 0 0 0 0.19826993094920908 11.929924680602198 0 11.929924680602198 -12.404563180687546 0 0 0 0 -0.90929678017596416 18.991127702543963 0 18.991127702543963 -9.8403106285913964 0 0 0 0 -1.2631620231204579 19.470017744497454 0 19.470017744497454 -1.5564577555069263 0 0 0 0 -3.8499630519499988 18.979179781368657 0 18.979179781368657 0.68432431848123088 0 0 0 0 3.5567939432044113 24.943599800117227 0 24.943599800117227 5.879639313719963 0 0 0 0 7.1732064131088009 39.53229888875012 0 39.53229888875012 -20.424554371966224 0 0 0 0 -2.8380216358218604 24.06145366547571 0 24.06145366547571 5.7839490863880201 0 0 0 0 -45.931222197069474 17.225834572464009 0 17.225834572464009 158.41412882154782 0 0 0 0 0.7168762866978895 0.95751110267048745 0 0.95751110267048745 0.29371790941884335 0 0 0 0 -6.5467760236811046 17.488827140727153 0 17.488827140727153 18.940277124060231 0 0 0 0 -6.8793160400548459 14.006904454880896 0 14.006904454880896 0.19625395592083805 0 0 0 0 0.13555460766226268 0.42901830894883375 0 0.42901830894883375 0.16856502309087951 0 0 0 0 6.7540240130015263 26.184481446252903 0 26.184481446252903 -41.840788073393924 0 0 0 0 0.41672547714784969 43.445898109117252 0 43.445898109117252 11.146036796897533 0 0 0 0 -10.518199829193691 11.761146108197863 0 11.761146108197863 87.519128142204863 0 0 0 0 -0.28272851731051674 47.722167853779183 0 47.722167853779183 60.487557071151969 0 0 0 0 4.4276996658163625 20.94600034315954 0 20.94600034315954 36.232866373143224 0 0 0 0 8.9485528034806521 17.856994454434243 0 17.856994454434243 3.079299881173938 0 0 0 0 7.4426676382634014 13.784982895723715 0 13.784982895723715 38.503368360179593 0 0 0 0 4.5745308552282307 11.110985798770475 0 11.110985798770475 3.7654598122865464 0 0 0 0 1.8757858587614464 16.834377909312025 0 16.834377909312025 7.11062559997481 0 0 0 0 -5.8219854874296288 14.187674819098902 0 14.187674819098902 8.305035953040715 0 0 0 0 -11.197242839787577 17.780379334402824 0 17.780379334402824 4.7603530522696929 0 0 0 0 -10.451179869586554 13.678502688542267 0 13.678502688542267 6.6781644229195081 0 0 0 0 2.1627803414630762 13.325685655647248 0 13.325685655647248 2.4461904667368799 0 0 0 0 1.4301912618685719 -17.368943725291047 0 -17.368943725291047 -99.599433421888534 0 0 0 0 -24.194274811055948 63.508284818746688 0 63.508284818746688 -86.656459998826904 0 0 0 0 -234.64194939906156 -40.950620531777531 0 -40.950620531777531 429.55881466141727 0 0 0 0 -37.521077677915855 -94.747781435180514 0 -94.747781435180514 499.82975734325009 0 0 0 0 37.095749445903948 -70.688869735082335 0 -70.688869735082335 400.27043595469513 0 0 0 0 -31.787032232621527 -5.6251264619527319 0 -5.6251264619527319 507.77523216445115 0 0 0 0 -7.9798977823052155 10.92022585259474 0 10.92022585259474 393.24149503843819 0 0 0 0 -14.524403825034369 9.9986659839214553 0 9.9986659839214553 412.0504824985801 0 0 0 0 35.827639335420372 -14.21354174105727 0 -14.21354174105727 419.30766914959167 0 0 0 0 35.89666227454245 21.042504937224294 0 21.042504937224294 464.1614326573108 0 0 0 0 61.59528549089714 7.7553700704320363 0 7.7553700704320363 435.16931282876612 0 0 0 0 -8.1522952165869356 14.898442438752681 0 14.898442438752681 497.95915740869168 0 0 0 0 -3.5454676466745383 18.319163766189945 0 18.319163766189945 410.84673025543816 0 0 0 0 -6.0161527739410303 -4.8419264924741583 0 -4.8419264924741583 456.68030947931311 0 0 0 0 8.4697573440687393 45.268760497888252 0 45.268760497888252 335.84141544047088 0 0 0 0 4.9134405436630004 -1.4865325356913672 0 -1.4865325356913672 396.0753778776525 0 0 0 0 2.7235520142408944 28.150287695003726 0 28.150287695003726 351.32760729282018 0 0 0 0 3.8496205519613795 -32.842281272474793 0 -32.842281272474793 446.70841293881676 0 0 0 0 -7.996899429822065 -14.291342126655763 0 -14.291342126655763 424.78363807750429 0 0 0 0 -5.0818357521613962 -30.072987413890587 0 -30.072987413890587 427.03931380343056 0 0 0 0 -25.777460208117191 -48.269322036663652 0 -48.269322036663652 523.91420862541827 0 0 0 0 14.182500029862695 -83.99316816490682 0 -83.99316816490682 473.10157916711614 0 0 0 0 1.7334179236840734 0.40297831731868783 0 0.40297831731868783 0.56914277053191142 0 0 0 0 55.000688352870384 38.336714487028075 0 38.336714487028075 -176.41859244575062 0 0 0 0 49.587586937264859 10.886168673503562 0 10.886168673503562 -156.89542332834026 0 0 0 0 13.134103240747713 6.453620575933563 0 6.453620575933563 0.13797548338367083 0 0 0 0 -7.4601045033454056 12.333610496083566 0 12.333610496083566 -40.940761437585024 0 0 0 0 98.377630357535736 1.0550938766673426 0 1.0550938766673426 -56.867638877578429 0 0 0 0 -16.635870323646486 -28.406225315804477 0 -28.406225315804477 521.22783981915927 0 0 0 0 7.8208040303604935 7.3663284279270798 0 7.3663284279270798 3.4453808346907144 0 0 0 0 -1.9758397970806527 -26.877006692186114 0 -26.877006692186114 359.8837450992396 0 0 0 0 9.9032345395504535 2.9785186158223951 0 2.9785186158223951 -41.156992780955989 0 0 0 0 5.620221272004148 1.2400336977075312 0 1.2400336977075312 -0.73051294638881004 0 0 0 0 35.777685384758115 48.7064406811769 0 48.7064406811769 -101.07684948675023 0 0 0 0 -6.4288366805549231 71.287597486323648 0 71.287597486323648 -56.965083568218688 0 0 0 0 -41.603988351002954 42.063451734247792 0 42.063451734247792 -20.211328223704186 0 0 0 0 40.792460900548718 -45.337040314853311 0 -45.337040314853311 361.50337658452918 0 0 0 0 24.414835336102669 -24.428940140267514 0 -24.428940140267514 380.82241240513395 0 0 0 0 -0.86306069095616067 13.145051780395534 0 13.145051780395534 360.69553442099277 0 0 0 0 17.611684286807531 11.54150255071545 0 11.54150255071545 321.15479369699824 0 0 0 0 3.4450385425604395 45.322804925855507 0 45.322804925855507 280.90023331149132 0 0 0 0 6.3310412616501708 -7.7255901045300561 0 -7.7255901045300561 323.18566806307535 0 0 0 0 8.3755000499924108 9.8260723437833803 0 9.8260723437833803 250.34750888342569 0 0 0 0 -13.14778872539398 22.802512940707857 0 22.802512940707857 301.62110599214793 0 0 0 0 16.351734414531165 4.3250546913241124 0 4.3250546913241124 271.83796993446504 0 0 0 0 17.726022245882064 -37.029640312603078 0 -37.029640312603078 327.12572005700713 0 0 0 0 -7.7283528933253365 38.60582063635411 0 38.60582063635411 9.8265423869743245 0 0 0 0 8.417865428890309 7.8231934714340241 0 7.8231934714340241 -54.892427378876164 0 0 0 0 8.8453631733573275 40.755437350188004 0 40.755437350188004 30.143131235502096 0 0 0 0 12.267792325191067 5.8322843828000259 0 5.8322843828000259 21.616857385513867 0 0 0 0 -14.60753889867874 25.972574566975709 0 25.972574566975709 99.791397502573091 0 0 0 0 188.11439590541795 105.52287503772095 0 105.52287503772095 -3.8010363496009631 0 0 0 0 1.285153577618523 0.87154997706079484 0 0.87154997706079484 0.22563258706291478 0 0 0 0 -77.840728702566594 -39.649009025910345 0 -39.649009025910345 86.598190711767529 0 0 0 0 -111.74358934154952 -24.734335420524076 0 -24.734335420524076 254.20753168940792 0 0 0 0 5.8782426477478111 -10.030847944182824 0 -10.030847944182824 74.405881762206263 0 0 0 0 -8.5576011271587049 32.211523425918131 0 32.211523425918131 42.88163951390743 0 0 0 0 32.925031265374855 47.737281989087933 0 47.737281989087933 31.010292920607753 0 0 0 0 42.650705996500619 15.47107607874932 0 15.47107607874932 28.299002960819053 0 0 0 0 14.815029084855496 22.006904181689151 0 22.006904181689151 -32.149124121453497 0 0 0 0 2.7649427864535028 20.622977187833385 0 20.622977187833385 -17.368083897796168 0 0 0 0 44.524903890124733 72.943854108134474 0 72.943854108134474 8.3998063327671844 0 0 0 0 67.089745043716903 38.147671311053273 0 38.147671311053273 -73.070077229712297 0 0 0 0 -12.948207163683946 50.345771476411755 0 50.345771476411755 69.782044209474407 0 0 0 0 -7.1207396853060345 -19.763934160088866 0 -19.763934160088866 -63.015077155600011 0 0 0 0 -22.899090831540889 69.97678128971711 0 69.97678128971711 220.23215898941999 0 0 0 0 0.73814670931898618 0.10864836475160189 0 0.10864836475160189 0.12686952167255416 0 0 0 0 -1.3644886203010174 31.996710101433564 0 31.996710101433564 -34.553709717394895 0 0 0 0 13.297624166097194 77.121150367005612 0 77.121150367005612 103.3366473715796 0 0 0 0 18.846152415853339 81.964486907409992 0 81.964486907409992 78.469341869098571 0 0 0 0 47.04327368293346 19.622448596809761 0 19.622448596809761 -31.583584955391416 0 0 0 0 -5.7922970353120036 40.357580675256031 0 40.357580675256031 71.312122827621351 0 0 0 0 -1.1852225412419557 11.791889797857948 0 11.791889797857948 -28.930975036804739 0 0 0 0 -10.420663075155517 1.972183860356381 0 1.972183860356381 55.416685629152198 0 0 0 0 1.7894163404653227 20.304592913536908 0 20.304592913536908 16.458814311063179 0 0 0 0 -32.53139241830354 33.048741710336799 0 33.048741710336799 69.273657031386392 0 0 0 0 -31.775777121347801 19.807018911822524 0 19.807018911822524 128.77720547476838 0 0 0 0 -31.953898571868876 40.95045954510897 0 40.95045954510897 105.27028833921213 0 0 0 0 -15.268495218908356 36.820293715831212 0 36.820293715831212 62.243442104769201 0 0 0 0 0.53985635723893211 15.50416140516063 0 15.50416140516063 25.862851605925243 0 0 0 0 18.795355000632298 22.248278584516811 0 22.248278584516811 -4.7140121167144571 0 0 0 0 -12.219657859681888 49.309057212745984 0 49.309057212745984 59.836354676059273 0 0 0 0 29.006373440753123 65.443585073780923 0 65.443585073780923 1.5638601701111838 0 0 0 0 -44.491733499894508 67.943261702368545 0 67.943261702368545 64.582161917136546 0 0 0 0 -16.389755201146727 125.93431622379376 0 125.93431622379376 183.39832297407702 0 0 0 0 -6.3548387281960004 -54.958252868629643 0 -54.958252868629643 166.74316405742138 0 0 0 0 0.61672839774430965 1.1484272867109979 0 1.1484272867109979 2.0929169500911087 0 0 0 0 -65.587876652559771 -1.8667630895888578 0 -1.8667630895888578 195.76926363172061 0 0 0 0 41.349937241403723 107.80017132384501 0 107.80017132384501 9.5968559110660863 0 0 0 0 -5.4334839633302181 15.069196131084027 0 15.069196131084027 -34.62961052236551 0 0 0 0 22.329139530459429 40.046464698764794 0 40.046464698764794 -46.18417398555539 0 0 0 0 9.9653360938120841 54.514381239954218 0 54.514381239954218 -49.230123869019735 0 0 0 0 -6.688371860938787 22.658198640449427 0 22.658198640449427 -17.192496644514904 0 0 0 0 22.283370133641256 13.579432373584496 0 13.579432373584496 11.831925461505307 0 0 0 0 64.963563791503475 31.711120524218131 0 31.711120524218131 -20.754984041270291 0 0 0 0 34.660763028913152 -17.767465344762059 0 -17.767465344762059 7.4674041460348235 0 0 0 0 21.864878120279172 -0.73692151189789001 0 -0.73692151189789001 -14.780436981585808 0 0 0 0 25.481595555141666 5.6785903417394366 0 5.6785903417394366 -11.129906807931548 0 0 0 0 33.240340783166175 10.312628404690258 0 10.312628404690258 -38.21654968954681 0 0 0 0 19.244424313254513 33.458028533548713 0 33.458028533548713 -34.041396836706554 0 0 0 0 11.333925137173992 12.196722637196217 0 12.196722637196217 -18.223557538942259 0 0 0 0 3.6413003820016456 23.078292073309058 0 23.078292073309058 16.984266419254709 0 0 0 0 -1.150535849476455 2.6692200869638327 0 2.6692200869638327 -20.251201747647428 0 0 0 0 -0.19329329608967072 0.84226668811726313 0 0.84226668811726313 1.2221724863146051 0 0 0 0 21.51053281858367 11.087837608218251 0 11.087837608218251 -18.220174011892595 0 0 0 0 6.4466631585019059 8.3933009494594444 0 8.3933009494594444 -0.12776195017067948 0 0 0 0 -0.084750218673456779 -0.71405816192724103 0 -0.71405816192724103 -0.1148546853885577 0 0 0 0 20.694445941662707 -6.4437971665811347 0 -6.4437971665811347 2.0900149838344078 0 0 0 0 -5.4340749200132876 -10.1643246581977 0 -10.1643246581977 7.7935471477758256 0 0 0 0 -4.6065921895233259 1.6539146031664131 0 1.6539146031664131 -24.457921413806616 0 0 0 0 -3.2200870243625932 -0.022782714826515615 0 -0.022782714826515615 6.2424023273928526 0 0 0 0 10.601938187776341 3.1624985147736879 0 3.1624985147736879 8.0506287204407272 0 0 0 0 15.746923729476293 7.4223251748353505 0 7.4223251748353505 7.5884376064532262 0 0 0 0 2.7004583694782127 3.1397965421418377 0 3.1397965421418377 2.9326424927492099 0 0 0 0 0.8537309903640562 13.225373879888139 0 13.225373879888139 13.744549754499531 0 0 0 0 -5.9466119638809687 15.703140027640984 0 15.703140027640984 67.76530227272724 0 0 0 0 9.9050723210823435 -5.6549965299368523 0 -5.6549965299368523 33.546106072080875 0 0 0 0 -6.0569853579902428 -6.9282439978533148 0 -6.9282439978533148 58.409687182600464 0 0 0 0 -4.3863437281870574 4.4332017846700182 0 4.4332017846700182 59.630852193899045 0 0 0 0 -4.7411324402173989 -0.77891131631599819 0 -0.77891131631599819 69.003751717522391 0 0 0 0 -7.6175932816295244 26.010335226148527 0 26.010335226148527 182.18905217764541 0 0 0 0 -1.3994228379142442 24.703472470585439 0 24.703472470585439 127.13772071478161 0 0 0 0 5.1569626826906187 -19.301629778948154 0 -19.301629778948154 81.151317802010453 0 0 0 0 -7.290199710356319 -26.538177732642907 0 -26.538177732642907 40.805807147748055 0 0 0 0 -29.22664766314756 29.486353921601221 0 29.486353921601221 26.889047869163505 0 0 0 0 -12.514521779622441 -3.4781476946031944 0 -3.4781476946031944 43.206318454049324 0 0 0 0 -4.5012406096269615 3.3857613327254512 0 3.3857613327254512 -3.788494262000313 0 0 0 0 -93.077740412686808 73.354875159340736 0 73.354875159340736 -28.168323090611011 0 0 0 0 1.4199648893075381 3.0518944318638574 0 3.0518944318638574 5.5820624980211875 0 0 0 0 -48.10004055631407 15.449885220537908 0 15.449885220537908 -2.7222029774948169 0 0 0 0 -98.718964511350578 90.863691849374845 0 90.863691849374845 -12.620181753638462 0 0 0 0 1.8624442586471979 4.1646803802087184 0 4.1646803802087184 7.8601010462764194 0 0 0 0 -31.671500898135491 37.950902647959992 0 37.950902647959992 0.22362940149264432 0 0 0 0 -22.899543433748477 12.372287863847305 0 12.372287863847305 5.9501575409221914 0 0 0 0 1.4604373101660713 7.152212016253543 0 7.152212016253543 -0.17338896319415653 0 0 0 0 -9.4281919393433782 -1.9616904957474617 0 -1.9616904957474617 33.033230127944307 0 0 0 0 0.59538774733550781 -6.2656424962688106 0 -6.2656424962688106 16.991860504400393 0 0 0 0 -16.776760831826323 2.6996894040312327 0 2.6996894040312327 12.762114447101339 0 0 0 0 -14.432541519151982 3.8436076417083314 0 3.8436076417083314 12.890512237923758 0 0 0 0 -2.042934868231896 -5.5479522383593576 0 -5.5479522383593576 12.774586570743395 0 0 0 0 -3.4533360556557682 -8.7571723128812664 0 -8.7571723128812664 17.485562883364764 0 0 0 0 -7.807027824306374 -4.2129272088131984 0 -4.2129272088131984 21.973625347574853 0 0 0 0 -5.7352015850790394 -7.1611110527092023 0 -7.1611110527092023 32.575925155721052 0 0 0 0 -2.166729650013167 -5.427085479364905 0 -5.427085479364905 22.217761900589267 0 0 0 0 -8.4545799254942722 -4.9056714742227996 0 -4.9056714742227996 36.620428997397539 0 0 0 0 -1.7296508014478604 -4.8955548731637464 0 -4.8955548731637464 36.401848331839574 0 0 0 0 -7.5145391064575051 1.9895344354608824 0 1.9895344354608824 51.5687234555553 0 0 0 0 -4.200078841203549 -1.8996023496629277 0 -1.8996023496629277 39.431753952438157 0 0 0 0 -3.5208404805048303 0.89911494102125289 0 0.89911494102125289 35.06226334657913 0 0 0 0 -5.9921771435256233 7.8841604434874171 0 7.8841604434874171 56.849502143388236 0 0 0 0 -5.6001071814139323 3.1585340638685011 0 3.1585340638685011 50.331532576543395 0 0 0 0 -8.614342583563257 2.4421850322141836 0 2.4421850322141836 65.647702172362187 0 0 0 0 -0.87116745962066489 5.2294434439972974 0 5.2294434439972974 49.972362725255152 0 0 0 0 1.9428828268983125 -2.2090162189488183 0 -2.2090162189488183 34.643545918646851 0 0 0 0 -7.8080308201774642 -6.0506548661851411 0 -6.0506548661851411 37.201212548399781 0 0 0 0 -0.89391002904676498 3.5702116973934608 0 3.5702116973934608 49.922455761536185 0 0 0 0 -4.4164195503512929 3.9879331640549935 0 3.9879331640549935 50.03076516721012 0 0 0 0 2.0252615161745098 3.3593066683636152 0 3.3593066683636152 37.249326261993701 0 0 0 0 1.1916188808127117 -2.3892911217080837 0 -2.3892911217080837 35.868642980018194 0 0 0 0 -1.7413318192614042 -1.6451892032500837 0 -1.6451892032500837 27.141224193652306 0 0 0 0 -4.536011384449921 -2.9721969226902729 0 -2.9721969226902729 39.620179761619511 0 0 0 0 -1.6128656214418697 -6.1530164806554239 0 -6.1530164806554239 25.332315030413156 0 0 0 0 -4.4010382521460087 -3.3139639858345618 0 -3.3139639858345618 36.320512490563488 0 0 0 0 -2.7150943259521227 -6.4158643060054601 0 -6.4158643060054601 16.321181424449605 0 0 0 0 -5.3242241327436659 -3.5725851548577339 0 -3.5725851548577339 23.538751921922085 0 0 0 0 -6.0834993385456073 -6.331406869258899 0 -6.331406869258899 17.835147737601801 0 0 0 0 -7.945572233232383 -15.21770021084285 0 -15.21770021084285 16.13232829815388 0 0 0 0 -9.82003615561689 -12.051102144656397 0 -12.051102144656397 23.11507893694403 0 0 0 0 -1.6616245576589255 -6.8592816473467444 0 -6.8592816473467444 23.080305265020609 0 0 0 0 -4.0524510754944458 -4.0378012204582774 0 -4.0378012204582774 21.645287265062507 0 0 0 0 -6.1460874267950203 -9.0649601374516351 0 -9.0649601374516351 25.898044337286137 0 0 0 0 -9.0595031786835989 -11.769676837413499 0 -11.769676837413499 16.937070196012655 0 0 0 0 -7.285549971758428 -5.2089533814596507 0 -5.2089533814596507 14.892314628092208 0 0 0 0 -4.6355442667925004 -4.80283051556858 0 -4.80283051556858 19.083531993022234 0 0 0 0 19.820555258776267 24.186538851606201 0 24.186538851606201 39.833036233194207 0 0 0 0 6.3453089084837302 42.250202628582883 0 42.250202628582883 89.794654504927166 0 0 0 0 -2.4555645523462317 13.678775149261128 0 13.678775149261128 71.199203577132721 0 0 0 0 12.23327497663729 11.28778117791353 0 11.28778117791353 41.569378937777401 0 0 0 0 -1.8686626426447219 -0.29200572855188511 0 -0.29200572855188511 40.94950300849203 0 0 0 0 -2.7150943259457563 -6.4158643060072791 0 -6.4158643060072791 16.321181424445058 0 0 0 0 12.563919846986209 63.170663315409001 0 63.170663315409001 218.66613860247526 0 0 0 0 7.2756517698599055 34.000442377695435 0 34.000442377695435 123.23864123320345 0 0 0 0 7.1082340118168759 17.635570821636975 0 17.635570821636975 56.369172309438 0 0 0 0 0.81919657031312454 19.783477831572554 0 19.783477831572554 142.52627324036257 0 0 0 0 31.431937530674077 2.7887560164363094 0 2.7887560164363094 59.022542217385762 0 0 0 0 75.169991340511331 -26.109894406921001 0 -26.109894406921001 14.978457691508083 0 0 0 0 22.503789593920374 -20.555009706891724 0 -20.555009706891724 64.16336241171598 0 0 0 0 6.3416399062271012 1.5732832594512729 0 1.5732832594512729 35.091589057605233 0 0 0 0 7.8936087314145453 -28.888946494439864 0 -28.888946494439864 -2.0353641626425087 0 0 0 0 3.4898606033123549 -5.773392678156581 0 -5.773392678156581 4.9679819887401919 0 0 0 0 11.057248511740909 11.594263030177899 0 11.594263030177899 37.512585306643814 0 0 0 0 -2.2291270673675845 -6.6208000109750174 0 -6.6208000109750174 26.479529034033334 0 0 0 0 5.4263241080373197 0.59056605933509942 0 0.59056605933509942 13.821999371605063 0 0 0 0 26.502312493454156 -8.3670474684422516 0 -8.3670474684422516 -24.880015076882046 0 0 0 0 46.190639027513498 6.4483208265619396 0 6.4483208265619396 -18.76456530269661 0 0 0 0 -3.7681624414377901 -5.9585041028821699 0 -5.9585041028821699 16.895837824715642 0 0 0 0 -6.6120955828112074 -4.2488121231863261 0 -4.2488121231863261 28.282383518595452 0 0 0 0 4.5440162845378316 -4.3666955056187078 0 -4.3666955056187078 10.303100035200327 0 0 0 0 -5.5808511521240689 -15.497298634985782 0 -15.497298634985782 27.255956825720205 0 0 0 0 -2.7150943259530322 -6.4158643060072791 0 -6.4158643060072791 16.321181424442329 0 0 0 0 20.163835021547357 16.375046851861043 0 16.375046851861043 24.59392643479805 0 0 0 0 -9.0305448743542911 7.0922131273600826 0 7.0922131273600826 65.098887630897025 0 0 0 0 -11.212484019865769 -20.079755899737393 0 -20.079755899737393 24.073806565741506 0 0 0 0 17.574607783531292 5.9441743037732522 0 5.9441743037732522 40.024767077589786 0 0 0 0 3.396999781675504 0.34866873607370508 0 0.34866873607370508 30.795567884994853 0 0 0 0 0.31691267644674781 7.5296934169771248 0 7.5296934169771248 59.864631776945316 0 0 0 0 -2.9633334879502913 9.1950812979669081 0 9.1950812979669081 9.4150599851703909 0 0 0 0 -6.3498151041731035 -3.1969759936919218 0 -3.1969759936919218 61.029318205537493 0 0 0 0 47.605232279197025 57.154392389957138 0 57.154392389957138 21.493780201921936 0 0 0 0 1.3066860725889864 -0.47700639029739023 0 -0.47700639029739023 0.096433707817416447 0 0 0 0 -36.773718419826366 -53.526862845779078 0 -53.526862845779078 181.22592661378258 0 0 0 0 22.865308390435899 64.309243551885174 0 64.309243551885174 44.963980019116207 0 0 0 0 11.945902893364746 16.186163276756815 0 16.186163276756815 49.902645935105284 0 0 0 0 3.5662163671378835 13.193018577688918 0 13.193018577688918 59.493513302746805 0 0 0 0 8.0886287020308085 11.926160937625463 0 11.926160937625463 18.901246925041196 0 0 0 0 -8.2552053582410991 -3.1747850641085407 0 -3.1747850641085407 31.888302646607713 0 0 0 0 -18.464016627865249 -89.052351030031787 0 -89.052351030031787 32.599300846535698 0 0 0 0 -9.1707528459485061 -4.8811354595874121 0 -4.8811354595874121 25.158004518593408 0 0 0 0 -45.223890668736658 -12.347669864529053 0 -12.347669864529053 38.80169799138821 0 0 0 0 34.772619609636877 37.976400105942957 0 37.976400105942957 45.036159111872621 0 0 0 0 -18.556974453434123 53.143731433767243 0 53.143731433767243 84.315768719490734 0 0 0 0 23.749937056313684 50.910028675958529 0 50.910028675958529 54.333642967653304 0 0 0 0 14.016496605742304 39.697510804247258 0 39.697510804247258 93.647628298213021 0 0 0 0 2.8230329350781176 28.197547911101537 0 28.197547911101537 49.856931491502337 0 0 0 0 8.7824759708216789 23.514828355640248 0 23.514828355640248 52.338977794928724 0 0 0 0 -3.356778340018991 55.968632303638515 0 55.968632303638515 105.60137034590298 0 0 0 0 29.850532059605143 197.96874085707805 0 197.96874085707805 163.19660485139138 0 0 0 0 -189.69110462552112 125.05247608551781 0 125.05247608551781 277.37667323739697 0 0 0 0 -126.65794944970719 -23.253687514227295 0 -23.253687514227295 86.200025635411293 0 0 0 0 34.734979954512653 37.30791088026956 0 37.30791088026956 36.56646914630619 0 0 0 0 -6.419942221627025 -12.887974452536582 0 -12.887974452536582 -16.32081574703443 0 0 0 0 -25.943248812371166 25.169919610001671 0 25.169919610001671 76.455467580587538 0 0 0 0 28.377595735365389 60.52428263651791 0 60.52428263651791 89.879134726437769 0 0 0 0 17.214282183282194 45.189599316849126 0 45.189599316849126 129.78074735037831 0 0 0 0 22.607690265885964 89.760447889569946 0 89.760447889569946 91.68508034509432 0 0 0 0 -50.187677667494654 121.74491050270171 0 121.74491050270171 92.305534888339025 0 0 0 0 69.247612323445082 104.47170034741794 0 104.47170034741794 92.88430560706729 0 0 0 0 54.727611821111566 -123.46743575653409 0 -123.46743575653409 101.1191091261735 0 0 0 0 29.663311950708703 -155.08979905293745 0 -155.08979905293745 -96.767974755508476 0 0 0 0 0.26985647047828648 0.92965740613597436 0 0.92965740613597436 2.9678834647409431 0 0 0 0 67.987796248523281 118.67808751214625 0 118.67808751214625 -59.08215765751811 0 0 0 0 75.402807373021915 178.18584304040633 0 178.18584304040633 44.065135047771037 0 0 0 0 19.012750763383508 -64.406384948692903 0 -64.406384948692903 16.489793559485406 0 0 0 0 -68.041288533354304 39.733575907876002 0 39.733575907876002 -11.314721408509286 0 0 0 0 351.21030148836257 65.772054036655391 0 65.772054036655391 130.62750558681546 0 0 0 0 -17.02248737638962 -143.08260408542083 0 -143.08260408542083 187.03316231057033 0 0 0 0 -86.0989382831782 -113.34908189220187 0 -113.34908189220187 237.84408280586285 0 0 0 0 -105.22551556133885 -4.688313441372884 0 -4.688313441372884 153.60274299508728 0 0 0 0 -138.46849858095197 -50.322698637330177 0 -50.322698637330177 189.06121265332922 0 0 0 0 -58.368002296041823 -85.320396318151325 0 -85.320396318151325 187.1019956132219 0 0 0 0 -83.690017539869132 -47.001811661943066 0 -47.001811661943066 130.17679708448486 0 0 0 0 -34.865077750345961 -86.090105484398464 0 -86.090105484398464 125.94643786567758 0 0 0 0 -54.405629263223318 -16.671105749784147 0 -16.671105749784147 156.32130664143915 0 0 0 0 -36.151405080662698 -50.327991562633542 0 -50.327991562633542 80.712130269792397 0 0 0 0 -41.674216843229487 -62.394208622603401 0 -62.394208622603401 118.26084881925726 0 0 0 0 -40.702440899599651 -58.821937604183404 0 -58.821937604183404 130.58049020418991 0 0 0 0 4.4184951684101179 -20.893987770763488 0 -20.893987770763488 51.534714728817562 0 0 0 0 7.9980755437957214 -5.8543076523874333 0 -5.8543076523874333 86.966737714370538 0 0 0 0 27.19085061896817 5.1945030441802373 0 5.1945030441802373 49.663178389761015 0 0 0 0 12.279591295065529 4.3236770131970843 0 4.3236770131970843 109.76371636418116 0 0 0 0 -17.020333132619498 -20.881873267293486 0 -20.881873267293486 125.94110783205758 0 0 0 0 -0.70318671960944812 -14.683928829718752 0 -14.683928829718752 83.563882030623063 0 0 0 0 33.63389743258449 23.770331912228812 0 23.770331912228812 98.695499462719454 0 0 0 0 18.238134120660533 -1.4563130832170827 0 -1.4563130832170827 102.83776590680282 0 0 0 0 23.427584040301326 4.541784245204326 0 4.541784245204326 108.78077673555345 0 0 0 0 3.379229832827443 0.67746316895478742 0 0.67746316895478742 0.37981277612896047 0 0 0 0 11.185462221603188 -8.1010505126223507 0 -8.1010505126223507 157.66462419712843 0 0 0 0 19.725936695285185 5.2594610492319589 0 5.2594610492319589 137.95542711198505 0 0 0 0 31.018366527943613 -10.240924023975822 0 -10.240924023975822 127.01767224438299 0 0 0 0 20.809323615567223 -19.418208190649239 0 -19.418208190649239 139.17366689676328 0 0 0 0 -45.911282649374243 2.5578587289855932 0 2.5578587289855932 146.60473887311855 0 0 0 0 2.8581078990542945 0.6527514635716507 0 0.6527514635716507 0.33642990228114833 0 0 0 0 -38.004995250528737 -18.839819499675286 0 -18.839819499675286 126.01764368313269 0 0 0 0 -22.046634888752351 2.417080928436917 0 2.417080928436917 134.56427213197458 0 0 0 0 10.390833661762827 -4.2330761747507495 0 -4.2330761747507495 109.56756593651255 0 0 0 0 11.259509836171901 1.1511376861963072 0 1.1511376861963072 128.67074496776695 0 0 0 0 6.9501545757247527 8.5535868304332325 0 8.5535868304332325 135.42705196650422 0 0 0 0 -2.6444304936176195 3.9617168093591317 0 3.9617168093591317 66.860463402334062 0 0 0 0 -20.610636986600952 -37.735005019662594 0 -37.735005019662594 129.74335529420932 0 0 0 0 5.5836744120988442 14.445178514564759 0 14.445178514564759 40.770741642096255 0 0 0 0 5.9725223858877143 11.397885215283168 0 11.397885215283168 42.329916998665794 0 0 0 0 4.0927214342113896 10.97352288560343 0 10.97352288560343 3.5437563415696314 0 0 0 0 13.832728395481809 34.381247899927985 0 34.381247899927985 87.312155551797332 0 0 0 0 1.6592922781055677 9.0009271469079977 0 9.0009271469079977 50.070122749810253 0 0 0 0 -6.6910867381370736 12.74479617441466 0 12.74479617441466 58.326409404180595 0 0 0 0 -0.22122778413859123 14.198434450336208 0 14.198434450336208 58.316929572371009 0 0 0 0 4.495165927130742 19.431707545486006 0 19.431707545486006 49.234540047458722 0 0 0 0 -9.5339942578821137 13.159495897207307 0 13.159495897207307 61.66451713049355 0 0 0 0 -1.7939615213379057 7.9449112801112278 0 7.9449112801112278 56.45319609348735 0 0 0 0 -1.5515105270665117 8.1361643218260724 0 8.1361643218260724 56.580209856336296 0 0 0 0 2.4456676171444087 2.1316925510054716 0 2.1316925510054716 60.422287110981415 0 0 0 0 1.673311947602997 8.7408852260687127 0 8.7408852260687127 64.049930478353417 0 0 0 0 0.57682384373447348 8.6725717138215259 0 8.6725717138215259 54.624499584391742 0 0 0 0 -1.7792031906241448 3.8042445435817172 0 3.8042445435817172 59.538728578889277 0 0 0 0 9.6831531815696508 5.1337064718663896 0 5.1337064718663896 58.082735001468791 0 0 0 0 -2.7229839265517057 4.1507430938763719 0 4.1507430938763719 58.058138254724327 0 0 0 0 2.8699712670311328 -2.5316247596119865 0 -2.5316247596119865 56.452716587951727 0 0 0 0 -4.9051976521168399 -2.5779455251031322 0 -2.5779455251031322 73.145300365520598 0 0 0 0 9.2024057334797362 -2.1394881701908162 0 -2.1394881701908162 56.343032778414454 0 0 0 0 0.75289226466487147 10.109314011539873 0 10.109314011539873 2.5154543956717781 0 0 0 0 2.7288762613952025 0.30423134012180597 0 0.30423134012180597 0.30488516734538029 0 0 0 0 -31.447282699623429 -49.154439997451846 0 -49.154439997451846 157.00061097990761 0 0 0 0 19.117501230947255 53.83434493130153 0 53.83434493130153 68.982375542641421 0 0 0 0 2.8750692430394791 10.804941362658099 0 10.804941362658099 3.6850818703383741 0 0 0 0 -71.09603608181726 -47.536903297139361 0 -47.536903297139361 338.68391031327519 0 0 0 0 -68.83235046877742 22.550860377185018 0 22.550860377185018 468.89770224227686 0 0 0 0 0.027575311450584724 -77.026979075953932 0 -77.026979075953932 228.74836779079851 0 0 0 0 0.12755059696040899 -1.2382133009622827 0 -1.2382133009622827 2.9542908441498525 0 0 0 0 -97.281145694358287 10.77363920929929 0 10.77363920929929 294.06911126472005 0 0 0 0 52.468117554529613 -150.14097297947228 0 -150.14097297947228 249.181609058498 0 0 0 0 192.96398555043703 -97.959645151131554 0 -97.959645151131554 49.346193529276206 0 0 0 0 13.438651431149196 -64.443999642446215 0 -64.443999642446215 70.88480091139354 0 0 0 0 -15.875206231683979 -5.2837042596238462 0 -5.2837042596238462 108.58050539850956 0 0 0 0 -9.7786048601767845 35.267610495625377 0 35.267610495625377 327.79757906115265 0 0 0 0 113.44985859904966 105.12528958332405 0 105.12528958332405 169.57746152627806 0 0 0 0 -22.809037342106194 57.978344837751138 0 57.978344837751138 155.07795026810345 0 0 0 0 16.749940777920642 8.4657111343312863 0 8.4657111343312863 86.376850803222624 0 0 0 0 16.703981009975536 51.012166641303338 0 51.012166641303338 842.71582144557033 0 0 0 0 1.67074746826452 3.4354269983665091 0 3.4354269983665091 2.0649132204894549 0 0 0 0 53.462216180295172 -188.47000678245968 0 -188.47000678245968 708.68725706250552 0 0 0 0 48.328777014871775 49.092625491073704 0 49.092625491073704 20.659882016356278 0 0 0 0 -0.73348332158623808 0.67550817037978561 0 0.67550817037978561 2.138765444895256 0 0 0 0 0.61985989175681766 18.553504897336097 0 18.553504897336097 1178.4101299783724 0 0 0 0 0.89488613455256139 -0.62919420262418413 0 -0.62919420262418413 2.7251675558435977 0 0 0 0 0.00095624573586938766 1.0801737389228947 0 1.0801737389228947 8.5344564025581349 0 0 0 0 4.0209621079887654 14.627899057775721 0 14.627899057775721 1158.263930265035 0 0 0 0 124.13354126785447 -34.217396842879339 0 -34.217396842879339 94.726363418216351 0 0 0 0 -10.018251314409284 -47.390059106394801 0 -47.390059106394801 93.436979282756511 0 0 0 0 0.14359136422711344 -0.47015306984576455 0 -0.47015306984576455 1.082063032601198 0 0 0 0 -0.0033250562618263148 -2.1227656639493944 0 -2.1227656639493944 2.2295905938080978 0 0 0 0 0.5481821258131836 0.67179286888858769 0 0.67179286888858769 2.8610722808571154 0 0 0 0 0.0049421561951486148 -1.8978485017165312 0 -1.8978485017165312 6.7283999896026216 0 0 0 0 0.29138639946526285 1.6952341902608765 0 1.6952341902608765 1.6684151231905879 0 0 0 0 -1.3621260663833992 -0.72873208337114193 0 -0.72873208337114193 10.081247815993265 0 0 0 0 0.012959596096571442 47.349051197204972 0 47.349051197204972 1149.8254623968787 0 0 0 0 -85.475603930349891 227.33426729117036 0 227.33426729117036 1499.345986420718 0 0 0 0 -5.3301369198727286 -10.237833413146291 0 -10.237833413146291 1123.4435813831296 0 0 0 0 33.672027442832459 37.905115575675154 0 37.905115575675154 1095.7889296346839 0 0 0 0 22.900755488061904 45.233589021256194 0 45.233589021256194 1135.2754292608552 0 0 0 0 -0.058892740103583779 0.26175014188056878 0 0.26175014188056878 2.4129550153193646 0 0 0 0 0.34927581105694028 43.808918184204231 0 43.808918184204231 1232.2694295081876 0 0 0 0 -46.586892166165342 36.366189458507506 0 36.366189458507506 1316.6937176750034 0 0 0 0 -36.385588321299679 264.02268700780405 0 264.02268700780405 1126.4784353922878 0 0 0 0 -10.452073515455011 94.329623438731005 0 94.329623438731005 915.68854843745066 0 0 0 0 39.70183059962352 206.94785480621067 0 206.94785480621067 989.56981426313723 0 0 0 0 -54.049090784130556 57.423026669304818 0 57.423026669304818 1234.8709848523952 0 0 0 0 -0.063671117875043037 0.14612787974499497 0 0.14612787974499497 1.8857064755292381 0 0 0 0 27.347255676119921 -42.122885262922864 0 -42.122885262922864 937.2140415096801 0 0 0 0 -57.453693556858376 -59.156850186080192 0 -59.156850186080192 806.14389068498349 0 0 0 0 -18.128107094442839 161.20977420897179 0 161.20977420897179 1060.5363608524058 0 0 0 0 38.784192476842307 125.22140207243501 0 125.22140207243501 838.35304093694049 0 0 0 0 -1.1369995932378778 78.25354881275598 0 78.25354881275598 806.2909276330829 0 0 0 0 104.30083406172437 39.995175240504977 0 39.995175240504977 613.87302308810467 0 0 0 0 -16.474272992529905 -45.914839987184678 0 -45.914839987184678 641.33875239659483 0 0 0 0 200.34400661237675 212.40217781208185 0 212.40217781208185 483.53619423068449 0 0 0 0 101.17383659968769 126.02521178092184 0 126.02521178092184 680.01714798226749 0 0 0 0 7.2388769118198155 168.13525333355574 0 168.13525333355574 971.04656182384133 0 0 0 0 77.449853171823406 220.83501620404513 0 220.83501620404513 893.18513965087914 0 0 0 0 0.61916467436276434 464.39931663922471 0 464.39931663922471 1255.0815845933794 0 0 0 0 276.91607865485219 298.74307033259902 0 298.74307033259902 1256.5109438953539 0 0 0 0 75.280295421581854 284.2766291498383 0 284.2766291498383 1796.9095994255986 0 0 0 0 2.5783240908947511 1.2708404837406704 0 1.2708404837406704 1.3997145967639266 0 0 0 0 19.408721929134117 -60.660599140785052 0 -60.660599140785052 303.4792306299214 0 0 0 0 51.231689164168529 213.52252425834058 0 213.52252425834058 1595.8569266841805 0 0 0 0 6.9609742210276275 4.5310404742824133 0 4.5310404742824133 1.1813105730172779 0 0 0 0 65.235710067391096 81.604598434427771 0 81.604598434427771 227.3402694680517 0 0 0 0 -22.073403273805297 9.713737444140861 0 9.713737444140861 548.94406424350746 0 0 0 0 -9.7964324371700968 12.194273871311452 0 12.194273871311452 545.2172879169666 0 0 0 0 -2.4687903740642003 -0.92525425136422257 0 -0.92525425136422257 0.99879244161357361 0 0 0 0 -1.108634636713465 -0.74340524855206525 0 -0.74340524855206525 0.86813357832785076 0 0 0 0 24.09976591345287 19.679455329929624 0 19.679455329929624 536.44896863023439 0 0 0 0 -8.6231904057028714 22.632214014898636 0 22.632214014898636 583.1734113702114 0 0 0 0 -13.792957424444921 -29.828734957714914 0 -29.828734957714914 599.50103932817547 0 0 0 0 -23.449139628346074 -3.4547366362348839 0 -3.4547366362348839 559.42190773707989 0 0 0 0 -11.725247530222077 -19.604062638180039 0 -19.604062638180039 530.09998524992989 0 0 0 0 -10.560542590867271 -41.65693226365147 0 -41.65693226365147 542.68805112577684 0 0 0 0 -10.407802110803345 -34.724404899880028 0 -34.724404899880028 494.20660794966534 0 0 0 0 -7.1066101884826978 -14.708572398053093 0 -14.708572398053093 123.70745413374607 0 0 0 0 3.6982046394402843 -11.255878958236281 0 -11.255878958236281 128.48174632221344 0 0 0 0 3.3507064288886852 -51.937090245404761 0 -51.937090245404761 543.40112768938343 0 0 0 0 -3.1321993028561574 5.6364931250629553 0 5.6364931250629553 2.1798925931132587 0 0 0 0 3.5302113705494094 -36.639794377135331 0 -36.639794377135331 524.65694917389919 0 0 0 0 -50.475460070103729 18.061591483776283 0 18.061591483776283 136.69181901457932 0 0 0 0 66.758788872300642 -6.2917532006176771 0 -6.2917532006176771 588.17151022246617 0 0 0 0 0.03287036238415636 4.9105977135894108 0 4.9105977135894108 1.7464518979646613 0 0 0 0 -15.232516513943679 -20.459739291825827 0 -20.459739291825827 162.6888301197032 0 0 0 0 36.098779441770347 -87.462158860093041 0 -87.462158860093041 193.82645907840561 0 0 0 0 -128.92500046550475 95.262079780728527 0 95.262079780728527 -25.847434129256726 0 0 0 0 -82.677291964902949 -66.106812482848909 0 -66.106812482848909 187.05677022696909 0 0 0 0 -1.4759076103824667 -0.15573858251494954 0 -0.15573858251494954 0.90076263623149089 0 0 0 0 21.169682368094456 -51.929718057406717 0 -51.929718057406717 114.4965646330711 0 0 0 0 10.272792281338241 -27.414573899638526 0 -27.414573899638526 67.710656574898167 0 0 0 0 -6.2037381268393998 -9.2404530044129842 0 -9.2404530044129842 135.60755749818054 0 0 0 0 10.480565656524249 -36.205404460230056 0 -36.205404460230056 103.2588192434996 0 0 0 0 -4.5345202774975348 -22.65511797108411 0 -22.65511797108411 67.17544333380738 0 0 0 0 -11.126766824589509 -0.5178846078197239 0 -0.5178846078197239 99.681770349114231 0 0 0 0 -8.2142166832220482 -44.448801050977636 0 -44.448801050977636 90.889732989452114 0 0 0 0 -24.942362576408428 -19.257562459833935 0 -19.257562459833935 52.954443543196248 0 0 0 0 -2.9762001689033624 -21.692421530005983 0 -21.692421530005983 70.813433977221507 0 0 0 0 -37.870821580731558 -50.854243905836483 0 -50.854243905836483 78.760763267015136 0 0 0 0 -151.85171658112387 -197.08003261321892 0 -197.08003261321892 99.325472663929759 0 0 0 0 -37.847790152174639 55.6764862148666 0 55.6764862148666 194.39040413910607 0 0 0 0 29.495530762503904 -86.724629098091214 0 -86.724629098091214 14.589384618428085 0 0 0 0 -80.781520127175781 -100.50923436210178 0 -100.50923436210178 27.549192869091257 0 0 0 0 -5.9052999835877298 -26.290813045111719 0 -26.290813045111719 68.102611556391196 0 0 0 0 -10.249346184442317 5.5084226495694679 0 5.5084226495694679 11.445728599906808 0 0 0 0 -21.568601732081561 -26.326140152138578 0 -26.326140152138578 105.50991210363281 0 0 0 0 16.206965758390538 59.880661852885169 0 59.880661852885169 327.82010738474492 0 0 0 0 -9.6319344950532013 -38.969941410826323 0 -38.969941410826323 38.738277844066033 0 0 0 0 -19.617490253296875 -26.606023848474571 0 -26.606023848474571 6.1732372955289687 0 0 0 0 31.326669134880035 -54.068016169540897 0 -54.068016169540897 -33.372644574637889 0 0 0 0 0.16679197639013665 -9.6493279556069922 0 -9.6493279556069922 9.2428376995577253 0 0 0 0 1.384957760064359 -2.3916168131949931 0 -2.3916168131949931 4.4446171593209272 0 0 0 0 3.5708158504419316 79.669219334438822 0 79.669219334438822 426.67359686223062 0 0 0 0 -31.527470640037336 97.237534976968163 0 97.237534976968163 428.61366519051921 0 0 0 0 -49.431861135090912 89.415853621039787 0 89.415853621039787 569.6208709874154 0 0 0 0 -38.1146521901087 -7.0064041298901429 0 -7.0064041298901429 415.21979863841989 0 0 0 0 -42.612774611596933 -17.117389091392397 0 -17.117389091392397 506.04338295483467 0 0 0 0 -6.7419304748276989 6.4290497209983073 0 6.4290497209983073 0.84349413044751564 0 0 0 0 -19.206821164677422 -12.345273734114016 0 -12.345273734114016 468.44193133869067 0 0 0 0 -37.140340766972713 -11.706660399275279 0 -11.706660399275279 529.18682515514593 0 0 0 0 53.624815361853379 149.38027458418128 0 149.38027458418128 1500.5241682009309 0 0 0 0 -34.140405078714252 -17.615747300096245 0 -17.615747300096245 505.62568934937008 0 0 0 0 -20.912330385179814 -8.53021014471733 0 -8.53021014471733 521.47270733979531 0 0 0 0 -94.770785186635749 -27.288164386729477 0 -27.288164386729477 520.30386856953191 0 0 0 0 -1.8253076520078437 -1.1194592051888677 0 -1.1194592051888677 0.82033780187349592 0 0 0 0 -37.921861800908118 -73.753494399536066 0 -73.753494399536066 431.18400120819206 0 0 0 0 -12.953677039530703 -16.524060736894171 0 -16.524060736894171 510.70145796125325 0 0 0 0 -20.679575211013344 15.940968925540801 0 15.940968925540801 538.70983835155675 0 0 0 0 -43.234694458413742 -15.411520680965623 0 -15.411520680965623 384.83355159506755 0 0 0 0 22.954185152253359 116.1261275323377 0 116.1261275323377 1543.8924431058961 0 0 0 0 67.033673579916467 40.122085931364381 0 40.122085931364381 170.79617259341831 0 0 0 0 -67.441038696616488 -11.500859942621901 0 -11.500859942621901 351.84423389559015 0 0 0 0 9.7889920955999372 7.7811567482327533 0 7.7811567482327533 0.49605546540280976 0 0 0 0 8.6190767969173852 121.11680807142693 0 121.11680807142693 1627.152252302225 0 0 0 0 5.1652802193928427 108.42036646309134 0 108.42036646309134 1581.1866482734877 0 0 0 0 11.229932557703565 11.351819916746386 0 11.351819916746386 -0.46491436946556064 0 0 0 0 104.25420027340897 -9.3036248279859137 0 -9.3036248279859137 83.248120791767633 0 0 0 0 -101.63328280513201 2.1458253124401381 0 2.1458253124401381 370.82774477633211 0 0 0 0 -0.43867142665033754 -0.34243919242671694 0 -0.34243919242671694 0.42012060136919782 0 0 0 0 -71.074591493887056 23.981713850771484 0 23.981713850771484 486.02055498196933 0 0 0 0 362.41243945952465 -147.76753454903155 0 -147.76753454903155 91.111097519686155 0 0 0 0 -117.02351177008404 -111.33147136220759 0 -111.33147136220759 562.7258783524594 0 0 0 0 -98.831379394344424 -14.573258824279947 0 -14.573258824279947 642.32224716444034 0 0 0 0 183.04127581837838 -361.47430897029699 0 -361.47430897029699 850.91423221076184 0 0 0 0 74.133126185135097 411.6823731746681 0 411.6823731746681 1151.177344349293 0 0 0 0 551.24276320495471 68.51211347131084 0 68.51211347131084 476.78760467821121 0 0 0 0 -151.66329160757914 -44.529185902301833 0 -44.529185902301833 1143.4641503198582 0 0 0 0 -146.05821677986978 -92.173421757144752 0 -92.173421757144752 575.44612493944805 0 0 0 0 53.093462287487966 115.3788691716959 0 115.3788691716959 152.1263531165896 0 0 0 0 -76.347787762768348 -100.34852291999778 0 -100.34852291999778 538.49751318433118 0 0 0 0 -85.163950944162934 -40.631650171126239 0 -40.631650171126239 465.02257206741297 0 0 0 0 86.795126327834623 30.519379412626222 0 30.519379412626222 209.19390586201189 0 0 0 0 195.0517826108462 -53.907187427754252 0 -53.907187427754252 -16.083036956188153 0 0 0 0 10.700572507228783 15.444956447543873 0 15.444956447543873 2.2025109168700592 0 0 0 0 50.50571632799938 258.61165345594054 0 258.61165345594054 1583.8177837474213 0 0 0 0 109.30237285190287 -93.748312849696958 0 -93.748312849696958 -33.662435476987412 0 0 0 0 -75.137239752217127 -12.751349107287751 0 -12.751349107287751 1499.7924511716656 0 0 0 0 3.974172697175919 0.068231284196464514 0 0.068231284196464514 -4.8779999019675842 0 0 0 0 -83.197582795734434 14.41781622016606 0 14.41781622016606 120.11164455708786 0 0 0 0 68.781818055370877 102.74740957898575 0 102.74740957898575 171.09538582735695 0 0 0 0 6.2213408084594359 18.277946979980097 0 18.277946979980097 23.950417195683343 0 0 0 0 -671.21960674229615 86.249675489489164 0 86.249675489489164 1101.8381935615766 0 0 0 0 -27.815448903038885 136.71543058446969 0 136.71543058446969 161.39979017127916 0 0 0 0 -40.530179974300836 55.36208883186373 0 55.36208883186373 -3.9925492669951836 0 0 0 0 48.812558255688032 -252.09756778160227 0 -252.09756778160227 1750.7252567218165 0 0 0 0 0.88933875557858055 2.6464803796915461 0 2.6464803796915461 5.7535280118539642 0 0 0 0 -492.07887716841566 -162.95468617421648 0 -162.95468617421648 1790.4483307862474 0 0 0 0 -668.33489181525999 126.90682976110838 0 126.90682976110838 1350.9331417024077 0 0 0 0 -575.07707509808631 296.00343824727133 0 296.00343824727133 1115.0208744396259 0 0 0 0 -514.8429722320642 185.87441401261731 0 185.87441401261731 930.77575130137484 0 0 0 0 -604.49940232151459 -24.129892790633676 0 -24.129892790633676 790.79600391453459 0 0 0 0 -142.3387507553403 569.05595819962673 0 569.05595819962673 653.81382067480081 0 0 0 0 -608.94243388984341 288.09941947028437 0 288.09941947028437 521.6742639195636 0 0 0 0 -597.11552222995624 785.39910185897952 0 785.39910185897952 -183.29990978071692 0 0 0 0 5.7838334572218688 15.175723477197565 0 15.175723477197565 21.397770309446798 0 0 0 0 -72.462923839062995 -136.83522487471316 0 -136.83522487471316 564.11272346588157 0 0 0 0 -14.591892661195857 -131.67598043517137 0 -131.67598043517137 549.61773176641691 0 0 0 0 119.11735427938282 -534.00586329059843 0 -534.00586329059843 1125.8320590901094 0 0 0 0 -14.552349007108603 220.34085517793892 0 220.34085517793892 750.65073411548292 0 0 0 0 -11.58651707673507 -25.057816090694779 0 -25.057816090694779 2.3122160030739574 0 0 0 0 110.88866193253443 25.79955243450695 0 25.79955243450695 -44.139427234553295 0 0 0 0 -138.35673744274084 35.618697586178314 0 35.618697586178314 540.1635649857526 0 0 0 0 -121.6396401887846 -151.73270345060519 0 -151.73270345060519 597.26331128485981 0 0 0 0 -159.35828852971349 -69.568797672181063 0 -69.568797672181063 555.02563066263247 0 0 0 0 36.950465902428277 -225.5180538117329 0 -225.5180538117329 358.65809368431837 0 0 0 0 288.53442016827148 -449.79460236026534 0 -449.79460236026534 256.39283236187839 0 0 0 0 -40.8870921426319 -0.393582293378131 0 -0.393582293378131 132.6276993336578 0 0 0 0 10.034512817474706 26.198389443791712 0 26.198389443791712 36.806263247370225 0 0 0 0 -13.295788644497129 -25.421584027038442 0 -25.421584027038442 -8.0810735121797315 0 0 0 0 36.573857140612745 0.51444469719444896 0 0.51444469719444896 -47.025899688859909 0 0 0 0 -11.844010461604739 -84.514586234128728 0 -84.514586234128728 150.03988592787027 0 0 0 0 -17.373381733481892 -91.856278756476968 0 -91.856278756476968 53.574875095133393 0 0 0 0 38.548676677513185 -46.797731673908856 0 -46.797731673908856 190.79426686910574 0 0 0 0 -0.33776641083474601 10.482310321108457 0 10.482310321108457 154.62722675389159 0 0 0 0 -4.0539858599292984 -43.369311094625118 0 -43.369311094625118 156.40180968334153 0 0 0 0 -45.53349218304777 8.2850648145858941 0 8.2850648145858941 401.56043896714618 0 0 0 0 -37.866303112087735 -120.34230489060792 0 -120.34230489060792 560.51714913688011 0 0 0 0 77.348283627555702 -169.69035113868631 0 -169.69035113868631 67.503180432306863 0 0 0 0 -0.013962430053260366 -0.68043344975994735 0 -0.68043344975994735 4.3671636274608758 0 0 0 0 177.10038531370617 336.99631437049447 0 336.99631437049447 571.47136456860608 0 0 0 0 130.49915436341189 201.37599042570127 0 201.37599042570127 212.22636398332907 0 0 0 0 -29.379692982379311 6.8806157198696383 0 6.8806157198696383 -27.828325436885962 0 0 0 0 0.8561994586395496 -7.1180162120738917 0 -7.1180162120738917 5.7100051945987147 0 0 0 0 -11.05118930493326 47.140187086011707 0 47.140187086011707 38.422437612491194 0 0 0 0 25.740851558670329 -14.260596546542729 0 -14.260596546542729 -161.51158008411039 0 0 0 0 11.802768272184668 5.3605365005272461 0 5.3605365005272461 0.71482858127310234 0 0 0 0 72.539490104143397 49.488087459300914 0 49.488087459300914 157.68149030610766 0 0 0 0 49.037400327630621 18.021240221058179 0 18.021240221058179 -193.03084216402431 0 0 0 0 14.868150684973131 6.3849542424206724 0 6.3849542424206724 0.63347112578705111 0 0 0 0 8.1640166564326933 52.626467649499318 0 52.626467649499318 -89.553951253205014 0 0 0 0 134.01439220051407 -216.77088206349072 0 -216.77088206349072 494.48396101218168 0 0 0 0 103.54344493926965 -47.307596026768806 0 -47.307596026768806 212.34017714651782 0 0 0 0 -55.705951727650245 21.525494712803265 0 21.525494712803265 479.07219802664713 0 0 0 0 -41.12412953959074 106.10853943352618 0 106.10853943352618 772.71654659012711 0 0 0 0 40.375384106769303 182.33551466516519 0 182.33551466516519 524.65808548418863 0 0 0 0 24.60943269749464 25.804959032051556 0 25.804959032051556 398.98097299804795 0 0 0 0 -12.565923368919584 73.315874095226718 0 73.315874095226718 346.69653185617062 0 0 0 0 -43.34770829367551 36.540150033838472 0 36.540150033838472 554.016659354691 0 0 0 0 6.6400446077524311 3.3908680981784123 0 3.3908680981784123 0.70372443244958305 0 0 0 0 4.9484464109738013 13.327367985469664 0 13.327367985469664 -179.89628142733636 0 0 0 0 20.024757240975191 30.05452618940808 0 30.05452618940808 -94.015816317609278 0 0 0 0 -9.0214143201260981 -0.34801036109547567 0 -0.34801036109547567 -47.800986900128919 0 0 0 0 -18.275325013379607 1.6416247242928534 0 1.6416247242928534 -29.070924315641605 0 0 0 0 -21.493763988055719 33.898797027173714 0 33.898797027173714 -12.509529700468192 0 0 0 0 -6.2467459738118123 -16.120527535516885 0 -16.120527535516885 65.259048585336132 0 0 0 0 3.9632007668330971 18.199205547200108 0 18.199205547200108 45.378186141555489 0 0 0 0 31.80718352775898 -27.69426861802458 0 -27.69426861802458 -32.926483651566741 0 0 0 0 29.776036571542136 -2.6230704898662225 0 -2.6230704898662225 -63.563101143457061 0 0 0 0 41.838244684423898 46.676519490149076 0 46.676519490149076 -60.727995777858268 0 0 0 0 138.4213362137923 23.826836495716634 0 23.826836495716634 16.142243111627067 0 0 0 0 29.491476368086246 45.87420053966369 0 45.87420053966369 12.317888947203755 0 0 0 0 -12.997192926852449 0.47082767654751478 0 0.47082767654751478 212.27280863922351 0 0 0 0 46.658326936156527 125.40743324735922 0 125.40743324735922 146.00770561814352 0 0 0 0 51.36552013156313 -47.016327250106769 0 -47.016327250106769 133.79188757465818 0 0 0 0 21.622713043148906 90.620842527538116 0 90.620842527538116 220.27638889094214 0 0 0 0 1.7345468238002759 1.096011058511472 0 1.096011058511472 0.58750954247946652 0 0 0 0 150.58526676222391 52.140609422517628 0 52.140609422517628 12.790176521180911 0 0 0 0 45.028006219997224 0.86288206760400499 0 0.86288206760400499 5.987266850217793 0 0 0 0 15.047195774219745 9.7153708920318422 0 9.7153708920318422 11.357427734543307 0 0 0 0 68.078477430567375 47.111817403470923 0 47.111817403470923 11.713179395541374 0 0 0 0 8.0637865648382103 32.14292044015383 0 32.14292044015383 10.917798464622706 0 0 0 0 28.160432141724414 15.095720875849565 0 15.095720875849565 -0.24651331295535783 0 0 0 0 17.52198812965662 4.842015636519136 0 4.842015636519136 10.614254566950422 0 0 0 0 13.533050391187771 8.4078847287237295 0 8.4078847287237295 8.2783893437917868 0 0 0 0 19.075496287784745 49.958451211331521 0 49.958451211331521 -5.7817620420264575 0 0 0 0 6.4392118905423104 58.44746890899205 0 58.44746890899205 85.250293722669085 0 0 0 0 0.27797191203558214 41.82698872313631 0 41.82698872313631 43.079766471987568 0 0 0 0 -2.3351684556677554 43.119094721434521 0 43.119094721434521 32.371712539537839 0 0 0 0 -6.318606876334286 29.965104783263087 0 29.965104783263087 34.249002662147177 0 0 0 0 -11.941136913777466 33.644675532033034 0 33.644675532033034 85.324035134592123 0 0 0 0 3.4277082482635706 39.106494271974498 0 39.106494271974498 77.49838094972074 0 0 0 0 -21.309674189783664 46.797518803256025 0 46.797518803256025 104.07245103533296 0 0 0 0 -36.279774431426432 22.859781686959195 0 22.859781686959195 83.84467109045363 0 0 0 0 -21.952684331289746 12.650921061127519 0 12.650921061127519 71.571211550335647 0 0 0 0 -14.621623317192835 17.963221088554292 0 17.963221088554292 71.852825657882931 0 0 0 0 67.709838885968793 38.981872949330864 0 38.981872949330864 65.183548215787596 0 0 0 0 -8.9443046071182266 -2.0153964245391762 0 -2.0153964245391762 137.46301666511863 0 0 0 0 63.456397724367434 -31.933320512847786 0 -31.933320512847786 55.623146188514511 0 0 0 0 21.347466649113699 19.14395522781615 0 19.14395522781615 18.846827860179474 0 0 0 0 6.8797735733820105 4.4592003840243706 0 4.4592003840243706 71.832481308777758 0 0 0 0 -7.2370787580022125 26.272126144275717 0 26.272126144275717 40.240940848019818 0 0 0 0 -10.603878621623153 240.55081815206904 0 240.55081815206904 24.71407922621438 0 0 0 0 18.599600640549287 26.72781714534316 0 26.72781714534316 25.861328503142062 0 0 0 0 -24.115209881762212 -46.646149423474526 0 -46.646149423474526 203.36924033935065 0 0 0 0 15.336229164976279 24.512328284522546 0 24.512328284522546 24.890099622648947 0 0 0 0 -85.776189610014171 49.816063418662452 0 49.816063418662452 161.04950564535648 0 0 0 0 78.799000856176463 67.350800134568999 0 67.350800134568999 186.76019665181047 0 0 0 0 526.79083768629971 -87.891837304694491 0 -87.891837304694491 233.96681892126435 0 0 0 0 112.56236416367574 21.328720189922024 0 21.328720189922024 -172.11675299992203 0 0 0 0 32.621826688596229 -36.740556256529089 0 -36.740556256529089 94.67173519617063 0 0 0 0 71.364959159531736 -33.497489202925863 0 -33.497489202925863 -32.359786300068663 0 0 0 0 69.989107017894639 86.419452079873736 0 86.419452079873736 17.577203137916513 0 0 0 0 171.50240909488798 -34.011428726268605 0 -34.011428726268605 -42.187492027369444 0 0 0 0 78.964119188236509 155.22643901229458 0 155.22643901229458 -194.11657458747368 0 0 0 0 -19.613610819709265 29.142940401807209 0 29.142940401807209 -49.832247926802665 0 0 0 0 21.876742376899678 25.787797384345801 0 25.787797384345801 24.98283046282846 0 0 0 0 27.384723681265939 56.456172723518193 0 56.456172723518193 86.389791608105952 0 0 0 0 23.752267366678097 -10.120707587539073 0 -10.120707587539073 94.226289488849943 0 0 0 0 1.2584170241929966 1.4417443593545443 0 1.4417443593545443 11.286145128240369 0 0 0 0 57.646391473712811 -22.187044576512562 0 -22.187044576512562 66.887752565449773 0 0 0 0 14.869178617766011 4.1860078729005181 0 4.1860078729005181 75.261204258531507 0 0 0 0 14.577634622281749 14.081613545062652 0 14.081613545062652 55.38309202740129 0 0 0 0 19.54448298010675 1.3081043911824963 0 1.3081043911824963 66.53584659007538 0 0 0 0 32.865091936392673 -7.2157025096221332 0 -7.2157025096221332 69.117740621038138 0 0 0 0 23.662732693753924 5.0873116371722062 0 5.0873116371722062 66.407656259350915 0 0 0 0 3.5778044419683965 -5.4141342138716482 0 -5.4141342138716482 78.180054417582141 0 0 0 0 31.109147871796495 10.17123473924039 0 10.17123473924039 55.376345759421383 0 0 0 0 12.998936737669283 24.609602936714509 0 24.609602936714509 59.539560857015658 0 0 0 0 28.323422345653398 43.727708012816947 0 43.727708012816947 82.956190065611736 0 0 0 0 39.814236417481879 46.866107884492521 0 46.866107884492521 27.783568709358406 0 0 0 0 38.80215521453465 3.8935553174560482 0 3.8935553174560482 55.293535672186408 0 0 0 0 37.761708704186617 -1.0802901484871654 0 -1.0802901484871654 52.010663562054106 0 0 0 0 44.224518212878365 -3.230497402740184 0 -3.230497402740184 6.9269601042287832 0 0 0 0 0.8638145032522857 4.1784289488869035 0 4.1784289488869035 1.6829293622249679 0 0 0 0 6.2530225186746975 27.566532029006339 0 27.566532029006339 63.444387814228321 0 0 0 0 -34.319698581508447 33.331677023808879 0 33.331677023808879 66.779960571533593 0 0 0 0 -30.178287661529538 53.510486208700968 0 53.510486208700968 -59.875796867487679 0 0 0 0 -16.446444590381361 58.379839146238737 0 58.379839146238737 -11.237028285917859 0 0 0 0 22.686216270106684 10.797459783065278 0 10.797459783065278 -41.996734207132249 0 0 0 0 63.719797328315963 175.32757357372247 0 175.32757357372247 -51.389614967086118 0 0 0 0 2.0983413752116502 0.74366142042645222 0 0.74366142042645222 0.3616419595087832 0 0 0 0 75.33061455769689 82.654828135485332 0 82.654828135485332 -297.28503810798975 0 0 0 0 -32.286076192201477 -5.9525127998704193 0 -5.9525127998704193 -103.94831825531946 0 0 0 0 51.777623165993305 83.654297177617991 0 83.654297177617991 372.25233756411035 0 0 0 0 39.082252291231043 -53.568873689903739 0 -53.568873689903739 249.6313770941083 0 0 0 0 -38.679493574377375 133.50814729268041 0 133.50814729268041 683.97704144318413 0 0 0 0 78.792780290119254 15.220633878278022 0 15.220633878278022 35.428877718937656 0 0 0 0 -139.85365972506588 -3.5571897785848705 0 -3.5571897785848705 278.89227066331659 0 0 0 0 -138.22553846421852 -66.035250431101304 0 -66.035250431101304 129.68896807252167 0 0 0 0 -15.709495592480152 -60.552699090749229 0 -60.552699090749229 61.823029157741985 0 0 0 0 -5.0256943629199728 -18.898651462204622 0 -18.898651462204622 68.730260318409137 0 0 0 0 6.5437228022128693 9.2901395624312499 0 9.2901395624312499 150.70981105892133 0 0 0 0 -8.2268186649098105 -4.5280088171325339 0 -4.5280088171325339 26.79621689140555 0 0 0 0 -17.229186934893733 82.04050855573405 0 82.04050855573405 53.23245030768885 0 0 0 0 -47.547284193994528 95.797292483031924 0 95.797292483031924 92.765706577183209 0 0 0 0 18.268799926933525 187.00834874690281 0 187.00834874690281 217.37708691193257 0 0 0 0 -16.525599573494901 -24.112557090265909 0 -24.112557090265909 73.454962896262259 0 0 0 0 -35.956118198839249 -14.683831714773987 0 -14.683831714773987 75.616625262890011 0 0 0 0 -18.563519916442601 -9.3844232138035295 0 -9.3844232138035295 67.16079733303377 0 0 0 0 -32.112429686199903 -1.580939629340719 0 -1.580939629340719 64.517731765015924 0 0 0 0 -5.7593238405573874 -6.5039285478783242 0 -6.5039285478783242 13.539385102367092 0 0 0 0 -13.203571850451143 -46.863684984607062 0 -46.863684984607062 79.426774785628368 0 0 0 0 -2.4623332616346154 -0.61047952799376048 0 -0.61047952799376048 -1.3491252765718116 0 0 0 0 -12.627874542273958 -14.510241115798635 0 -14.510241115798635 39.637439004301996 0 0 0 0 -68.936201934200653 44.652724552683139 0 44.652724552683139 24.477412447056849 0 0 0 0 -22.059960834106768 -38.170326810974984 0 -38.170326810974984 49.730798538905219 0 0 0 0 -3.5079363231731646 -24.62181641168354 0 -24.62181641168354 59.315270823892206 0 0 0 0 4.4761772218379292 -56.362436093193537 0 -56.362436093193537 74.668361784546505 0 0 0 0 20.038808359467396 -93.036806070511375 0 -93.036806070511375 90.397593626497837 0 0 0 0 82.2688044349743 -19.925262536757145 0 -19.925262536757145 91.666128861630568 0 0 0 0 -19.524919185876797 7.9833739898967906 0 7.9833739898967906 100.54674866834102 0 0 0 0 -10.444198846354652 -48.996933478691062 0 -48.996933478691062 162.56259855670942 0 0 0 0 1.5144529165000904 -40.009187542666041 0 -40.009187542666041 90.733288877370796 0 0 0 0 -20.410396127538206 -27.911860452943074 0 -27.911860452943074 90.396830841054907 0 0 0 0 3.8490513198655831 -3.9133047249458883 0 -3.9133047249458883 -2.7069782133758622 0 0 0 0 23.15758331652637 -47.413749049555918 0 -47.413749049555918 59.116112139312463 0 0 0 0 20.829281954055148 -52.268000856257459 0 -52.268000856257459 73.433484033303102 0 0 0 0 -15.974136219781542 -0.14018597337053507 0 -0.14018597337053507 16.02909202389128 0 0 0 0 7.3516962078714485 -17.323333421281632 0 -17.323333421281632 115.33404828881248 0 0 0 0 1.4599124581359171 -0.75959227384039529 0 -0.75959227384039529 0.57199814475552557 0 0 0 0 101.86223977275657 -98.332278981077252 0 -98.332278981077252 87.911209371763107 0 0 0 0 0.30261865424260737 -2.4770500000580951 0 -2.4770500000580951 21.623753234677878 0 0 0 0 -24.816454940764181 0.19717554025010031 0 0.19717554025010031 31.644418079522438 0 0 0 0 -17.087582166531092 -0.74740988196208491 0 -0.74740988196208491 22.891366879222915 0 0 0 0 6.1686097358820575 -16.871795678995113 0 -16.871795678995113 66.727730766429886 0 0 0 0 5.694550045804931 -8.1035673794212926 0 -8.1035673794212926 20.381935724963114 0 0 0 0 -6.8090383760385578 -14.497499145850497 0 -14.497499145850497 37.750208794241189 0 0 0 0 -9.7656739313576963 -32.199465212353971 0 -32.199465212353971 62.093094931733503 0 0 0 0 -0.94619893103641139 -6.4985788763964223 0 -6.4985788763964223 7.1826904223614889 0 0 0 0 -23.158811255088722 -17.162226967004244 0 -17.162226967004244 66.247195604788431 0 0 0 0 -12.752798930317795 -41.102785045564815 0 -41.102785045564815 61.308420773741091 0 0 0 0 -5.1438282713130716 -19.955597918384193 0 -19.955597918384193 60.487009624582953 0 0 0 0 17.615772626352737 6.813818979962889 0 6.813818979962889 76.304781677369192 0 0 0 0 12.829497604827338 5.7087909753336135 0 5.7087909753336135 70.952657537885898 0 0 0 0 -4.6191863630939221 -14.238588886878425 0 -14.238588886878425 56.651244526997232 0 0 0 0 18.452931173682828 6.0738455452010385 0 6.0738455452010385 70.351438010558923 0 0 0 0 18.782845861598162 0.21665665890941455 0 0.21665665890941455 65.033884541720909 0 0 0 0 25.618769453757523 -7.7438701857972774 0 -7.7438701857972774 54.102023166840809 0 0 0 0 19.917098457523615 3.2654217101353851 0 3.2654217101353851 9.0252301415906082 0 0 0 0 6.4756921784431762 23.056782566121978 0 23.056782566121978 31.778787486485413 0 0 0 0 5.7178969119203416 17.590026363844387 0 17.590026363844387 22.832965189464488 0 0 0 0 10.020835545411046 0.82534510088225943 0 0.82534510088225943 41.355657591771887 0 0 0 0 18.914728515234508 1.6851919403020474 0 1.6851919403020474 39.223117118628579 0 0 0 0 16.830052072417175 -11.725912743881054 0 -11.725912743881054 67.668213837914664 0 0 0 0 12.737589377143649 5.7350077999435598 0 5.7350077999435598 42.58563608113036 0 0 0 0 -15.034086955984094 -0.92721792143493076 0 -0.92721792143493076 8.8097856226704607 0 0 0 0 79.624882404174059 -10.731608289508586 0 -10.731608289508586 -134.58887153328124 0 0 0 0 32.724499646403274 5.1966567743711494 0 5.1966567743711494 115.23076063946428 0 0 0 0 3.1477188802784895 23.806971166806761 0 23.806971166806761 289.6369393654677 0 0 0 0 89.13032218251783 -45.059436366944283 0 -45.059436366944283 21.129895216551631 0 0 0 0 -79.015292487336865 51.146278603679093 0 51.146278603679093 282.94349875444641 0 0 0 0 -93.259113329451338 -16.675822649318434 0 -16.675822649318434 427.86277965209956 0 0 0 0 240.93970629781541 -190.68081542213167 0 -190.68081542213167 241.93370679152576 0 0 0 0 12.675147882324438 -89.198818533428494 0 -89.198818533428494 361.79264448303365 0 0 0 0 0.12622785410574319 1.541968433509604 0 1.541968433509604 2.458693902240185 0 0 0 0 -97.82849658975897 98.534178275958766 0 98.534178275958766 614.41903547113907 0 0 0 0 18.044641291718676 197.3201878928794 0 197.3201878928794 257.34632925297774 0 0 0 0 36.197619411975609 -14.1422804439635 0 -14.1422804439635 -26.131786859281419 0 0 0 0 -64.727669053706904 -49.498779422770895 0 -49.498779422770895 23.831939961881289 0 0 0 0 108.70356164502434 16.104396414315488 0 16.104396414315488 -41.141981887518341 0 0 0 0 15.820472987571804 -8.4269058040299569 0 -8.4269058040299569 -47.574167973725707 0 0 0 0 -4.9754945343279928 -1.1994908050401136 0 -1.1994908050401136 22.197596167199663 0 0 0 0 -1.0556754817424994 -8.5651491472851546 0 -8.5651491472851546 9.3249251367133539 0 0 0 0 10.589310450637697 0.58690478440075822 0 0.58690478440075822 -17.316640240693232 0 0 0 0 0.70310886173451004 0.53116226080491735 0 0.53116226080491735 5.7895658279951192 0 0 0 0 -70.281314417191567 -4.7869915618184677 0 -4.7869915618184677 11.048254513530992 0 0 0 0 -2.5515046083280706 0.054697494347912823 0 0.054697494347912823 17.404039256624635 0 0 0 0 4.0582486504263215 11.052299119473901 0 11.052299119473901 40.713287542559556 0 0 0 0 36.189850240860267 -46.952590630988198 0 -46.952590630988198 -64.051753778792772 0 0 0 0 6.0672504359435271 2.2593100497031102 0 2.2593100497031102 0.23411270921373806 0 0 0 0 -0.10338962925852169 0.10789196767926512 0 0.10789196767926512 3.2515179239416838 0 0 0 0 -12.859751402361582 7.0082824839046225 0 7.0082824839046225 40.297033365990501 0 0 0 0 0.47333923205769679 2.0936313675847487 0 2.0936313675847487 43.912804470877745 0 0 0 0 0.8106028139756063 2.9325975503161317 0 2.9325975503161317 19.754607444123394 0 0 0 0 -16.337023165635685 -1.8981896246586984 0 -1.8981896246586984 26.856376300886041 0 0 0 0 -14.530750154352212 -11.097320046323375 0 -11.097320046323375 34.982625590775569 0 0 0 0 -7.5823762929355212 -11.242981752722699 0 -11.242981752722699 30.348845067481307 0 0 0 0 -1.6863168247968903 -2.8000479050903744 0 -2.8000479050903744 27.897110250396707 0 0 0 0 -11.767510767967167 -5.3696663958908175 0 -5.3696663958908175 49.176822205849021 0 0 0 0 4.9231538250713811 -27.027355503232684 0 -27.027355503232684 36.589935101339506 0 0 0 0 -7.2784306275576114 -11.225390132607572 0 -11.225390132607572 22.099605722196429 0 0 0 0 39.773055090983121 -53.42921470118381 0 -53.42921470118381 64.357341674825875 0 0 0 0 0.30128167470870271 0.49558878794691097 0 0.49558878794691097 0.45263334373416342 0 0 0 0 10.61750565028575 -12.384160573396002 0 -12.384160573396002 12.938315636696643 0 0 0 0 -2.238004987050731 0.81481578203590743 0 0.81481578203590743 3.5664916647544587 0 0 0 0 -30.624187076938426 -9.8912384325885796 0 -9.8912384325885796 23.908610590384342 0 0 0 0 -1.0042372815849714 -1.0480269020202897 0 -1.0480269020202897 2.9120236551752328 0 0 0 0 -0.71769362286391924 -10.607204726769851 0 -10.607204726769851 15.548789346899866 0 0 0 0 -4.570414707355134 -7.6066025630983773 0 -7.6066025630983773 6.3400142467544214 0 0 0 0 -1.5225293730931639 -8.4633947771581006 0 -8.4633947771581006 15.249664113383915 0 0 0 0 6.8979293846045948 -15.432840565681545 0 -15.432840565681545 10.354454296015319 0 0 0 0 -2.8241168380666295 -18.242714798041561 0 -18.242714798041561 -9.6774376925750403 0 0 0 0 -78.473914871413626 -39.931072148443491 0 -39.931072148443491 7.5001664905648795 0 0 0 0 -0.50829172283578272 3.4915071362316148 0 3.4915071362316148 15.941054633754277 0 0 0 0 22.038165930203846 -14.967330315534127 0 -14.967330315534127 -31.123157391615678 0 0 0 0 -21.66474464891553 29.567321472533877 0 29.567321472533877 79.759693249485281 0 0 0 0 121.45688198555092 -65.245238016595977 0 -65.245238016595977 -64.305888499631692 0 0 0 0 -6.6350030845604806 -120.68191605406173 0 -120.68191605406173 455.33346389418148 0 0 0 0 -27.269736352164728 218.96754731932742 0 218.96754731932742 314.25616636710402 0 0 0 0 0.83431519212374416 1.7583193634780443 0 1.7583193634780443 5.8045770146760276 0 0 0 0 195.64207146749965 -264.0523019104985 0 -264.0523019104985 467.72777126940491 0 0 0 0 65.109515438905532 -81.85378157249761 0 -81.85378157249761 -65.80697014942416 0 0 0 0 -6.1224934120717052 -33.279429591137159 0 -33.279429591137159 180.90113208867024 0 0 0 0 -52.847946970195082 1.10688273649248 0 1.10688273649248 449.45784727915452 0 0 0 0 -20.796016836098516 -56.201747740396968 0 -56.201747740396968 162.23328983079045 0 0 0 0 -21.239418296611831 20.381284174440225 0 20.381284174440225 120.16149234203658 0 0 0 0 14.237243589086802 -7.3643344797310419 0 -7.3643344797310419 -7.0225851711584255 0 0 0 0 -54.95190058829732 5.9738296914147213 0 5.9738296914147213 169.81119209000553 0 0 0 0 0.025075196954131438 -8.1881206396446942 0 -8.1881206396446942 -36.811928618146339 0 0 0 0 -47.56017122633925 -8.4476797777551837 0 -8.4476797777551837 35.647787123241869 0 0 0 0 61.964305998351499 -29.994776715000626 0 -29.994776715000626 38.864716986063286 0 0 0 0 -19.87511292771768 -6.7888848282163963 0 -6.7888848282163963 51.627909059956437 0 0 0 0 9.2673698602447843 -38.595985652140371 0 -38.595985652140371 -60.26613397111214 0 0 0 0 -18.019385858300268 -16.645599271527317 0 -16.645599271527317 2.6616764634491119 0 0 0 0 -0.59343030886598336 0.16889633124868908 0 0.16889633124868908 -0.068629212831325503 0 0 0 0 9.9453637454397494 39.443605736618338 0 39.443605736618338 7.6450821710604941 0 0 0 0 -8.7593434917698403 52.255894800406168 0 52.255894800406168 94.140111823246116 0 0 0 0 -20.569609268784319 16.083194765000371 0 16.083194765000371 25.643294269175385 0 0 0 0 -0.029671035264702984 16.464710679976633 0 16.464710679976633 147.25620005440578 0 0 0 0 8.0083448742990697 71.089894370310503 0 71.089894370310503 81.322826693718525 0 0 0 0 -0.046745353878052814 -0.048402703445223239 0 -0.048402703445223239 0.89699478945706801 0 0 0 0 -32.988857308004931 28.376504326771283 0 28.376504326771283 145.82548476660304 0 0 0 0 -7.5163502892980105 -16.560870522220284 0 -16.560870522220284 9.0416706166433869 0 0 0 0 -18.863268622269594 1.7820950702298433 0 1.7820950702298433 -4.9826676334014337 0 0 0 0 0.035882005654672408 -0.48215070846985597 0 -0.48215070846985597 1.8770517393667774 0 0 0 0 -32.380301638781347 -21.386321178399157 0 -21.386321178399157 -12.120008533507644 0 0 0 0 -16.992868816858035 -23.811030979988573 0 -23.811030979988573 -22.9976778070195 0 0 0 0 -0.029573469060469048 -12.373235808223399 0 -12.373235808223399 -22.54725879336911 0 0 0 0 -36.193141184062981 -32.559678155048459 0 -32.559678155048459 24.76853679434862 0 0 0 0 6.7902335955121771 3.1776778243456647 0 3.1776778243456647 -15.766970393364318 0 0 0 0 13.291701874866391 -29.058948833609975 0 -29.058948833609975 76.511829824681627 0 0 0 0 16.300078028206826 -20.91180444269412 0 -20.91180444269412 -7.6059438153242809 0 0 0 0 -6.3200659490635474 46.787414827333123 0 46.787414827333123 40.673855773420655 0 0 0 0 -9.9626608904486602 44.390599875005137 0 44.390599875005137 104.56816074572271 0 0 0 0 24.136920488115152 39.215335335396958 0 39.215335335396958 68.455031076478917 0 0 0 0 64.098071127640935 3.9798361552948336 0 3.9798361552948336 8.1813861874688882 0 0 0 0 -3.1733422474153485 -2.8648177392715297 0 -2.8648177392715297 117.68324584019138 0 0 0 0 -14.135208618776218 -9.5934681762610126 0 -9.5934681762610126 41.644825162511552 0 0 0 0 -3.0831332373559803 -7.955894105644802 0 -7.955894105644802 46.379895125355688 0 0 0 0 -9.7809593735819362 8.0361972414029879 0 8.0361972414029879 58.191534871530166 0 0 0 0 -9.5922175768471902 9.4824804437594139 0 9.4824804437594139 25.523671807972278 0 0 0 0 -8.4681963135407727 11.988563068207441 0 11.988563068207441 18.394156647216732 0 0 0 0 0.57199121169175338 2.248447748247429 0 2.248447748247429 5.3685198535861645 0 0 0 0 -2.4434584029250459 22.452167454564915 0 22.452167454564915 6.2817128427450371 0 0 0 0 19.580467711611675 22.93084779011042 0 22.93084779011042 21.494246860362182 0 0 0 0 18.613582508716405 3.3932471339667245 0 3.3932471339667245 -15.238894170528511 0 0 0 0 5.0168322064879476 -1.3259823076732573 0 -1.3259823076732573 15.194431707428521 0 0 0 0 -1.5181028408254493 1.3139275381507503 0 1.3139275381507503 3.0270054374096418 0 0 0 0 3.2136726384209453 4.0994924020378676 0 4.0994924020378676 -14.876783008185157 0 0 0 0 -8.372213711578981 -100.82661809826755 0 -100.82661809826755 86.295595854644489 0 0 0 0 45.944020331525053 -90.696752906176698 0 -90.696752906176698 80.527252688974841 0 0 0 0 57.175336691349628 -33.464975660710024 0 -33.464975660710024 26.455951870484569 0 0 0 0 -33.164614714869913 -13.987820928989095 0 -13.987820928989095 -0.92908795771654695 0 0 0 0 -20.467666881465178 23.429185997676541 0 23.429185997676541 -20.258279534726171 0 0 0 0 -0.24469246457737948 -0.12312225158125045 0 -0.12312225158125045 0.61874561281359775 0 0 0 0 -51.509187438138554 -76.61834431736861 0 -76.61834431736861 -76.166621041171311 0 0 0 0 -219.2595992184132 -48.420795905636624 0 -48.420795905636624 25.902649238312733 0 0 0 0 -31.151219413803517 39.276391193956442 0 39.276391193956442 53.236775392426352 0 0 0 0 -23.011816569960288 -42.647965822041442 0 -42.647965822041442 27.791111294243819 0 0 0 0 -20.955022396321922 -40.965808882858255 0 -40.965808882858255 -39.686061839398462 0 0 0 0 -78.295718979989175 -61.284065308283743 0 -61.284065308283743 -18.923521732576774 0 0 0 0 0.0040276756012969685 -47.389005960258146 0 -47.389005960258146 -32.978967769427982 0 0 0 0 -33.775753245169277 -27.501374852503432 0 -27.501374852503432 -23.204868389351759 0 0 0 0 -78.118389392137288 -58.870442636267398 0 -58.870442636267398 -17.479696237031021 0 0 0 0 -7.174751606379516 -10.16512989471812 0 -10.16512989471812 -10.004751394509185 0 0 0 0 -0.36187260157905399 -0.15302575444698618 0 -0.15302575444698618 2.5719172296418265 0 0 0 0 -2.9410767785038985 16.556240102283482 0 16.556240102283482 12.947249463919434 0 0 0 0 -0.81105567842966764 -9.1651744377777504 0 -9.1651744377777504 19.611015443144424 0 0 0 0 0.06941228366976615 -0.45394381075448109 0 -0.45394381075448109 0.63095365847223661 0 0 0 0 -25.725077454482584 14.247214260161854 0 14.247214260161854 -6.2264450496983272 0 0 0 0 -0.039655109947539041 -0.42968139625527613 0 -0.42968139625527613 0.48941801733898505 0 0 0 0 -0.072142995821179029 11.446415205653466 0 11.446415205653466 -16.347063377634186 0 0 0 0 -8.7374068690770166 15.335167888377327 0 15.335167888377327 -16.280794410820818 0 0 0 0 -10.775441489017483 21.918103542877361 0 21.918103542877361 -22.367469825738226 0 0 0 0 0.17225097884506393 15.793887398649531 0 15.793887398649531 5.4922855406402959 0 0 0 0 -18.391484206681529 14.742016158619663 0 14.742016158619663 40.546112246294797 0 0 0 0 -16.693448947132097 0.4835250513497158 0 0.4835250513497158 13.588035075325024 0 0 0 0 -1.777284579756909 13.490535223179904 0 13.490535223179904 -24.290613437845423 0 0 0 0 -0.36196890510634461 6.7905199657470803 0 6.7905199657470803 -17.323504261939888 0 0 0 0 -12.901783757548543 14.839599765800813 0 14.839599765800813 -22.462331649930434 0 0 0 0 -14.200906193473472 20.35602183509036 0 20.35602183509036 11.017142332435469 0 0 0 0 0.42634033360047852 -2.4888627872242068 0 -2.4888627872242068 5.9300891150015786 0 0 0 0 -1.4031368191971523 0.57271270455397172 0 0.57271270455397172 3.0027145747968973 0 0 0 0 0.4238846878700997 -1.4600898321259592 0 -1.4600898321259592 6.0157494016457349 0 0 0 0 1.1101989091011006 -1.9452639637684115 0 -1.9452639637684115 4.3518231119232951 0 0 0 0 183.47627180417157 -96.237356601544889 0 -96.237356601544889 55.037967009819113 0 0 0 0 277.17704027173346 -29.322872902943345 0 -29.322872902943345 -32.14228912719409 0 0 0 0 87.196899747391399 -117.05766260494056 0 -117.05766260494056 114.87546629156714 0 0 0 0 -30.268054708789464 -9.7595012744604901 0 -9.7595012744604901 7.6407388078878284 0 0 0 0 -0.037362473845770128 -0.49140632771024784 0 -0.49140632771024784 0.0012470116078873161 0 0 0 0 -12.41277686533266 -10.958755489897158 0 -10.958755489897158 -2.0945699757066905 0 0 0 0 -0.32821465699004426 0.70685225195283152 0 0.70685225195283152 5.4027548592362109 0 0 0 0 -0.6966129660665531 -1.6508894664179365 0 -1.6508894664179365 1.4174899959007479 0 0 0 0 -19.898519356105794 -23.109835614573967 0 -23.109835614573967 6.7988586694118567 0 0 0 0 0.87291653015251613 -1.8672149985659274 0 -1.8672149985659274 0.18428541400179066 0 0 0 0 22.721104438707556 -0.38292718572483864 0 -0.38292718572483864 -19.581863710447237 0 0 0 0 9.2760571360581139 -18.812046032842773 0 -18.812046032842773 -3.2227275350742275 0 0 0 0 2.9652418619062075 6.3915274334358401 0 6.3915274334358401 15.129346878442448 0 0 0 0 22.077071707541506 2.4714814661601849 0 2.4714814661601849 15.750562538229133 0 0 0 0 27.351833388641637 42.423915984429186 0 42.423915984429186 86.900711772250361 0 0 0 0 -9.9180171533224808 29.309097549400576 0 29.309097549400576 185.83924792255129 0 0 0 0 -2.467829403613564 7.5474317614207393 0 7.5474317614207393 103.96325024022008 0 0 0 0 0.18809748185948755 0.31939127225436792 0 0.31939127225436792 1.8295714226965458 0 0 0 0 121.39929179180274 -256.48032892179617 0 -256.48032892179617 226.80296869348967 0 0 0 0 16.129648110776941 76.904092484481225 0 76.904092484481225 79.749243061451125 0 0 0 0 93.205145088426491 -115.78465299416712 0 -115.78465299416712 113.00605469672473 0 0 0 0 26.809513977034399 -2.9808509666453347 0 -2.9808509666453347 -13.171249808714492 0 0 0 0 143.0403993369529 -121.18411770636885 0 -121.18411770636885 112.38048984696798 0 0 0 0 95.794236558752658 -48.4622470210561 0 -48.4622470210561 308.03486689637248 0 0 0 0 170.03329823200215 -201.58385856799578 0 -201.58385856799578 243.23987718996796 0 0 0 0 -13.868136539812722 -51.253487392094485 0 -51.253487392094485 177.19304504841421 0 0 0 0 -19.535317021521251 -83.676118001290888 0 -83.676118001290888 326.46013209207013 0 0 0 0 -21.154128855886398 72.760689967284634 0 72.760689967284634 276.47880990287376 0 0 0 0 -12.886402053543733 -39.611317044673342 0 -39.611317044673342 146.720719655018 0 0 0 0 -18.832180907079987 -49.470183453933714 0 -49.470183453933714 179.38212913045572 0 0 0 0 -17.211430556296143 -20.293511785570445 0 -20.293511785570445 153.56994001245039 0 0 0 0 -11.974566611562839 3.5313310825958979 0 3.5313310825958979 106.515304657456 0 0 0 0 -9.3204359473536016 -9.2066413536922482 0 -9.2066413536922482 100.07804552652669 0 0 0 0 11.793523444172461 27.026990810181815 0 27.026990810181815 64.192215161456261 0 0 0 0 -0.0034951754513613785 -0.015557359230541579 0 -0.015557359230541579 0.086447889099972031 0 0 0 0 -3.7409656179737638 -21.772654554595647 0 -21.772654554595647 54.731778290115471 0 0 0 0 -9.3182183508694401 -13.152371646767278 0 -13.152371646767278 98.461414106153825 0 0 0 0 -11.4138459057788 -11.017005899910146 0 -11.017005899910146 97.694038719584569 0 0 0 0 -0.0033953867774604136 -30.406624561148544 0 -30.406624561148544 128.18483050304349 0 0 0 0 -13.989433733963622 -34.838540138289318 0 -34.838540138289318 131.1864305221934 0 0 0 0 -0.034129847161442892 -39.257724232962573 0 -39.257724232962573 132.51205169970308 0 0 0 0 25.184457792282117 -55.399841785901117 0 -55.399841785901117 96.385871285776375 0 0 0 0 24.696408448735419 -52.896687855620257 0 -52.896687855620257 91.73287061051451 0 0 0 0 0.081386839539352954 -24.474139534157075 0 -24.474139534157075 74.662431747370647 0 0 0 0 -96.5823801851529 -44.286435136859836 0 -44.286435136859836 646.76480928764795 0 0 0 0 0.44335197468079623 0.77521523180759999 0 0.77521523180759999 1.611053372856972 0 0 0 0 -79.419963243187851 -54.804204677820053 0 -54.804204677820053 438.99305229880702 0 0 0 0 0.075594686142186132 51.756487126038337 0 51.756487126038337 378.8789962059891 0 0 0 0 -31.879043060788661 -19.769325501492858 0 -19.769325501492858 992.87013008384019 0 0 0 0 -25.49009206113351 -11.391818021795189 0 -11.391818021795189 407.6603742229081 0 0 0 0 -66.218982773962381 -63.809749354076303 0 -63.809749354076303 341.41427577422292 0 0 0 0 418.87076448469298 137.07919047345058 0 137.07919047345058 226.51838452089578 0 0 0 0 79.364770205501259 69.484820981437224 0 69.484820981437224 220.23421106040087 0 0 0 0 6.9184095983835547 -151.35480303280929 0 -151.35480303280929 828.59457885473967 0 0 0 0 66.347066769170794 -48.63966511727449 0 -48.63966511727449 -20.296182206864614 0 0 0 0 37.328639459728663 181.70986098038702 0 181.70986098038702 151.46358864864305 0 0 0 0 1.5270409175648121 1.7915686545938456 0 1.7915686545938456 1.9900719954541444 0 0 0 0 47.633985937516343 -93.762928605359775 0 -93.762928605359775 119.11238075443543 0 0 0 0 72.670446172025407 -135.07911140741089 0 -135.07911140741089 187.29300322911149 0 0 0 0 119.21308586589568 16.336345984605941 0 16.336345984605941 226.42143554599897 0 0 0 0 132.02849343480344 -3.0818019113376067 0 -3.0818019113376067 -73.770559054823025 0 0 0 0 1.0765585091096372 0.8489303654988376 0 0.8489303654988376 0.85464399893882614 0 0 0 0 149.48857986800323 41.197240456578584 0 41.197240456578584 -60.982711562508484 0 0 0 0 -42.331279468046937 123.56622624761985 0 123.56622624761985 36.950204697019217 0 0 0 0 -151.42645296058578 60.062883423433959 0 60.062883423433959 19.18647343153134 0 0 0 0 -124.64279222834365 115.22864203016434 0 115.22864203016434 -1.5099315656780163 0 0 0 0 8.2580296398198243 15.500327633588313 0 15.500327633588313 105.5645063915872 0 0 0 0 -1.4249309292721226 -0.62155450690364233 0 -0.62155450690364233 0.45415400756128577 0 0 0 0 -81.776866365165375 -22.830306933079555 0 -22.830306933079555 -43.475197952513554 0 0 0 0 -260.21076172047844 272.21110382339248 0 272.21110382339248 187.48318621002909 0 0 0 0 89.480317092079872 -21.741313806296148 0 -21.741313806296148 -88.344770389368932 0 0 0 0 74.349943117111721 -215.92562682247649 0 -215.92562682247649 673.84630883658974 0 0 0 0 -0.11491310675319188 0.12418089461628767 0 0.12418089461628767 0.70839841049537711 0 0 0 0 31.006009181198579 -54.779640561981068 0 -54.779640561981068 80.810012810718035 0 0 0 0 74.491341554041583 -259.11385145331587 0 -259.11385145331587 411.95323322035256 0 0 0 0 -84.921296827335482 -43.995012620047419 0 -43.995012620047419 593.61574204917997 0 0 0 0 56.02218014071218 4.1070987170714943 0 4.1070987170714943 517.38334883465177 0 0 0 0 -71.362361212444256 199.50998060540587 0 199.50998060540587 688.68731359628873 0 0 0 0 -103.5327176725161 135.31985687853739 0 135.31985687853739 916.09367696365371 0 0 0 0 60.14386521547037 54.777594801080113 0 54.777594801080113 830.75620186914603 0 0 0 0 -89.472550071555361 0.23035157592858013 0 0.23035157592858013 495.40970504924917 0 0 0 0 -88.168758342554156 60.022945689470362 0 60.022945689470362 520.11730812569658 0 0 0 0 -100.71632431306534 21.336312417222871 0 21.336312417222871 403.62348427221878 0 0 0 0 8.5831855676015039 -105.54599971215066 0 -105.54599971215066 303.87353686582719 0 0 0 0 3.453250055954868 97.991084624902214 0 97.991084624902214 268.85616109972761 0 0 0 0 -6.1504297050627201 29.642848289258836 0 29.642848289258836 73.261526260175742 0 0 0 0 -7.0631297926770458 -6.2742589030858653 0 -6.2742589030858653 14.467234114403254 0 0 0 0 8.2919905046742315 -41.62392824334529 0 -41.62392824334529 86.298393125984148 0 0 0 0 30.848938283035579 13.633267249520031 0 13.633267249520031 117.6648367432208 0 0 0 0 29.322831378493902 -53.987211778541678 0 -53.987211778541678 16.590858232843857 0 0 0 0 3.8517721520811392 -4.2993603329414327 0 -4.2993603329414327 5.3254711699446489 0 0 0 0 -3.5593629924245591 -3.7168167279572799 0 -3.7168167279572799 -0.1478549422149058 0 0 0 0 -101.00825959151423 -35.452747900731993 0 -35.452747900731993 -1.856921027712815 0 0 0 0 16.053536201194902 -22.439313081184082 0 -22.439313081184082 -3.207673705968773 0 0 0 0 -8.2538280704234239 -40.387638769523619 0 -40.387638769523619 10.185657239962893 0 0 0 0 -7.7014134776543415 -20.693670705136356 0 -20.693670705136356 1.0588929513687617 0 0 0 0 -16.248902587455405 -1.9419976511844652 0 -1.9419976511844652 35.669095816061599 0 0 0 0 -6.3377656152842974 -1.6270141328277532 0 -1.6270141328277532 9.917007313517388 0 0 0 0 -6.743618131751191 -16.844062209940603 0 -16.844062209940603 16.281521174620138 0 0 0 0 -6.6269789115314097 0.89469239038317028 0 0.89469239038317028 34.798829388448212 0 0 0 0 -7.035068284615094 -0.9860260242279395 0 -0.9860260242279395 10.25233938207883 0 0 0 0 -9.9814948870272246 -7.8692143496346034 0 -7.8692143496346034 40.284822326575522 0 0 0 0 -3.1356599844369963 -10.320116096100264 0 -10.320116096100264 0.82148448454691803 0 0 0 0 0.0492815314924826 -1.3896711173647276 0 -1.3896711173647276 -2.6898623212320558 0 0 0 0 -2.8687238806269306 -25.875784639909398 0 -25.875784639909398 -18.070365370011132 0 0 0 0 -10.801867825963654 -56.477024788018753 0 -56.477024788018753 24.080759819201489 0 0 0 0 -36.39990152254336 61.033807662137406 0 61.033807662137406 21.26441856387487 0 0 0 0 6.1742332849817103 -84.809832035132786 0 -84.809832035132786 -107.199066911111 0 0 0 0 -103.69597432135427 -37.750498371526191 0 -37.750498371526191 119.24188651228906 0 0 0 0 -0.85620314011160836 -1.9951969478286031 0 -1.9951969478286031 1.7661638035490839 0 0 0 0 -66.665650186526989 82.622229090451583 0 82.622229090451583 -122.43525220429001 0 0 0 0 -23.666419706470776 6.4300666609469772 0 6.4300666609469772 -18.04561170317902 0 0 0 0 -163.1650419245635 49.828913574143371 0 49.828913574143371 28.134440618538065 0 0 0 0 -122.27546786029882 -99.657532740569877 0 -99.657532740569877 137.72786532755708 0 0 0 0 28.737778885961617 -139.93564481820795 0 -139.93564481820795 78.78229026203735 0 0 0 0 122.15822062931586 -44.483218965071501 0 -44.483218965071501 142.51530577537051 0 0 0 0 86.577514526172934 -161.14781098571257 0 -161.14781098571257 152.17546133375208 0 0 0 0 40.010083029341757 -133.53215024163728 0 -133.53215024163728 144.30518045539065 0 0 0 0 87.620408381221182 -127.56625547882868 0 -127.56625547882868 138.58539417155407 0 0 0 0 21.762761417281723 -55.458401372161461 0 -55.458401372161461 78.684837879645784 0 0 0 0 38.22393477066646 -143.12496195917083 0 -143.12496195917083 101.6207327598313 0 0 0 0 -21.584946538321859 -144.25930730618347 0 -144.25930730618347 161.46128335635876 0 0 0 0 -25.124414415813462 -94.370406047644792 0 -94.370406047644792 408.81284977446921 0 0 0 0 8.0185542119386923 -101.51159621382976 0 -101.51159621382976 188.52737756524584 0 0 0 0 1.1229426790934811 -1.3875631546735718 0 -1.3875631546735718 0.95160355815918063 0 0 0 0 17.212311712800954 -102.9887359434706 0 -102.9887359434706 140.6095713058312 0 0 0 0 71.054149148924125 -84.935546269898623 0 -84.935546269898623 136.75969225460722 0 0 0 0 -1.5413410566131456 -0.47785601705777481 0 -0.47785601705777481 8.4521286712708239 0 0 0 0 -10.988635686921981 4.4637130868286476 0 4.4637130868286476 0.68975513404683397 0 0 0 0 -0.24533599512547785 0.33143301886226695 0 0.33143301886226695 1.2448298954064398 0 0 0 0 -1.228029333210263 -0.28531252484873804 0 -0.28531252484873804 5.1776494582452131 0 0 0 0 -90.659991465177086 -46.567176315864344 0 -46.567176315864344 -14.253726738760065 0 0 0 0 -10.362056615593247 4.4154275450273417 0 4.4154275450273417 -1.5152814672328532 0 0 0 0 1.8243541143314204 -3.4789593925397639 0 -3.4789593925397639 5.6635218283918221 0 0 0 0 -62.388886414163125 -102.03864370335032 0 -102.03864370335032 94.335827240593062 0 0 0 0 88.464881369971977 -87.79691951161476 0 -87.79691951161476 -305.24407194985542 0 0 0 0 173.88470397850449 -301.03020989689321 0 -301.03020989689321 81.963567692713696 0 0 0 0 2.6212896440258064 -1.6034007571946702 0 -1.6034007571946702 1.3880978480373187 0 0 0 0 198.44856754043579 -73.336294488621206 0 -73.336294488621206 -68.179807313175843 0 0 0 0 -23.71880028765446 -23.002146298857951 0 -23.002146298857951 65.459384876310651 0 0 0 0 53.951694234042634 -168.21424429074978 0 -168.21424429074978 209.82990350942418 0 0 0 0 90.700714398562241 -9.6133663777436595 0 -9.6133663777436595 15.479590642775293 0 0 0 0 0.49964422461078306 -0.26379700592430311 0 -0.26379700592430311 0.039811469558365564 0 0 0 0 -21.380062040085022 -42.773135223846111 0 -42.773135223846111 -8.959169007903256 0 0 0 0 -5.9071541338327531 -1.8491198186967495 0 -1.8491198186967495 5.3151396432996734 0 0 0 0 -8.4693407925408337 52.336438669166455 0 52.336438669166455 172.01334016330838 0 0 0 0 63.039741900269746 64.255930078469646 0 64.255930078469646 76.036721823653352 0 0 0 0 -7.4298999576657305 -4.0434232991633436 0 -4.0434232991633436 6.6073963127228552 0 0 0 0 -29.333593599201777 -42.708618401098647 0 -42.708618401098647 -2.0832649115691311 0 0 0 0 36.168359308885556 54.825694506042055 0 54.825694506042055 97.966780462593306 0 0 0 0 -43.723144145022047 11.08876881848937 0 11.08876881848937 36.284141142037697 0 0 0 0 -37.02417560007143 -26.744233861553766 0 -26.744233861553766 39.719167659422965 0 0 0 0 22.129453324128349 71.303702008142864 0 71.303702008142864 283.61357636849425 0 0 0 0 29.82545344150202 39.084605199717771 0 39.084605199717771 231.52623122648038 0 0 0 0 -1.2660378037728752 -1.2097775442054299 0 -1.2097775442054299 2.7490331995767576 0 0 0 0 4.7006255046883361 -6.4714931821003034 0 -6.4714931821003034 4.5162264225616724 0 0 0 0 18.909772050300489 80.288253843646089 0 80.288253843646089 258.81692187493172 0 0 0 0 67.793337549107491 85.28104648484441 0 85.28104648484441 189.22073179531435 0 0 0 0 5.2831526046520594 56.629481384035898 0 56.629481384035898 203.80255492782817 0 0 0 0 -11.495310532261101 2.6631750548040145 0 2.6631750548040145 178.16489516357615 0 0 0 0 -16.609002213292683 18.795658257929972 0 18.795658257929972 144.44915616537764 0 0 0 0 34.803105878105725 26.767286138812779 0 26.767286138812779 156.04455672189215 0 0 0 0 -34.92744751274347 -12.060177931047747 0 -12.060177931047747 120.48627858339751 0 0 0 0 -49.415457044757659 -10.001960063254955 0 -10.001960063254955 146.00451732160036 0 0 0 0 -41.479306852168065 -39.947804594296031 0 -39.947804594296031 131.08721039690863 0 0 0 0 48.170283148574981 -35.05555506789824 0 -35.05555506789824 84.57379073491029 0 0 0 0 -25.369585662180612 34.806559304128314 0 34.806559304128314 59.256541264643602 0 0 0 0 0.36439558807228423 40.758398669420785 0 40.758398669420785 120.74464458485181 0 0 0 0 -15.928912520227868 13.570002409354856 0 13.570002409354856 78.211700129020755 0 0 0 0 -24.740187161514768 -2.5424234659112699 0 -2.5424234659112699 28.969786996225594 0 0 0 0 -5.2813880197663821 -12.193627970613306 0 -12.193627970613306 34.990032791494741 0 0 0 0 -3.7564535421331531 -2.675299400044814 0 -2.675299400044814 4.8716942212238621 0 0 0 0 -13.821842528978777 -12.179876854956092 0 -12.179876854956092 32.005706656775146 0 0 0 0 -12.189363048359155 -9.1159949686771142 0 -9.1159949686771142 30.388879058314615 0 0 0 0 -2.6144215609119783 -12.948950225283625 0 -12.948950225283625 31.287369890123955 0 0 0 0 37.947123581339838 -14.374180012135184 0 -14.374180012135184 32.090747796273718 0 0 0 0 27.598967802128527 30.923563775795628 0 30.923563775795628 -25.673365332881076 0 0 0 0 -50.627304198287675 -1.293520132510821 0 -1.293520132510821 50.151675849261665 0 0 0 0 -25.078961072795209 -12.639741385450179 0 -12.639741385450179 -2.5328555217129178 0 0 0 0 -0.34186045275985677 -0.5184123141968513 0 -0.5184123141968513 -0.25569881861117594 0 0 0 0 -3.9253809198289673 -14.22361396902852 0 -14.22361396902852 35.282701225373785 0 0 0 0 -4.6110664648777888 4.2546730410241054 0 4.2546730410241054 -0.16529497911737012 0 0 0 0 5.4068145676055792 -12.43376994949358 0 -12.43376994949358 30.436285098607186 0 0 0 0 -4.9963077150268873 7.2601813303172094 0 7.2601813303172094 24.242381353546079 0 0 0 0 4.2833884580245467 14.162589325904264 0 14.162589325904264 2.5177651509948191 0 0 0 0 -1.5716652741029993 -0.19872533444660689 0 -0.19872533444660689 0.68652824165393156 0 0 0 0 -4.3626685551989794 -1.8557592785546149 0 -1.8557592785546149 20.844063402017582 0 0 0 0 -7.3090198381725315 3.0303043796688414 0 3.0303043796688414 2.9437343189991561 0 0 0 0 -5.0449368409445015 3.5076389622408897 0 3.5076389622408897 28.913255182036664 0 0 0 0 -17.549246960927121 0.57946399841603125 0 0.57946399841603125 23.046323223526997 0 0 0 0 -10.212303481493109 -5.9775357982653077 0 -5.9775357982653077 -9.9115372575026868 0 0 0 0 -12.525453016733081 6.4162917757203104 0 6.4162917757203104 29.071613355149566 0 0 0 0 -19.774350610734473 9.17807035829901 0 9.17807035829901 31.517244214170205 0 0 0 0 -5.7918692685202586 17.965730543404788 0 17.965730543404788 34.594113547624147 0 0 0 0 -29.49602508553744 -4.3175729696886265 0 -4.3175729696886265 37.626918540132465 0 0 0 0 -15.084744229973467 9.9942697338065045 0 9.9942697338065045 15.046985981389298 0 0 0 0 -1.3850665538569253 -0.062669394406117629 0 -0.062669394406117629 0.79238641176448255 0 0 0 0 14.92753129763355 26.487435915090828 0 26.487435915090828 32.839371681757257 0 0 0 0 -15.572476267002457 12.717437718652945 0 12.717437718652945 57.228449841797556 0 0 0 0 1.8499471216509846 10.553472371830139 0 10.553472371830139 25.693921812397093 0 0 0 0 7.6388563532914304 13.415722916950472 0 13.415722916950472 23.879569159642415 0 0 0 0 43.965540169107953 -15.780125266428513 0 -15.780125266428513 -18.694454922639125 0 0 0 0 -6.4127834297910269 -8.9557795631676953 0 -8.9557795631676953 4.2760983433551445 0 0 0 0 -44.332914216331119 -30.123807069914619 0 -30.123807069914619 17.988900204887614 0 0 0 0 -3.1077204433834704 -3.2601813369826456 0 -3.2601813369826456 23.170243885433848 0 0 0 0 -31.809444831329529 -2.8885754690272734 0 -2.8885754690272734 41.916571056430257 0 0 0 0 -12.577293900246332 13.518040943665255 0 13.518040943665255 55.737455995295022 0 0 0 0 10.859711553302077 10.760691570500057 0 10.760691570500057 31.105652252292202 0 0 0 0 17.89874101570058 -80.920999307811144 0 -80.920999307811144 94.094002001063927 0 0 0 0 0.27198378409585389 -1.3079123294754185 0 -1.3079123294754185 16.239452154752641 0 0 0 0 -99.27647447786012 -8.6235928091246024 0 -8.6235928091246024 128.12901452903316 0 0 0 0 47.112479451252966 -217.96971969281367 0 -217.96971969281367 349.58639577227586 0 0 0 0 139.97514296245754 -85.473431979107772 0 -85.473431979107772 27.598263875708653 0 0 0 0 -3.2948287288959364 3.8450963456361933 0 3.8450963456361933 260.82765848458621 0 0 0 0 -2.0194723317260639 -33.523789104352716 0 -33.523789104352716 934.05974228231207 0 0 0 0 0.22809105526878315 -0.25423887808486167 0 -0.25423887808486167 6.1931820465341616 0 0 0 0 34.727676458855512 307.19218844156421 0 307.19218844156421 603.05561599242355 0 0 0 0 405.10114702963347 -339.22308588342275 0 -339.22308588342275 250.93666170213328 0 0 0 0 -5.6020723975980218 -208.49736586222207 0 -208.49736586222207 844.89584427930095 0 0 0 0 -19.911395762889697 -58.493912110647216 0 -58.493912110647216 203.08192389376381 0 0 0 0 -66.972548612225182 -71.974476259874791 0 -71.974476259874791 418.69885319174136 0 0 0 0 -74.950613967895038 -40.136807554025836 0 -40.136807554025836 305.19099889880454 0 0 0 0 12.101070665275074 -145.36276160045782 0 -145.36276160045782 204.31668855477619 0 0 0 0 -41.287529666706632 -112.31290916441867 0 -112.31290916441867 252.81381876632804 0 0 0 0 -41.394380178334359 -135.81013595174227 0 -135.81013595174227 332.45167257333378 0 0 0 0 -13.449388111288783 -103.99223258643906 0 -103.99223258643906 254.61007564609463 0 0 0 0 -34.543861968895726 -55.482636331977119 0 -55.482636331977119 187.95246314296674 0 0 0 0 -8.6780173742736224 -67.303200765403744 0 -67.303200765403744 129.05313901626141 0 0 0 0 20.322904928847265 -61.08103323893647 0 -61.08103323893647 129.81631717628989 0 0 0 0 -0.39578232253279566 -10.90208685586731 0 -10.90208685586731 56.7764744691695 0 0 0 0 -11.754421856668841 -45.198077693291907 0 -45.198077693291907 191.59148716063646 0 0 0 0 -11.763328993570212 0.70408293659784249 0 0.70408293659784249 219.17528620387384 0 0 0 0 10.182096925273981 3.396979877814374 0 3.396979877814374 99.198799882396997 0 0 0 0 -4.8308011497920234 16.269660257432406 0 16.269660257432406 229.32248357559547 0 0 0 0 -17.829369187183318 -71.448962013349501 0 -71.448962013349501 293.96455172308197 0 0 0 0 -42.120459032240888 -58.844155180111557 0 -58.844155180111557 348.67004764487865 0 0 0 0 -6.247774748449956 -140.38765497448549 0 -140.38765497448549 289.32092936831941 0 0 0 0 -30.971431520400301 -104.15045191297395 0 -104.15045191297395 239.67491467099171 0 0 0 0 5.0835588770469258 -130.8846968721773 0 -130.8846968721773 260.50816983458208 0 0 0 0 81.04330042343372 -159.55023618911946 0 -159.55023618911946 228.22614168862128 0 0 0 0 11.375991081692696 21.737566680552838 0 21.737566680552838 22.709320159641081 0 0 0 0 20.640845635862206 -69.328604657850065 0 -69.328604657850065 128.73779679366999 0 0 0 0 3.4828894441338889 -89.641093892911158 0 -89.641093892911158 243.86465750122079 0 0 0 0 13.373378776525897 25.849675123559791 0 25.849675123559791 -6.30168619345568 0 0 0 0 -1.8428702307899636 4.0086906784514387 0 4.0086906784514387 12.76195295245752 0 0 0 0 9.9105205030859906 13.996354075383806 0 13.996354075383806 10.061631240958377 0 0 0 0 6.9051137582528437 17.783488000663837 0 17.783488000663837 22.309523886317095 0 0 0 0 109.0981231572672 7.82501161803998 0 7.82501161803998 51.386591296177357 0 0 0 0 311.40237105702636 -157.73890431222026 0 -157.73890431222026 108.75324386156262 0 0 0 0 -29.760187514148811 -44.311195274991405 0 -44.311195274991405 554.26816390603199 0 0 0 0 2.4887331311904219 2.6672577216598121 0 2.6672577216598121 9.7564827293565202 0 0 0 0 -113.62022031736888 -231.75176814717997 0 -231.75176814717997 642.18845574527768 0 0 0 0 -98.87772221918749 -263.14966411220485 0 -263.14966411220485 706.35194241044519 0 0 0 0 78.856721883604678 -274.29398462183599 0 -274.29398462183599 525.21328488611471 0 0 0 0 125.36231924305321 122.31863410285223 0 122.31863410285223 533.52004464642403 0 0 0 0 91.533736176636012 -99.420840083064832 0 -99.420840083064832 138.87391318049777 0 0 0 0 324.86000705561719 -265.34080905785504 0 -265.34080905785504 443.57974475619994 0 0 0 0 172.54972581920902 95.92985087031775 0 95.92985087031775 135.26521997673626 0 0 0 0 -0.64726373462963238 23.445214528979704 0 23.445214528979704 235.56808109524718 0 0 0 0 -140.0321965158264 -131.84776468957898 0 -131.84776468957898 669.15669735285337 0 0 0 0 1.2303260793250956 -22.485526283885974 0 -22.485526283885974 -18.784810015098628 0 0 0 0 -11.552355765600623 -2.4083331381307289 0 -2.4083331381307289 70.428084397390194 0 0 0 0 -38.433973159627385 -54.799082709279901 0 -54.799082709279901 72.604699877261737 0 0 0 0 -8.6743031661903842 -0.92136095510795712 0 -0.92136095510795712 59.182345401444763 0 0 0 0 38.873927442578491 -0.17350556311407672 0 -0.17350556311407672 51.840418097475776 0 0 0 0 39.142600117541861 -19.220559991297705 0 -19.220559991297705 31.597203132609138 0 0 0 0 12.308175253683658 -23.693807999454293 0 -23.693807999454293 52.541452608827967 0 0 0 0 91.920826630518604 39.444434045712114 0 39.444434045712114 -50.392533934244625 0 0 0 0 -0.64322792416999874 -0.41497242079861252 0 -0.41497242079861252 1.2362030063368907 0 0 0 0 -0.80242983689157832 0.29368514742510143 0 0.29368514742510143 1.6775785986403946 0 0 0 0 -1.9514370347090662 4.2234379744525299 0 4.2234379744525299 1.1484772861958756 0 0 0 0 -2.7944150218271897 -3.4739466574534887 0 -3.4739466574534887 6.2001140999258837 0 0 0 0 -26.92264366955169 38.802230575573049 0 38.802230575573049 5.096086507619475 0 0 0 0 -35.44603491677799 46.527586018397415 0 46.527586018397415 129.38212468583515 0 0 0 0 1.705588191730385 -85.239259000096354 0 -85.239259000096354 39.231869246312272 0 0 0 0 65.58305457978895 84.286912867908541 0 84.286912867908541 31.11303407505693 0 0 0 0 18.537097587862718 46.001880535794044 0 46.001880535794044 149.6153526693779 0 0 0 0 123.56996873104345 -121.9532151255662 0 -121.9532151255662 137.86116868013846 0 0 0 0 0.47803551623489238 0.69752366486508421 0 0.69752366486508421 1.1656626231953737 0 0 0 0 -82.215610002182302 120.12786946827327 0 120.12786946827327 14.52589528990211 0 0 0 0 26.046622081934402 80.63564751578815 0 80.63564751578815 19.281541728276352 0 0 0 0 -83.988831451544684 -7.6311461904442695 0 -7.6311461904442695 -19.865267029712413 0 0 0 0 -1.2106872169864413 0.93344583688738325 0 0.93344583688738325 3.924050214928414 0 0 0 0 -166.13068087299507 60.503750515434149 0 60.503750515434149 109.5194571941247 0 0 0 0 101.8561082358874 -55.674204698814719 0 -55.674204698814719 27.096870868081169 0 0 0 0 22.588788561896763 -64.025004983315739 0 -64.025004983315739 58.995787773735174 0 0 0 0 -10.160031271441312 -58.445013132506574 0 -58.445013132506574 45.538098239325336 0 0 0 0 -38.48044568964724 -44.666478392296995 0 -44.666478392296995 56.92758514360321 0 0 0 0 7.3031435175339539 -40.500936384651141 0 -40.500936384651141 47.981572311153286 0 0 0 0 -27.356279231726148 -43.355893473988544 0 -43.355893473988544 32.30953397853591 0 0 0 0 15.930352496748583 -55.543029409092924 0 -55.543029409092924 45.873483153191046 0 0 0 0 25.732179923914828 -33.820421080210508 0 -33.820421080210508 65.5774623827092 0 0 0 0 -22.033573670903934 -3.4134763401452801 0 -3.4134763401452801 9.4826955511816777 0 0 0 0 -4.107814224992234 -7.6643215847614172 0 -7.6643215847614172 -3.6106184838952657 0 0 0 0 -7.097596075689717 -9.6867971197807421 0 -9.6867971197807421 5.839697715298847 0 0 0 0 -1.1260049679148665 -1.9392497119807786 0 -1.9392497119807786 -2.2858938127891975 0 0 0 0 -58.03367915543231 -68.452799021215469 0 -68.452799021215469 -75.479778175264073 0 0 0 0 -11.924539118404937 -15.705015373430797 0 -15.705015373430797 5.7528296894524829 0 0 0 0 -13.100384222820708 -25.603490859828817 0 -25.603490859828817 -3.9535002656791534 0 0 0 0 -2.0395364714230064 -1.9415660203529264 0 -1.9415660203529264 1.2930747105335456 0 0 0 0 -9.020939877996625 -20.114973722387731 0 -20.114973722387731 90.584085712398519 0 0 0 0 6.9383374304679819 -27.69109892538836 0 -27.69109892538836 33.274165883405658 0 0 0 0 4.8057045155828746 -55.86107600588366 0 -55.86107600588366 21.584549057901313 0 0 0 0 -31.976026360471224 -61.796102763215458 0 -61.796102763215458 40.770339295648228 0 0 0 0 -8.1233282014909491 -71.27763674135349 0 -71.27763674135349 22.725140337490302 0 0 0 0 -0.025301844120804162 -24.799586722809181 0 -24.799586722809181 13.357914045496727 0 0 0 0 1.970698362112671 -51.239177042563824 0 -51.239177042563824 0.49178457459493075 0 0 0 0 2.3794487288653272 -48.351066933922993 0 -48.351066933922993 12.46213572016859 0 0 0 0 -1.3192464051394381 -25.473580379906707 0 -25.473580379906707 29.235140408607549 0 0 0 0 -2.5663613833885766 -1.6308974593538608 0 -1.6308974593538608 9.2360943213507056 0 0 0 0 -87.000147632470544 -66.949892303115121 0 -66.949892303115121 -35.228097426857857 0 0 0 0 -83.659645263598577 -96.729685078933471 0 -96.729685078933471 153.93457642436806 0 0 0 0 29.339600418514237 -44.15130138706445 0 -44.15130138706445 -67.568692898117661 0 0 0 0 53.452196771178706 -11.903346564823551 0 -11.903346564823551 -50.242515358506353 0 0 0 0 -8.5894817136318125 -14.006894198611008 0 -14.006894198611008 2.0534564806948765 0 0 0 0 7.0532137026253849 -6.737293974615568 0 -6.737293974615568 -40.23325563483013 0 0 0 0 -8.7967395955542997 -8.9811541213493911 0 -8.9811541213493911 3.6529015744172284 0 0 0 0 -40.061013091117275 -69.265191705728284 0 -69.265191705728284 -42.317859365073673 0 0 0 0 -0.70397366716115428 -8.6215472886939182 0 -8.6215472886939182 10.744014889799416 0 0 0 0 -6.7245122846792444 -8.1026334318931674 0 -8.1026334318931674 10.005819995046743 0 0 0 0 -13.936591468067377 -20.109843339557756 0 -20.109843339557756 1.3319210691079206 0 0 0 0 -16.627867111133128 -5.4432480722243781 0 -5.4432480722243781 -39.291193367636879 0 0 0 0 -13.4591018078454 -56.254340553605289 0 -56.254340553605289 -20.845815110122203 0 0 0 0 -0.11477065145264564 -1.1310514680337036 0 -1.1310514680337036 -2.6822878641147696 0 0 0 0 0.73691527202254292 -38.125751843046601 0 -38.125751843046601 -23.139111419226538 0 0 0 0 -13.224600344574355 -31.468390118025127 0 -31.468390118025127 -8.6956992214472848 0 0 0 0 -35.376514541200322 -39.778018962484566 0 -39.778018962484566 5.3606949530876591 0 0 0 0 8.0314211481436359 -20.976583437754016 0 -20.976583437754016 2.4293051004897279 0 0 0 0 -12.928327152917973 -33.693797518657448 0 -33.693797518657448 -1.8173429088274133 0 0 0 0 1.8600598285313481 -14.084636355913972 0 -14.084636355913972 -0.9692329744430026 0 0 0 0 5.3645860251185695 -10.394376384887437 0 -10.394376384887437 2.4033802253916292 0 0 0 0 17.502582412712854 -1.2032576202582277 0 -1.2032576202582277 4.4916138427779515 0 0 0 0 12.966267307808266 -6.6261639122803899 0 -6.6261639122803899 -4.0911430036503589 0 0 0 0 -11.820689546490485 -8.9437261113307613 0 -8.9437261113307613 -4.2950764179986436 0 0 0 0 16.917687294376719 -16.847788548035169 0 -16.847788548035169 -13.917164200123807 0 0 0 0 -3.1149353375074487 -10.445495359685523 0 -10.445495359685523 6.9248466142965839 0 0 0 0 -14.238670727540466 -31.123440946597839 0 -31.123440946597839 -25.417166956001893 0 0 0 0 -0.32426842421551516 -0.90128167531476322 0 -0.90128167531476322 -1.203662626784805 0 0 0 0 0.13976702775516969 -18.981373807924683 0 -18.981373807924683 -11.082294007941528 0 0 0 0 -8.8577384441905451 -7.8251565596692672 0 -7.8251565596692672 -6.5569933302176651 0 0 0 0 -13.839245563469376 -5.5194032684885315 0 -5.5194032684885315 -8.5507695389169385 0 0 0 0 -14.940757374622081 2.519429822692473 0 2.519429822692473 -23.225022436818108 0 0 0 0 -11.484014050822225 -14.568935498689825 0 -14.568935498689825 5.4133023444483115 0 0 0 0 -1.4946501028820545 -1.495213393775952 0 -1.495213393775952 1.2994782340950763 0 0 0 0 -6.2414090236153728 -14.201152425988795 0 -14.201152425988795 -3.6479009354245875 0 0 0 0 -102.35583124602761 -9.4499406323784569 0 -9.4499406323784569 41.616870802958147 0 0 0 0 -8.7225641845412838 1.9072116758088669 0 1.9072116758088669 -4.4552116107006441 0 0 0 0 -1.2247937193274869 2.2311469062696396 0 2.2311469062696396 15.494738777374749 0 0 0 0 -4.8105529450365694 -3.3099460611041991 0 -3.3099460611041991 7.9047457131209882 0 0 0 0 -7.0948345819406313 -2.1922057187912287 0 -2.1922057187912287 4.4547852743708063 0 0 0 0 -3.293933891648976 5.7689167388016358 0 5.7689167388016358 -1.7176125354890246 0 0 0 0 20.697876919740111 -0.12771532383339945 0 -0.12771532383339945 1.2752320371819224 0 0 0 0 2.4620999520320765 7.2556215013901237 0 7.2556215013901237 -1.5587144126766361 0 0 0 0 -13.628134676758691 38.813764249745873 0 38.813764249745873 8.712955254886765 0 0 0 0 8.0122611327451523 -7.8670831155977794 0 -7.8670831155977794 16.884075865138584 0 0 0 0 27.939681357728205 5.6188142688060907 0 5.6188142688060907 23.31874091309146 0 0 0 0 53.217835113405727 -31.094841748630643 0 -31.094841748630643 49.774197761082178 0 0 0 0 19.957532256873037 4.4737497742753476 0 4.4737497742753476 116.05001621965675 0 0 0 0 17.759488021540506 -12.270163343931017 0 -12.270163343931017 129.33494371505003 0 0 0 0 29.201362252651165 -14.898043682521347 0 -14.898043682521347 6.7891613155479718 0 0 0 0 23.736721069192981 3.4212282516818959 0 3.4212282516818959 240.06115376487105 0 0 0 0 65.491810414601332 48.21873044307722 0 48.21873044307722 149.96646947566114 0 0 0 0 88.740431974644707 77.154660284448255 0 77.154660284448255 187.46950681664384 0 0 0 0 54.543114256754563 -14.024549502800937 0 -14.024549502800937 125.59373734106339 0 0 0 0 8.0899612056474552 85.231884625132807 0 85.231884625132807 369.3403851732437 0 0 0 0 161.65507600535875 259.70543620308672 0 259.70543620308672 309.02411670675338 0 0 0 0 7.219375622588359 21.189215168004012 0 21.189215168004012 91.494387613180152 0 0 0 0 15.746778934292252 30.356854813653626 0 30.356854813653626 96.466985498422218 0 0 0 0 1.3583822315940779 14.774380072756685 0 14.774380072756685 116.10685998328154 0 0 0 0 44.000868868959969 2.3208027427463094 0 2.3208027427463094 118.37400431654532 0 0 0 0 13.430358520690106 27.623404064306669 0 27.623404064306669 144.19761745493997 0 0 0 0 13.68723471412568 15.511048443289837 0 15.511048443289837 119.39916412900493 0 0 0 0 -0.4029644391414422 -9.9674699625120411 0 -9.9674699625120411 91.968227985795238 0 0 0 0 -3.3631090053154367 -7.5143611257917655 0 -7.5143611257917655 89.936079617793439 0 0 0 0 -2.6008387183103423 -8.1882736658562862 0 -8.1882736658562862 66.264433771728363 0 0 0 0 -18.397703724788471 -31.474898278668661 0 -31.474898278668661 71.876474022392358 0 0 0 0 1.1058030195690662 -25.71543114339147 0 -25.71543114339147 105.58282520288685 0 0 0 0 32.636858934215297 -20.720801957333606 0 -20.720801957333606 64.955554264161037 0 0 0 0 4.5138411952657407 -13.72945857432569 0 -13.72945857432569 63.732529373275156 0 0 0 0 31.061702169950934 -28.165700598549392 0 -28.165700598549392 16.187592931059044 0 0 0 0 4.235625048613656 -18.650692258805066 0 -18.650692258805066 14.784459047816199 0 0 0 0 15.387303280865126 -19.601933333913621 0 -19.601933333913621 -2.04561404801035 0 0 0 0 22.9419167775186 -20.311761947861669 0 -20.311761947861669 0.66664946959645022 0 0 0 0 -10.067304587137187 -9.912211086415482 0 -9.912211086415482 15.622726217497984 0 0 0 0 1.6729578658369064 -33.308894591558783 0 -33.308894591558783 44.271522339045987 0 0 0 0 -2.7819264144416138 -38.921373558277992 0 -38.921373558277992 -3.3863541855316726 0 0 0 0 -47.502790075888697 -5.86370428680857 0 -5.86370428680857 46.984724323414412 0 0 0 0 -49.937928901324995 -46.054078335224403 0 -46.054078335224403 70.145881434844341 0 0 0 0 -8.1791072727640426 -18.51508823912468 0 -18.51508823912468 -24.258370643892704 0 0 0 0 89.142274433973853 13.108677236865333 0 13.108677236865333 -18.678599234383 0 0 0 0 -73.8260771610353 -116.22544789171116 0 -116.22544789171116 6.8191516793740448 0 0 0 0 1.6749193313588353 -10.555659780414716 0 -10.555659780414716 13.445322742793735 0 0 0 0 0.65294844077438441 -0.59444704015134775 0 -0.59444704015134775 1.5305511319441507 0 0 0 0 -38.991549795946412 -17.740348434112093 0 -17.740348434112093 8.8639309274258267 0 0 0 0 108.83183620895568 -152.65121072839452 0 -152.65121072839452 -77.460265009722207 0 0 0 0 -126.15450551986123 89.643555887389084 0 89.643555887389084 107.45014959347463 0 0 0 0 104.6309213792108 0.13686943194625201 0 0.13686943194625201 30.365078676037228 0 0 0 0 10.97831729172276 -67.849177746222267 0 -67.849177746222267 70.613496316127737 0 0 0 0 -11.476395751597465 -33.610518972553109 0 -33.610518972553109 58.172573869367625 0 0 0 0 -19.99055100732312 -36.112305295011538 0 -36.112305295011538 66.961781503247039 0 0 0 0 6.4138866629791664 -9.5590514491050271 0 -9.5590514491050271 77.478000592345779 0 0 0 0 -8.6333307487210504 -26.431616788974225 0 -26.431616788974225 60.929063362338638 0 0 0 0 -24.418848255400007 8.3885838047608559 0 8.3885838047608559 56.385153616789466 0 0 0 0 8.6945096909139465 3.8004032636054035 0 3.8004032636054035 19.623493277413218 0 0 0 0 -66.674311620077333 -34.612046093738172 0 -34.612046093738172 19.924765778676374 0 0 0 0 -38.456371301253967 1.4199813688646827 0 1.4199813688646827 38.062284801537317 0 0 0 0 -15.736584155467881 16.219970372647367 0 16.219970372647367 -0.87021456596266944 0 0 0 0 -16.77339835098303 26.428236821434439 0 26.428236821434439 57.323606596164609 0 0 0 0 -44.261965826298365 28.205556347886159 0 28.205556347886159 91.688058737766752 0 0 0 0 -2.4931229198366509 1.0749392691727735 0 1.0749392691727735 69.170889683606219 0 0 0 0 -10.415838429333689 14.380792696265416 0 14.380792696265416 80.060731211625352 0 0 0 0 -2.9575918967648249 25.010168102906391 0 25.010168102906391 90.726265160996263 0 0 0 0 133.87333528612976 -159.40570527256386 0 -159.40570527256386 -373.02037982264301 0 0 0 0 1.0766426621796048 -1.9170713919495768 0 -1.9170713919495768 3.0861627093286472 0 0 0 0 -89.369059262600359 -9.5725003977437382 0 -9.5725003977437382 5.2578175756352721 0 0 0 0 -87.764361580210789 -44.110959766567248 0 -44.110959766567248 9.6535959397951956 0 0 0 0 149.06746668333267 50.39824649106049 0 50.39824649106049 -105.44840610882966 0 0 0 0 -13.929276163508518 67.259129884071172 0 67.259129884071172 104.91260247048922 0 0 0 0 -57.704215099744033 21.125308036007482 0 21.125308036007482 97.696332622268528 0 0 0 0 -43.910967227494439 23.589338764235436 0 23.589338764235436 96.854789036613511 0 0 0 0 -17.204488411732882 50.581414255217169 0 50.581414255217169 20.542058882434503 0 0 0 0 14.08449605611122 -53.43017551027333 0 -53.43017551027333 -9.8761385504330974 0 0 0 0 -21.184567184515799 -11.35862595969229 0 -11.35862595969229 -48.867839021753753 0 0 0 0 -54.116979254352373 -54.614405010957853 0 -54.614405010957853 -24.138762330389 0 0 0 0 -6.997865640627424 -77.719402970542433 0 -77.719402970542433 -3.6225475582505169 0 0 0 0 -62.502535431028434 -39.227466501825802 0 -39.227466501825802 7.5462250237906119 0 0 0 0 -48.70469206987309 34.104563675664394 0 34.104563675664394 76.237771302585315 0 0 0 0 -9.9740627821136059 -1.3209030412645006 0 -1.3209030412645006 5.4977205037575914 0 0 0 0 -51.122380265219192 -24.962333396759618 0 -24.962333396759618 9.5684439948236104 0 0 0 0 -23.308198545478717 -37.715502554734485 0 -37.715502554734485 -8.1456574016847298 0 0 0 0 -0.83834472591762221 -1.4192417936132102 0 -1.4192417936132102 2.7884522022540494 0 0 0 0 -67.201818184626973 5.027773071287811 0 5.027773071287811 14.584204560211219 0 0 0 0 0.40445006661100269 -1.5489410582708327 0 -1.5489410582708327 1.9672211603602676 0 0 0 0 -12.232935505937348 0.58344075780041749 0 0.58344075780041749 14.930355469326969 0 0 0 0 64.808429600955606 -26.002766782828985 0 -26.002766782828985 -3.7343133876929642 0 0 0 0 49.100056959087169 8.9837718132384907 0 8.9837718132384907 27.075168416806264 0 0 0 0 13.98604485175332 -57.508054963020186 0 -57.508054963020186 1.3627646775712492 0 0 0 0 19.077989239739964 -38.000639736746962 0 -38.000639736746962 7.3742362478860741 0 0 0 0 51.135352475310356 -17.778344856924377 0 -17.778344856924377 1.2384633685287554 0 0 0 0 -193.61557315227856 -39.472534208196521 0 -39.472534208196521 91.467707358810003 0 0 0 0 14.190831950449713 -51.510312147828699 0 -51.510312147828699 -1.1254616298901965 0 0 0 0 2.463269304260475 -4.7572322394641642 0 -4.7572322394641642 10.380897097032573 0 0 0 0 7.1282084855797621 -43.899557252636441 0 -43.899557252636441 -8.2937388174977968 0 0 0 0 6.520034568772644 -50.153730281028402 0 -50.153730281028402 15.257475672562578 0 0 0 0 -56.527595079091014 -5.4611037609784034 0 -5.4611037609784034 6.2510361401255068 0 0 0 0 -66.914639181312964 -9.072551964683953 0 -9.072551964683953 50.398811453924282 0 0 0 0 -49.901556833392419 -69.356984244630439 0 -69.356984244630439 108.64901895876756 0 0 0 0 36.630583751451013 71.802290379126134 0 71.802290379126134 29.471630211657612 0 0 0 0 -64.705610969309021 4.1364328126596774 0 4.1364328126596774 36.376368256154819 0 0 0 0 60.858962460535622 -68.099409657865181 0 -68.099409657865181 14.42012393686673 0 0 0 0 5.4361581910306995 -48.379943391155393 0 -48.379943391155393 12.361460492596962 0 0 0 0 -57.142710974748297 123.23372562027362 0 123.23372562027362 73.375035390767152 0 0 0 0 -181.3535954436702 95.358893460746913 0 95.358893460746913 127.60547437225614 0 0 0 0 -0.98796411832796194 -1.7666392636980675 0 -1.7666392636980675 2.2562094288278089 0 0 0 0 -4.1110554370156933 -30.348640848271316 0 -30.348640848271316 -96.954057106093387 0 0 0 0 13.579305963134722 -78.00984298400806 0 -78.00984298400806 -96.603041898957599 0 0 0 0 -4.5309980357506445 -8.753174569246795 0 -8.753174569246795 8.1312832909431911 0 0 0 0 0.049973752424875784 -8.4335715164997964 0 -8.4335715164997964 -65.576686617801897 0 0 0 0 -37.397560367634384 -80.654471488941454 0 -80.654471488941454 -78.329915998350771 0 0 0 0 4.7388300733794875 -4.5844212545799579 0 -4.5844212545799579 1.6893750151440656 0 0 0 0 277.86004496912255 -61.069207208693115 0 -61.069207208693115 -54.035300804785948 0 0 0 0 -19.050230701291866 -16.068617161956354 0 -16.068617161956354 -50.755130602472491 0 0 0 0 54.250016937562123 -58.480476923841707 0 -58.480476923841707 -103.30219013981696 0 0 0 0 -97.16821551171472 -80.326684559049681 0 -80.326684559049681 20.677252428446081 0 0 0 0 -10.484657183043092 -7.5311112413445898 0 -7.5311112413445898 7.7511614073471904 0 0 0 0 -11.060310527781439 -12.322906274136585 0 -12.322906274136585 -7.0523610617674422 0 0 0 0 -11.83464575999642 -16.599657316852245 0 -16.599657316852245 1.9633171764071449 0 0 0 0 -8.8723411253886297 -16.693226586983656 0 -16.693226586983656 -10.617993763320555 0 0 0 0 -43.852262736253806 -10.340215479745893 0 -10.340215479745893 -2.379121232603211 0 0 0 0 0.14139595551624584 -7.4364930362567847 0 -7.4364930362567847 -5.7411320458021891 0 0 0 0 -11.690033440167099 -21.738101503884536 0 -21.738101503884536 -12.316489857286797 0 0 0 0 -26.731768241178827 -69.367262733377174 0 -69.367262733377174 9.7516993783283397 0 0 0 0 -7.281366989018716 -16.716519219282915 0 -16.716519219282915 11.30195754071908 0 0 0 0 -4.3527368625464078 -29.553888966169325 0 -29.553888966169325 -20.980586512763693 0 0 0 0 0.82580518631915067 -6.3729348192774466 0 -6.3729348192774466 -1.6511498608193307 0 0 0 0 -10.01309038715317 -13.943645185925561 0 -13.943645185925561 -36.847594821218081 0 0 0 0 1.1336828486714694 -25.297079665739147 0 -25.297079665739147 -26.561765315367666 0 0 0 0 -18.358446694868974 -48.546005696851353 0 -48.546005696851353 -28.174145099124871 0 0 0 0 0.86501715456870443 -24.48218839169931 0 -24.48218839169931 -27.893004601592111 0 0 0 0 -5.3781045457485561 -26.931816424800672 0 -26.931816424800672 -20.430932840612513 0 0 0 0 2.7683422761620422 -2.9942308575605239 0 -2.9942308575605239 3.1968200464676357 0 0 0 0 -2.7927009454201652 -18.397447343710155 0 -18.397447343710155 -13.317186258214861 0 0 0 0 -1.0633811466877887 -20.180216209824721 0 -20.180216209824721 -12.602834268558126 0 0 0 0 -73.747536027377919 -121.71159075964169 0 -121.71159075964169 -26.792677163459302 0 0 0 0 -31.756695368030705 -79.386816539124993 0 -79.386816539124993 -41.624430432588269 0 0 0 0 -7.8979355605795263 -15.589246569985335 0 -15.589246569985335 -3.4806421508910717 0 0 0 0 34.968978809281339 20.122680337977727 0 20.122680337977727 -10.10943899180711 0 0 0 0 -67.105463734998466 -28.306904449047579 0 -28.306904449047579 129.62467059121263 0 0 0 0 0.64250809234962603 -1.1652470699754076 0 -1.1652470699754076 1.5640009988535297 0 0 0 0 -39.390462738953602 14.022816115420937 0 14.022816115420937 52.960416361980606 0 0 0 0 -76.090500254941048 -0.23035480771750372 0 -0.23035480771750372 120.80909059144324 0 0 0 0 -54.940467286449575 -33.800079521821317 0 -33.800079521821317 139.58518049302074 0 0 0 0 3.4483250344389944 -4.6363312752455386 0 -4.6363312752455386 85.575827865679457 0 0 0 0 27.785956086793703 24.56625248810451 0 24.56625248810451 159.16362745636434 0 0 0 0 34.387290138831759 45.368115677396418 0 45.368115677396418 200.65223600365425 0 0 0 0 0.32568019670563331 12.383319358899826 0 12.383319358899826 228.56385704016429 0 0 0 0 -11.108660323102868 -9.8784315784541832 0 -9.8784315784541832 191.35476044156167 0 0 0 0 12.091941591484328 -10.513731299895881 0 -10.513731299895881 34.805531457343022 0 0 0 0 42.666946511268634 -81.567170677655668 0 -81.567170677655668 146.32342441313085 0 0 0 0 45.882078597090796 -28.698614332867237 0 -28.698614332867237 33.716573206031171 0 0 0 0 46.134254159524176 -72.899684771915545 0 -72.899684771915545 -5.3828774886278552 0 0 0 0 -8.1444454915726965 -29.8755346123653 0 -29.8755346123653 2.2889849322891678 0 0 0 0 -19.777078038861646 -49.871645452541998 0 -49.871645452541998 119.52189008035202 0 0 0 0 52.857289121789748 31.86724939272608 0 31.86724939272608 -85.87015030218754 0 0 0 0 65.649110079650171 84.463086884748918 0 84.463086884748918 71.31911647207744 0 0 0 0 75.9385882641634 -25.938267646952227 0 -25.938267646952227 147.27446539847006 0 0 0 0 188.4903117078789 -54.39896023176334 0 -54.39896023176334 -18.386382240401872 0 0 0 0 99.483185466413602 -48.294518141370645 0 -48.294518141370645 39.586318043528081 0 0 0 0 226.77245952059852 -192.60960780064124 0 -192.60960780064124 263.77243013466432 0 0 0 0 39.743952540209435 96.573732553257742 0 96.573732553257742 540.05671145894303 0 0 0 0 -50.300961087817711 56.61827856193122 0 56.61827856193122 404.96544067002833 0 0 0 0 357.55729774453243 61.31420059690754 0 61.31420059690754 43.602671665154048 0 0 0 0 -223.8019888384394 112.09082438963742 0 112.09082438963742 129.9662065922148 0 0 0 0 -0.65873079756715103 0.88234575453309461 0 0.88234575453309461 5.6680616583777947 0 0 0 0 -58.230429734534823 -0.61777455150649985 0 -0.61777455150649985 12.374976100494678 0 0 0 0 -14.65383276860976 7.5833271260626134 0 7.5833271260626134 8.7945509552082513 0 0 0 0 -2.4201005637592381 -2.7601018214863871 0 -2.7601018214863871 8.1849096481892047 0 0 0 0 -0.009891519935340598 0.014091830576479225 0 0.014091830576479225 0.44254596473928132 0 0 0 0 12.310642619873541 -12.502496855498975 0 -12.502496855498975 -1.5817679495376069 0 0 0 0 -6.9139779603503939 1.1423978880193317 0 1.1423978880193317 -28.417774072077009 0 0 0 0 -0.32896487889767001 0.94082781764527823 0 0.94082781764527823 4.7850062092893495 0 0 0 0 -58.684039620410346 122.64985879317828 0 122.64985879317828 -38.587595216378759 0 0 0 0 -11.844537116383336 11.140165658363912 0 11.140165658363912 61.96774963549251 0 0 0 0 -1.3624994060115228 -12.182434007052507 0 -12.182434007052507 -9.1914044070144882 0 0 0 0 -1.1459609337897625 1.1595228769718204 0 1.1595228769718204 3.2578705619169739 0 0 0 0 -0.78082008858392027 20.588279804850686 0 20.588279804850686 26.390689527856011 0 0 0 0 -0.65105657422901686 -0.75773060269784764 0 -0.75773060269784764 11.107097546527257 0 0 0 0 0.82283471911938477 -8.4085507527051959 0 -8.4085507527051959 19.251740118641465 0 0 0 0 5.2606664171898387 -5.9330804784913198 0 -5.9330804784913198 10.61244295060169 0 0 0 0 -0.4853450987033936 0.34945718757369093 0 0.34945718757369093 3.926971342298728 0 0 0 0 3.7692474616183631 0.0025520833223708905 0 0.0025520833223708905 -9.4730824651059606 0 0 0 0 -0.036051312745552754 0.43513449736345322 0 0.43513449736345322 2.8838656425190834 0 0 0 0 7.7583766120138193 -11.563452368618528 0 -11.563452368618528 -59.401823139615544 0 0 0 0 44.706535381022078 43.720847669663272 0 43.720847669663272 -64.819515452094493 0 0 0 0 16.168836009570867 0.48714181799368816 0 0.48714181799368816 -56.486277357893414 0 0 0 0 72.828493394108591 -14.884309816690802 0 -14.884309816690802 -85.627452306366649 0 0 0 0 102.02663277648583 -65.339141160828149 0 -65.339141160828149 -44.409069755696692 0 0 0 0 77.471808874436761 20.472891339224589 0 20.472891339224589 -52.551823818477715 0 0 0 0 19.513642847121758 -29.368613062708391 0 -29.368613062708391 -58.278993881824135 0 0 0 0 28.928202627258997 -7.6358113586320542 0 -7.6358113586320542 -80.554610784281977 0 0 0 0 1.0502873331858964 -1.1529146305380413 0 -1.1529146305380413 -0.43384047083191035 0 0 0 0 18.600454505423855 -6.4567265862247041 0 -6.4567265862247041 -80.908403117922717 0 0 0 0 18.689932565481143 -4.8534537934683613 0 -4.8534537934683613 -27.773580002132803 0 0 0 0 28.148958074369716 -11.21294659657724 0 -11.21294659657724 -85.861616503404093 0 0 0 0 26.344868495677702 -6.5783567160542589 0 -6.5783567160542589 -50.259211396827595 0 0 0 0 27.567863568399389 -10.683100743524847 0 -10.683100743524847 -81.756083289623348 0 0 0 0 -1.3148595040220243 -4.8465134998114081 0 -4.8465134998114081 -54.351850748149445 0 0 0 0 -1.2234784855108956 -18.862016113009304 0 -18.862016113009304 -51.391660556488205 0 0 0 0 40.440252768261644 -11.499100497414474 0 -11.499100497414474 -54.175813007677789 0 0 0 0 9.6159472109914077 -5.8167800459632417 0 -5.8167800459632417 34.56933498622675 0 0 0 0 -19.798268672973791 -11.071251076384215 0 -11.071251076384215 -16.012659974148846 0 0 0 0 3.5220240666772451 -12.613633384439652 0 -12.613633384439652 16.640960398140606 0 0 0 0 -1.9920080790761858 -40.392188317564433 0 -40.392188317564433 12.896079894562718 0 0 0 0 -176.71102478462836 -63.669782735347155 0 -63.669782735347155 38.431486227185815 0 0 0 0 4.5430502964157373 -2.8338866410099186 0 -2.8338866410099186 -5.7064330977098194 0 0 0 0 32.890182745662543 -40.111761310399743 0 -40.111761310399743 -22.834570598963182 0 0 0 0 11.308639430662083 -3.2840287687758973 0 -3.2840287687758973 19.052384630776942 0 0 0 0 1.3667066173988722 -3.7560396824862678 0 -3.7560396824862678 9.2239138402797636 0 0 0 0 -4.0974142555824073 -5.5440596487605944 0 -5.5440596487605944 2.7021080154227093 0 0 0 0 -12.032057040712345 -16.804491179434081 0 -16.804491179434081 32.611767130510998 0 0 0 0 1.641190792976162 -8.9338664430614507 0 -8.9338664430614507 13.138081250920735 0 0 0 0 3.6380667584971018 -15.620592975553407 0 -15.620592975553407 22.476640412816494 0 0 0 0 -20.975659775960594 -13.617138409084873 0 -13.617138409084873 11.836438798884046 0 0 0 0 14.13813622051839 28.772703068745614 0 28.772703068745614 43.879626285644918 0 0 0 0 3.8251223646630024 -14.080417911740369 0 -14.080417911740369 36.977539779007202 0 0 0 0 -10.307978462038591 -0.72521448320912896 0 -0.72521448320912896 25.388089238957036 0 0 0 0 -0.50369007438433044 -3.3223269931067989 0 -3.3223269931067989 7.6064511040312937 0 0 0 0 4.567074191806114 -5.5746280851017218 0 -5.5746280851017218 5.6522822756087407 0 0 0 0 -3.0914419752331241 -8.1351634772618127 0 -8.1351634772618127 18.722058919040137 0 0 0 0 2.5347855428793178 -3.1586517158296346 0 -3.1586517158296346 2.9339290646643974 0 0 0 0 -0.28691661572828164 -3.0383297506610774 0 -3.0383297506610774 9.609227310100664 0 0 0 0 -1.1943740849453661 -10.611352320931474 0 -10.611352320931474 21.396745948848547 0 0 0 0 1.5269312835434903 -1.5653228433257027 0 -1.5653228433257027 9.3189269743197656 0 0 0 0 7.7512943333333624 -11.7318583067281 0 -11.7318583067281 10.103800543158286 0 0 0 0 0.78495577249703397 -2.8426286799021341 0 -2.8426286799021341 7.3411357046796866 0 0 0 0 -1.0004604520246971 -4.3680477573388998 0 -4.3680477573388998 8.5340454819779552 0 0 0 0 4.6870720975871336 -0.37373680583550595 0 -0.37373680583550595 8.1964776994918793 0 0 0 0 1.1854302960289747 -3.043013032634704 0 -3.043013032634704 5.137064447809081 0 0 0 0 3.2633365112925024 -4.0022680965761026 0 -4.0022680965761026 3.8200674686461684 0 0 0 0 6.5041795606764481 -1.6411986820712627 0 -1.6411986820712627 5.0173163504223339 0 0 0 0 1.377047041408332 -6.9634274093114072 0 -6.9634274093114072 18.997401294123847 0 0 0 0 -2.6607926447559294 -4.7637519988929853 0 -4.7637519988929853 5.7086765601998195 0 0 0 0 0.41885788798152035 -3.6889592849108794 0 -3.6889592849108794 15.030140189311799 0 0 0 0 2.9854560337042604 -9.1431193888194429 0 -9.1431193888194429 10.696144145400524 0 0 0 0 -0.7220707951660188 -5.1420308527594898 0 -5.1420308527594898 9.7625707205152139 0 0 0 0 1.5937068398682346 -8.4299348108963983 0 -8.4299348108963983 8.4263094258424758 0 0 0 0 1.3148563291961182 -3.3075680555775762 0 -3.3075680555775762 6.0681054763754219 0 0 0 0 -8.8294680451599561 -7.718584060203284 0 -7.718584060203284 55.014544640202075 0 0 0 0 -0.060270294644366729 -1.4388165747103372 0 -1.4388165747103372 5.3414474006113171 0 0 0 0 40.569578607484004 -14.207022975462678 0 -14.207022975462678 22.518111720899469 0 0 0 0 4.3164125353150666 -5.1509439860456041 0 -5.1509439860456041 24.938093591117649 0 0 0 0 -1.0600534249429074 -4.2431024517973128 0 -4.2431024517973128 4.3084910466277506 0 0 0 0 4.6574745105099282 -7.7223458491607744 0 -7.7223458491607744 11.638632418826319 0 0 0 0 0.37133350973447232 -3.6998859664747386 0 -3.6998859664747386 17.487000594368368 0 0 0 0 -0.2845825970880469 -3.1080623082525562 0 -3.1080623082525562 6.6138079598313197 0 0 0 0 2.8004684336817043 -3.4816829606157782 0 -3.4816829606157782 13.715354193643247 0 0 0 0 0.38140622793253653 -3.4036200985964342 0 -3.4036200985964342 6.1440478002500925 0 0 0 0 -2.2277743051727157 -5.1386405880039092 0 -5.1386405880039092 9.7649275054573081 0 0 0 0 -3.1948767443855104 -4.0326136190706166 0 -4.0326136190706166 9.9116158872493543 0 0 0 0 -1.9672746353026014 -4.4838006593636237 0 -4.4838006593636237 10.076326506168698 0 0 0 0 1.3854504799402336 -1.6421916139791506 0 -1.6421916139791506 6.1608474838623408 0 0 0 0 -1.9673571663834082 -4.3798805436090333 0 -4.3798805436090333 10.245046507043298 0 0 0 0 -1.2048962623493109 -4.0486462942246675 0 -4.0486462942246675 17.524120833783062 0 0 0 0 -0.70058960949162419 -1.1456858853997716 0 -1.1456858853997716 6.9532545168075615 0 0 0 0 -2.7190417058363892 -3.6871886445151176 0 -3.6871886445151176 8.7909888820777269 0 0 0 0 3.1789238739604206 -6.7969318281102922 0 -6.7969318281102922 9.2699831106454837 0 0 0 0 0.28037930077021334 -4.9580753656695808 0 -4.9580753656695808 7.5342715258328212 0 0 0 0 1.9004546602847983 -5.259413698214761 0 -5.259413698214761 3.818224502624787 0 0 0 0 -1.873208955195421 -2.6956240122730009 0 -2.6956240122730009 10.02051828104797 0 0 0 0 4.362129760532298 -6.9985009564443317 0 -6.9985009564443317 10.404242501557746 0 0 0 0 -0.080555870594247736 -3.8129684323055173 0 -3.8129684323055173 7.698196078308186 0 0 0 0 -2.5641431495719189 -3.6235030263233057 0 -3.6235030263233057 10.218345751840388 0 0 0 0 1.3771013234429936 -5.543248717959333 0 -5.543248717959333 6.1616569667928616 0 0 0 0 2.4013118482994287 -7.4319799140794203 0 -7.4319799140794203 10.323885343519578 0 0 0 0 -0.10804353127932703 -1.3586501622237357 0 -1.3586501622237357 7.9067434797097462 0 0 0 0 0.57460813832790336 0.13174393303779652 0 0.13174393303779652 12.990225921356796 0 0 0 0 2.4642894375096205 -6.9681967848650856 0 -6.9681967848650856 10.485344366345089 0 0 0 0 -1.1808807071249703 -0.42525710734844324 0 -0.42525710734844324 25.780391069844882 0 0 0 0 -0.79909759589068052 -3.8749138174536206 0 -3.8749138174536206 -0.25422039506067051 0 0 0 0 5.8812073686983695 -33.79797252831122 0 -33.79797252831122 13.846400044334587 0 0 0 0 1.9531772304458173 -6.6872799180491711 0 -6.6872799180491711 23.991316099432879 0 0 0 0 0.53479172314946721 -2.6428717306041545 0 -2.6428717306041545 11.203856649770245 0 0 0 0 -6.1083385007268589 -2.8247711862168217 0 -2.8247711862168217 10.873401153998202 0 0 0 0 0.18958089231076913 -5.0558520010671035 0 -5.0558520010671035 15.723763050434044 0 0 0 0 -0.38799692376939482 1.3781909579006708 0 1.3781909579006708 0.17939764196664498 0 0 0 0 0.92860496059864772 1.8228508561296621 0 1.8228508561296621 3.4140023660347651 0 0 0 0 1.877145672672377 12.83076299329241 0 12.83076299329241 9.9668185003902181 0 0 0 0 2.441808321529308 10.650556323383171 0 10.650556323383171 16.729565413144883 0 0 0 0 -0.72386416359375971 -2.2555509292837996 0 -2.2555509292837996 23.814419817979797 0 0 0 0 0.51985704237123187 -3.2607897678836935 0 -3.2607897678836935 12.054559551994913 0 0 0 0 1.2604984939777069 0.92273280668450752 0 0.92273280668450752 11.110018951701932 0 0 0 0 0.46549590771089366 1.6008848461822538 0 1.6008848461822538 10.26246058690019 0 0 0 0 0.011007536825581199 -2.0317904418191191 0 -2.0317904418191191 6.0746951907769642 0 0 0 0 -0.6383354788372344 -1.3556630528182723 0 -1.3556630528182723 13.058029439758684 0 0 0 0 1.2492921928718488 -0.084166873770300299 0 -0.084166873770300299 5.6857633326362702 0 0 0 0 0.21304077657785569 0.76430124676335254 0 0.76430124676335254 3.9504441893077455 0 0 0 0 0.83914279827329974 0.59413776580037592 0 0.59413776580037592 2.7494121806043665 0 0 0 0 -0.38626403049866009 -0.29314894807038172 0 -0.29314894807038172 2.6389490038678218 0 0 0 0 0.82754827327851521 -0.81772063797245664 0 -0.81772063797245664 1.9264582283576601 0 0 0 0 0.82873883022732908 -0.76959519261140485 0 -0.76959519261140485 1.4666325355065055 0 0 0 0 0.86426056252079175 -0.8450859687622625 0 -0.8450859687622625 0.92370571272230917 0 0 0 0 0.55045198141441576 -1.4513224178669333 0 -1.4513224178669333 3.175403450687412 0 0 0 0 2.6284147965528319 -1.1411430383304833 0 -1.1411430383304833 6.1711994581128238 0 0 0 0 2.2794424151220198 -11.3707290013499 0 -11.3707290013499 20.764685090456624 0 0 0 0 8.4151669982649082 -1.8925646530697122 0 -1.8925646530697122 12.946678276268358 0 0 0 0 16.837135332129947 -18.832739556266461 0 -18.832739556266461 14.032875729564694 0 0 0 0 1.0687751934507208 -0.56531950614127169 0 -0.56531950614127169 -1.4173944191159222 0 0 0 0 -1.7840301912182781 -2.3982958798915206 0 -2.3982958798915206 26.352882952458458 0 0 0 0 1.376330823956863 -9.5760127802277566 0 -9.5760127802277566 18.495206854313437 0 0 0 0 1.863727934322128 -5.3060336439593812 0 -5.3060336439593812 5.8724082885401003 0 0 0 0 6.786978799459547 -1.9467834559818584 0 -1.9467834559818584 -1.0198973046499304 0 0 0 0 0.18592136026801742 0.1008528156007884 0 0.1008528156007884 0.048707943499643136 0 0 0 0 -0.43705062070125678 0.41445727896643803 0 0.41445727896643803 0.89922482067413512 0 0 0 0 4.3452437997668767 -8.5869832860335009 0 -8.5869832860335009 17.413214917694859 0 0 0 0 2.7258634987841077 0.4340985499220551 0 0.4340985499220551 0.88623918470693752 0 0 0 0 3.0448527690391813 3.6161622872332373 0 3.6161622872332373 5.8412207552100881 0 0 0 0 0.099861261327046008 -0.10201322240554944 0 -0.10201322240554944 0.090689592229153959 0 0 0 0 -0.13679224650860533 0.1608760965464171 0 0.1608760965464171 2.0524013662438847 0 0 0 0 0.082240963702165215 -0.24986574720628596 0 -0.24986574720628596 0.48662229971835469 0 0 0 0 0.61732420698740498 -0.30892836771090515 0 -0.30892836771090515 0.65698531378438929 0 0 0 0 -0.0007121551648268179 -0.19420976248699517 0 -0.19420976248699517 0.82638007444882078 0 0 0 0 -0.072882791007565118 0.080694042877439642 0 0.080694042877439642 0.54116507486469345 0 0 0 0 0.11989556396678883 0.061967736874798618 0 0.061967736874798618 1.7741238712937957 0 0 0 0 4.3933112613992193 -2.1268678100168472 0 -2.1268678100168472 -0.38181599046220072 0 0 0 0 0.84941015424012423 -0.64046921884073527 0 -0.64046921884073527 0.2279072512146314 0 0 0 0 -1.553209598724834 1.9677080715482589 0 1.9677080715482589 -0.66001134022371843 0 0 0 0 0.021423430783121589 -0.11078661212638963 0 -0.11078661212638963 0.16813126166883308 0 0 0 0 0.023950481702343041 -0.44860655178126763 0 -0.44860655178126763 4.0880020517433877 0 0 0 0 0.089678821866364444 -0.32845914499102946 0 -0.32845914499102946 3.0756283693044679 0 0 0 0 0.21646264591399245 0.96746388107567327 0 0.96746388107567327 4.064823175742049 0 0 0 0 -0.49169512176038666 0.39811459490374546 0 0.39811459490374546 3.6398689127127 0 0 0 0 -0.52675585627741839 0.16052084251168708 0 0.16052084251168708 3.0251525909843622 0 0 0 0 -0.029578071441361854 0.23056833760432571 0 0.23056833760432571 1.5483978963968639 0 0 0 0 -0.48312142167012517 0.41570593723940874 0 0.41570593723940874 2.4999798511562403 0 0 0 0 0.96986951470707083 0.49052325324373669 0 0.49052325324373669 -1.3198046873840212 0 0 0 0 -0.27334292637998248 0.21798668551340228 0 0.21798668551340228 0.99258921542073608 0 0 0 0 0.038548281126688233 0.31096618290334987 0 0.31096618290334987 -0.058534228341216021 0 0 0 0 0.13984705268552761 0.64886580494915336 0 0.64886580494915336 1.5273557006928229 0 0 0 0 -0.44217789188530787 1.0472848324170627 0 1.0472848324170627 2.2337737190719054 0 0 0 0 -0.50930521249483718 0.59087652739253826 0 0.59087652739253826 2.5085508620959445 0 0 0 0 0.13818231221736607 1.0525901098484383 0 1.0525901098484383 0.96473338593506242 0 0 0 0 -0.35989537139178873 0.60107345133903323 0 0.60107345133903323 1.6289661110433258 0 0 0 0 -2.0137268657666141 0.99992857938923407 0 0.99992857938923407 0.39412033883854747 0 0 0 0 -0.71413705525210791 0.24930855046953582 0 0.24930855046953582 2.8452193681908398 0 0 0 0 -0.63626814169077761 0.68217853753594682 0 0.68217853753594682 2.783575685481992 0 0 0 0 0.89452513547757917 1.9909162268777436 0 1.9909162268777436 2.6707460478646681 0 0 0 0 -0.70020627860356011 0.35613273814336566 0 0.35613273814336566 1.4713792601084634 0 0 0 0 0.087913627975822806 0.54728172842806089 0 0.54728172842806089 2.695228895812761 0 0 0 0 -7.0052990155585952 7.3214450100858812 0 7.3214450100858812 -0.33872328847883182 0 0 0 0 -0.020877154174478996 -1.0395101229614738 0 -1.0395101229614738 1.0728842005119077 0 0 0 0 -6.8318342308007942 10.017741049217875 0 10.017741049217875 -6.5189528555856668 0 0 0 0 -25.134328209758067 12.917554784417007 0 12.917554784417007 1.6407711245556129 0 0 0 0 -14.906822495048857 7.5968274030165048 0 7.5968274030165048 -3.0153359113755869 0 0 0 0 -0.049939875232794223 0.067576032208805259 0 0.067576032208805259 0.413309120884918 0 0 0 0 0.65932685287965853 0.92533648487005848 0 0.92533648487005848 2.8418788682174636 0 0 0 0 -1.5212402054159497 0.22408600084600039 0 0.22408600084600039 4.2401555663091131 0 0 0 0 -0.022134079296069809 0.20046355308659614 0 0.20046355308659614 1.3329689656472965 0 0 0 0 -4.0148401519697785 -3.5695460776842083 0 -3.5695460776842083 15.739885590970516 0 0 0 0 0.0034654937250510054 0.048776203819762998 0 0.048776203819762998 0.045073229847787388 0 0 0 0 0.83889398297012718 -3.4621147263169405 0 -3.4621147263169405 5.1465497555036563 0 0 0 0 -0.0026861926575136438 10.371781475301759 0 10.371781475301759 -11.92867983170072 0 0 0 0 -0.83687581872618111 -0.1117970593040809 0 -0.1117970593040809 -11.665378270176006 0 0 0 0 -0.00018775629456477001 14.147254387637076 0 14.147254387637076 10.862082324349103 0 0 0 0 0.052692689011421018 0.35510576866315091 0 0.35510576866315091 0.36276525094992085 0 0 0 0 -0.11881058840665037 4.8916634951074229 0 4.8916634951074229 7.3936580095032696 0 0 0 0 -0.11593421411040844 -0.14939408771429896 0 -0.14939408771429896 0.63569716901960049 0 0 0 0 -0.064063235357345261 0.24411585657071555 0 0.24411585657071555 2.3863087405734404 0 0 0 0 0.0090609097678210678 0.1003736909557631 0 0.1003736909557631 0.28789902402093048 0 0 0 0 0.060291730725339221 0.26309260902053211 0 0.26309260902053211 1.2023558722648886 0 0 0 0 -0.41296232199231042 0.25841160293703069 0 0.25841160293703069 1.1049342105980031 0 0 0 0 1.8627320131302767 1.108878788571019 0 1.108878788571019 -3.007237125399115 0 0 0 0 0.111510498268625 0.31617604577946423 0 0.31617604577946423 0.81385718471753421 0 0 0 0 0.076956309171748671 0.22752878681058064 0 0.22752878681058064 1.575407689466374 0 0 0 0 0.067497790569925442 0.12009957835471141 0 0.12009957835471141 1.4950955230160616 0 0 0 0 -0.12629650598001199 0.12401420282454012 0 0.12401420282454012 1.3611169532392258 0 0 0 0 -1.0104012616721434 1.2965066502820264 0 1.2965066502820264 7.1669448325847043 0 0 0 0 -0.037173410006008142 0.28081070509574246 0 0.28081070509574246 1.6998701384242452 0 0 0 0 1.2916481930132448 -0.6389083040485275 0 -0.6389083040485275 -2.3176102767429256 0 0 0 0 0.16917796201467258 0.3274933166585754 0 0.3274933166585754 0.5627910017545048 0 0 0 0 -0.2105177546308013 0.25664714061713312 0 0.25664714061713312 1.9889132901589619 0 0 0 0 3.3140185808856228e-05 0.31442166547822126 0 0.31442166547822126 1.9666061198586249 0 0 0 0 -0.096309315839482879 0.46148571187950438 0 0.46148571187950438 2.1594005388651567 0 0 0 0 -0.020447673013199219 0.1205016495041491 0 0.1205016495041491 1.3705411886912771 0 0 0 0 -0.00024617751135620633 0.2942252730808832 0 0.2942252730808832 1.2635258671507472 0 0 0 0 -0.017210517536413408 0.09112608650777787 0 0.09112608650777787 1.0958408029815132 0 0 0 0 -0.17629585697453748 0.013476366100803716 0 0.013476366100803716 0.81664090637059417 0 0 0 0 7.891929155856495 -14.189441613656527 0 -14.189441613656527 12.466775688331836 0 0 0 0 4.4505547653175341 -12.464135975526005 0 -12.464135975526005 13.110090083624527 0 0 0 0 -1.1026802736301988 3.615792198877898 0 3.615792198877898 10.973222352262383 0 0 0 0 6.015873087595736 -9.202596262734005 0 -9.202596262734005 16.663087093416834 0 0 0 0 2.4075972613321142 -8.7132991505714017 0 -8.7132991505714017 17.654678781920666 0 0 0 0 3.9349479238076697 -9.7593864230693725 0 -9.7593864230693725 16.912566839015199 0 0 0 0 3.3722883195941336 -7.5375025210796593 0 -7.5375025210796593 10.166028940777323 0 0 0 0 7.0760630808270264 -3.9931003676283581 0 -3.9931003676283581 13.321220229045139 0 0 0 0 -5.5385591009105894 0.66041643105563708 0 0.66041643105563708 7.8429682703354047 0 0 0 0 -1.2302896455124872 0.92944880923425899 0 0.92944880923425899 3.2501427422460836 0 0 0 0 -1.5633474348447507 -0.32525706484739203 0 -0.32525706484739203 5.491322299829335 0 0 0 0 1.7933064528289187 -11.48779796377039 0 -11.48779796377039 6.2254088360714377 0 0 0 0 30.958615767161575 -40.530299858775834 0 -40.530299858775834 39.794106179803919 0 0 0 0 -0.00010671523393653878 0.13321035609110818 0 0.13321035609110818 0.72801788356446195 0 0 0 0 -0.0022452684777873044 -0.035595411716123238 0 -0.035595411716123238 0.40046449324506739 0 0 0 0 4.3840747190390106 -7.0630061498786745 0 -7.0630061498786745 13.731883250144165 0 0 0 0 -12.644509340881541 63.696020690795194 0 63.696020690795194 -132.38217002844976 0 0 0 0 -0.95118632195110475 1.6499979418823045 0 1.6499979418823045 2.6806324477795904 0 0 0 0 170.33781677113348 109.56692010304141 0 109.56692010304141 -92.565690912371792 0 0 0 0 62.728750660759943 -140.37465753685137 0 -140.37465753685137 11.755787675685497 0 0 0 0 91.544384305507265 -53.101673143393782 0 -53.101673143393782 250.61413124032333 0 0 0 0 178.3714131437348 187.85166500569665 0 187.85166500569665 252.45572909781913 0 0 0 0 231.31588205099729 -63.103714945224056 0 -63.103714945224056 -20.496401447348035 0 0 0 0 2.7042696923410929 1.1795168702364478 0 1.1795168702364478 0.68446652672503916 0 0 0 0 -173.14168107784394 44.609432969265981 0 44.609432969265981 55.704772829918511 0 0 0 0 -12.893850770602057 -67.271689076489565 0 -67.271689076489565 95.64950262659022 0 0 0 0 6.6087753827901201 4.1751493129760675 0 4.1751493129760675 2.8457869694384286 0 0 0 0 -18.141738267429673 60.129610947413312 0 60.129610947413312 18.705771407790962 0 0 0 0 -31.071091764537641 33.933011033411276 0 33.933011033411276 -19.866478577921953 0 0 0 0 -31.078649462592239 61.632428473159962 0 61.632428473159962 -37.095858553764629 0 0 0 0 2.4870426461485913 5.3018293306318718 0 5.3018293306318718 9.0974568134193987 0 0 0 0 9.1829298793581984 -5.5791771395852265 0 -5.5791771395852265 -10.680972956673941 0 0 0 0 0.67170296725625356 0.81388952936672609 0 0.81388952936672609 -0.029020024847810078 0 0 0 0 -41.831836450210176 4.3199165966252622 0 4.3199165966252622 38.464629255984619 0 0 0 0 -19.132595118306767 -3.3037178461286203 0 -3.3037178461286203 28.593344440385408 0 0 0 0 -13.217460169368906 61.765670165283154 0 61.765670165283154 -47.844748868988063 0 0 0 0 3.0925744703998195 6.3330253270160242 0 6.3330253270160242 7.6573984342289378 0 0 0 0 41.051307233904481 65.54709146417008 0 65.54709146417008 -21.594980725833011 0 0 0 0 34.079512368408544 -59.013857394639388 0 -59.013857394639388 -49.03141119202337 0 0 0 0 86.903074556409138 109.43118629896162 0 109.43118629896162 99.659423565208272 0 0 0 0 125.79777881675182 -40.675462441475247 0 -40.675462441475247 33.638677941795322 0 0 0 0 -3.306911013024715 0.29671909844110544 0 0.29671909844110544 3.6769324931890139 0 0 0 0 9.5930644310892603 -0.61966342154028098 0 -0.61966342154028098 13.131856521584268 0 0 0 0 -17.839876762130189 10.42629672259136 0 10.42629672259136 11.218078624959162 0 0 0 0 -16.93590568342006 11.278807297749154 0 11.278807297749154 8.26256922327957 0 0 0 0 -95.704332426092151 35.808204738641507 0 35.808204738641507 31.666722569652848 0 0 0 0 -7.1777461544584344 -0.98957437777366763 0 -0.98957437777366763 4.8265776120648134 0 0 0 0 2.0017487255183406 0.2919887551248479 0 0.2919887551248479 3.0219585102097142 0 0 0 0 -11.698874870206964 -26.736806772165437 0 -26.736806772165437 509.79265344747364 0 0 0 0 -17.557471239745837 176.59886453773106 0 176.59886453773106 524.67832438918049 0 0 0 0 -41.105504233973988 132.52872514048067 0 132.52872514048067 574.16463999136977 0 0 0 0 83.052246100983666 309.8242299859121 0 309.8242299859121 694.47929446822116 0 0 0 0 -73.768272851314237 4.2551183723730901 0 4.2551183723730901 714.03119100465847 0 0 0 0 13.573710381276669 -51.038936789225772 0 -51.038936789225772 93.422567558078299 0 0 0 0 1.6430157799418161 1.3451649988285297 0 1.3451649988285297 1.1885042436757089 0 0 0 0 -166.88276013434182 148.82563307700627 0 148.82563307700627 78.334580520899181 0 0 0 0 -152.35263802803206 1.9994770404027804 0 1.9994770404027804 9.2827355115841783 0 0 0 0 2.569174348991071 3.4292164463970494 0 3.4292164463970494 3.7426329369003497 0 0 0 0 22.074666884121413 109.4962264614212 0 109.4962264614212 11.064179501718172 0 0 0 0 285.57773647677777 231.84947073670264 0 231.84947073670264 -104.69984403490162 0 0 0 0 219.83958060209977 354.25089253017995 0 354.25089253017995 347.98431626077218 0 0 0 0 161.69345478252308 160.85020437627645 0 160.85020437627645 524.20209950378558 0 0 0 0 337.55571047931267 235.00361383985637 0 235.00361383985637 464.65221940205811 0 0 0 0 241.48118130237526 83.2585395733513 0 83.2585395733513 435.2297057641681 0 0 0 0 127.20708807767232 36.165420240517051 0 36.165420240517051 360.20340354565201 0 0 0 0 170.24337520903191 161.42555699727563 0 161.42555699727563 371.68676602987125 0 0 0 0 144.64707054765495 72.084233726118327 0 72.084233726118327 299.90784467932735 0 0 0 0 53.882795779802109 25.725527444332329 0 25.725527444332329 330.25422304645053 0 0 0 0 129.53698790652152 90.624552527544438 0 90.624552527544438 265.56510560462084 0 0 0 0 88.317055504198379 13.549391463538086 0 13.549391463538086 246.54365372008397 0 0 0 0 138.5290717054545 91.740226346777035 0 91.740226346777035 257.35715873346271 0 0 0 0 347.43359175164233 242.88111747275161 0 242.88111747275161 87.856827267039989 0 0 0 0 370.54582599557102 139.30973543020355 0 139.30973543020355 232.46608729261698 0 0 0 0 -5.1248107097753746 5.7383239720820711 0 5.7383239720820711 292.26860544897681 0 0 0 0 -13.158181220714596 -18.022775938361519 0 -18.022775938361519 222.92241568332247 0 0 0 0 44.933004921738757 28.080572272683639 0 28.080572272683639 313.05123615982848 0 0 0 0 24.288584977146911 -13.093431119918478 0 -13.093431119918478 237.36663703161685 0 0 0 0 52.279238826043184 10.443197025157133 0 10.443197025157133 290.35865613665737 0 0 0 0 30.5667842010821 50.095628338751339 0 50.095628338751339 248.97047286940051 0 0 0 0 21.938478584353561 17.005189499288463 0 17.005189499288463 123.0139768145782 0 0 0 0 -21.927479449903331 20.620469727570708 0 20.620469727570708 227.29613618589428 0 0 0 0 -23.775528643852567 39.365589802973773 0 39.365589802973773 145.07288324582623 0 0 0 0 101.30242868438609 127.8020211353396 0 127.8020211353396 172.44477765515148 0 0 0 0 87.174987326728115 24.792750315607918 0 24.792750315607918 170.78718378449412 0 0 0 0 74.616937269236132 58.972281248673426 0 58.972281248673426 15.900265720751122 0 0 0 0 68.143003815671364 149.4073674172414 0 149.4073674172414 22.207482181440923 0 0 0 0 174.97325453212534 151.99581349742857 0 151.99581349742857 246.96352858320461 0 0 0 0 204.82373807030535 18.347975945597682 0 18.347975945597682 215.49492365238075 0 0 0 0 164.8603624070181 103.17412738930807 0 103.17412738930807 51.902804237517557 0 0 0 0 307.29392050635738 125.88905894085246 0 125.88905894085246 17.762536951424408 0 0 0 0 158.81595835135658 42.788236606050305 0 42.788236606050305 -26.183654665000176 0 0 0 0 130.44736279306517 129.39674433462187 0 129.39674433462187 68.709140812537953 0 0 0 0 197.18083118176003 120.03786761051333 0 120.03786761051333 -3.2774094855903968 0 0 0 0 106.76331275503526 99.135151625767321 0 99.135151625767321 -7.175624518999939 0 0 0 0 106.51725839842322 86.301171612561575 0 86.301171612561575 17.150624999056163 0 0 0 0 89.989100124992206 40.363935542962281 0 40.363935542962281 1.8399924592085881 0 0 0 0 119.16869210768402 47.92297375608905 0 47.92297375608905 3.5648199621227832 0 0 0 0 17.221304323841338 121.27383054057282 0 121.27383054057282 19.128310061740194 0 0 0 0 130.41700807733332 120.51905356862699 0 120.51905356862699 -5.7737462626773777 0 0 0 0 123.28649110775132 134.51082606577438 0 134.51082606577438 17.481412797371377 0 0 0 0 90.310489683074138 152.98517043301581 0 152.98517043301581 14.518378351849606 0 0 0 0 88.265921767588679 140.8363287410084 0 140.8363287410084 -49.988509205348237 0 0 0 0 44.727329588056818 202.81645664973166 0 202.81645664973166 20.450530729957791 0 0 0 0 54.680487533290943 153.21546236860831 0 153.21546236860831 104.9673530162363 0 0 0 0 68.690793450189176 112.78386773429338 0 112.78386773429338 72.206417150999187 0 0 0 0 54.337122174631872 143.45461671115595 0 143.45461671115595 24.007145343832235 0 0 0 0 17.223071206727582 103.43878217036945 0 103.43878217036945 151.87932416783315 0 0 0 0 15.635630971870341 86.83677267742496 0 86.83677267742496 71.164718272197206 0 0 0 0 16.003456241770664 131.27651496991371 0 131.27651496991371 95.179852568515344 0 0 0 0 56.990864735649325 41.369192324032156 0 41.369192324032156 26.578873635123273 0 0 0 0 61.535905631074911 83.634301955227784 0 83.634301955227784 20.879654858966205 0 0 0 0 34.775361876252532 65.790897149838202 0 65.790897149838202 59.601937498551706 0 0 0 0 44.699705903194172 65.40681137170759 0 65.40681137170759 52.558531546272206 0 0 0 0 20.95559053133843 27.955891479418824 0 27.955891479418824 45.151031426964437 0 0 0 0 47.909784677531498 36.25713263505645 0 36.25713263505645 23.701119199802633 0 0 0 0 16.827788274271143 8.0043852856711055 0 8.0043852856711055 24.260066797411127 0 0 0 0 -6.920087821271566 -2.0161091712468497 0 -2.0161091712468497 15.517969381514824 0 0 0 0 12.213623167861584 3.6759692866351088 0 3.6759692866351088 24.242041894191061 0 0 0 0 0.54382516111786572 9.734501663514493 0 9.734501663514493 28.16591741240336 0 0 0 0 15.643722211244551 17.4556421122046 0 17.4556421122046 35.065302875949783 0 0 0 0 49.940078003492204 12.381644225255513 0 12.381644225255513 16.906895460107989 0 0 0 0 27.891542833990826 15.445192128428971 0 15.445192128428971 25.679455824714751 0 0 0 0 26.666420551921306 10.850653460424383 0 10.850653460424383 12.247855284995239 0 0 0 0 27.981777436963654 38.298679713368529 0 38.298679713368529 -12.686534346767075 0 0 0 0 -11.708557337567527 -1.5563040331398952 0 -1.5563040331398952 10.760757695550637 0 0 0 0 92.645098050893694 -12.029395789849787 0 -12.029395789849787 6.6428263719317329 0 0 0 0 18.706969700651683 15.488604368210872 0 15.488604368210872 26.757141393432903 0 0 0 0 4.8567773479758216 45.673701124160289 0 45.673701124160289 -0.57158197999888216 0 0 0 0 -48.580523490428902 27.94171442976517 0 27.94171442976517 20.28883697906349 0 0 0 0 8.8126576549420896 8.0270571380236078 0 8.0270571380236078 6.2950905495240939 0 0 0 0 -24.753427122111589 -1.3544087002001106 0 -1.3544087002001106 54.788023417023396 0 0 0 0 0.23018488690388494 25.396529010952008 0 25.396529010952008 11.597349525298341 0 0 0 0 -7.5383629926989695 1.8243574527391146 0 1.8243574527391146 12.422751372531458 0 0 0 0 1.7826025545623452 14.994979536395476 0 14.994979536395476 14.080387399626943 0 0 0 0 -10.208988196333053 -11.121884681555457 0 -11.121884681555457 17.490735543735354 0 0 0 0 -53.561192799277251 28.072515547940384 0 28.072515547940384 -6.6605292002968781 0 0 0 0 1.0257284239788387 1.5352159646723464 0 1.5352159646723464 1.7857396306922197 0 0 0 0 -3.6438294281928165 -0.70972526010473302 0 -0.70972526010473302 10.371832816852475 0 0 0 0 -9.6935843869511675 -1.5066740207923193 0 -1.5066740207923193 5.3751125665294239 0 0 0 0 -7.1934953832287647 -2.5395029783576319 0 -2.5395029783576319 10.528355451735706 0 0 0 0 -8.6587670104829613 -4.1560447675828982 0 -4.1560447675828982 11.551974563622935 0 0 0 0 -5.6602911646709799 -7.1391674317364959 0 -7.1391674317364959 12.852437156700034 0 0 0 0 -11.882143798046854 -0.94375567943825445 0 -0.94375567943825445 11.628105022177806 0 0 0 0 -9.6952162701463749 -0.4829404417614569 0 -0.4829404417614569 8.9078683710504265 0 0 0 0 -4.551460147652449 -3.8861401212773217 0 -3.8861401212773217 8.4714389051259786 0 0 0 0 -18.959521575937742 -5.2926439922193822 0 -5.2926439922193822 10.054434289097117 0 0 0 0 -18.24025101998086 6.5538877289473021 0 6.5538877289473021 6.7288332726348017 0 0 0 0 -55.102911306568785 12.64380543052539 0 12.64380543052539 14.487390995923306 0 0 0 0 -30.350948323470675 -7.1056255629528096 0 -7.1056255629528096 17.047131209270447 0 0 0 0 -38.144357558092679 43.054280352107526 0 43.054280352107526 -6.1127649279733305 0 0 0 0 -63.224583038137098 43.156471420534217 0 43.156471420534217 -32.939969217812177 0 0 0 0 -26.337830102605608 29.488792743567046 0 29.488792743567046 -0.99858295671219821 0 0 0 0 2.060818172573426 4.7166630512995056 0 4.7166630512995056 9.2013636488956294 0 0 0 0 -16.778827923329064 19.598019937138268 0 19.598019937138268 -7.7723630312157184 0 0 0 0 -57.424749700828215 1.6025261134072935 0 1.6025261134072935 11.893429043000197 0 0 0 0 -29.204841637592892 24.188734048497736 0 24.188734048497736 16.223454429054982 0 0 0 0 -23.399103140444936 -11.188366462564773 0 -11.188366462564773 67.951343050910509 0 0 0 0 -0.16553220091645926 -25.414337808433629 0 -25.414337808433629 23.782246165895685 0 0 0 0 -101.47525163704296 49.297702383280011 0 49.297702383280011 8.2223037507319532 0 0 0 0 -97.304240092236796 72.237075970300793 0 72.237075970300793 -10.421200530945498 0 0 0 0 -70.964912039059527 13.050116932659876 0 13.050116932659876 25.886379025945644 0 0 0 0 -59.952806350143874 6.1419468688436609 0 6.1419468688436609 16.790419487981126 0 0 0 0 -29.646215913120614 8.2631591644822038 0 8.2631591644822038 4.8165566771458543 0 0 0 0 -31.553323024366364 -9.7579507483133057 0 -9.7579507483133057 27.623759822526154 0 0 0 0 -21.297181761521642 5.344445685914252 0 5.344445685914252 9.7000115633163659 0 0 0 0 -44.339280351321577 7.6565249967279669 0 7.6565249967279669 19.915704059771087 0 0 0 0 -30.506169353142241 9.2148161664617874 0 9.2148161664617874 19.992304233033792 0 0 0 0 17.239782282149918 -7.3512250335716089 0 -7.3512250335716089 22.7751207516867 0 0 0 0 21.783531534079884 -25.56075958170004 0 -25.56075958170004 26.679688901636382 0 0 0 0 0.042003997378003533 6.8514866611848078 0 6.8514866611848078 5.9877517164896403 0 0 0 0 1.331188057105237 -11.914750556117269 0 -11.914750556117269 30.496525150258094 0 0 0 0 3.265921137958685 -8.3361939494193393 0 -8.3361939494193393 17.07797209851924 0 0 0 0 -23.244482094477462 -1.5379721100707684 0 -1.5379721100707684 16.377509584621293 0 0 0 0 -12.157135425700289 -14.342083787974843 0 -14.342083787974843 27.508724134273507 0 0 0 0 -20.047207464739131 2.7941126380301284 0 2.7941126380301284 22.108748731770902 0 0 0 0 -10.487993555429057 -10.036019017719809 0 -10.036019017719809 28.585280947509091 0 0 0 0 -25.190226553706452 2.4589095995652315 0 2.4589095995652315 21.802011031522852 0 0 0 0 -38.915778181231417 13.317100045052939 0 13.317100045052939 23.512784926424501 0 0 0 0 -44.99248589779927 10.405165890504577 0 10.405165890504577 17.058842243743129 0 0 0 0 -37.468190319428686 13.551482942344592 0 13.551482942344592 17.343007546820445 0 0 0 0 -45.625449110822046 19.628413032956814 0 19.628413032956814 13.41694456514233 0 0 0 0 -40.30686786919523 20.426722378815612 0 20.426722378815612 -3.0507054928530124 0 0 0 0 -35.859170233221448 14.065542949545488 0 14.065542949545488 13.978455865272736 0 0 0 0 2.5873209878775807 5.612400324763712 0 5.612400324763712 9.7991626303430195 0 0 0 0 -53.273458800139366 54.597610686387043 0 54.597610686387043 -0.58423941730870865 0 0 0 0 -40.421954529142567 7.100844868200511 0 7.100844868200511 42.677293655637186 0 0 0 0 -0.90096891746570762 -0.16784989468163758 0 -0.16784989468163758 1.6927567570929725 0 0 0 0 -25.804889541597731 12.078646087975358 0 12.078646087975358 -26.943767188706261 0 0 0 0 -60.257595091753501 45.148824864581002 0 45.148824864581002 -15.033349911238474 0 0 0 0 -1.6006666281319433 0.050179809099464734 0 0.050179809099464734 1.8351156606794419 0 0 0 0 -66.437214822553415 10.600054230876594 0 10.600054230876594 -7.262491168119368 0 0 0 0 1.9571540264763803 4.8832426244810279 0 4.8832426244810279 10.256417181912198 0 0 0 0 -76.915831663109202 53.073057718238488 0 53.073057718238488 -4.0435354108267347 0 0 0 0 -73.899552387520998 20.694537944084004 0 20.694537944084004 2.024457705214445 0 0 0 0 -51.113730418175692 29.317386060354693 0 29.317386060354693 2.2417545308126137 0 0 0 0 -52.817665008129552 17.872841174124915 0 17.872841174124915 7.6520156063961622 0 0 0 0 -39.040841318495495 17.538896021282198 0 17.538896021282198 2.8152892301004613 0 0 0 0 -40.020083914321731 41.767546585313539 0 41.767546585313539 -25.926571111388739 0 0 0 0 -62.292862804970355 33.601465836505668 0 33.601465836505668 5.1518403979425784 0 0 0 0 12.304340602736385 19.267205076316607 0 19.267205076316607 20.992871991186988 0 0 0 0 -14.688214296158094 16.610594230038259 0 16.610594230038259 36.857982585363288 0 0 0 0 -10.185390396159619 28.5259571199731 0 28.5259571199731 35.824644242918339 0 0 0 0 -11.15686491524275 26.408682795205095 0 26.408682795205095 32.61558326170416 0 0 0 0 -14.910328477893245 16.764057857374382 0 16.764057857374382 55.754730643900984 0 0 0 0 -9.2998151771525954 -34.892619907603148 0 -34.892619907603148 27.86463581404314 0 0 0 0 -15.89712502430848 12.78251895104404 0 12.78251895104404 48.39709486695665 0 0 0 0 4.2062224121555118 -37.660048682650086 0 -37.660048682650086 -19.22750547865553 0 0 0 0 -28.973738514966499 11.038015129913219 0 11.038015129913219 77.808015586517286 0 0 0 0 -5.3353569172568314 51.07456374344838 0 51.07456374344838 82.366870206754811 0 0 0 0 -11.155132531084746 34.916904524565325 0 34.916904524565325 39.838524564953332 0 0 0 0 25.244664212722 46.105305907001821 0 46.105305907001821 15.202368624377414 0 0 0 0 74.375810658666751 40.738624733046436 0 40.738624733046436 6.5819914480416628 0 0 0 0 0.89895758032424489 1.0764334740335357 0 1.0764334740335357 1.2950018538306125 0 0 0 0 47.988851003508898 86.469266930262165 0 86.469266930262165 86.834228402814915 0 0 0 0 45.929338541827292 -81.787867209241085 0 -81.787867209241085 170.9251713326712 0 0 0 0 -21.245004331894506 40.28188283780446 0 40.28188283780446 179.8827693530111 0 0 0 0 0.68340202201292044 -0.0021962955542491613 0 -0.0021962955542491613 -0.77502405779430461 0 0 0 0 161.52279568018321 149.91303252373655 0 149.91303252373655 17.115568464309035 0 0 0 0 -13.332412028164072 -53.892101442491366 0 -53.892101442491366 110.70393333801258 0 0 0 0 116.08996421017309 -25.454259989892307 0 -25.454259989892307 6.4826351232084107 0 0 0 0 5.7142974479156692 71.396559615850492 0 71.396559615850492 49.145173582252028 0 0 0 0 15.979742449852893 5.306611421308844 0 5.306611421308844 146.91843933593009 0 0 0 0 109.41685951860475 74.095571749553415 0 74.095571749553415 51.640795995313965 0 0 0 0 16.051359174905883 -8.0370102721808507 0 -8.0370102721808507 18.151918624788777 0 0 0 0 72.432103472506242 -42.19379017549727 0 -42.19379017549727 47.145873561134067 0 0 0 0 42.345771676676122 -5.9650626626826124 0 -5.9650626626826124 22.760620567656588 0 0 0 0 1.6577847762198799 2.3797404765403343 0 2.3797404765403343 5.0705538710742246 0 0 0 0 4.4318700485473528 -17.933918747911775 0 -17.933918747911775 35.431395478844934 0 0 0 0 50.173295963424607 -32.368487745772654 0 -32.368487745772654 18.160061724209299 0 0 0 0 -15.379950342630877 20.852175342573673 0 20.852175342573673 -5.8348293509952782 0 0 0 0 -29.073700920448118 20.412238925700876 0 20.412238925700876 6.9880961218023003 0 0 0 0 -1.0300584421038366 17.536914030377375 0 17.536914030377375 -11.621558256458229 0 0 0 0 46.27377132366837 -162.68136572283402 0 -162.68136572283402 332.22695733474484 0 0 0 0 -0.23390494983463306 11.80537826465352 0 11.80537826465352 15.280049851770059 0 0 0 0 -8.2615758585263848 8.996393050633742 0 8.996393050633742 -1.907764290299383 0 0 0 0 18.221784201058199 3.5793533294236113 0 3.5793533294236113 -10.91564594472311 0 0 0 0 -13.608851692185794 13.794032302072992 0 13.794032302072992 -2.6325826634456462 0 0 0 0 123.19053061967406 81.405867742576447 0 81.405867742576447 200.82763402671299 0 0 0 0 10.653732132710502 46.588659691995417 0 46.588659691995417 15.187434111633024 0 0 0 0 15.936192801134894 45.948321898387803 0 45.948321898387803 -9.2054130243195686 0 0 0 0 7.7795131287321926 17.461937699825121 0 17.461937699825121 18.869632017764971 0 0 0 0 0.55603280449327031 -272.70446414272055 0 -272.70446414272055 450.1018046776444 0 0 0 0 367.63554427794134 -259.24676421006916 0 -259.24676421006916 289.99563205754384 0 0 0 0 -377.73332547993186 204.58576468901992 0 204.58576468901992 193.09531088229051 0 0 0 0 -0.34538480805422012 0.68923926086287679 0 0.68923926086287679 8.1070192355749953 0 0 0 0 648.86953038625143 -718.86398293675302 0 -718.86398293675302 496.39419013052793 0 0 0 0 528.73865031576042 -359.45307365287226 0 -359.45307365287226 107.86279608370387 0 0 0 0 -287.94571758652455 -194.95033770051668 0 -194.95033770051668 1088.7256331075478 0 0 0 0 75.299484874717564 195.96498754160984 0 195.96498754160984 -56.336007153237006 0 0 0 0 -160.59621319434336 -45.357626577877454 0 -45.357626577877454 64.057848384061799 0 0 0 0 -65.345103965353701 -75.015460294712284 0 -75.015460294712284 17.023708777102001 0 0 0 0 123.70642572245379 -187.26734854289316 0 -187.26734854289316 268.86909016673417 0 0 0 0 -0.062067408750211328 4.0317818749444854 0 4.0317818749444854 21.275142287854351 0 0 0 0 -193.84722106907702 49.768100875129676 0 49.768100875129676 31.555177104906761 0 0 0 0 215.41103223629807 -221.54479491105121 0 -221.54479491105121 212.20364191495901 0 0 0 0 118.16816394256421 -121.50600167084849 0 -121.50600167084849 109.50797469524923 0 0 0 0 65.73686609006927 -184.17883353470097 0 -184.17883353470097 161.19022535050317 0 0 0 0 106.5198798150177 -187.08591889857053 0 -187.08591889857053 239.96469084229466 0 0 0 0 52.334116488260179 -220.39926495349755 0 -220.39926495349755 220.27807596250932 0 0 0 0 122.45972683891631 -218.04612263851232 0 -218.04612263851232 269.77877924547647 0 0 0 0 95.871032345939966 -195.12700246389068 0 -195.12700246389068 340.3759754895018 0 0 0 0 124.55956300513606 -205.21760404039924 0 -205.21760404039924 232.51861877521151 0 0 0 0 123.06550562934467 -202.64332800395096 0 -202.64332800395096 263.00773610751639 0 0 0 0 -8.9448171278238462 5.3124073164338199 0 5.3124073164338199 12.919089866562331 0 0 0 0 131.68563048063606 -223.67076803084638 0 -223.67076803084638 200.17652382421511 0 0 0 0 88.149462761424729 -239.73181686455064 0 -239.73181686455064 236.76075620292977 0 0 0 0 60.173954622028759 -260.62587797059314 0 -260.62587797059314 187.60686203459773 0 0 0 0 137.41563470644982 -255.43169907218453 0 -255.43169907218453 167.77965308739658 0 0 0 0 99.736198706521463 -239.42311999483718 0 -239.42311999483718 156.74338417240142 0 0 0 0 89.18033597215549 -273.4012601517843 0 -273.4012601517843 185.07938513589033 0 0 0 0 -6.3667733232186379 -256.21358584201221 0 -256.21358584201221 174.43950207954913 0 0 0 0 61.11268286337998 -264.48472644875517 0 -264.48472644875517 189.73293158138404 0 0 0 0 62.584214023250752 -206.12669379358704 0 -206.12669379358704 132.51811296156848 0 0 0 0 -160.74703394026164 -21.421536574653146 0 -21.421536574653146 155.055624970395 0 0 0 0 -171.56808270641795 -134.86957124533365 0 -134.86957124533365 217.34441835705184 0 0 0 0 -14.902385112863158 -239.2240834977456 0 -239.2240834977456 149.50402621696412 0 0 0 0 -75.148147257466917 -96.514993778575445 0 -96.514993778575445 0.78652005049661966 0 0 0 0 -17.621094657579761 -45.663800358935077 0 -45.663800358935077 16.575360787650425 0 0 0 0 -450.46625907816997 128.78095696070523 0 128.78095696070523 142.20852759368427 0 0 0 0 -310.17889102001573 80.144337686144354 0 80.144337686144354 35.798469625216967 0 0 0 0 -4.729160219904057 -9.3780878201588571 0 -9.3780878201588571 -2.1771453613179119 0 0 0 0 -324.44870764878942 11.556908258098701 0 11.556908258098701 -134.11107353564876 0 0 0 0 -4.0350636780378384 0.59858494589831679 0 0.59858494589831679 5.7581358666733777 0 0 0 0 0.80844214751778054 -2.6522133159232908 0 -2.6522133159232908 34.157603070925688 0 0 0 0 -114.16937014745326 -70.617600200332163 0 -70.617600200332163 139.47997029496037 0 0 0 0 -58.399572277896368 -149.07074580852714 0 -149.07074580852714 59.523703956983809 0 0 0 0 -106.77261463721152 -182.75784424536687 0 -182.75784424536687 154.90724224217047 0 0 0 0 -140.83909769580987 -116.16735324852925 0 -116.16735324852925 119.4677769763075 0 0 0 0 -20.020065035524567 -200.35986351961401 0 -200.35986351961401 171.6048081230947 0 0 0 0 6.6949726558808607 -170.87630451067093 0 -170.87630451067093 136.35017893492477 0 0 0 0 -7.5851089915249759 -57.891500946803717 0 -57.891500946803717 111.38215687941317 0 0 0 0 -69.806845845724183 -16.650687474965707 0 -16.650687474965707 55.628166962582327 0 0 0 0 -73.271821815440035 -7.6334406342302827 0 -7.6334406342302827 47.726256473782996 0 0 0 0 -2.1176680121880942 6.4632436094082841 0 6.4632436094082841 34.025183223519448 0 0 0 0 -56.413925404551264 -13.314148144283536 0 -13.314148144283536 47.830402166917054 0 0 0 0 -11.537799339738697 -12.712107953503143 0 -12.712107953503143 35.396922383899877 0 0 0 0 -50.883827506688249 -19.943286363497464 0 -19.943286363497464 40.719112714716175 0 0 0 0 -59.694365038340038 -20.419320784960291 0 -20.419320784960291 45.984328111218929 0 0 0 0 -24.744019091436712 -38.049846505560708 0 -38.049846505560708 38.572224965500936 0 0 0 0 -58.062663269249242 -32.558558210686897 0 -32.558558210686897 47.839290670635819 0 0 0 0 -37.531112225843117 -43.027876513473529 0 -43.027876513473529 51.780399992145249 0 0 0 0 -77.155854774408908 -12.368658765299188 0 -12.368658765299188 56.752813676452206 0 0 0 0 -82.924810718735898 -42.281710265622678 0 -42.281710265622678 59.045623015237652 0 0 0 0 -36.938451624405729 -38.532887755244701 0 -38.532887755244701 37.465641293048975 0 0 0 0 -21.255151879417099 0.86492059901320317 0 0.86492059901320317 37.241355026108067 0 0 0 0 -11.22400652982742 -14.642783807925298 0 -14.642783807925298 37.755965589440507 0 0 0 0 0.44810177374847626 55.967240964942903 0 55.967240964942903 10.520286168437451 0 0 0 0 -13.556522085872695 4.0071941189476732 0 4.0071941189476732 10.185261003288076 0 0 0 0 -29.976666529775684 9.7721026974886627 0 9.7721026974886627 25.731729577799342 0 0 0 0 -17.870713875023284 3.7951457773451693 0 3.7951457773451693 21.836878245732805 0 0 0 0 -21.603025757848513 5.2317266310251398 0 5.2317266310251398 3.5308575782401022 0 0 0 0 -42.119969853270689 15.052543436642509 0 15.052543436642509 21.953540621878346 0 0 0 0 -41.882715552494119 40.525202785400325 0 40.525202785400325 -5.1549388065941457 0 0 0 0 -38.497080866909528 17.093638164213189 0 17.093638164213189 21.046649667259771 0 0 0 0 -21.936661984218517 -5.9531107717530176 0 -5.9531107717530176 27.691693784981908 0 0 0 0 -24.802819461549916 10.304857631635969 0 10.304857631635969 15.889795780882196 0 0 0 0 -18.594488943501574 -2.5109314890978567 0 -2.5109314890978567 31.302238533935451 0 0 0 0 -19.423682345305679 6.2121046660613501 0 6.2121046660613501 24.756409046607587 0 0 0 0 -26.751561646481605 5.0434137325282791 0 5.0434137325282791 26.119864645086636 0 0 0 0 -10.140279402307025 5.8316624128981758 0 5.8316624128981758 13.336679861775217 0 0 0 0 -23.507740173559796 4.9801634703380842 0 4.9801634703380842 25.393996257633262 0 0 0 0 2.6318692010800078 -21.426335316282348 0 -21.426335316282348 42.512431024718353 0 0 0 0 -4.6813706918346725 -7.213752073203068 0 -7.213752073203068 28.451005291961337 0 0 0 0 -8.4375508410998918 -9.1199049354572708 0 -9.1199049354572708 43.717939323629253 0 0 0 0 -1.1086914822776635 -1.1401263913867297 0 -1.1401263913867297 35.243714835185529 0 0 0 0 0.10902978422564047 -1.3678290345706046 0 -1.3678290345706046 30.203316443590666 0 0 0 0 212.45688849744965 -196.40084249500069 0 -196.40084249500069 209.92358325662099 0 0 0 0 -3.8549316151912341 2.6702274040158329 0 2.6702274040158329 2.0253827911145237 0 0 0 0 222.22759811711919 -207.03239389711462 0 -207.03239389711462 129.15348298384197 0 0 0 0 297.14354927783052 -220.64951731995825 0 -220.64951731995825 126.24708970645952 0 0 0 0 221.58068845041521 -268.38310490340882 0 -268.38310490340882 129.18692683413974 0 0 0 0 203.76011035255124 -260.00653883106133 0 -260.00653883106133 164.4302669941062 0 0 0 0 -13.722023681621522 13.548921683250228 0 13.548921683250228 -30.042262218845281 0 0 0 0 -32.913091021012491 1.1398033173354634 0 1.1398033173354634 6.0396949061760097 0 0 0 0 44.427751514670163 22.429041211402364 0 22.429041211402364 9.0022636179237452 0 0 0 0 -1.2432325635703489 -0.98917430287123409 0 -0.98917430287123409 2.67750972518823 0 0 0 0 350.70250361142752 -178.11081880730671 0 -178.11081880730671 78.672896233350912 0 0 0 0 371.96075845932478 -223.91955636705279 0 -223.91955636705279 93.272364527234458 0 0 0 0 417.02718410132161 -181.18959424420609 0 -181.18959424420609 63.432645204833534 0 0 0 0 199.54393545797348 -326.57582620036919 0 -326.57582620036919 174.23691632091504 0 0 0 0 296.12002166242655 -271.35370161468018 0 -271.35370161468018 129.27555851071065 0 0 0 0 308.06729773786674 -268.35510636283652 0 -268.35510636283652 74.236408552329522 0 0 0 0 475.42993479670758 -294.82927465092871 0 -294.82927465092871 78.036129618032646 0 0 0 0 434.57961132807031 -451.9759294964224 0 -451.9759294964224 250.50682298323227 0 0 0 0 26.118078820298706 -60.537090547868502 0 -60.537090547868502 593.56873371065194 0 0 0 0 222.11083329861822 -369.98343679414211 0 -369.98343679414211 222.82497480779421 0 0 0 0 380.23102458120377 -2.7709148384728906 0 -2.7709148384728906 -110.16743090490854 0 0 0 0 5.87084542841452 -2.1878885708500491 0 -2.1878885708500491 1.2259694846753817 0 0 0 0 596.78474573955191 -226.61189242445835 0 -226.61189242445835 74.773386756698528 0 0 0 0 7.3917165819079855 145.39667519263639 0 145.39667519263639 370.69798956995237 0 0 0 0 63.854300911376413 -50.697124607195292 0 -50.697124607195292 849.48138306410146 0 0 0 0 27.748758875857845 94.976092099174821 0 94.976092099174821 81.368175379262539 0 0 0 0 -116.80824830694428 14.070977590668917 0 14.070977590668917 152.61763881003935 0 0 0 0 -60.601460583399785 18.588131742806581 0 18.588131742806581 15.330812628548301 0 0 0 0 -16.783704172456055 0.81300204126819153 0 0.81300204126819153 23.975288238576468 0 0 0 0 -108.05198420687661 -82.046498726591324 0 -82.046498726591324 14.162149469415453 0 0 0 0 -16.385143436738872 0.58689160444023969 0 0.58689160444023969 10.355611922806496 0 0 0 0 -32.180902552156795 -16.451297877611978 0 -16.451297877611978 23.50025681297484 0 0 0 0 12.329092683235473 -8.0492972308598354 0 -8.0492972308598354 5.6513334799797335 0 0 0 0 59.44021333215187 -49.356595454029957 0 -49.356595454029957 231.78161691619243 0 0 0 0 -5.5827560009861941 24.793943642164095 0 24.793943642164095 519.62428994077345 0 0 0 0 121.86404368684634 55.295800352281731 0 55.295800352281731 362.3139741383693 0 0 0 0 235.98240913560903 -60.329792301699854 0 -60.329792301699854 448.42983765649115 0 0 0 0 239.72731724792709 -51.662156276339374 0 -51.662156276339374 290.95674329799658 0 0 0 0 571.91499544972726 -376.08648890650329 0 -376.08648890650329 544.6266397695581 0 0 0 0 549.65384004459906 65.43100578659687 0 65.43100578659687 179.09078936839614 0 0 0 0 93.460588278891834 89.63385190213269 0 89.63385190213269 273.2182748980922 0 0 0 0 281.44693002210488 207.20116542842879 0 207.20116542842879 25.585640884395616 0 0 0 0 337.1735468709835 16.583549841542663 0 16.583549841542663 336.39125550845438 0 0 0 0 0.47072352771155579 -0.16058268328531256 0 -0.16058268328531256 0.75016233726243797 0 0 0 0 238.7504910551429 183.10025274820327 0 183.10025274820327 143.55191777006985 0 0 0 0 292.560740860088 35.363527084277848 0 35.363527084277848 71.697249486791407 0 0 0 0 110.40453797222949 132.82233042876396 0 132.82233042876396 176.63077644967052 0 0 0 0 -0.055153490878220524 -0.53842827524920978 0 -0.53842827524920978 2.2322636804234932 0 0 0 0 105.5225628022722 22.703361972674429 0 22.703361972674429 81.474910284503494 0 0 0 0 111.25224565113854 141.08900879069733 0 141.08900879069733 231.50709187056054 0 0 0 0 97.500430569396485 124.520286722317 0 124.520286722317 260.65953231817912 0 0 0 0 159.11559396410621 106.77411721568114 0 106.77411721568114 260.33721110745864 0 0 0 0 222.61547643393499 32.898771582588779 0 32.898771582588779 337.79223611810085 0 0 0 0 -44.945703852467773 -33.746385174703391 0 -33.746385174703391 27.496054809394991 0 0 0 0 -64.243886286435554 -14.568409294271987 0 -14.568409294271987 21.919661575057034 0 0 0 0 -48.490030111480792 -27.969671770881178 0 -27.969671770881178 27.02929766741363 0 0 0 0 -64.515456362620171 -109.17139402555767 0 -109.17139402555767 17.461700742249377 0 0 0 0 -12.777360462861513 -13.329048326752641 0 -13.329048326752641 32.147729739845801 0 0 0 0 -55.637457152148954 -36.219051569336443 0 -36.219051569336443 44.674010817740054 0 0 0 0 -35.743399033970718 -35.870705942297718 0 -35.870705942297718 27.408278844479355 0 0 0 0 -8.6561169212200184 -76.573889744795451 0 -76.573889744795451 57.161972220590542 0 0 0 0 -0.63909146023161156 -68.145230045449352 0 -68.145230045449352 -62.386020235586329 0 0 0 0 -46.524980937355394 -11.749186926059338 0 -11.749186926059338 6.9069961334243999 0 0 0 0 -36.304839206428824 -26.244609130426397 0 -26.244609130426397 14.713816067123844 0 0 0 0 -10.723827977592464 -52.537602359003358 0 -52.537602359003358 6.6903164102041046 0 0 0 0 -13.337717948830687 -39.142719938030496 0 -39.142719938030496 -0.44165776658155664 0 0 0 0 -10.279391133176205 -47.462893358862857 0 -47.462893358862857 21.012794436283002 0 0 0 0 -5.2967624251386951 -30.416325674294058 0 -30.416325674294058 18.650542770628817 0 0 0 0 -8.1850085006149129 -53.923096230777446 0 -53.923096230777446 37.218683283888822 0 0 0 0 -16.898471993398971 -40.805684683697109 0 -40.805684683697109 23.904237075716082 0 0 0 0 -35.745058308939178 -35.853286968966131 0 -35.853286968966131 27.296476282166623 0 0 0 0 -11.365180950551803 -63.119565473163675 0 -63.119565473163675 11.568090556629841 0 0 0 0 24.158396752132376 -57.944476483516155 0 -57.944476483516155 12.08730212159935 0 0 0 0 73.793826474336811 -47.990243932650628 0 -47.990243932650628 1.4148018981268251 0 0 0 0 -0.59611205412038748 -0.65152060827690761 0 -0.65152060827690761 -2.6028984312461318 0 0 0 0 6.8320233903746157 -34.53586237871059 0 -34.53586237871059 19.324510990172712 0 0 0 0 -422.5096851570184 -69.326649587104612 0 -69.326649587104612 189.10701743038953 0 0 0 0 -475.96666648035443 260.337877655993 0 260.337877655993 -72.210958598400794 0 0 0 0 34.327654509863123 -144.36962845972994 0 -144.36962845972994 -28.208863710526202 0 0 0 0 -391.00689346182821 -31.567412099095236 0 -31.567412099095236 340.85320959639103 0 0 0 0 93.504989844781321 6.8361476494391731 0 6.8361476494391731 -116.48052745138921 0 0 0 0 -35.713183126871172 295.51348834527016 0 295.51348834527016 0.18859933521343919 0 0 0 0 101.35067312605685 58.994694991320557 0 58.994694991320557 131.41841227588156 0 0 0 0 159.93526065288734 308.68698270898494 0 308.68698270898494 206.24457051003947 0 0 0 0 -30.716212359828262 -33.900914374203239 0 -33.900914374203239 131.70498121459968 0 0 0 0 42.689414289338401 77.483892670301429 0 77.483892670301429 143.99829767369738 0 0 0 0 -208.62259149422744 -27.516328652535321 0 -27.516328652535321 111.78284731729582 0 0 0 0 -31.616108761744158 -32.753877309951349 0 -32.753877309951349 20.624226385109068 0 0 0 0 -24.88336440150465 -14.096880997025437 0 -14.096880997025437 55.646948372698716 0 0 0 0 -52.719223158334898 -39.781023862891743 0 -39.781023862891743 27.757748311312753 0 0 0 0 -155.61987166032111 65.95367935194372 0 65.95367935194372 80.530535601127667 0 0 0 0 -80.391275752141155 -37.585510156401142 0 -37.585510156401142 36.239490657429997 0 0 0 0 -53.971583113153883 -17.105343971428738 0 -17.105343971428738 33.900945287023205 0 0 0 0 0.52307672185950316 1.4956883668117129 0 1.4956883668117129 3.7376870046347364 0 0 0 0 -38.694317245697675 -6.1313048763768165 0 -6.1313048763768165 198.31599158694007 0 0 0 0 114.36920927400502 227.71174984732352 0 227.71174984732352 127.94664773696059 0 0 0 0 1.5704890891250805 4.0403598385258945 0 4.0403598385258945 9.2956887984558847 0 0 0 0 26.353117325647872 20.237881300139634 0 20.237881300139634 -85.337659541019093 0 0 0 0 22.403438116497 62.202205190624113 0 62.202205190624113 223.77706956218026 0 0 0 0 -0.58353779882179957 -1.4405946944826695 0 -1.4405946944826695 4.6921197795444769 0 0 0 0 121.98341303633606 175.98619570153824 0 175.98619570153824 290.76462668466411 0 0 0 0 21.45240648671529 248.21293777003302 0 248.21293777003302 148.16689861099258 0 0 0 0 -180.42593495822712 637.91427211205155 0 637.91427211205155 115.78471970447572 0 0 0 0 87.105429558724325 204.24120028961852 0 204.24120028961852 325.66205325617193 0 0 0 0 86.443290146296931 199.9275643685105 0 199.9275643685105 311.21616038157663 0 0 0 0 -0.98426908066498431 -0.80395503853552341 0 -0.80395503853552341 3.5267409233536284 0 0 0 0 107.24002541580671 191.67354880145922 0 191.67354880145922 267.38114180617049 0 0 0 0 133.19761861870643 102.0442798195163 0 102.0442798195163 67.75458551364045 0 0 0 0 38.584549936790381 74.48927945054038 0 74.48927945054038 207.9504516587167 0 0 0 0 84.547855107906344 124.99958897364377 0 124.99958897364377 339.46927968691307 0 0 0 0 91.91998588878414 165.21266083047522 0 165.21266083047522 234.19552364277479 0 0 0 0 39.295944703433634 163.9005140966201 0 163.9005140966201 366.46442555364411 0 0 0 0 46.826255180259977 166.59138241578876 0 166.59138241578876 351.56380047998391 0 0 0 0 34.49364344872356 173.20109833839524 0 173.20109833839524 351.41943256375816 0 0 0 0 48.798552830050085 164.89387237394658 0 164.89387237394658 327.16320232154249 0 0 0 0 33.780672998318096 156.27152130161085 0 156.27152130161085 324.63339399413235 0 0 0 0 53.932519628757291 171.52503907864229 0 171.52503907864229 295.65980299407238 0 0 0 0 44.622552117492887 148.46912404360046 0 148.46912404360046 272.3369039552199 0 0 0 0 39.482745190451169 139.98041115270462 0 139.98041115270462 277.76604299649625 0 0 0 0 32.156685158250866 156.0968658541924 0 156.0968658541924 323.02059695126081 0 0 0 0 27.390564169088066 138.99856338606332 0 138.99856338606332 301.57162156308186 0 0 0 0 41.609892460333867 163.60076601661422 0 163.60076601661422 313.22941315485878 0 0 0 0 39.211059387160276 171.86484099431618 0 171.86484099431618 341.34003153604135 0 0 0 0 29.331725184090374 162.95322255272913 0 162.95322255272913 342.51853729329014 0 0 0 0 36.237997581344871 176.14381900391618 0 176.14381900391618 358.64694691837212 0 0 0 0 49.235982826413419 172.38048786173022 0 172.38048786173022 346.92938630770732 0 0 0 0 31.498921144883752 161.93405779569002 0 161.93405779569002 353.75466978082113 0 0 0 0 37.288403187472795 152.46478755177304 0 152.46478755177304 319.17257835523924 0 0 0 0 36.391694104320777 156.97559688987894 0 156.97559688987894 321.93036851940997 0 0 0 0 44.877398885584626 170.3430005773007 0 170.3430005773007 346.48737065710884 0 0 0 0 31.023591726873747 129.44580077988212 0 129.44580077988212 293.45828066197282 0 0 0 0 69.371385337410175 164.99883393556593 0 164.99883393556593 347.27778185661737 0 0 0 0 40.192987023516253 155.41264727942325 0 155.41264727942325 366.31315848083705 0 0 0 0 42.952209882792886 141.32710927758671 0 141.32710927758671 331.50792179256314 0 0 0 0 63.995543017351793 177.79649207907642 0 177.79649207907642 362.66422528725525 0 0 0 0 70.514552277314579 182.49210720169503 0 182.49210720169503 366.91440272067121 0 0 0 0 45.553440675517777 162.86411409299399 0 162.86411409299399 362.29180261132569 0 0 0 0 54.842369439607864 188.28178984504484 0 188.28178984504484 370.49918932341643 0 0 0 0 68.338110611433308 204.43539823069159 0 204.43539823069159 373.50225272448733 0 0 0 0 66.610036400021727 187.43084530841952 0 187.43084530841952 344.91512788215914 0 0 0 0 49.638284817884823 169.38143070465776 0 169.38143070465776 327.68436514009954 0 0 0 0 118.30472591274156 212.25782403733319 0 212.25782403733319 327.49789710784444 0 0 0 0 205.50849778267457 201.74447716654686 0 201.74447716654686 285.67940672663281 0 0 0 0 317.02181894641672 337.16852200014728 0 337.16852200014728 374.61076318989944 0 0 0 0 251.86264956218201 231.15176990282816 0 231.15176990282816 304.18853269210376 0 0 0 0 133.75084776617587 209.75931893774396 0 209.75931893774396 398.52521450805943 0 0 0 0 175.19200598137604 264.88457724910768 0 264.88457724910768 395.00637200702477 0 0 0 0 118.09519376487287 217.69753341206888 0 217.69753341206888 358.27472164584469 0 0 0 0 101.46862785856956 205.6083959790376 0 205.6083959790376 378.20551203317154 0 0 0 0 97.646851480248188 215.97186599091219 0 215.97186599091219 417.10613078302413 0 0 0 0 65.174142876228871 170.04100026089145 0 170.04100026089145 387.45232360674709 0 0 0 0 103.38759341929699 188.670188416163 0 188.670188416163 378.02459475147771 0 0 0 0 63.288748680855861 160.33914783904038 0 160.33914783904038 386.16587476422137 0 0 0 0 109.65066357915566 181.24910735241792 0 181.24910735241792 375.29669793204084 0 0 0 0 120.37594631796583 171.21053682513957 0 171.21053682513957 384.69245115497324 0 0 0 0 145.75319995757934 282.1988174213966 0 282.1988174213966 498.41459643125563 0 0 0 0 91.417449704458249 181.76561948133894 0 181.76561948133894 431.04995028393023 0 0 0 0 166.25546223905803 228.092370924227 0 228.092370924227 396.6238533652795 0 0 0 0 134.20366275981769 233.75593829315403 0 233.75593829315403 416.01155497455329 0 0 0 0 104.62424554245172 220.57516715650127 0 220.57516715650127 484.45609808657537 0 0 0 0 168.07945615083645 232.21039112604558 0 232.21039112604558 442.58716056480989 0 0 0 0 107.17034658320608 275.05166000293684 0 275.05166000293684 653.41209693519886 0 0 0 0 232.83249145289346 425.01067688673356 0 425.01067688673356 555.69135395601916 0 0 0 0 31.30160846932408 67.666848947009726 0 67.666848947009726 220.68739000454298 0 0 0 0 489.41312937174735 -136.26387129127397 0 -136.26387129127397 157.70673559844727 0 0 0 0 0.4481526972959875 -0.76908255190238606 0 -0.76908255190238606 2.5256705489448024 0 0 0 0 368.85322065165974 245.23330648675619 0 245.23330648675619 156.10281923892762 0 0 0 0 359.85337599724789 185.05812842304658 0 185.05812842304658 -227.81710995743924 0 0 0 0 1.7844238219524833 1.5976671181275108 0 1.5976671181275108 0.95979201890995824 0 0 0 0 -5.9760710450934766 101.93136886178513 0 101.93136886178513 451.46851157670972 0 0 0 0 27.808077972194496 -20.917923567149046 0 -20.917923567149046 75.924910783371161 0 0 0 0 266.11700070727829 260.69069316894729 0 260.69069316894729 298.47062940391879 0 0 0 0 357.64223807374628 149.36102084852246 0 149.36102084852246 148.89107386200794 0 0 0 0 235.70110718192677 61.62453931971595 0 61.62453931971595 258.95619184858879 0 0 0 0 83.060303465237666 159.89132808559953 0 159.89132808559953 250.58299288558737 0 0 0 0 110.45933435907364 153.38744776739804 0 153.38744776739804 298.3998991442495 0 0 0 0 156.08083901285227 120.00551589280803 0 120.00551589280803 269.44852537703628 0 0 0 0 230.46410997225894 215.89141595799811 0 215.89141595799811 326.32010996343615 0 0 0 0 237.04227770754119 48.598182816692315 0 48.598182816692315 376.80777878524168 0 0 0 0 264.74121631056778 -7.5144002702072612 0 -7.5144002702072612 380.75020601279539 0 0 0 0 372.00689157584065 48.704944212546252 0 48.704944212546252 97.394492191891914 0 0 0 0 88.217682480639269 201.57425807312029 0 201.57425807312029 433.69375966006828 0 0 0 0 54.624208403778084 177.57804194126948 0 177.57804194126948 351.15376958254819 0 0 0 0 67.722086458403282 156.61548964555095 0 156.61548964555095 336.16622012128937 0 0 0 0 114.09858324244306 198.88765085107661 0 198.88765085107661 307.87380415421285 0 0 0 0 139.97638662323811 131.00412718644475 0 131.00412718644475 209.99385543187236 0 0 0 0 103.60897733099409 102.83430260043679 0 102.83430260043679 201.49371099951532 0 0 0 0 117.71616500536311 140.86985724805345 0 140.86985724805345 211.74023095599841 0 0 0 0 64.959796285866105 144.34720909858515 0 144.34720909858515 258.42143785688677 0 0 0 0 70.878609531683196 153.08174892572242 0 153.08174892572242 258.91377973311319 0 0 0 0 202.15177287498318 224.62020259757446 0 224.62020259757446 642.30869857327707 0 0 0 0 199.6692196881404 193.27784554753816 0 193.27784554753816 274.88318905899359 0 0 0 0 101.23241175837393 -0.30404736069613136 0 -0.30404736069613136 -3.3320772316874354 0 0 0 0 -0.11536540904839399 -0.32145174490217343 0 -0.32145174490217343 2.6868472298487518 0 0 0 0 3.6634158200130926 -1.3381760113622789 0 -1.3381760113622789 0.44917619900037664 0 0 0 0 28.010593343033179 -171.1210165620414 0 -171.1210165620414 459.42440388509931 0 0 0 0 259.49441244507261 89.610108026330636 0 89.610108026330636 212.40612358028739 0 0 0 0 209.67564170918558 -250.13254023580885 0 -250.13254023580885 377.73313643529218 0 0 0 0 61.492735501814423 -157.02747580579671 0 -157.02747580579671 -27.484976508199907 0 0 0 0 -171.1260106332486 207.80604767463501 0 207.80604767463501 85.307375092757866 0 0 0 0 -57.873080210074477 25.127734749446972 0 25.127734749446972 86.276884381259151 0 0 0 0 196.6108789078653 154.23153541422764 0 154.23153541422764 139.82442901180184 0 0 0 0 29.896765055235846 -215.41209415505182 0 -215.41209415505182 401.12349604697556 0 0 0 0 -45.557693499254583 -35.92761193766637 0 -35.92761193766637 2.6511690581210132 0 0 0 0 -124.0064058188093 50.023958876980032 0 50.023958876980032 -80.907830037147505 0 0 0 0 -169.90621918792385 80.962285962654278 0 80.962285962654278 170.33874005960752 0 0 0 0 -195.71257041870922 -13.606588618829846 0 -13.606588618829846 161.21570694468028 0 0 0 0 -174.95256259274811 -14.579016821990081 0 -14.579016821990081 67.832631048979238 0 0 0 0 -212.75225100464559 -32.145308717761509 0 -32.145308717761509 78.354290786783167 0 0 0 0 6.4749138424231205 -81.047440179940168 0 -81.047440179940168 83.062950090126833 0 0 0 0 -3.4529179693254264 0.78805300573822024 0 0.78805300573822024 5.7374137602155315 0 0 0 0 -4.6246261995192111 -0.33136795043121126 0 -0.33136795043121126 4.8770074265062249 0 0 0 0 1.4616220791896737 -4.8101682273634623 0 -4.8101682273634623 8.6668909065129114 0 0 0 0 -188.25155511684898 -59.237208436803485 0 -59.237208436803485 36.453559418969235 0 0 0 0 -47.497410739147199 71.388988210130265 0 71.388988210130265 125.41263070953937 0 0 0 0 -152.51413608370149 -43.178620959088221 0 -43.178620959088221 8.2002998615280376 0 0 0 0 -186.50551820464079 -23.332643689795077 0 -23.332643689795077 62.386642259407381 0 0 0 0 -115.6456663953013 19.074574931095412 0 19.074574931095412 46.803610578828739 0 0 0 0 -80.287355819065851 -9.9112431842440856 0 -9.9112431842440856 -0.36988845570522244 0 0 0 0 -142.99649047550747 -21.513509054660972 0 -21.513509054660972 -2.4803966018516803 0 0 0 0 4.6632896057502169 -5.5593710564739673 0 -5.5593710564739673 5.2702391849563774 0 0 0 0 2.2005462018332764 -5.001430012011042 0 -5.001430012011042 14.604483794009866 0 0 0 0 -1.9895497511841569 1.3745803496057576 0 1.3745803496057576 9.1189948168971497 0 0 0 0 -99.491894709160988 154.79507462689071 0 154.79507462689071 -217.85706824195222 0 0 0 0 -66.635674399594791 236.14390116231334 0 236.14390116231334 -124.06007342434896 0 0 0 0 2.3262052304140646 2.5725101909920767 0 2.5725101909920767 4.0402393034497521 0 0 0 0 -0.53492209382226186 -0.17875823215947406 0 -0.17875823215947406 1.6593712313562818 0 0 0 0 -26.466144478434217 132.33680037425938 0 132.33680037425938 12.072603918160894 0 0 0 0 -94.866325398140361 35.099549731527077 0 35.099549731527077 -82.61042412333336 0 0 0 0 -166.32358042599753 56.061106238241337 0 56.061106238241337 52.32969486300135 0 0 0 0 13.919500318855171 192.19178802500392 0 192.19178802500392 -67.369001369428588 0 0 0 0 -172.93468409836532 82.212171369254065 0 82.212171369254065 47.746444044109012 0 0 0 0 36.594181433796621 -47.992301980124466 0 -47.992301980124466 66.120534821330097 0 0 0 0 11.822872185049164 -61.000918583629982 0 -61.000918583629982 -2.2130767361959442 0 0 0 0 12.529134401710508 21.989489070189393 0 21.989489070189393 39.636758019689296 0 0 0 0 19.358864200617973 -3.807460343470666 0 -3.807460343470666 67.668704622679797 0 0 0 0 -20.529132926436432 -12.324360827937198 0 -12.324360827937198 88.070381640314736 0 0 0 0 23.092443863926746 -27.066760200212229 0 -27.066760200212229 66.799173132549186 0 0 0 0 -5.7652113402835958 3.5360433097096688 0 3.5360433097096688 5.3254410604450158 0 0 0 0 24.864705658328603 -50.359898892536876 0 -50.359898892536876 90.734523156374053 0 0 0 0 -25.957980295942889 -1.8907939989465419 0 -1.8907939989465419 22.008896189497591 0 0 0 0 -20.774094737480482 8.7992382140678274 0 8.7992382140678274 18.893518236862292 0 0 0 0 -3.159673818936426 -31.544574658202691 0 -31.544574658202691 35.937576118409197 0 0 0 0 8.7349912606599673 46.640900669736766 0 46.640900669736766 74.187035712937359 0 0 0 0 -9.0835835162620739 -5.2849615964731846 0 -5.2849615964731846 17.736772526241179 0 0 0 0 -36.283780579590257 29.143361911021657 0 29.143361911021657 66.071268333374974 0 0 0 0 0.91549280768958852 -26.910357219926482 0 -26.910357219926482 22.930093988276894 0 0 0 0 4.1886153280556755 -7.5725209507800173 0 -7.5725209507800173 11.365227349549968 0 0 0 0 4.6019175442412124 -10.995224700427361 0 -10.995224700427361 16.301777247891337 0 0 0 0 -58.50620842950957 -99.911821007699473 0 -99.911821007699473 17.495525194110542 0 0 0 0 6.9280041838107209 -10.663557178057019 0 -10.663557178057019 11.58174832915002 0 0 0 0 -114.71018880312658 124.96608049653742 0 124.96608049653742 124.58008062644512 0 0 0 0 -145.1758293342973 -19.230188731801718 0 -19.230188731801718 92.107854493580817 0 0 0 0 64.499041678573576 -19.260627548563207 0 -19.260627548563207 -81.78589628591908 0 0 0 0 -13.429497292803717 -135.31130552494687 0 -135.31130552494687 46.268961506303185 0 0 0 0 -36.750361774241128 -84.176008381974498 0 -84.176008381974498 19.883875687461114 0 0 0 0 10.996839690360083 -9.534257686867381 0 -9.534257686867381 8.0254122593881334 0 0 0 0 9.0706927343673449 -9.7516749622700978 0 -9.7516749622700978 8.6903271271919067 0 0 0 0 7.5373645685967858 -12.077437912144887 0 -12.077437912144887 5.267192262057506 0 0 0 0 -4.3141534880353447 -2.5445590778526821 0 -2.5445590778526821 113.67105456647187 0 0 0 0 45.401772365702527 -23.145866808979918 0 -23.145866808979918 -45.482424910353075 0 0 0 0 64.49849209562899 58.220595362521635 0 58.220595362521635 138.22809247260648 0 0 0 0 24.719416845200158 13.177985296959832 0 13.177985296959832 231.88545960772899 0 0 0 0 -0.39536643373594416 12.705197695158859 0 12.705197695158859 81.12819665002462 0 0 0 0 71.258759288613874 72.783805003571615 0 72.783805003571615 106.98470067366088 0 0 0 0 127.73596136680044 -20.673620995337842 0 -20.673620995337842 46.853263103776953 0 0 0 0 59.646514160647712 -74.201427862761193 0 -74.201427862761193 88.957369457260938 0 0 0 0 36.901989004354618 -16.034226090254379 0 -16.034226090254379 50.372208090153435 0 0 0 0 -10.002448382950433 10.645162135057035 0 10.645162135057035 62.800888365589344 0 0 0 0 32.179074520262475 55.736548742816012 0 55.736548742816012 20.740573206912813 0 0 0 0 36.59137269384928 22.74090606759637 0 22.74090606759637 61.179342534431498 0 0 0 0 23.962830476024919 44.473837844636364 0 44.473837844636364 57.615867924205304 0 0 0 0 28.383208290355014 -32.602376109609395 0 -32.602376109609395 -37.77454114248394 0 0 0 0 59.280679500359611 49.159102274250472 0 49.159102274250472 183.79987955733122 0 0 0 0 -4.7674651550173621 28.759413425203093 0 28.759413425203093 197.36189550406925 0 0 0 0 1.0846470741839767 22.515003687991339 0 22.515003687991339 229.76049658167904 0 0 0 0 68.973740802335442 138.51687797939121 0 138.51687797939121 268.98943084140774 0 0 0 0 82.209547675536896 113.44020412432837 0 113.44020412432837 363.23105109413518 0 0 0 0 90.592825349792747 72.423804215848577 0 72.423804215848577 315.43489341144232 0 0 0 0 98.466096666031262 93.120014879809787 0 93.120014879809787 273.87771674726173 0 0 0 0 19.917427449686556 63.621018000791992 0 63.621018000791992 268.30013888964459 0 0 0 0 82.645528977043796 37.656234771524396 0 37.656234771524396 242.0683571238369 0 0 0 0 79.100759903618609 23.594171460378675 0 23.594171460378675 211.35213676923013 0 0 0 0 54.385880734675084 42.604030807908202 0 42.604030807908202 243.27905991828993 0 0 0 0 90.741487684591448 30.884667398842794 0 30.884667398842794 246.81752947876521 0 0 0 0 78.020085213345851 48.890061562993196 0 48.890061562993196 295.47260629273296 0 0 0 0 81.990702007838991 30.34159723319317 0 30.34159723319317 247.36401054021553 0 0 0 0 51.235870749100513 77.145524588144326 0 77.145524588144326 327.17585151951425 0 0 0 0 115.08774649819634 90.796217977276683 0 90.796217977276683 315.03906419328814 0 0 0 0 92.505814947420504 65.444581994068358 0 65.444581994068358 351.53085249201831 0 0 0 0 117.4835329605653 112.77208381807031 0 112.77208381807031 390.2727510728655 0 0 0 0 84.99935806262647 51.800022779103529 0 51.800022779103529 328.08234059930328 0 0 0 0 122.09834951354514 68.880940745115367 0 68.880940745115367 296.87560844165296 0 0 0 0 141.68819069488279 64.331835805197443 0 64.331835805197443 323.69397620505697 0 0 0 0 104.93401507986619 60.755123519582412 0 60.755123519582412 364.80938688710467 0 0 0 0 151.40860627514803 159.52643986510748 0 159.52643986510748 466.2745323281415 0 0 0 0 190.60870738040273 62.825120126502952 0 62.825120126502952 358.48163663937157 0 0 0 0 114.09383590677771 105.46405870426315 0 105.46405870426315 396.00752435520553 0 0 0 0 88.09673359210683 127.89103802324462 0 127.89103802324462 562.23793204845424 0 0 0 0 105.67684127463053 97.066754957292687 0 97.066754957292687 417.05433239619197 0 0 0 0 86.259787951102908 125.36783635032225 0 125.36783635032225 472.59564753891209 0 0 0 0 21.171442953364476 112.02490190281242 0 112.02490190281242 513.14501149294301 0 0 0 0 121.85402450348506 70.300140864634926 0 70.300140864634926 392.48616211823537 0 0 0 0 77.997107362915585 105.89521389129368 0 105.89521389129368 414.25593908492738 0 0 0 0 -10.106639687111965 -8.4740410884414814 0 -8.4740410884414814 317.41352164852651 0 0 0 0 15.716947625343664 -4.5995333319087877 0 -4.5995333319087877 295.71200628710358 0 0 0 0 -9.9260411088826004 -7.5249655676689144 0 -7.5249655676689144 312.26993750677775 0 0 0 0 -15.415665989022727 -8.0720129349947456 0 -8.0720129349947456 324.5743730187678 0 0 0 0 -26.391272157597996 -11.646994582940351 0 -11.646994582940351 319.20793005987434 0 0 0 0 -18.773606115906205 -14.797778551866031 0 -14.797778551866031 320.49329115271757 0 0 0 0 -10.61087130231499 -22.16513767118704 0 -22.16513767118704 300.00587134626585 0 0 0 0 -1.2355794637010149 -5.6269505637765178 0 -5.6269505637765178 316.94211778462341 0 0 0 0 9.5352157071956753 -14.282237499257462 0 -14.282237499257462 310.30030761309899 0 0 0 0 11.299165915923368 -3.8111232567389379 0 -3.8111232567389379 314.94032954993781 0 0 0 0 24.944254808513506 -10.701805109141787 0 -10.701805109141787 308.81175308189995 0 0 0 0 72.458059128176956 17.015705740415797 0 17.015705740415797 308.94424122623786 0 0 0 0 31.360176468547706 16.044508849121485 0 16.044508849121485 335.20304058546753 0 0 0 0 82.977556379170494 57.502349519419568 0 57.502349519419568 363.91729341032988 0 0 0 0 154.67200036527402 110.81111401949602 0 110.81111401949602 437.75896178714538 0 0 0 0 76.709411291100878 6.2436694198040641 0 6.2436694198040641 334.32799806108778 0 0 0 0 120.67374934231816 45.928669089080358 0 45.928669089080358 317.01462233712664 0 0 0 0 68.393927760685074 20.463066575422999 0 20.463066575422999 282.05618290190978 0 0 0 0 62.132971150051162 19.292055500705828 0 19.292055500705828 314.72571724356908 0 0 0 0 100.19983502319337 41.53722521745749 0 41.53722521745749 287.0220818534799 0 0 0 0 42.873822055576966 -3.4817556206035079 0 -3.4817556206035079 313.45474962671869 0 0 0 0 56.818362687141416 26.356444501667283 0 26.356444501667283 315.4461958169486 0 0 0 0 29.060750747711609 9.5363620629032084 0 9.5363620629032084 313.94343581178373 0 0 0 0 13.549364954371185 3.6227713084881543 0 3.6227713084881543 312.88795896904048 0 0 0 0 33.872028964998208 -3.5777269051050098 0 -3.5777269051050098 291.01393630749226 0 0 0 0 10.073248133109701 10.398834214813178 0 10.398834214813178 284.16197238602399 0 0 0 0 33.142522516448935 23.472130966208169 0 23.472130966208169 245.2315673680132 0 0 0 0 18.887341020982149 -8.5406048723548338 0 -8.5406048723548338 258.65924653750335 0 0 0 0 4.2348239337316045 7.427660718014522 0 7.427660718014522 249.72692246672159 0 0 0 0 57.989260921260211 27.882069716491969 0 27.882069716491969 288.44608989722133 0 0 0 0 35.010888115820308 7.4838534672562673 0 7.4838534672562673 282.185211426308 0 0 0 0 65.200931091756502 31.40075391339451 0 31.40075391339451 250.063059887485 0 0 0 0 44.641309573273247 17.450359745724199 0 17.450359745724199 204.53262519564305 0 0 0 0 -26.000130977996378 -23.911618114663725 0 -23.911618114663725 200.78024609902332 0 0 0 0 47.797237094439424 37.452857960346591 0 37.452857960346591 207.17879706332315 0 0 0 0 39.846010071561977 6.2475005766500544 0 6.2475005766500544 242.25582246745307 0 0 0 0 0.99730087417538016 -5.7589855141050066 0 -5.7589855141050066 174.90070646474487 0 0 0 0 25.821425858660405 -7.0152430694979557 0 -7.0152430694979557 174.65742275808589 0 0 0 0 4.6930200184269779 -18.107688243422672 0 -18.107688243422672 208.69530483227936 0 0 0 0 -1.2331577977229244 11.040626668967889 0 11.040626668967889 245.31443390048872 0 0 0 0 39.784806033921996 -10.713637691549593 0 -10.713637691549593 128.29085108166464 0 0 0 0 9.1569106763663513 2.2283078052760175 0 2.2283078052760175 244.41929689449535 0 0 0 0 14.429920761631365 19.323997522467835 0 19.323997522467835 176.31514640460955 0 0 0 0 16.682142004651723 7.1226662954795756 0 7.1226662954795756 202.10132445391719 0 0 0 0 0.33347495306315977 11.894645437118015 0 11.894645437118015 250.61837184828619 0 0 0 0 2.0514436045950788 -9.7286594731158402 0 -9.7286594731158402 295.33206125342986 0 0 0 0 -9.4755160288132174 7.7951201536161534 0 7.7951201536161534 316.90592423270573 0 0 0 0 -4.2103355168142116 2.6708492459788431 0 2.6708492459788431 293.36986933655862 0 0 0 0 -9.6592668572875482 9.335548840193951 0 9.335548840193951 304.96626087554068 0 0 0 0 1.726985305926064 26.742839092166832 0 26.742839092166832 261.21015290090145 0 0 0 0 4.1142762494127965 19.594405629064568 0 19.594405629064568 279.70262967854433 0 0 0 0 7.9279325710658668 32.838276923607737 0 32.838276923607737 300.13144398491568 0 0 0 0 17.514021340263753 60.953723062677454 0 60.953723062677454 252.48826983983781 0 0 0 0 36.419697572468976 48.914254584135051 0 48.914254584135051 142.1695492093022 0 0 0 0 18.552738925168342 61.5117697858459 0 61.5117697858459 185.8388246172326 0 0 0 0 8.2256393022216798 20.507402573832223 0 20.507402573832223 254.59267910277777 0 0 0 0 0.99213242164785242 -18.605900076892794 0 -18.605900076892794 2.3814225710812025 0 0 0 0 -52.679067307220976 39.308093636813283 0 39.308093636813283 96.844334309847909 0 0 0 0 6.234470231987622 -3.1894826165105012 0 -3.1894826165105012 0.54131204692328083 0 0 0 0 -2.558713284713896 -0.9752810312404776 0 -0.9752810312404776 1.067887150754423 0 0 0 0 -0.7359376125750714 51.662975729099344 0 51.662975729099344 -19.099413755320711 0 0 0 0 16.434232791503668 -12.524347740080085 0 -12.524347740080085 7.702651714048681 0 0 0 0 4.2317580749659101 -37.745699846573643 0 -37.745699846573643 17.259691343460872 0 0 0 0 5.5041827323455479 -4.9873950549853099 0 -4.9873950549853099 5.4782712712013648 0 0 0 0 -2.8370082246374295 -25.847343488293063 0 -25.847343488293063 -54.328293014943483 0 0 0 0 -11.203968192967295 -23.551854180844202 0 -23.551854180844202 -53.070102550123465 0 0 0 0 3.6235266836279294 -2.0182315322757525 0 -2.0182315322757525 0.13449536808784046 0 0 0 0 -199.17894099051045 -43.201377966572181 0 -43.201377966572181 17.52234629796294 0 0 0 0 -3.259583776513864 -21.351383506722414 0 -21.351383506722414 -74.745176159200128 0 0 0 0 -18.182190653242287 -56.236550037025154 0 -56.236550037025154 -63.190074358053607 0 0 0 0 -7.1202137557920651 -25.584253159810032 0 -25.584253159810032 -77.828485320522759 0 0 0 0 0.69542846644128531 0.24297549536996144 0 0.24297549536996144 0.21263449886880359 0 0 0 0 -2.1728403633387643 -54.201272816917481 0 -54.201272816917481 150.26608489698992 0 0 0 0 64.388939212089554 -65.62159986454617 0 -65.62159986454617 -69.377122895810317 0 0 0 0 36.884534300793348 4.0411917638502928 0 4.0411917638502928 -11.478494544702698 0 0 0 0 -13.379873027637586 19.182456062288111 0 19.182456062288111 84.079714844538103 0 0 0 0 34.386214787116387 11.170903053855 0 11.170903053855 87.916985771724285 0 0 0 0 75.684547647131694 -103.96875852228732 0 -103.96875852228732 -201.06963303720295 0 0 0 0 -2.2731722802598142 -55.734509316080562 0 -55.734509316080562 34.410801920777885 0 0 0 0 23.410497763970685 -16.815066109594838 0 -16.815066109594838 9.6420925048244506 0 0 0 0 3.7419848082854905 -3.9485561512951719 0 -3.9485561512951719 6.3134678573717551 0 0 0 0 2.5288164152857107 -0.56020798381316084 0 -0.56020798381316084 -0.22613861657492151 0 0 0 0 989.01591468259721 183.65679049702885 0 183.65679049702885 -170.28127381432205 0 0 0 0 317.94914251371119 -130.38411468723098 0 -130.38411468723098 -167.32269149412241 0 0 0 0 -194.00051001981853 56.523782538342061 0 56.523782538342061 175.42326320069697 0 0 0 0 -310.54120643094757 98.179328552433617 0 98.179328552433617 360.98463071668084 0 0 0 0 50.649546584751988 -100.6243028338904 0 -100.6243028338904 -69.21179099721121 0 0 0 0 24.313816564175919 -18.738270030235341 0 -18.738270030235341 11.028695204799199 0 0 0 0 5.4619476961689912 -2.6987468704473905 0 -2.6987468704473905 1.2190350624355517 0 0 0 0 179.64356562097964 -62.221334866115285 0 -62.221334866115285 -109.90050396845982 0 0 0 0 248.31947768169084 -76.794260230201417 0 -76.794260230201417 12.309245926957374 0 0 0 0 212.06599371153789 135.63333829411567 0 135.63333829411567 -3.3937189893404138 0 0 0 0 68.299890030721144 16.390265078836819 0 16.390265078836819 35.313611042503908 0 0 0 0 5.146954253767035 198.6695140690299 0 198.6695140690299 68.501169859104266 0 0 0 0 117.28786807274082 -116.27970068086142 0 -116.27970068086142 60.690738553232222 0 0 0 0 51.974172851383628 -101.83009822472923 0 -101.83009822472923 69.179825385932418 0 0 0 0 14.054905814769882 -65.048349843635151 0 -65.048349843635151 59.180221434651685 0 0 0 0 -35.070634872570736 -20.365805489115246 0 -20.365805489115246 39.814129211774343 0 0 0 0 3.9600721372489716 -78.881998262563684 0 -78.881998262563684 20.677766833076021 0 0 0 0 21.474366899004963 -58.814537564245256 0 -58.814537564245256 37.692054285522318 0 0 0 0 1.6161145212354313 -83.662959208079883 0 -83.662959208079883 42.092172877206963 0 0 0 0 36.673624248640408 -55.063178811924445 0 -55.063178811924445 45.22088035593697 0 0 0 0 110.83883321941539 -36.874663820819478 0 -36.874663820819478 6.317170742800954 0 0 0 0 73.227675485537475 -36.596062137130502 0 -36.596062137130502 16.993182773687295 0 0 0 0 61.835170054899208 -10.12581567396046 0 -10.12581567396046 57.578366971694777 0 0 0 0 -22.235344380158494 -56.136978010379607 0 -56.136978010379607 -48.278631275939915 0 0 0 0 -39.074671638933069 -87.31060044691003 0 -87.31060044691003 -37.098015972047506 0 0 0 0 -27.169268014693444 -73.912066866600981 0 -73.912066866600981 -4.1139502005240729 0 0 0 0 -16.659103926196622 -36.76678098743605 0 -36.76678098743605 -6.1379669413618103 0 0 0 0 -29.48659649991987 -66.403986109296056 0 -66.403986109296056 39.820869316558856 0 0 0 0 -0.041496878027828643 -71.452080333057893 0 -71.452080333057893 27.450913235696135 0 0 0 0 -33.184442356679028 -67.688930289501513 0 -67.688930289501513 8.8322983507587196 0 0 0 0 -49.567171769915149 -91.054895881657103 0 -91.054895881657103 34.103934071694312 0 0 0 0 -43.816529618959066 -86.842621027784844 0 -86.842621027784844 36.559525335882427 0 0 0 0 -41.381582447109395 -78.824284263836716 0 -78.824284263836716 60.457271028863033 0 0 0 0 -39.469789538554323 -78.998464646224193 0 -78.998464646224193 40.739389233653128 0 0 0 0 -64.732079590525245 -80.706859343555152 0 -80.706859343555152 60.441800336411838 0 0 0 0 -48.979071054473025 -54.989193770657948 0 -54.989193770657948 57.369780169710793 0 0 0 0 20.588730901653889 -54.07888601314221 0 -54.07888601314221 7.5793064650060842 0 0 0 0 41.968020774486831 -66.739687644449305 0 -66.739687644449305 21.48365103577089 0 0 0 0 18.382644190771316 -56.805812859508478 0 -56.805812859508478 18.658279005822578 0 0 0 0 -1.357944698227584 -49.644847897676755 0 -49.644847897676755 53.265866329412347 0 0 0 0 -3.5649002694126466 -58.256176695955332 0 -58.256176695955332 85.13846478645155 0 0 0 0 -8.2999787779220782 -3.3068852187373032 0 -3.3068852187373032 -2.5451152196171467 0 0 0 0 4.3929305861838657 -30.928590216537316 0 -30.928590216537316 67.973057280281864 0 0 0 0 45.407176076923861 18.765497417176448 0 18.765497417176448 -170.2680465783269 0 0 0 0 -2.839610740113784 -1.2384197646699704 0 -1.2384197646699704 -0.37936738457756292 0 0 0 0 3.4361407632877672 -34.905296707761863 0 -34.905296707761863 -30.401146299479478 0 0 0 0 10.887044577476445 -48.364414204337209 0 -48.364414204337209 -12.139022201366515 0 0 0 0 -53.51907747164114 -93.862785759552025 0 -93.862785759552025 71.853124206168104 0 0 0 0 -50.409117714652893 -86.297225924120994 0 -86.297225924120994 71.480541844653089 0 0 0 0 -134.61425019684975 -49.353695921145118 0 -49.353695921145118 102.29895050452751 0 0 0 0 -115.06505750606129 -152.89380349711598 0 -152.89380349711598 3.0833064259350067 0 0 0 0 4.3286344563584862 -74.907498125595339 0 -74.907498125595339 -101.48895685197158 0 0 0 0 9.4695498721666809 68.420587759741466 0 68.420587759741466 -19.552412518901065 0 0 0 0 -16.566672617615041 61.828895093754682 0 61.828895093754682 167.61021077830264 0 0 0 0 -38.990874704471594 1.9285463614825602 0 1.9285463614825602 207.20777353013182 0 0 0 0 -40.87922879250246 -47.065627555252739 0 -47.065627555252739 161.81698151222372 0 0 0 0 0.7780141494946804 -0.026026674943925521 0 -0.026026674943925521 0.28660381160744919 0 0 0 0 -8.6036024649984029 -23.770628550204037 0 -23.770628550204037 73.053871259064408 0 0 0 0 -206.38180217790887 21.056971227148779 0 21.056971227148779 344.12045947008664 0 0 0 0 26.115135796939285 -114.50350330041101 0 -114.50350330041101 -87.106020380175551 0 0 0 0 -3.6872016470842937 -109.86088859211077 0 -109.86088859211077 113.54383427728044 0 0 0 0 62.636136897268443 -73.205897133016151 0 -73.205897133016151 -42.902180158686406 0 0 0 0 20.475661557953572 -67.673316422405605 0 -67.673316422405605 39.048140580578547 0 0 0 0 62.957367577343575 -15.501220379377628 0 -15.501220379377628 21.384837921932558 0 0 0 0 3.1955764019322714 -1.1646065320665038 0 -1.1646065320665038 0.71102937256116228 0 0 0 0 -7.6683302766250563 -4.3994649400474373 0 -4.3994649400474373 219.41294028213997 0 0 0 0 -30.335853860138741 41.499670804479138 0 41.499670804479138 118.11663718342834 0 0 0 0 -3.3991847278975911 4.7437092238078549 0 4.7437092238078549 166.32590162770339 0 0 0 0 -49.613338364929405 12.733033421752907 0 12.733033421752907 169.0261657736919 0 0 0 0 -69.262393098720167 -8.7829803568870375 0 -8.7829803568870375 314.66415424551997 0 0 0 0 -35.811134349596614 -20.192950198261315 0 -20.192950198261315 199.27992159962969 0 0 0 0 295.4896120812773 -366.17253177163366 0 -366.17253177163366 292.86686863614432 0 0 0 0 -351.69359217778128 -206.92085795615617 0 -206.92085795615617 681.10775175769595 0 0 0 0 -152.2780911079135 102.08792698352681 0 102.08792698352681 200.15547990180858 0 0 0 0 26.92630370048937 -128.45034599961491 0 -128.45034599961491 257.31876769325299 0 0 0 0 59.407178804363866 -31.63165788737706 0 -31.63165788737706 69.256022675507666 0 0 0 0 79.581545111708692 -88.871974019245272 0 -88.871974019245272 120.0352282044214 0 0 0 0 -12.820359675553846 -39.622857001212765 0 -39.622857001212765 155.5428327197842 0 0 0 0 -7.9890111372587853 2.1286697471591651 0 2.1286697471591651 93.906061295468589 0 0 0 0 -4.0671199482658267 -63.09198082299099 0 -63.09198082299099 172.00273799905881 0 0 0 0 -9.8743912722038658 3.2163017614493583 0 3.2163017614493583 171.05057381283939 0 0 0 0 7.4115128050929968 -19.556337006042192 0 -19.556337006042192 16.865341398984313 0 0 0 0 -1.2743572396684613 -1.4840410493186482 0 -1.4840410493186482 165.8743053068456 0 0 0 0 -1.7902679049220751 -32.616570401703939 0 -32.616570401703939 -35.81347923681642 0 0 0 0 -1.8879395404804953 -24.839020682903129 0 -24.839020682903129 18.141842398281053 0 0 0 0 73.12237285017477 60.487531491335119 0 60.487531491335119 186.82875203405274 0 0 0 0 73.8144974044028 48.175358380314549 0 48.175358380314549 185.84561525022218 0 0 0 0 50.180682814455395 55.469308004439199 0 55.469308004439199 206.53742019904166 0 0 0 0 51.520201312639983 28.915740412940977 0 28.915740412940977 171.25655220498629 0 0 0 0 46.526050138978462 17.887460839204323 0 17.887460839204323 172.49167545409728 0 0 0 0 0.61622212068687077 -9.4097839914911674 0 -9.4097839914911674 177.91572071105759 0 0 0 0 26.482319488528447 36.757585703238874 0 36.757585703238874 196.42558927733444 0 0 0 0 7.6172492405312369 25.125853057488712 0 25.125853057488712 196.95893758712646 0 0 0 0 22.063022550235473 17.76912867651572 0 17.76912867651572 186.1550963304494 0 0 0 0 -13.134269394091461 2.0399846617044659 0 2.0399846617044659 172.38325581792742 0 0 0 0 -38.534577251453811 -12.404367980643656 0 -12.404367980643656 177.03652460811441 0 0 0 0 2.2718579670965937 -190.14269301155161 0 -190.14269301155161 143.77766112392237 0 0 0 0 -10.383681646052537 13.106504034785303 0 13.106504034785303 192.43653923265356 0 0 0 0 56.89036151244818 3.2111515669166693 0 3.2111515669166693 136.88437782704204 0 0 0 0 3.6215464765573415 40.13173969132913 0 40.13173969132913 150.18819694422632 0 0 0 0 18.351263155791912 -68.865358821268046 0 -68.865358821268046 321.94465082367606 0 0 0 0 -32.905191182271665 43.184365033464019 0 43.184365033464019 173.74692493452449 0 0 0 0 -34.006680479702482 49.331082457786579 0 49.331082457786579 169.54395871302449 0 0 0 0 -59.525534207457895 111.55962938503035 0 111.55962938503035 413.65199960444806 0 0 0 0 181.61073615223177 -66.888091294554442 0 -66.888091294554442 -132.8688310769212 0 0 0 0 188.72205807926002 -83.555289156774052 0 -83.555289156774052 -111.05078228117054 0 0 0 0 -69.381568406244696 226.60219469526282 0 226.60219469526282 127.19722101299385 0 0 0 0 -3.7887931005070641 123.24145476489412 0 123.24145476489412 161.87369786034287 0 0 0 0 0.57501686196085888 1.4366437029936066 0 1.4366437029936066 3.4821251979743941 0 0 0 0 146.90969443077483 -156.04236996324562 0 -156.04236996324562 -250.3347048371761 0 0 0 0 656.01137333157749 -87.178349780237113 0 -87.178349780237113 156.9572597161814 0 0 0 0 0.1164096599081077 1.1424636693934467 0 1.1424636693934467 3.8604719719986562 0 0 0 0 -65.40726891756276 178.84195223426605 0 178.84195223426605 682.78531965638103 0 0 0 0 116.5961110507269 254.0038363037047 0 254.0038363037047 191.44172148020334 0 0 0 0 1.5094227254351864 -1.7769415717755024 0 -1.7769415717755024 0.97318642241078912 0 0 0 0 -56.846346931441076 -65.696946436857615 0 -65.696946436857615 40.880116989857925 0 0 0 0 -115.79107474538432 -51.256703435263262 0 -51.256703435263262 389.76317882116928 0 0 0 0 -180.55196089734636 -13.279189253520599 0 -13.279189253520599 461.28341445128103 0 0 0 0 70.968907305649736 22.548277508039973 0 22.548277508039973 -19.609596056840019 0 0 0 0 -162.81294169158355 -66.051293426777193 0 -66.051293426777193 -21.072066329404862 0 0 0 0 9.5104996995505644 -71.686857309498464 0 -71.686857309498464 -94.65316058611279 0 0 0 0 -8.9511140420872835 36.435366859498572 0 36.435366859498572 -37.119172036671443 0 0 0 0 4.2283890097492431 -2.2475280075717414 0 -2.2475280075717414 1.0816103852000403 0 0 0 0 -64.700406860789371 50.502962317124911 0 50.502962317124911 119.59471904647899 0 0 0 0 22.151920136126137 -44.239550412459721 0 -44.239550412459721 56.066388639414072 0 0 0 0 -63.51016449443523 -101.73155311994697 0 -101.73155311994697 -1.5141249710713964 0 0 0 0 33.163121074329865 -84.302371933127688 0 -84.302371933127688 -67.723995260794254 0 0 0 0 -53.938693013018565 -22.204709606202869 0 -22.204709606202869 69.680406833464076 0 0 0 0 22.952880777305836 -83.49573961345186 0 -83.49573961345186 -197.99753102994509 0 0 0 0 -0.76619006120899513 -0.76468984832696663 0 -0.76468984832696663 -0.40600171329135648 0 0 0 0 6.1500949969831709 -34.119001273247704 0 -34.119001273247704 53.048572347962363 0 0 0 0 10.205365556370452 -28.45860225395154 0 -28.45860225395154 14.98145091952756 0 0 0 0 0.38177796630532157 -7.5551231996093797 0 -7.5551231996093797 10.810108484790023 0 0 0 0 -6.9059410880418 -53.447241907972057 0 -53.447241907972057 33.434168379063976 0 0 0 0 63.257712787224136 -112.36286614747723 0 -112.36286614747723 -130.53812917830874 0 0 0 0 -23.998002369395181 -22.026153588647503 0 -22.026153588647503 -55.987543353008732 0 0 0 0 -5.7065474605224153 -37.803123167597278 0 -37.803123167597278 64.183554129997901 0 0 0 0 -0.5102097606448126 -3.310228409928655 0 -3.310228409928655 4.49378739072408 0 0 0 0 119.94497264071651 -87.222052056106804 0 -87.222052056106804 -179.0584560978541 0 0 0 0 2.8037061501909157 -1.6191709126218665 0 -1.6191709126218665 -2.2729100104179132 0 0 0 0 -95.204411293660087 -26.422087913877476 0 -26.422087913877476 4.0908327430379359 0 0 0 0 9.8436296789614062 -25.843558618877069 0 -25.843558618877069 47.20971103453121 0 0 0 0 9.5576471593049597 -20.332702216603042 0 -20.332702216603042 30.930994740811581 0 0 0 0 9.6397132890451758 -22.501664802787673 0 -22.501664802787673 43.651486894458685 0 0 0 0 -13.123021099512698 -80.008325734787832 0 -80.008325734787832 -29.098983322859567 0 0 0 0 18.072122917249771 -47.918440019420359 0 -47.918440019420359 -91.868922953490255 0 0 0 0 19.235620778355951 -38.787759081627883 0 -38.787759081627883 53.744530249061427 0 0 0 0 -0.72493600309453221 -5.459008510932847 0 -5.459008510932847 8.4791663684721144 0 0 0 0 3.1496163240562964 -21.762303191716455 0 -21.762303191716455 44.083136863548134 0 0 0 0 9.5914652520228287 -20.724259801354698 0 -20.724259801354698 38.65629583507345 0 0 0 0 2.6002152083983674 -24.167293530357711 0 -24.167293530357711 38.989140704828969 0 0 0 0 -189.10333734271444 -79.913919131278817 0 -79.913919131278817 34.456898416232434 0 0 0 0 7.5876361399459853 -22.176885538672323 0 -22.176885538672323 41.341915250167254 0 0 0 0 6.0781515212638624 -25.150204624524577 0 -25.150204624524577 39.111010202783689 0 0 0 0 -143.76221179912864 -172.37843377301215 0 -172.37843377301215 25.176450378836307 0 0 0 0 -23.336758930005089 -81.692797188587065 0 -81.692797188587065 -28.861661367419401 0 0 0 0 94.440502786523666 -86.23074734369311 0 -86.23074734369311 -19.847519260361878 0 0 0 0 100.11801656888656 -91.548018430328739 0 -91.548018430328739 -68.668561248439801 0 0 0 0 7.9147905247755261 -110.10468471013155 0 -110.10468471013155 -15.879461560176424 0 0 0 0 5.9511509250187373 -48.398541195907455 0 -48.398541195907455 21.237678536718704 0 0 0 0 -25.382058112980303 -32.361835635156467 0 -32.361835635156467 50.207530753848005 0 0 0 0 4.0502126556766598 -24.571015486942088 0 -24.571015486942088 35.589100651061017 0 0 0 0 -5.3571214297899132 -16.260149124882446 0 -16.260149124882446 37.902001421125988 0 0 0 0 3.6127906971487391 -53.047708420740946 0 -53.047708420740946 56.917264557778253 0 0 0 0 -4.3649022827576118 -37.641773901153556 0 -37.641773901153556 51.485810436528027 0 0 0 0 -10.436187592297344 -10.452603501478052 0 -10.452603501478052 4.8103512382850031 0 0 0 0 20.1829840438877 -35.658550616988578 0 -35.658550616988578 40.660496276802405 0 0 0 0 12.548574518892565 -38.992530247001469 0 -38.992530247001469 18.572845271715778 0 0 0 0 5.7525784846584429 -36.681993380880158 0 -36.681993380880158 40.673077342874109 0 0 0 0 17.586215271028628 -27.718323282385185 0 -27.718323282385185 31.718719119409407 0 0 0 0 -137.46639352006241 -121.47890737000853 0 -121.47890737000853 41.866794859473885 0 0 0 0 -5.4620678764295008 -39.312505182405403 0 -39.312505182405403 51.167744817337734 0 0 0 0 11.044782584006917 -23.846028691238573 0 -23.846028691238573 32.687998605838558 0 0 0 0 -84.784925956443658 -45.654674746083401 0 -45.654674746083401 67.19612507558486 0 0 0 0 -120.63658949158889 -98.385102270669449 0 -98.385102270669449 6.6839707026520045 0 0 0 0 -92.30291150166704 2.066829441308073 0 2.066829441308073 85.980555043286586 0 0 0 0 -65.016856738584465 0.89962318467314617 0 0.89962318467314617 53.527837563771755 0 0 0 0 0.77087638704993822 -2.1798699612672223 0 -2.1798699612672223 4.7854001409971687 0 0 0 0 3.7884910342845615 -26.321936718552934 0 -26.321936718552934 16.131327448341835 0 0 0 0 15.943645519779238 -18.615903636655275 0 -18.615903636655275 -5.0977376720165921 0 0 0 0 203.17929345158382 -245.97892312196018 0 -245.97892312196018 191.49819315046807 0 0 0 0 -32.065012094673875 -12.037114092214324 0 -12.037114092214324 128.73036288273943 0 0 0 0 -24.040892890276155 -54.025482022900178 0 -54.025482022900178 213.14356965885599 0 0 0 0 -7.7968732020658535 9.6885994995454894 0 9.6885994995454894 456.45817106522372 0 0 0 0 -36.33085068793298 -134.64125204740412 0 -134.64125204740412 -70.07988308439235 0 0 0 0 -30.474802487020952 -173.77934039227875 0 -173.77934039227875 120.345635990554 0 0 0 0 -175.36646498242953 -210.93511885023327 0 -210.93511885023327 -128.93259520436914 0 0 0 0 -236.94038531441743 -45.562373638277677 0 -45.562373638277677 100.26526854552503 0 0 0 0 4.6199219913211227 -7.3061670517856676 0 -7.3061670517856676 6.8928296066366954 0 0 0 0 -94.299819801577542 -55.414324913170276 0 -55.414324913170276 84.246999674945982 0 0 0 0 -109.36590430512206 -41.000984095184322 0 -41.000984095184322 183.69924548803829 0 0 0 0 -13.81494228154952 38.791850669884298 0 38.791850669884298 143.57272483571433 0 0 0 0 -31.642785765639928 -1.7552052936298423 0 -1.7552052936298423 149.64294296693697 0 0 0 0 -93.058137527570011 9.4914524192487306 0 9.4914524192487306 193.09003962979477 0 0 0 0 -140.40516533389746 -26.691639307970036 0 -26.691639307970036 145.61722824920071 0 0 0 0 -91.741982618239177 -16.337994225195757 0 -16.337994225195757 108.54554541997641 0 0 0 0 -73.593066185039788 48.193821895150904 0 48.193821895150904 122.69860183119272 0 0 0 0 -68.370224465626052 34.94377734833688 0 34.94377734833688 147.04932530874794 0 0 0 0 87.822173517947476 244.13634891294441 0 244.13634891294441 -35.536314343407867 0 0 0 0 2.1921731315037984 -1.7284930957742333 0 -1.7284930957742333 1.3739610830896893 0 0 0 0 52.074688730222988 215.77257194611047 0 215.77257194611047 344.31825546054461 0 0 0 0 167.32827010444726 -310.1933743223326 0 -310.1933743223326 -48.251781900268725 0 0 0 0 83.19303301186801 144.70071495701995 0 144.70071495701995 238.71066603775398 0 0 0 0 -59.345184105205135 28.100850410912244 0 28.100850410912244 296.86800924982526 0 0 0 0 329.21153298845411 -243.69342811104434 0 -243.69342811104434 4.4052969109598052 0 0 0 0 135.00734463444019 -232.66472796145763 0 -232.66472796145763 76.31447738702991 0 0 0 0 240.42743147632063 41.48786703350379 0 41.48786703350379 -14.101222169052562 0 0 0 0 26.175610070978109 23.116483410112778 0 23.116483410112778 210.32122517007519 0 0 0 0 25.113308655904063 5.7433608409156705 0 5.7433608409156705 41.268181657520472 0 0 0 0 -31.282684579264242 21.088674213428021 0 21.088674213428021 73.547927400733897 0 0 0 0 -69.208654651857614 -52.563754437773241 0 -52.563754437773241 101.83067700569882 0 0 0 0 164.55112707327453 -26.841936879943205 0 -26.841936879943205 -103.23759479124783 0 0 0 0 7.6193917474400834 -4.325654557359826 0 -4.325654557359826 3.4990567002679782 0 0 0 0 -27.518180097400545 -66.642163102114864 0 -66.642163102114864 -26.919533606953337 0 0 0 0 14.938270708938944 -7.0794054272846552 0 -7.0794054272846552 3.186238712451086 0 0 0 0 3.2062743232905095 -2.6809658662632661 0 -2.6809658662632661 4.1260212885790253 0 0 0 0 -18.039712050422168 -19.967508436104254 0 -19.967508436104254 -17.27404988224589 0 0 0 0 -53.838805881476219 -64.69928223095485 0 -64.69928223095485 2.5592699959524907 0 0 0 0 61.493678486919634 117.08567958483764 0 117.08567958483764 171.68349489486718 0 0 0 0 61.494181751928409 134.90985146683306 0 134.90985146683306 222.361058394672 0 0 0 0 53.8754713514586 126.45249558744217 0 126.45249558744217 232.78739259690337 0 0 0 0 73.372515673011549 126.74494849594885 0 126.74494849594885 158.22009468212491 0 0 0 0 113.15667534720978 117.4748101754376 0 117.4748101754376 183.19147332173452 0 0 0 0 109.97324184572426 100.73223305294596 0 100.73223305294596 110.50424628032488 0 0 0 0 59.767690566768579 116.66998718180912 0 116.66998718180912 202.4777388251714 0 0 0 0 -0.80245221633776964 -5.8610886457536253 0 -5.8610886457536253 -0.18801747209363384 0 0 0 0 3.3537850571850853 -5.258135178102151 0 -5.258135178102151 7.6707671927362782 0 0 0 0 42.688394253047591 14.652137526791194 0 14.652137526791194 26.311150957495556 0 0 0 0 71.02595569256755 77.59355033061729 0 77.59355033061729 116.03988865542851 0 0 0 0 67.678325996910644 90.152800000003481 0 90.152800000003481 143.42385514523266 0 0 0 0 40.610832837890385 103.8086892868584 0 103.8086892868584 136.54205243680917 0 0 0 0 56.844831501748558 105.11654199833356 0 105.11654199833356 174.81412462290609 0 0 0 0 3.0843665614139679 -5.0070554252418118 0 -5.0070554252418118 6.0389677864603328 0 0 0 0 1.6836461563232206 -4.6075001036078902 0 -4.6075001036078902 8.6886579187084862 0 0 0 0 5.6277121519537543 -4.4875075400350521 0 -4.4875075400350521 1.5162821492735077 0 0 0 0 5.7917974636441336 -6.0085589085489843 0 -6.0085589085489843 4.5775764707213682 0 0 0 0 -10.599812485770599 -3.776560400488961 0 -3.776560400488961 16.900707789660373 0 0 0 0 -17.492477058960503 -7.0098748191085178 0 -7.0098748191085178 17.093023250410283 0 0 0 0 1.1433337822768088 -3.0959442252397764 0 -3.0959442252397764 7.1481991913298657 0 0 0 0 -39.0036828144639 -19.969938220740005 0 -19.969938220740005 50.556773261294438 0 0 0 0 -38.137541776319267 -1.6272841611025797 0 -1.6272841611025797 31.060497858745293 0 0 0 0 -20.137642691941437 8.2140017182446172 0 8.2140017182446172 36.319867118067123 0 0 0 0 -34.218084460217597 43.389155525303067 0 43.389155525303067 0.6392457393631048 0 0 0 0 6.4432977842711239 8.3405291675577473 0 8.3405291675577473 -54.158868654885737 0 0 0 0 -1.9944325846913671 -7.2998595471080989 0 -7.2998595471080989 4.2256413523791707 0 0 0 0 11.235332205337727 6.2985329894199822 0 6.2985329894199822 4.5370833319757367 0 0 0 0 4.3645213616509864 -1.3138864139891666 0 -1.3138864139891666 11.161446207565859 0 0 0 0 21.002955729368068 -2.3485520324277331 0 -2.3485520324277331 1.3749692650162615 0 0 0 0 -0.049708483081793986 -1.3141636942439519 0 -1.3141636942439519 4.3427009268329613 0 0 0 0 0.67293968458717757 -4.4400994059271301 0 -4.4400994059271301 10.79064072436212 0 0 0 0 1.2619020939118855 -4.7112931757083061 0 -4.7112931757083061 10.398895371065009 0 0 0 0 -9.9173759914965558 -25.418134378822288 0 -25.418134378822288 27.524618885246127 0 0 0 0 -12.480993272615706 -34.864467529479953 0 -34.864467529479953 -3.2534462358398741 0 0 0 0 6.105928991150904 -49.851298003441116 0 -49.851298003441116 -30.935276893245828 0 0 0 0 3.8101627505920987 -58.21720479364285 0 -58.21720479364285 -4.3650855190935545 0 0 0 0 3.0008641393133075 -57.793307948581059 0 -57.793307948581059 80.075866582729759 0 0 0 0 -1.4829819214369202 0.40949269578140957 0 0.40949269578140957 -0.36741977002479942 0 0 0 0 53.467106916721491 69.279681701234267 0 69.279681701234267 -185.5001155565933 0 0 0 0 48.345864230669577 -64.580363761288027 0 -64.580363761288027 -67.824196648732141 0 0 0 0 -53.749250290152304 22.997437343619822 0 22.997437343619822 54.409650924387279 0 0 0 0 51.726915537912873 109.90153431759245 0 109.90153431759245 287.27853515615425 0 0 0 0 53.556223614198814 124.23096125068309 0 124.23096125068309 264.88833788269403 0 0 0 0 56.833668491639855 52.407689884272258 0 52.407689884272258 170.92121933542876 0 0 0 0 174.12350646533127 150.36404989788571 0 150.36404989788571 482.87374306014135 0 0 0 0 79.635996266793086 183.29200857207474 0 183.29200857207474 375.64715353241627 0 0 0 0 165.35280139317581 203.72194012555838 0 203.72194012555838 358.03620166506153 0 0 0 0 129.20830077826088 127.78523731349196 0 127.78523731349196 422.67977687618986 0 0 0 0 80.501221708384719 96.220142006371276 0 96.220142006371276 312.13060090618819 0 0 0 0 107.81534911993731 172.20371457160218 0 172.20371457160218 352.64467343947945 0 0 0 0 84.583232768840048 111.25132146909891 0 111.25132146909891 315.94347747067513 0 0 0 0 62.898974260790965 153.00552507423708 0 153.00552507423708 380.83249460262505 0 0 0 0 48.217155815356818 111.67236396945373 0 111.67236396945373 317.26314790491961 0 0 0 0 69.456555117296375 105.78002164958889 0 105.78002164958889 237.26698082401708 0 0 0 0 55.271025999249105 106.73335511971527 0 106.73335511971527 232.95262613143132 0 0 0 0 35.244775702239849 65.714483912023752 0 65.714483912023752 240.96863929241954 0 0 0 0 76.581622214053368 83.499165072738833 0 83.499165072738833 255.63999438070459 0 0 0 0 77.116169652217195 123.92775782705212 0 123.92775782705212 256.01127093545801 0 0 0 0 45.974863523510351 59.385307664685115 0 59.385307664685115 199.79382773704128 0 0 0 0 51.220190513955458 95.330632232831704 0 95.330632232831704 254.20629862529699 0 0 0 0 3.4618641555716749 21.165181430507801 0 21.165181430507801 173.91947509954116 0 0 0 0 14.61939528918947 87.688209608731995 0 87.688209608731995 175.38180331214608 0 0 0 0 43.453743837999355 20.994986325640639 0 20.994986325640639 124.28925216580319 0 0 0 0 -0.38276089459948892 0.060117148233842954 0 0.060117148233842954 0.80297800375075923 0 0 0 0 40.935815779341283 31.746805472947017 0 31.746805472947017 134.24884975431632 0 0 0 0 34.8156078944603 54.967706036375603 0 54.967706036375603 196.80307444053324 0 0 0 0 58.353630272540613 60.832040995315765 0 60.832040995315765 104.28126110303856 0 0 0 0 29.971863116049462 93.658491935631901 0 93.658491935631901 230.56708326520311 0 0 0 0 51.979706505119339 75.988231403673126 0 75.988231403673126 148.64452798309503 0 0 0 0 27.264754158060896 103.56926838540676 0 103.56926838540676 104.5425304567616 0 0 0 0 37.90864476250772 89.021834830833541 0 89.021834830833541 117.725790442375 0 0 0 0 40.029087246016843 73.379933956908644 0 73.379933956908644 174.69917978352169 0 0 0 0 37.912104254334736 96.4248757286623 0 96.4248757286623 172.00836746063396 0 0 0 0 51.017797745244025 76.317400600011752 0 76.317400600011752 184.58972148733301 0 0 0 0 44.558262353147256 55.883226139671024 0 55.883226139671024 187.4953521263451 0 0 0 0 47.905426144835474 101.98677812390815 0 101.98677812390815 222.11607405204268 0 0 0 0 33.815331552771113 97.312769367028523 0 97.312769367028523 283.31204717823857 0 0 0 0 48.184567366595957 113.96185352498833 0 113.96185352498833 338.59961129844305 0 0 0 0 54.295716110760623 133.31288868226693 0 133.31288868226693 278.58995946654386 0 0 0 0 34.30690116768119 110.27660429112984 0 110.27660429112984 298.54245373842423 0 0 0 0 37.650397356592293 127.91888865281362 0 127.91888865281362 261.38962448928214 0 0 0 0 29.141432913736935 108.82222396347242 0 108.82222396347242 258.27486963199044 0 0 0 0 22.326791959783804 99.246643450729607 0 99.246643450729607 259.11195177468016 0 0 0 0 32.098667821888739 108.55616130591079 0 108.55616130591079 219.20824058676953 0 0 0 0 18.173118786476152 90.133648258710309 0 90.133648258710309 214.04341878170089 0 0 0 0 24.017671436886303 101.57688728660287 0 101.57688728660287 206.70251384071889 0 0 0 0 20.394214189447666 75.249682089313865 0 75.249682089313865 194.14011261294581 0 0 0 0 42.099508764188613 107.13292558425383 0 107.13292558425383 212.17392349448346 0 0 0 0 34.923758585451651 116.92875485173863 0 116.92875485173863 238.0442278164046 0 0 0 0 25.056966984928295 92.635095064877532 0 92.635095064877532 223.84827388776466 0 0 0 0 26.412634907944721 102.43073028346043 0 102.43073028346043 240.99602876948484 0 0 0 0 39.372430851844001 124.7420021512462 0 124.7420021512462 245.61022232835239 0 0 0 0 29.240481355151132 135.31669261320349 0 135.31669261320349 288.37027843703254 0 0 0 0 58.387984631529662 143.13676075067724 0 143.13676075067724 241.38471335121721 0 0 0 0 31.215118283394986 121.57990566842636 0 121.57990566842636 261.38255358484457 0 0 0 0 51.483894895180129 126.92291252802897 0 126.92291252802897 218.95227331692877 0 0 0 0 45.237258766492232 118.76251558565855 0 118.76251558565855 226.47450408334407 0 0 0 0 52.320842065706529 98.493370693526231 0 98.493370693526231 181.11593624384841 0 0 0 0 57.886886085929291 86.13385174353607 0 86.13385174353607 141.72693093390262 0 0 0 0 36.650345544090669 93.215997830186097 0 93.215997830186097 200.42511682766417 0 0 0 0 32.247830996133416 69.575964136180119 0 69.575964136180119 172.54513453348227 0 0 0 0 37.33341802189625 78.560898505582372 0 78.560898505582372 171.98511148213584 0 0 0 0 46.884827853476963 62.309200363233685 0 62.309200363233685 151.03572063242609 0 0 0 0 0.65517116833325417 -5.468178962562888 0 -5.468178962562888 8.7888374098338318 0 0 0 0 3.7472419004185848 -4.8822749744704907 0 -4.8822749744704907 5.7058157291950806 0 0 0 0 43.78257694756212 45.705951413416187 0 45.705951413416187 133.80624024858844 0 0 0 0 9.0928645437979867 52.102539952131337 0 52.102539952131337 165.78042980049941 0 0 0 0 18.394523178526015 75.486253917835711 0 75.486253917835711 163.36141107344883 0 0 0 0 -2.6476711796785821 90.663480796283693 0 90.663480796283693 180.40043228453578 0 0 0 0 27.525396019289929 81.591025697944133 0 81.591025697944133 182.61483480667812 0 0 0 0 -30.051609027057566 85.545814044606232 0 85.545814044606232 162.21549711904663 0 0 0 0 19.061687408171565 76.323195281845983 0 76.323195281845983 159.35305742168566 0 0 0 0 -13.272243478111704 108.28267454259185 0 108.28267454259185 131.60602567561727 0 0 0 0 20.523105723405024 67.864432322137873 0 67.864432322137873 116.80260495076072 0 0 0 0 -7.6989189825053472 56.782754058251157 0 56.782754058251157 164.99683361654752 0 0 0 0 -2.7605702244060772 -0.94479774778983483 0 -0.94479774778983483 4.7933095327501007 0 0 0 0 4.158220878692191 -1.6611032785185671 0 -1.6611032785185671 -0.50348674860651954 0 0 0 0 -0.6369863584925497 -5.1596198921924952 0 -5.1596198921924952 18.412466738467629 0 0 0 0 2.9607111403865929 -3.6862853749935311 0 -3.6862853749935311 6.4458509232645156 0 0 0 0 1.3892457351653116 -3.475498654656719 0 -3.475498654656719 8.1738981032841025 0 0 0 0 1.2319199580124405 -2.7773566777104861 0 -2.7773566777104861 6.690350669901818 0 0 0 0 1.7412019435541541 -3.951498383680029 0 -3.951498383680029 7.9160753068402698 0 0 0 0 -2.3950488475196607 -5.9561368989494667 0 -5.9561368989494667 11.704794190882239 0 0 0 0 -2.6652056911971158 -1.9260274592197675 0 -1.9260274592197675 9.0433309895597631 0 0 0 0 -0.30305874960185974 -6.9122272275708383 0 -6.9122272275708383 12.081574655698205 0 0 0 0 -0.31114175399096844 -3.9455972304534228 0 -3.9455972304534228 8.4691138099833729 0 0 0 0 2.6580671587071265 -4.4928485782511416 0 -4.4928485782511416 16.159791836701515 0 0 0 0 9.4126138397441537 -11.043011181907787 0 -11.043011181907787 15.626277499774005 0 0 0 0 -1.9746594239877595 -10.629326228256105 0 -10.629326228256105 26.726636383937148 0 0 0 0 0.6409923392925414 -1.8209363006318426 0 -1.8209363006318426 5.1883051223429035 0 0 0 0 8.2329352692177054 -10.758639659921755 0 -10.758639659921755 11.848101927767857 0 0 0 0 10.027964442348463 -7.6202139726831852 0 -7.6202139726831852 9.5363842256477653 0 0 0 0 -0.83806872573768487 -8.3121875312717748 0 -8.3121875312717748 25.833371968607025 0 0 0 0 2.0532320738712793 -3.0050861392530734 0 -3.0050861392530734 8.6317777835473066 0 0 0 0 -0.019656997191077608 -2.3178722250304418 0 -2.3178722250304418 4.0232770615257323 0 0 0 0 3.804741264362562 -3.9444604815444131 0 -3.9444604815444131 8.2023004374557615 0 0 0 0 3.3149885600340436 -8.2937236376928354 0 -8.2937236376928354 14.818998866340493 0 0 0 0 10.794495635163003 -22.249933006172796 0 -22.249933006172796 23.633175366929208 0 0 0 0 9.8130115043546766 -9.2244171567815556 0 -9.2244171567815556 20.511570892012969 0 0 0 0 6.2433834878812284 -1.6640031690039621 0 -1.6640031690039621 3.5333769938018733 0 0 0 0 3.5337189636766198 -3.5808866548759397 0 -3.5808866548759397 16.03927258170188 0 0 0 0 5.1193975616097305 0.64496264173430973 0 0.64496264173430973 12.787554442547844 0 0 0 0 7.2461301893108612 -3.1578073235887132 0 -3.1578073235887132 10.806031982028799 0 0 0 0 1.282963951501678 -1.4807685409070714 0 -1.4807685409070714 2.5230031297075612 0 0 0 0 -6.6288461135802663 -3.1760454398845468 0 -3.1760454398845468 41.184614172114379 0 0 0 0 8.8271582538504845 -13.674937757350563 0 -13.674937757350563 -16.549051016743761 0 0 0 0 1.7823345629872165 -2.3003092365688644 0 -2.3003092365688644 13.244230544347374 0 0 0 0 -0.51153000722024444 -40.165450040229189 0 -40.165450040229189 20.679885301637114 0 0 0 0 -13.678630432335012 -33.207892066959175 0 -33.207892066959175 34.19925029773367 0 0 0 0 0.17050275667221371 0.1027752102003987 0 0.1027752102003987 -0.067260980393683667 0 0 0 0 2.2341416396066052 -0.99207331020443235 0 -0.99207331020443235 18.220614865706011 0 0 0 0 44.73724067650528 61.984922411098523 0 61.984922411098523 165.43178266599716 0 0 0 0 -8.9260302310090083 -54.20074928287795 0 -54.20074928287795 33.224530510965451 0 0 0 0 0.14204721395890374 10.972570402031124 0 10.972570402031124 109.54852107590341 0 0 0 0 5.4774767184511415 0.083636943412855658 0 0.083636943412855658 1.0000321680886195 0 0 0 0 4.7874863318029384 -1.5031280021212297 0 -1.5031280021212297 12.84275249052007 0 0 0 0 -28.919320963124846 23.17448194852841 0 23.17448194852841 5.6356629474248621 0 0 0 0 20.146437059373852 6.6708209873286251 0 6.6708209873286251 9.6679071386060969 0 0 0 0 1.8676152872708691 3.4543519314407902 0 3.4543519314407902 6.7319094150119838 0 0 0 0 -31.748692840676085 89.927730916399014 0 89.927730916399014 -82.262039527424349 0 0 0 0 -20.752625853886912 27.875613654245171 0 27.875613654245171 -46.621383600009722 0 0 0 0 -18.429716980144804 16.236510377220839 0 16.236510377220839 25.460969467538234 0 0 0 0 -61.103143072767125 49.149726508352614 0 49.149726508352614 20.493133488002059 0 0 0 0 5.8882557709977004 4.2813935568349137 0 4.2813935568349137 3.1305012251163262 0 0 0 0 11.914205048304666 -13.827562512582517 0 -13.827562512582517 102.92761459207031 0 0 0 0 2.60458028056813 0.095089432787716532 0 0.095089432787716532 -2.0775182109900072 0 0 0 0 34.458238301931374 86.468121151076048 0 86.468121151076048 244.92484280759527 0 0 0 0 -1.5214742918194588 -58.085112439983277 0 -58.085112439983277 112.98844992129307 0 0 0 0 15.643193676324245 -69.975453879804263 0 -69.975453879804263 103.38983702554833 0 0 0 0 17.171150385448755 -29.626106519914174 0 -29.626106519914174 64.584541422707844 0 0 0 0 -4.4050124436973874 -16.226019510284004 0 -16.226019510284004 34.446038424124708 0 0 0 0 -30.016444197925011 -31.817334823346755 0 -31.817334823346755 69.429513538012543 0 0 0 0 -8.2962246786613605 -37.487517458213006 0 -37.487517458213006 99.117929339976399 0 0 0 0 18.242658915378342 -22.097864097508136 0 -22.097864097508136 67.474788576435458 0 0 0 0 -7.0994288939077705 7.1333551407478808 0 7.1333551407478808 37.916008813605004 0 0 0 0 -25.363551262698365 -4.2595169652795448 0 -4.2595169652795448 70.144344488267961 0 0 0 0 -41.595534815299288 22.625173586235178 0 22.625173586235178 42.539988381366129 0 0 0 0 -37.521697183687138 16.79066283656357 0 16.79066283656357 43.413177547183295 0 0 0 0 -27.729522162187095 27.587619740996161 0 27.587619740996161 6.9436304100017878 0 0 0 0 -19.519114993387575 -6.0202408989653122 0 -6.0202408989653122 21.067292946925591 0 0 0 0 -0.29186791338720575 -0.26769710705530514 0 -0.26769710705530514 4.2486909437315115 0 0 0 0 -36.031327271557529 12.092113700098707 0 12.092113700098707 27.065744309897127 0 0 0 0 -3.5161743765011124 4.2272980961643043 0 4.2272980961643043 14.411881880900182 0 0 0 0 -35.626441552059475 17.406206114380211 0 17.406206114380211 60.573546947183786 0 0 0 0 -4.1940271747171209 0.18747909089870518 0 0.18747909089870518 68.087628047624094 0 0 0 0 -1.0375212816443691 -1.9057402538057029 0 -1.9057402538057029 30.170484067789161 0 0 0 0 -27.208532742974967 -8.030172336169926 0 -8.030172336169926 40.774613679648155 0 0 0 0 -24.285081430328773 4.5983260071207042 0 4.5983260071207042 69.714544576227127 0 0 0 0 -2.8810634941651534 -1.6938085452425611 0 -1.6938085452425611 21.449668063233986 0 0 0 0 -4.146254596491417 -0.80328529259713832 0 -0.80328529259713832 12.663548471537069 0 0 0 0 -7.0658134798213723 25.822293227596674 0 25.822293227596674 37.415077623552861 0 0 0 0 -0.93641177589472058 0.42169590989301753 0 0.42169590989301753 21.070496670454659 0 0 0 0 -1.5962169893011113 2.4811222940267967 0 2.4811222940267967 3.6856741291046689 0 0 0 0 14.106472650584692 31.946368246390193 0 31.946368246390193 26.490469060270698 0 0 0 0 5.1857609395065083 6.9742343899342814 0 6.9742343899342814 7.4528821807180066 0 0 0 0 1.482569966173739 -3.5251864837012952 0 -3.5251864837012952 11.551587539677513 0 0 0 0 -2.8584765820996836 4.2905622278631199 0 4.2905622278631199 13.628262046171585 0 0 0 0 1.2801759515902358 -1.0499401304151768 0 -1.0499401304151768 8.7127126467170797 0 0 0 0 3.1274524308582841 -1.2186398000412737 0 -1.2186398000412737 13.708514171639763 0 0 0 0 0.14039299581509113 -2.2221349863684736 0 -2.2221349863684736 10.884909267311741 0 0 0 0 -3.2388440161084873 -2.001820406090701 0 -2.001820406090701 8.8027104065367894 0 0 0 0 -2.6270747219709065 1.2449819198241414 0 1.2449819198241414 20.242614350683478 0 0 0 0 1.5727650852275428 -3.6382194129240872 0 -3.6382194129240872 12.450155831125585 0 0 0 0 -3.7872701017077919 -0.74842642679521987 0 -0.74842642679521987 14.097814569405358 0 0 0 0 0.90437915834490035 2.1665967673632096 0 2.1665967673632096 9.3211873309754054 0 0 0 0 2.9583778780279317 1.3915482355296263 0 1.3915482355296263 10.528007534392827 0 0 0 0 -0.88459172557850252 -1.1260796084388858 0 -1.1260796084388858 11.656913010825519 0 0 0 0 -1.7466541675924994 -2.9631962967482863 0 -2.9631962967482863 23.748656997160726 0 0 0 0 1.1640344099714639 -10.086454716402841 0 -10.086454716402841 20.463629877333005 0 0 0 0 2.5972055308880044 -7.8286392811623955 0 -7.8286392811623955 19.588258544186829 0 0 0 0 -0.84250475408589409 -15.245796775332565 0 -15.245796775332565 21.56989073051227 0 0 0 0 0.054898549542485853 -8.7679232660775597 0 -8.7679232660775597 24.535871772528481 0 0 0 0 0.01276145257523531 -10.55337694482094 0 -10.55337694482094 11.851832832513082 0 0 0 0 2.9951432816524175 -9.1781202490747091 0 -9.1781202490747091 12.220844704509545 0 0 0 0 -2.3419412830636297 -2.5196640592405117 0 -2.5196640592405117 15.01100923901277 0 0 0 0 -8.9416064986316997 -9.4075933906324281 0 -9.4075933906324281 30.716143536194522 0 0 0 0 -1.031399549011212 -5.7605561273255717 0 -5.7605561273255717 28.4579682607 0 0 0 0 -5.6771482262418633 -3.9391340899989444 0 -3.9391340899989444 23.582489619757084 0 0 0 0 -3.5897770841963785 -4.5694033622413901 0 -4.5694033622413901 33.72592491713587 0 0 0 0 -1.7425269846853704 -3.6860590768324695 0 -3.6860590768324695 6.9384396355336264 0 0 0 0 -45.406966154927431 -6.3281890833040961 0 -6.3281890833040961 42.242053408448555 0 0 0 0 -1.2166712789232816 -0.34867263760421996 0 -0.34867263760421996 35.989382041166884 0 0 0 0 -4.6516735625659749 1.4598510732002978 0 1.4598510732002978 40.606206972515793 0 0 0 0 -33.437132764119269 -19.493896281013349 0 -19.493896281013349 56.715585143639146 0 0 0 0 -4.0392240083118747 1.796892878915159 0 1.796892878915159 25.212056087387992 0 0 0 0 1.6049565485412929 -2.9935376277377963 0 -2.9935376277377963 28.562219040772817 0 0 0 0 0.46398539396042082 -3.1137782376022969 0 -3.1137782376022969 35.569166018493348 0 0 0 0 -7.649701738891963 3.7533707087386574 0 3.7533707087386574 38.881384610100213 0 0 0 0 -10.289767821759597 -8.7110526006672444 0 -8.7110526006672444 39.062522469161195 0 0 0 0 -3.6055524405937831 -28.281291708924073 0 -28.281291708924073 35.089133256260538 0 0 0 0 -6.6389188507391736 8.5972670691171516 0 8.5972670691171516 40.604117547794885 0 0 0 0 -3.1606821241903162 -21.820263566111862 0 -21.820263566111862 60.448493947216775 0 0 0 0 5.8321297281627267 -2.1561612851892278 0 -2.1561612851892278 53.577358934799122 0 0 0 0 -3.0289887501641317 9.9356126255113395 0 9.9356126255113395 24.09778718648522 0 0 0 0 11.697673439866776 17.878079556568991 0 17.878079556568991 60.749658235508832 0 0 0 0 11.105540887901952 -24.927697628976603 0 -24.927697628976603 41.19251162900764 0 0 0 0 4.8779248517714162 3.8922709841721215 0 3.8922709841721215 10.541099115125377 0 0 0 0 -1.3523108853862738 -1.0113787290179275 0 -1.0113787290179275 8.0241233246872952 0 0 0 0 -3.7902737104676589 1.8461127614034467 0 1.8461127614034467 -1.2894747397731408 0 0 0 0 -19.760331140567359 9.363780242336361 0 9.363780242336361 22.738433807775436 0 0 0 0 -12.525442354814004 24.953863120434107 0 24.953863120434107 -17.499125949314475 0 0 0 0 34.847033440114558 -78.868174464798358 0 -78.868174464798358 20.539059181941411 0 0 0 0 0.15758007343706026 2.3086162977160853 0 2.3086162977160853 2.2496775265878028 0 0 0 0 2.770297377755444 3.3426249212994534 0 3.3426249212994534 2.7889991662123066 0 0 0 0 -32.413963435577898 29.85195361602382 0 29.85195361602382 -10.377520075271605 0 0 0 0 45.525686900028631 -48.292768179788254 0 -48.292768179788254 69.267118428439062 0 0 0 0 -7.4280227566950998 -41.100588149199211 0 -41.100588149199211 62.749993723735315 0 0 0 0 -0.40384508900709903 -18.179391313058893 0 -18.179391313058893 -2.1681964097950139 0 0 0 0 -7.5534915945577268 -42.778407871159288 0 -42.778407871159288 87.874066519006192 0 0 0 0 10.922364687979725 -18.608522616947639 0 -18.608522616947639 2.7058249768804252 0 0 0 0 62.707963964617193 -35.664323905980837 0 -35.664323905980837 -0.62561935838641602 0 0 0 0 23.463454647447065 -23.292948437876476 0 -23.292948437876476 36.475644853357153 0 0 0 0 19.309460879278959 -23.406901158970868 0 -23.406901158970868 35.04918996406434 0 0 0 0 3.2978948101226706 -19.244255015579256 0 -19.244255015579256 38.913852091993249 0 0 0 0 2.2436817609811897 -21.416583382414501 0 -21.416583382414501 35.460321061702416 0 0 0 0 -13.03238833332216 -3.2407337982240279 0 -3.2407337982240279 15.931064682356464 0 0 0 0 -13.661133738817625 -44.976392516276974 0 -44.976392516276974 26.978796440767837 0 0 0 0 -4.5604958853218704 -47.841669601473768 0 -47.841669601473768 -3.2631770175175916 0 0 0 0 -13.02617687167367 -30.691483507825978 0 -30.691483507825978 26.939625668726876 0 0 0 0 0.60932506962308253 -13.437751109549026 0 -13.437751109549026 1.8250605986540904 0 0 0 0 7.1158453422485763 -17.840169616256389 0 -17.840169616256389 -27.133745479897698 0 0 0 0 -11.585586017449513 -18.92417788569913 0 -18.92417788569913 5.5189864622057128 0 0 0 0 -26.653466808546909 -16.195362960404054 0 -16.195362960404054 67.375502991004169 0 0 0 0 -23.388105913540016 -18.933145976560354 0 -18.933145976560354 55.105717607502811 0 0 0 0 -3.8816177392741338 -28.659602843777066 0 -28.659602843777066 56.882922791440251 0 0 0 0 -7.2434502393398361 -33.720123651954054 0 -33.720123651954054 51.788772568658089 0 0 0 0 -22.181895335419085 -16.835051272550118 0 -16.835051272550118 54.905461246868072 0 0 0 0 -13.49570503882569 -26.162263665078626 0 -26.162263665078626 63.202560032017573 0 0 0 0 -33.548828248601239 -21.555989644967212 0 -21.555989644967212 60.180215341710209 0 0 0 0 -56.184002657242672 12.383327418478075 0 12.383327418478075 38.01872651580743 0 0 0 0 -24.539178038447062 -12.086160134774218 0 -12.086160134774218 49.958496396564442 0 0 0 0 -41.258446934705717 -1.9526016450336101 0 -1.9526016450336101 60.747478815793329 0 0 0 0 -44.783343384581485 -9.0644087403547928 0 -9.0644087403547928 53.014888300913299 0 0 0 0 -10.961153619338802 -12.070168015545278 0 -12.070168015545278 60.840042806794372 0 0 0 0 -24.743365155326501 -11.627407007545116 0 -11.627407007545116 69.09225768812712 0 0 0 0 -8.9710759036961463 -3.7695823314379595 0 -3.7695823314379595 81.71320419633571 0 0 0 0 -17.42864756270842 -2.6945906540299802 0 -2.6945906540299802 92.862588143078028 0 0 0 0 -10.773757781341374 -26.700262093982019 0 -26.700262093982019 77.212819693731035 0 0 0 0 -12.943338851357112 -23.733165949253817 0 -23.733165949253817 73.636389640570997 0 0 0 0 -8.7286256052375393 -21.697970553686673 0 -21.697970553686673 89.222427196763419 0 0 0 0 -26.770017470817038 -24.1622619075697 0 -24.1622619075697 108.33933422825703 0 0 0 0 -13.794299453064014 9.7787580246949801 0 9.7787580246949801 134.04742126898509 0 0 0 0 -2.8024112792145388 33.419352849220559 0 33.419352849220559 110.34910436085374 0 0 0 0 -0.02658713107712174 32.595789028909167 0 32.595789028909167 99.271701108289562 0 0 0 0 -8.0235262246087586 -4.2123422043405299 0 -4.2123422043405299 113.60296049869385 0 0 0 0 2.0824772492116708 0.33138418667909519 0 0.33138418667909519 -1.5000147331396292 0 0 0 0 12.236838836726747 28.253236020363602 0 28.253236020363602 85.142895309762025 0 0 0 0 4.445276222633197 4.2178729833123043 0 4.2178729833123043 64.894908553509595 0 0 0 0 -26.693481276338389 -1.5849972446358152 0 -1.5849972446358152 77.507580556357425 0 0 0 0 -26.724690603313036 -0.3960695322086849 0 -0.3960695322086849 51.201621313321084 0 0 0 0 -42.747991391637697 3.3111783356052911 0 3.3111783356052911 49.509110324182984 0 0 0 0 -36.991096476230723 -3.2094285009661689 0 -3.2094285009661689 56.158055980196877 0 0 0 0 -40.488115446042684 11.435417804907047 0 11.435417804907047 58.545355591100815 0 0 0 0 -25.73552255269351 17.896879529996113 0 17.896879529996113 44.172460019540267 0 0 0 0 -44.16447143816049 37.367772312943998 0 37.367772312943998 65.457341479152092 0 0 0 0 -6.8253726118377926 45.633917605106944 0 45.633917605106944 66.660888975508442 0 0 0 0 -27.909059655851706 15.407213348097685 0 15.407213348097685 86.162379411583061 0 0 0 0 -19.128493448230074 29.201212013566874 0 29.201212013566874 46.543215497833444 0 0 0 0 -0.080605109681982867 8.3232968800457456 0 8.3232968800457456 31.877120965256381 0 0 0 0 -8.5832589864871807 7.4648235283293616 0 7.4648235283293616 34.633633879002446 0 0 0 0 -8.0384743343126956 7.8002713048790611 0 7.8002713048790611 27.787508407163841 0 0 0 0 -15.879309339458814 0.13283486078762508 0 0.13283486078762508 21.006861641563319 0 0 0 0 -20.587578957697698 -2.5996877285185498 0 -2.5996877285185498 6.039402873953474 0 0 0 0 -24.382147920151056 15.28207312577706 0 15.28207312577706 20.608752198371803 0 0 0 0 -23.467519233102394 -3.2078925163423264 0 -3.2078925163423264 33.84760644215612 0 0 0 0 -1.3987662606127351 0.74310393274158315 0 0.74310393274158315 2.1402206852757786 0 0 0 0 -0.4453642951555139 39.911769260899746 0 39.911769260899746 -10.97893843042948 0 0 0 0 3.7940425481651801 15.995443867614085 0 15.995443867614085 50.640683941936004 0 0 0 0 15.512035635408665 -14.678510311571699 0 -14.678510311571699 50.373973025547457 0 0 0 0 -20.876573097989422 -0.043355714387871558 0 -0.043355714387871558 46.222965423497953 0 0 0 0 1.9631563096727405 -0.3189102509568329 0 -0.3189102509568329 25.327056221934981 0 0 0 0 0.60482167061400105 16.220830614732904 0 16.220830614732904 28.106420594303927 0 0 0 0 3.3585396800076524 6.6062747806954576 0 6.6062747806954576 31.568344614192029 0 0 0 0 -6.4036630404007155 2.4957225526577531 0 2.4957225526577531 50.072307763894059 0 0 0 0 -7.6053649908280931 6.1128344260341692 0 6.1128344260341692 67.803306624333345 0 0 0 0 -1.8609814100044606 1.9813272711124141 0 1.9813272711124141 36.224578268207409 0 0 0 0 -17.828336591781863 -8.3437021239005844 0 -8.3437021239005844 51.69382452183163 0 0 0 0 -2.7678804686252079 -3.7929291947639285 0 -3.7929291947639285 38.557030849416151 0 0 0 0 -0.99661676785515851 -1.638971303861581 0 -1.638971303861581 37.866782073047943 0 0 0 0 -3.1955682831051408 -0.65691787129570045 0 -0.65691787129570045 24.561217035271184 0 0 0 0 -0.40939055512013045 -2.9128913695689462 0 -2.9128913695689462 32.752499422858421 0 0 0 0 -36.574645884501933 -5.1920549745163953 0 -5.1920549745163953 34.044579281257029 0 0 0 0 -54.147467829997368 -16.46034346867782 0 -16.46034346867782 58.793225426881691 0 0 0 0 -4.0651830916778291 -0.27482081196530928 0 -0.27482081196530928 9.3382860622623838 0 0 0 0 -59.959695255756742 16.574456013811869 0 16.574456013811869 33.868506618748143 0 0 0 0 -44.766622088190616 0.69300485228905018 0 0.69300485228905018 47.68926428647319 0 0 0 0 -40.355665274421995 10.307124433969875 0 10.307124433969875 33.751883260480099 0 0 0 0 -45.771241125919005 0.11486711716133868 0 0.11486711716133868 47.430118650486293 0 0 0 0 -36.438451069501298 1.5341802251277841 0 1.5341802251277841 22.676176858780309 0 0 0 0 -0.51224581197242824 1.9796304142671599 0 1.9796304142671599 41.980331819427001 0 0 0 0 -38.474078735208309 41.416216615951271 0 41.416216615951271 17.136803849811258 0 0 0 0 0.599638047363106 -2.3029363779370442 0 -2.3029363779370442 4.9081573892244847 0 0 0 0 -7.1087584924202361 18.508953115398526 0 18.508953115398526 53.519882248470822 0 0 0 0 -13.504722219324776 -32.657732677222157 0 -32.657732677222157 73.307969996065367 0 0 0 0 -22.896320351919485 3.9062951346022601 0 3.9062951346022601 40.689003575358583 0 0 0 0 -1.5112293066172846 1.6341450920301952 0 1.6341450920301952 38.970260678232854 0 0 0 0 13.756372379978529 26.635013746534241 0 26.635013746534241 -6.434041049778898 0 0 0 0 11.758577639907799 19.835650171566158 0 19.835650171566158 -28.776645150710465 0 0 0 0 20.388992497384493 -4.279601789303797 0 -4.279601789303797 26.611210984734498 0 0 0 0 -23.09417055601557 14.699474248066508 0 14.699474248066508 66.579117122328171 0 0 0 0 -0.74979965103830182 -19.778714130563458 0 -19.778714130563458 48.474833215088438 0 0 0 0 33.798285200577538 -6.2477818054021554 0 -6.2477818054021554 11.280191662328434 0 0 0 0 -30.33835357759358 -4.3601849343713184 0 -4.3601849343713184 16.916974320352892 0 0 0 0 -1.8318421033555479 1.9348890940028074 0 1.9348890940028074 35.065062992154935 0 0 0 0 -3.4812270110987811 22.742024394226974 0 22.742024394226974 29.18567292044645 0 0 0 0 22.09381643395318 -21.111778196085652 0 -21.111778196085652 -5.284289381281269 0 0 0 0 -0.3915631621981337 0.18073007901028149 0 0.18073007901028149 0.88440675082424036 0 0 0 0 -9.1124318607287478 -39.484897205581547 0 -39.484897205581547 17.223787140406785 0 0 0 0 4.1470031506212308 21.788353578852366 0 21.788353578852366 58.066220233296917 0 0 0 0 -29.899956990025657 15.3015170061135 0 15.3015170061135 219.06042536205496 0 0 0 0 33.01840964177336 23.366282056686032 0 23.366282056686032 14.854847351329227 0 0 0 0 -2.4358127682827302 2.7861571236654941 0 2.7861571236654941 33.68104380226724 0 0 0 0 -30.414565228492336 5.271671684382909 0 5.271671684382909 42.680684718405246 0 0 0 0 17.916296504099591 29.079459613210929 0 29.079459613210929 -40.062033183814492 0 0 0 0 -4.5068320404953965 -3.8335791906547456 0 -3.8335791906547456 -4.7237843898146821 0 0 0 0 -0.81941409296859113 -0.080339217573815347 0 -0.080339217573815347 1.6959065190608555 0 0 0 0 -0.53267098142826441 2.1556926466515023 0 2.1556926466515023 10.022140238541169 0 0 0 0 20.273022299513741 13.578787064096105 0 13.578787064096105 36.929986878985801 0 0 0 0 -9.7911191931582948 3.4415518876835449 0 3.4415518876835449 34.607221566906446 0 0 0 0 -3.5037170254990357 -0.51034092513276885 0 -0.51034092513276885 34.940299298114809 0 0 0 0 -51.953681379923637 -49.977647217241611 0 -49.977647217241611 155.79222457206924 0 0 0 0 73.934229315478206 45.345861808576956 0 45.345861808576956 -18.33286903732369 0 0 0 0 -3.4856713003141522 6.6785874346232958 0 6.6785874346232958 35.892646666458859 0 0 0 0 -5.1027268466616231 -6.3471809613783314 0 -6.3471809613783314 14.166877594449645 0 0 0 0 3.0030657261604574 15.88528156022403 0 15.88528156022403 59.40668533144617 0 0 0 0 11.563559868816128 5.3217914387114433 0 5.3217914387114433 53.469143449673993 0 0 0 0 3.0803153163900561 16.412941868176858 0 16.412941868176858 39.298600513146084 0 0 0 0 16.424358315604593 16.260028179889559 0 16.260028179889559 29.322511561085776 0 0 0 0 9.2609264745008204 10.278088003864468 0 10.278088003864468 36.904222862171082 0 0 0 0 21.312403270720182 7.9331492331466507 0 7.9331492331466507 35.090377286976945 0 0 0 0 21.008620865192029 4.6433205850571539 0 4.6433205850571539 38.091929178269311 0 0 0 0 -0.92598579808488957 -7.9429282621956103 0 -7.9429282621956103 34.08965081933097 0 0 0 0 -11.835477886023455 -6.581881218293347 0 -6.581881218293347 14.591960657677191 0 0 0 0 -40.506899709776285 -6.3456865406287761 0 -6.3456865406287761 47.510758590346086 0 0 0 0 -11.023111715689552 0.74322567928795991 0 0.74322567928795991 20.887425076256459 0 0 0 0 6.9322277504536487 -5.8795638366009371 0 -5.8795638366009371 52.990174192673294 0 0 0 0 -5.317056545162071 2.4997737881197697 0 2.4997737881197697 30.590735179361474 0 0 0 0 -2.3134137033182327 11.543461028985178 0 11.543461028985178 36.1142800675131 0 0 0 0 -2.3387037720147736 -1.3993211766031113 0 -1.3993211766031113 29.360713285378253 0 0 0 0 -11.655077914547007 16.453343399087316 0 16.453343399087316 32.697810519392078 0 0 0 0 -0.65154014606522503 -5.4451932711201803 0 -5.4451932711201803 30.442886292271552 0 0 0 0 -27.861427637016448 17.758697685271272 0 17.758697685271272 86.375446888174338 0 0 0 0 -5.1206429839196828 6.8947331595328052 0 6.8947331595328052 3.0213788112813447 0 0 0 0 -3.6949886395032774 1.8416150698458935 0 1.8416150698458935 7.2632966695878878 0 0 0 0 -0.78437879726402571 24.149839549707849 0 24.149839549707849 43.275393663054274 0 0 0 0 13.913734870724511 -0.62341372619266622 0 -0.62341372619266622 44.291511193279121 0 0 0 0 -28.739654262368731 -1.7465430413603826 0 -1.7465430413603826 51.147746638381705 0 0 0 0 -33.596035554666457 -5.1511549996705526 0 -5.1511549996705526 51.574228313089407 0 0 0 0 -28.981744241347201 -3.528362674026539 0 -3.528362674026539 52.095229344937252 0 0 0 0 -22.484150305429011 -4.389302801199392 0 -4.389302801199392 32.832189124987053 0 0 0 0 -15.095211267602565 -3.8511326871828437 0 -3.8511326871828437 5.6681349417133671 0 0 0 0 -17.995516861565648 7.3041886361825163 0 7.3041886361825163 51.519336727572068 0 0 0 0 -20.174312047308206 7.5333020959069472 0 7.5333020959069472 57.824079894253373 0 0 0 0 -10.180751505827438 -5.9522372279829021 0 -5.9522372279829021 5.6518926876177762 0 0 0 0 -3.5940923173675401 7.4272234164416204 0 7.4272234164416204 31.356013148371858 0 0 0 0 -10.072968092251699 17.942438897637658 0 17.942438897637658 64.567210770588645 0 0 0 0 2.4472351164155128 11.745470465948756 0 11.745470465948756 49.386064808551964 0 0 0 0 -6.3279577817047539 6.7645741453825394 0 6.7645741453825394 49.376973216340048 0 0 0 0 -18.662644047182539 10.713190480061712 0 10.713190480061712 51.591865501868597 0 0 0 0 -6.5071141332711022 9.9356914274403607 0 9.9356914274403607 49.746549530744232 0 0 0 0 -9.9659181890549462 10.714009597470977 0 10.714009597470977 35.918396793603279 0 0 0 0 -2.7512173361265013 20.52174713860768 0 20.52174713860768 30.424561047835596 0 0 0 0 -14.889208396523941 18.728443222952592 0 18.728443222952592 41.665630430754391 0 0 0 0 -21.258640134559187 5.9692979822846155 0 5.9692979822846155 43.031653683477998 0 0 0 0 -42.426863874436322 -6.9569062049558852 0 -6.9569062049558852 35.221572959275363 0 0 0 0 -45.200499013071294 10.982902692980133 0 10.982902692980133 42.30846872031816 0 0 0 0 -32.268868009313067 -4.5121297385660455 0 -4.5121297385660455 47.2885543730481 0 0 0 0 -33.657723253642871 6.9818615254189353 0 6.9818615254189353 51.79753117286964 0 0 0 0 -30.54359094876736 -0.17975559718706791 0 -0.17975559718706791 50.290357884163313 0 0 0 0 -37.909410156381739 -13.76387178902155 0 -13.76387178902155 40.794060708576581 0 0 0 0 -40.202714878473216 0.75706227262890025 0 0.75706227262890025 43.793898025709495 0 0 0 0 -25.218664542144779 -8.4319900766868159 0 -8.4319900766868159 30.100823030099491 0 0 0 0 -12.198565240058315 -10.311385459316625 0 -10.311385459316625 34.236467517966958 0 0 0 0 -21.816626889600116 -16.073549190262838 0 -16.073549190262838 31.231030033561183 0 0 0 0 -14.403904895143 -10.196568891484731 0 -10.196568891484731 38.383218478267736 0 0 0 0 -15.718272614990383 -12.710434962868931 0 -12.710434962868931 35.20135105916961 0 0 0 0 -26.34946601293052 -7.6775220213066859 0 -7.6775220213066859 45.624071386806463 0 0 0 0 -25.659609964645142 -6.6753742034534298 0 -6.6753742034534298 44.533747276371287 0 0 0 0 -13.873656033069437 -1.8666365896642674 0 -1.8666365896642674 48.321184703798281 0 0 0 0 -27.604218284531271 -5.9629284836464649 0 -5.9629284836464649 53.962599898933149 0 0 0 0 -14.43846105561488 -6.7504180098849247 0 -6.7504180098849247 40.258138009539834 0 0 0 0 -17.773719123014644 -9.6377852139585229 0 -9.6377852139585229 47.601763833121367 0 0 0 0 -16.466565310538954 -16.33753399091438 0 -16.33753399091438 58.199460830195676 0 0 0 0 -2.9074772111516722 -1.5589554748803494 0 -1.5589554748803494 51.422581535800418 0 0 0 0 -0.0044027202106917684 -29.821673492595437 0 -29.821673492595437 61.562056085124823 0 0 0 0 -15.644132280361305 -8.2300838882704284 0 -8.2300838882704284 72.317046589756501 0 0 0 0 -20.464314767605174 3.0418528552536372 0 3.0418528552536372 59.692526279814047 0 0 0 0 -9.6430449582130677 -6.3441725305547152 0 -6.3441725305547152 24.495673190544949 0 0 0 0 -18.077006769578702 13.774414972891464 0 13.774414972891464 4.3540731647426583 0 0 0 0 -1.1092317054708913 1.1867988507145348 0 1.1867988507145348 -0.89182925326030826 0 0 0 0 -12.376293849157751 -0.23762959614609258 0 -0.23762959614609258 3.6215702208493159 0 0 0 0 7.6245476997792139 -11.680060215543563 0 -11.680060215543563 28.13718077053818 0 0 0 0 -22.698363107819205 10.522309726038657 0 10.522309726038657 12.236445750286293 0 0 0 0 -28.450361789599356 -3.8641893219692065 0 -3.8641893219692065 48.985072720101016 0 0 0 0 -47.129286434512323 -11.773019486552585 0 -11.773019486552585 40.576589112808733 0 0 0 0 -29.136976789298842 -12.056924568449176 0 -12.056924568449176 40.551384117406087 0 0 0 0 -13.17806337071147 -2.4848994511630735 0 -2.4848994511630735 51.818220677840145 0 0 0 0 -28.704646186741229 -5.2376261728113604 0 -5.2376261728113604 55.492236073328968 0 0 0 0 -25.026509720310059 -4.6119478333503139 0 -4.6119478333503139 22.597706215466246 0 0 0 0 -7.0327334608157326 -5.3531580752299135 0 -5.3531580752299135 17.148341167517497 0 0 0 0 -4.2310031346710471 -3.3987423210033398 0 -3.3987423210033398 18.82240152784172 0 0 0 0 -16.226738599481092 -8.8024527281292588 0 -8.8024527281292588 9.0581686118589051 0 0 0 0 -14.499698606197196 0.26195529145442009 0 0.26195529145442009 11.962047757857331 0 0 0 0 -18.565200914867091 -5.5214737740088822 0 -5.5214737740088822 23.678753244623294 0 0 0 0 -17.353664384230797 2.4133370654512873 0 2.4133370654512873 38.011256562398557 0 0 0 0 -4.3410360675621043 -4.1244793734504848 0 -4.1244793734504848 41.548064279321309 0 0 0 0 -21.564044358218325 -10.854581338869139 0 -10.854581338869139 48.548290659611666 0 0 0 0 -55.542820204812756 -41.371412930244247 0 -41.371412930244247 74.027519836329361 0 0 0 0 -17.764689422184347 -11.47782119702606 0 -11.47782119702606 45.652844027314131 0 0 0 0 39.461197487162849 -62.22304415056135 0 -62.22304415056135 40.788102559892536 0 0 0 0 -19.494102496372989 -9.5888247892048639 0 -9.5888247892048639 12.665032466531045 0 0 0 0 -43.498356605228992 -9.5405735988821903 0 -9.5405735988821903 31.871625288779057 0 0 0 0 -51.460092219740318 -36.595361905642307 0 -36.595361905642307 151.21333139250578 0 0 0 0 83.349187115565201 2.3949584096911849 0 2.3949584096911849 -37.407969015814786 0 0 0 0 -1.0410648842468395 -3.432854669509807 0 -3.432854669509807 41.617935443024088 0 0 0 0 -39.060508968846079 29.392840590383372 0 29.392840590383372 84.899306052481265 0 0 0 0 -11.389805017978915 -8.8652444503723018 0 -8.8652444503723018 35.237119260799773 0 0 0 0 -1.3884446308835061 2.7761570732150735 0 2.7761570732150735 8.5999223168932275 0 0 0 0 -45.535044251948023 -110.61459348684463 0 -110.61459348684463 -60.297403427915185 0 0 0 0 -24.426372858411312 -26.95408276493129 0 -26.95408276493129 -27.321600679411915 0 0 0 0 -86.09210836668899 -1.3530543060147124 0 -1.3530543060147124 -24.600310114922685 0 0 0 0 1.9565906728884341 -3.7302648766093225 0 -3.7302648766093225 6.0311000890001276 0 0 0 0 -26.054182289850814 -62.245983434669327 0 -62.245983434669327 -44.478881517661478 0 0 0 0 23.240769613701559 -54.354680876246789 0 -54.354680876246789 -49.121204172980413 0 0 0 0 44.548021923922761 62.954267520136113 0 62.954267520136113 81.147759238065191 0 0 0 0 12.662882421800532 16.426855329563523 0 16.426855329563523 37.672985255379444 0 0 0 0 -1.165772776461349 -2.7396565404245674 0 -2.7396565404245674 17.157163109997036 0 0 0 0 -79.385107557723586 -30.461036078939685 0 -30.461036078939685 66.719674314221265 0 0 0 0 -68.954909516398402 -46.724956557761459 0 -46.724956557761459 39.638751884087014 0 0 0 0 -20.923737529314167 36.501001629672373 0 36.501001629672373 50.270391907115481 0 0 0 0 -41.325881155938987 0.67975194319342336 0 0.67975194319342336 54.678509018858335 0 0 0 0 -32.106431868799064 26.208886732806377 0 26.208886732806377 97.12190629070551 0 0 0 0 46.548557359128949 -100.77929616589986 0 -100.77929616589986 37.567101855860983 0 0 0 0 -68.34119239594952 -7.0213298599345535 0 -7.0213298599345535 58.665500326282199 0 0 0 0 -49.522390431187887 -47.982557914848144 0 -47.982557914848144 145.13512620159497 0 0 0 0 -35.019993950643766 -25.012821165011701 0 -25.012821165011701 79.092875857773834 0 0 0 0 -39.653468102676925 12.102144049184972 0 12.102144049184972 54.111348645095859 0 0 0 0 -23.563339672137772 -13.130435361004857 0 -13.130435361004857 108.82083249727293 0 0 0 0 -24.519684963865075 -16.249119589707334 0 -16.249119589707334 98.704211414842575 0 0 0 0 -16.202844307310443 -11.927741300067282 0 -11.927741300067282 87.922999387330492 0 0 0 0 -28.538838341382871 -31.353811950088129 0 -31.353811950088129 92.238124502660867 0 0 0 0 -1.6598385434627927 1.5846262564711253 0 1.5846262564711253 53.140299613356291 0 0 0 0 -53.818585129642088 -2.0971147059699433 0 -2.0971147059699433 78.788410225803091 0 0 0 0 -45.351247096530642 -21.842525694451979 0 -21.842525694451979 88.000380048972147 0 0 0 0 -0.36819659853790654 -17.25055752591652 0 -17.25055752591652 57.726740530666575 0 0 0 0 -31.211720683470958 -16.230561967808171 0 -16.230561967808171 88.086544475816481 0 0 0 0 -14.370539487724272 -15.700282373674781 0 -15.700282373674781 81.892005753163176 0 0 0 0 -16.742810021165408 -5.1607915544282541 0 -5.1607915544282541 7.233942774391533 0 0 0 0 -14.128503864827508 -35.100008597415581 0 -35.100008597415581 65.796078381572443 0 0 0 0 -14.218515938664495 -22.914152916315288 0 -22.914152916315288 36.15522877875992 0 0 0 0 0.3189520506603003 -15.963379900727887 0 -15.963379900727887 0.40293894493515836 0 0 0 0 4.9402111180324937 -34.332434780406402 0 -34.332434780406402 49.518511429771024 0 0 0 0 -6.2982540297490459 -21.983978825674626 0 -21.983978825674626 53.413311427320878 0 0 0 0 -5.438178806468045 -39.916668204614439 0 -39.916668204614439 46.927840620890493 0 0 0 0 13.609750398064534 -14.504351911243248 0 -14.504351911243248 56.057554177124985 0 0 0 0 -9.3510349407661124 -32.115794804893085 0 -32.115794804893085 38.681244135563247 0 0 0 0 -5.0951699013811123 -11.679665843732597 0 -11.679665843732597 17.77565633000912 0 0 0 0 -10.717958970355539 -2.1096481144304562 0 -2.1096481144304562 60.741761385743303 0 0 0 0 -9.044578735189134 -8.4032290539089445 0 -8.4032290539089445 10.684261587146466 0 0 0 0 -19.265899742695183 -4.6259160230310954 0 -4.6259160230310954 24.228085724906123 0 0 0 0 -14.474926595552336 -7.0473815004958524 0 -7.0473815004958524 38.051022019047899 0 0 0 0 -8.9381065731853937 -8.62707781455922 0 -8.62707781455922 33.98854052352047 0 0 0 0 -20.122557638864237 -12.386574469637708 0 -12.386574469637708 -4.0308154091690085 0 0 0 0 -22.666362682215549 -8.2591019124974991 0 -8.2591019124974991 -0.64505562956765061 0 0 0 0 -12.207528465787735 -6.2341492132597516 0 -6.2341492132597516 12.277287598382891 0 0 0 0 -9.8542523816396397 -18.657126165983044 0 -18.657126165983044 14.759287685441286 0 0 0 0 -19.960707320296933 -0.15538850904795254 0 -0.15538850904795254 14.70129974489646 0 0 0 0 -11.235571016455651 -14.244005953245505 0 -14.244005953245505 23.433593679726982 0 0 0 0 -7.6792531409309959 -9.4138049687385319 0 -9.4138049687385319 29.975833101914759 0 0 0 0 -12.093586414335732 -1.8112261668461542 0 -1.8112261668461542 9.8936912969311379 0 0 0 0 -4.9798249812993163 -13.616903786236435 0 -13.616903786236435 24.916778928640269 0 0 0 0 0.67606254215352735 -4.1683176658807355 0 -4.1683176658807355 -1.6951735812230133 0 0 0 0 -11.471739704953507 -26.782762784283477 0 -26.782762784283477 7.3395769316193764 0 0 0 0 42.54234182939399 22.411174701235723 0 22.411174701235723 -170.49314374874666 0 0 0 0 6.0717773544747615 -24.898857947262513 0 -24.898857947262513 35.777557376208279 0 0 0 0 -3.3103774423216237 -18.892784709856642 0 -18.892784709856642 37.321341088412737 0 0 0 0 -16.094836586981728 -3.8695549817845176 0 -3.8695549817845176 37.412353385845563 0 0 0 0 -3.6618177768676787 24.257654275537021 0 24.257654275537021 35.294211422381068 0 0 0 0 -4.0957415608698913 0.13963962947762099 0 0.13963962947762099 1.754114886967435 0 0 0 0 -7.8397858093221657 5.9166537093863099 0 5.9166537093863099 -1.0696026394391538 0 0 0 0 -21.204020332006142 -2.6535711442540215 0 -2.6535711442540215 5.3382810469848501 0 0 0 0 -25.713249058828751 9.9652198115245483 0 9.9652198115245483 48.273244929011526 0 0 0 0 -41.689603713112774 3.146968288372932 0 3.146968288372932 47.626292241207466 0 0 0 0 -36.482872707070783 -1.2700028296302435 0 -1.2700028296302435 39.434841644738754 0 0 0 0 -6.2884369806542963 -13.930683605359491 0 -13.930683605359491 21.154514745262418 0 0 0 0 -27.240030783934344 -8.2000711413684257 0 -8.2000711413684257 43.498017763900862 0 0 0 0 -48.32820547199799 -9.2226943846211498 0 -9.2226943846211498 44.619561114155204 0 0 0 0 -23.820796279158458 -13.505565296229179 0 -13.505565296229179 24.675325780988715 0 0 0 0 -19.682659423945097 -0.52794161216434077 0 -0.52794161216434077 21.082308488577837 0 0 0 0 -15.200335959564477 -6.2317734862419005 0 -6.2317734862419005 30.623494403152087 0 0 0 0 -10.452808586410466 -12.639881209795359 0 -12.639881209795359 25.111949912298765 0 0 0 0 -5.1007321242213948 -9.6417550081023364 0 -9.6417550081023364 15.543210000007093 0 0 0 0 -13.484032709400573 -14.506960303364774 0 -14.506960303364774 24.890255003775199 0 0 0 0 -11.983720613692675 -8.6518926458106762 0 -8.6518926458106762 19.967069135535592 0 0 0 0 -13.805736473023579 -4.6353243319611526 0 -4.6353243319611526 9.5568729027070063 0 0 0 0 -13.124296431583389 -7.2205764393163463 0 -7.2205764393163463 17.877848494263162 0 0 0 0 -9.5844895411188489 -9.9275343196308459 0 -9.9275343196308459 14.799456660513769 0 0 0 0 -31.749130679987502 -4.5765433986243806 0 -4.5765433986243806 15.307630224364402 0 0 0 0 -15.887352598874713 -12.85068672769512 0 -12.85068672769512 17.707049821372379 0 0 0 0 -26.111177445977773 -8.7951131368796496 0 -8.7951131368796496 20.886958443098138 0 0 0 0 -16.613844542456263 -6.9016776042674337 0 -6.9016776042674337 18.71635331421453 0 0 0 0 -14.868582119366692 -18.370555057074398 0 -18.370555057074398 23.385974309427183 0 0 0 0 -13.983678233920728 -10.018398614957221 0 -10.018398614957221 17.520601172835811 0 0 0 0 -5.8892617945904187 -7.8582876584623769 0 -7.8582876584623769 17.710798278771584 0 0 0 0 -29.08967428255346 -5.7045242149868045 0 -5.7045242149868045 26.663720401696992 0 0 0 0 -4.9915369676455157 -7.3798497533398404 0 -7.3798497533398404 16.166554573517715 0 0 0 0 -1.0565842787109432 -21.576089931466413 0 -21.576089931466413 22.207854000931547 0 0 0 0 -10.495695943424835 -9.7504014035143882 0 -9.7504014035143882 33.085038548848388 0 0 0 0 -0.67293823161526234 -18.680153023280582 0 -18.680153023280582 32.789046706189765 0 0 0 0 -20.091553113044029 -4.6175821573212161 0 -4.6175821573212161 27.009376937754666 0 0 0 0 -16.520920974890942 -9.5197590396826541 0 -9.5197590396826541 20.958805318255472 0 0 0 0 -6.7261209171796548 -8.7680538687553273 0 -8.7680538687553273 22.533002328802723 0 0 0 0 -7.0901614828399033 -7.4905860350081639 0 -7.4905860350081639 46.414772796804755 0 0 0 0 11.847456868268637 -18.06151615341787 0 -18.06151615341787 40.956628834546791 0 0 0 0 17.853409124459631 -18.655971883361474 0 -18.655971883361474 41.315010211743356 0 0 0 0 13.735676851130847 -17.148625493402506 0 -17.148625493402506 40.91611886595274 0 0 0 0 18.800288170813246 -2.8059165607852492 0 -2.8059165607852492 47.209840916297253 0 0 0 0 -37.454433473732934 -7.2711111617127244 0 -7.2711111617127244 82.207868801457153 0 0 0 0 -79.770188302398765 -426.02606387224773 0 -426.02606387224773 219.1952757627696 0 0 0 0 13.864449348675407 37.383117594135911 0 37.383117594135911 120.80026775007354 0 0 0 0 73.236063550284598 1.3902625330356386 0 1.3902625330356386 38.591049479691719 0 0 0 0 39.406244727484591 -6.4626464305820264 0 -6.4626464305820264 47.903348094228932 0 0 0 0 18.483075451069453 -30.478742269915529 0 -30.478742269915529 47.680629440714256 0 0 0 0 56.346586676743755 -24.427189715297573 0 -24.427189715297573 37.176882268831832 0 0 0 0 21.403465180279454 -32.000838065730932 0 -32.000838065730932 38.578275550649778 0 0 0 0 2.3835052006470505 -24.430467454827522 0 -24.430467454827522 45.861152425142791 0 0 0 0 12.366970814324304 -19.809396040458523 0 -19.809396040458523 34.815481783029099 0 0 0 0 16.79066879513266 -26.611183446864743 0 -26.611183446864743 39.367275142882136 0 0 0 0 6.2315721761369787 -28.011352565689776 0 -28.011352565689776 42.299200330016902 0 0 0 0 16.455741966801725 -29.004605984850969 0 -29.004605984850969 35.832933794434211 0 0 0 0 8.3931543270591646 -27.405356197601577 0 -27.405356197601577 37.551178777714085 0 0 0 0 7.4733605437722872 -30.649993070701385 0 -30.649993070701385 31.998170754088733 0 0 0 0 4.4957232662036404 -23.553091889537654 0 -23.553091889537654 34.124557886010734 0 0 0 0 2.3782802736359514 -22.108088608407314 0 -22.108088608407314 30.431688969640163 0 0 0 0 -4.6780667880375404 -25.749652216894901 0 -25.749652216894901 39.10112105711778 0 0 0 0 -6.2988714118182543 -14.138376985078139 0 -14.138376985078139 24.139389306359135 0 0 0 0 -9.1480835581874089 -22.759415409795793 0 -22.759415409795793 31.151573359778922 0 0 0 0 9.0796453068687697 -31.661610260922316 0 -31.661610260922316 30.332629627501774 0 0 0 0 5.4470186367252609 -24.747890261646717 0 -24.747890261646717 25.781424505989889 0 0 0 0 4.9799833065080747 -31.92661357528732 0 -31.92661357528732 39.074781819314012 0 0 0 0 3.6885673413380573 -36.792542137655346 0 -36.792542137655346 46.480964533900988 0 0 0 0 7.2895968125849322 -33.659756815987748 0 -33.659756815987748 35.671738055394599 0 0 0 0 1.314196411809462 -29.271941094646081 0 -29.271941094646081 35.107150845566139 0 0 0 0 4.6243702181345725 -32.65417657692069 0 -32.65417657692069 34.947864162317273 0 0 0 0 3.4487683872503112 -29.102416500409163 0 -29.102416500409163 37.039233474070443 0 0 0 0 5.1443711139127117 -31.012413608400493 0 -31.012413608400493 39.185325705435389 0 0 0 0 -0.74296635370046715 -31.030140946288157 0 -31.030140946288157 39.192866163637859 0 0 0 0 -7.3039977348489629 -24.222202506111898 0 -24.222202506111898 41.298446117059939 0 0 0 0 -0.50232174105030936 -29.587906859691429 0 -29.587906859691429 45.320612618244922 0 0 0 0 5.0500741439755075 -24.994740478704671 0 -24.994740478704671 41.250275245332887 0 0 0 0 -5.5112588480333216 -19.499503757517232 0 -19.499503757517232 40.982037216999942 0 0 0 0 -14.646188238180002 -26.2233503815944 0 -26.2233503815944 53.066043753544363 0 0 0 0 -9.5906874179418082 -26.297520689142402 0 -26.297520689142402 45.584679180821013 0 0 0 0 -16.789389087146446 -20.76094982406039 0 -20.76094982406039 48.477130568870052 0 0 0 0 -8.7461637279484421 -25.028255319823529 0 -25.028255319823529 45.02147111857812 0 0 0 0 -4.8239414084237069 -31.137125546938478 0 -31.137125546938478 48.250512640973511 0 0 0 0 -4.4191751380058122 -29.641880114077139 0 -29.641880114077139 47.349292189866901 0 0 0 0 -12.222526656569244 -23.155716761377334 0 -23.155716761377334 66.990000531236547 0 0 0 0 -11.191256285386771 -21.15469673901589 0 -21.15469673901589 43.291505973558742 0 0 0 0 -1.6650027287651028 -22.310735476411537 0 -22.310735476411537 59.680497077613836 0 0 0 0 -2.9583487580021028 -25.592188204770537 0 -25.592188204770537 103.7582662145287 0 0 0 0 3.9577608209185655 -33.07594257308773 0 -33.07594257308773 59.054598765975243 0 0 0 0 3.3453815913526341 -39.135701743305617 0 -39.135701743305617 55.994432401921586 0 0 0 0 16.137190025627206 -39.93732785452994 0 -39.93732785452994 42.066680926057415 0 0 0 0 11.968296028822806 -37.203145931232939 0 -37.203145931232939 53.852757044973259 0 0 0 0 19.885410538336146 -37.84622050672715 0 -37.84622050672715 53.804807398482808 0 0 0 0 7.308939901588019 -27.516579946701313 0 -27.516579946701313 81.510233478182954 0 0 0 0 10.969331826931011 -49.438107011587363 0 -49.438107011587363 132.6877500030314 0 0 0 0 10.135375501886301 -45.998254244990676 0 -45.998254244990676 78.626279834012166 0 0 0 0 0.90982885675975211 0.43020249861996973 0 0.43020249861996973 -0.34412307310016566 0 0 0 0 -8.4902686789755535 -2.2616913452980043 0 -2.2616913452980043 141.03080715299802 0 0 0 0 -14.34437312308728 -20.05146143073398 0 -20.05146143073398 -47.663792148197899 0 0 0 0 6.5995742467239324 -30.182175217976692 0 -30.182175217976692 -49.055362089572213 0 0 0 0 -1.7512087666964362 15.295500672906655 0 15.295500672906655 65.672169581092021 0 0 0 0 -2.6624912465995294 15.367657026379675 0 15.367657026379675 91.385383199693024 0 0 0 0 -17.65993117356993 -13.799176288900071 0 -13.799176288900071 26.42864454282153 0 0 0 0 -5.5210189554782119 -14.26761635337607 0 -14.26761635337607 9.4176981596956466 0 0 0 0 -2.0348713036969315 -3.7283844664732708 0 -3.7283844664732708 0.55175953724788052 0 0 0 0 -2.5690329569624737 0.77206730615034758 0 0.77206730615034758 17.115144975031399 0 0 0 0 -16.141760702652391 -4.3919879683271574 0 -4.3919879683271574 48.274584502003563 0 0 0 0 -11.381419860809366 -8.1365223773819118 0 -8.1365223773819118 19.81200427050301 0 0 0 0 -24.106523684473359 -22.715186789593645 0 -22.715186789593645 42.195341419689839 0 0 0 0 20.091466572708669 -46.917656978596824 0 -46.917656978596824 -56.553161312489465 0 0 0 0 -16.824316117141279 0.96408769972094888 0 0.96408769972094888 52.345918391783016 0 0 0 0 -8.3264058892308057 -1.3624980026897333 0 -1.3624980026897333 48.692574286630474 0 0 0 0 -34.30306194636978 31.732392918785763 0 31.732392918785763 48.383099171855065 0 0 0 0 -2.3909821432340976 -1.6617454367444848 0 -1.6617454367444848 4.7967417115260567 0 0 0 0 -42.602422769388795 -29.814635052384801 0 -29.814635052384801 40.594922843050881 0 0 0 0 12.477387989260023 -0.66858150256121007 0 -0.66858150256121007 21.093865245211418 0 0 0 0 -2.7658938900758585 -1.4932640237053043 0 -1.4932640237053043 10.437220443281614 0 0 0 0 11.041165001865011 -17.852409288821036 0 -17.852409288821036 21.523903827132017 0 0 0 0 24.63458915488809 -39.467724019656998 0 -39.467724019656998 45.476501017355986 0 0 0 0 22.1130000499179 -26.583629939184902 0 -26.583629939184902 28.832926514555311 0 0 0 0 63.153332808717096 -45.806417710709866 0 -45.806417710709866 59.435478653079826 0 0 0 0 15.778803422850615 -39.280287388422948 0 -39.280287388422948 83.27998541199122 0 0 0 0 55.197506731106841 -58.415428641410472 0 -58.415428641410472 86.009583601558234 0 0 0 0 -10.945108927422552 7.2334041216545302 0 7.2334041216545302 73.371550636362372 0 0 0 0 7.3799803017407442 -16.820266511004679 0 -16.820266511004679 17.982844966029212 0 0 0 0 11.299832960095955 -79.209398708557273 0 -79.209398708557273 43.503888636254487 0 0 0 0 34.670552933195722 -44.393635773559936 0 -44.393635773559936 47.725515235008288 0 0 0 0 10.271366239328927 -28.929217422204147 0 -28.929217422204147 75.15605854894693 0 0 0 0 1.4641765160256774 -2.9880723160000144 0 -2.9880723160000144 11.85587301096492 0 0 0 0 -182.50013186711021 21.686524515816473 0 21.686524515816473 199.65099318681496 0 0 0 0 -24.690303355559081 -97.308091688179957 0 -97.308091688179957 -112.98842108956251 0 0 0 0 -18.077848000990343 -0.69853769192332038 0 -0.69853769192332038 114.2591528366687 0 0 0 0 17.740431953875486 -75.895446822448321 0 -75.895446822448321 89.571205871579878 0 0 0 0 -30.687127577923093 -187.46527112914737 0 -187.46527112914737 -66.457399614508176 0 0 0 0 -67.15497831722314 -60.641114983831358 0 -60.641114983831358 -11.757106765657227 0 0 0 0 33.459673591300088 -9.6123820312345742 0 -9.6123820312345742 -3.4559381592898717 0 0 0 0 -1.8317696492904556 0.21502055955458488 0 0.21502055955458488 10.832092194047274 0 0 0 0 -97.157274504020279 -18.731853738380778 0 -18.731853738380778 32.350918340591306 0 0 0 0 -2.1158188891139282 0.098032430233306656 0 0.098032430233306656 1.6576973469709024 0 0 0 0 -63.27397251971297 3.2639074474182053 0 3.2639074474182053 13.963579424926138 0 0 0 0 -45.408504349989016 -16.955501947591983 0 -16.955501947591983 13.254703478814918 0 0 0 0 -17.706384591263486 -2.2502666292348295 0 -2.2502666292348295 2.6404418414531392 0 0 0 0 -5.5900251018683775 -16.675088249645341 0 -16.675088249645341 10.186813123549655 0 0 0 0 -6.312436703907224 -7.4041478689541691 0 -7.4041478689541691 19.683674508924014 0 0 0 0 -15.09529959608335 -23.259417475273949 0 -23.259417475273949 8.3483447952057759 0 0 0 0 -56.395568325614931 -28.851757706441731 0 -28.851757706441731 16.263412215288554 0 0 0 0 -14.249509166505959 -9.5464869461802664 0 -9.5464869461802664 40.913330598919856 0 0 0 0 -8.7999690007818572 -11.50098103381788 0 -11.50098103381788 10.764851201501187 0 0 0 0 11.316961194843316 81.709140881160238 0 81.709140881160238 155.729849475214 0 0 0 0 23.548220447188214 38.570274547039844 0 38.570274547039844 -43.511946845510465 0 0 0 0 12.038407980871852 42.811581538214341 0 42.811581538214341 36.75358542541835 0 0 0 0 18.252409061322396 21.945205961705142 0 21.945205961705142 57.716524193538135 0 0 0 0 31.189365538161837 16.702054040335042 0 16.702054040335042 59.682603851171734 0 0 0 0 9.9397768718936277 18.076321941224705 0 18.076321941224705 160.90590158620262 0 0 0 0 6.9280935048955143 19.629433872138407 0 19.629433872138407 82.312789139787128 0 0 0 0 -1.8246300243663427 18.045380368838778 0 18.045380368838778 83.21090680264183 0 0 0 0 3.432362391848983 -5.6024415105719072 0 -5.6024415105719072 21.509656063562943 0 0 0 0 13.740179253925817 -3.7829327962485877 0 -3.7829327962485877 17.038445596981546 0 0 0 0 -4.8940440129154013 -14.63147030451546 0 -14.63147030451546 31.159243566224177 0 0 0 0 -13.263616640355394 -1.4705393958552122 0 -1.4705393958552122 17.998778683469936 0 0 0 0 0.24962160326776939 -16.896151921990167 0 -16.896151921990167 -8.5268910204131316 0 0 0 0 -13.732296337188927 6.4488702121361712 0 6.4488702121361712 17.203237769384486 0 0 0 0 -11.113894286396317 -6.2682280807184725 0 -6.2682280807184725 24.910872156009646 0 0 0 0 -19.921058740434091 -30.459677724305948 0 -30.459677724305948 5.2953591744117148 0 0 0 0 0.77637779412221963 -1.692363873054795 0 -1.692363873054795 0.98473282813401219 0 0 0 0 -15.454546426412895 0.20304015578012446 0 0.20304015578012446 9.1050931104994142 0 0 0 0 -20.598799182689618 6.7253381380178325 0 6.7253381380178325 3.9814768594224006 0 0 0 0 -12.191231657264623 -7.4562845234174091 0 -7.4562845234174091 8.2812252385648968 0 0 0 0 -10.792405583080836 -2.37875746600821 0 -2.37875746600821 26.711992887358065 0 0 0 0 -10.186042920835916 -1.7747333592756149 0 -1.7747333592756149 20.237904364743372 0 0 0 0 -9.9360116874295272 -8.3485841072333642 0 -8.3485841072333642 18.522409471497667 0 0 0 0 -24.713400804998855 -11.233700099585349 0 -11.233700099585349 21.098651751242869 0 0 0 0 -12.762044429781781 -6.276276173084625 0 -6.276276173084625 12.992089463654338 0 0 0 0 -26.590821623420197 -1.751446245668717 0 -1.751446245668717 17.992482851915156 0 0 0 0 -40.768170511573771 -10.388560445073381 0 -10.388560445073381 14.811364043228878 0 0 0 0 -4.8469119423499514 -7.7611855808996264 0 -7.7611855808996264 19.46799455546703 0 0 0 0 -39.199354977572511 -7.6831169739621146 0 -7.6831169739621146 8.8403912646826939 0 0 0 0 -3.8666409047033969 -2.0902305289516825 0 -2.0902305289516825 10.532444788940783 0 0 0 0 -23.894614841179646 -11.151998813917999 0 -11.151998813917999 6.0918662505064276 0 0 0 0 -9.1122758195076123 -13.943373517122161 0 -13.943373517122161 2.6381740359490848 0 0 0 0 -13.219783465930597 -4.3369393754951364 0 -4.3369393754951364 16.052743455382235 0 0 0 0 -18.837872137770411 0.99402309287127277 0 0.99402309287127277 30.648151152962448 0 0 0 0 -20.327208183041876 -2.596850929791799 0 -2.596850929791799 18.212594936095229 0 0 0 0 -20.391909302637487 -22.233870936787298 0 -22.233870936787298 13.000353642823029 0 0 0 0 -14.413759464114968 -4.4317724360096857 0 -4.4317724360096857 10.755250850769352 0 0 0 0 -21.709006448752916 -20.185105452064818 0 -20.185105452064818 9.8869596018121229 0 0 0 0 6.7650048118166168 11.262542536649562 0 11.262542536649562 20.600213127039751 0 0 0 0 -0.57672565654739227 -1.0133184745894539 0 -1.0133184745894539 3.0381492478424832 0 0 0 0 7.9604885749417047 12.766635685129586 0 12.766635685129586 19.617506382273859 0 0 0 0 6.5554765235739261 10.163893812168681 0 10.163893812168681 18.254707821237389 0 0 0 0 7.736972713520581 11.781090621159819 0 11.781090621159819 17.832821701505054 0 0 0 0 -0.22008170848735573 0.091877791700731848 0 0.091877791700731848 1.6563365006737882 0 0 0 0 0.013133635740299496 4.7401585965581035 0 4.7401585965581035 11.5577312353671 0 0 0 0 72.569806736166186 174.57534376396507 0 174.57534376396507 310.08656318668727 0 0 0 0 34.416815259701394 113.29078326961098 0 113.29078326961098 302.09876936460432 0 0 0 0 -9.3096655883971664 106.94408674841907 0 106.94408674841907 293.95127296236933 0 0 0 0 -5.6628086016679617 114.85239099377213 0 114.85239099377213 298.59412942236668 0 0 0 0 7.4771388837405386 4.2138005005399464 0 4.2138005005399464 230.92331999162343 0 0 0 0 53.847891696359298 127.24621143387049 0 127.24621143387049 191.29937855497701 0 0 0 0 11.72678271176491 16.233945442653976 0 16.233945442653976 8.0809871193665046 0 0 0 0 2.1292479089379026 2.0167161748000524 0 2.0167161748000524 8.7930604406166992 0 0 0 0 18.711965731308155 29.124173929405515 0 29.124173929405515 154.5147742790241 0 0 0 0 13.005148680622739 15.018146050648284 0 15.018146050648284 29.841440624542884 0 0 0 0 15.923995005917142 12.387784024393341 0 12.387784024393341 5.6926644673039348 0 0 0 0 42.180300976854596 54.982890978439173 0 54.982890978439173 130.29477061319267 0 0 0 0 -78.801424803945338 137.42282241778594 0 137.42282241778594 -70.302710544734509 0 0 0 0 -142.71971379539264 -3.304328423611878 0 -3.304328423611878 21.263773710124951 0 0 0 0 2.1267815581236924 4.4043047081331324 0 4.4043047081331324 3.1128745553971271 0 0 0 0 20.757964912456373 25.369582834851826 0 25.369582834851826 86.377141618635505 0 0 0 0 28.485816145256649 25.775921490278051 0 25.775921490278051 19.005387803044869 0 0 0 0 19.895393260432684 72.525595327933843 0 72.525595327933843 125.36263470014273 0 0 0 0 12.652549244372949 35.844930961788123 0 35.844930961788123 106.208013673393 0 0 0 0 8.8667728223714892 15.84856113792074 0 15.84856113792074 10.689266059052482 0 0 0 0 -4.3057067911665357 13.843323995748506 0 13.843323995748506 51.050325947955571 0 0 0 0 -9.0194871807231376 -10.141919058441061 0 -10.141919058441061 11.647105232525561 0 0 0 0 2.0449764646684798 32.324723375784743 0 32.324723375784743 81.317067785697873 0 0 0 0 5.3814660833391272 12.160575510864874 0 12.160575510864874 27.12219579878365 0 0 0 0 12.954127302938243 14.406660293923323 0 14.406660293923323 22.728337169974111 0 0 0 0 8.6743835727428973 10.598761322868086 0 10.598761322868086 19.945056082036899 0 0 0 0 0.0062732073849617355 11.174419148668676 0 11.174419148668676 23.138944033842563 0 0 0 0 4.3401683645469973 14.794017750040439 0 14.794017750040439 24.645712271354569 0 0 0 0 -0.56347860554200702 0.092679583456728665 0 0.092679583456728665 8.5283333399234706 0 0 0 0 0.0091498861576687317 8.56117836823978 0 8.56117836823978 25.605270738808031 0 0 0 0 0.76708627615582436 2.5346574857575916 0 2.5346574857575916 8.0246506378200593 0 0 0 0 6.5009514123311405 11.424086815080955 0 11.424086815080955 21.738639627823432 0 0 0 0 -4.5477901106854155 6.1052680916473037 0 6.1052680916473037 82.034152777223426 0 0 0 0 6.7657607516544198 14.156470363508561 0 14.156470363508561 18.148979064855666 0 0 0 0 -0.0050782649028763057 18.466111340614589 0 18.466111340614589 43.224064612331858 0 0 0 0 -4.597451666058312 6.7679279144977045 0 6.7679279144977045 47.225698996009669 0 0 0 0 0.01067657140918904 0.21658382762993256 0 0.21658382762993256 0.1345204716484254 0 0 0 0 -5.3766648577125551 14.833199796610643 0 14.833199796610643 70.348403693293221 0 0 0 0 0.00067808546778507287 17.897456043333658 0 17.897456043333658 66.489377880148822 0 0 0 0 -0.0019929523853401965 0.13447207711716658 0 0.13447207711716658 0.13346419446683555 0 0 0 0 -12.6976624300532 5.332240386371268 0 5.332240386371268 101.0273485201501 0 0 0 0 -7.7055673695132931 -4.0423063750895381 0 -4.0423063750895381 40.38062353656278 0 0 0 0 -7.667933126437962 12.387342519254162 0 12.387342519254162 62.584304629297549 0 0 0 0 -19.862695290130063 10.196421214190195 0 10.196421214190195 68.864235848574026 0 0 0 0 -13.630616662070707 -9.3314363438730652 0 -9.3314363438730652 28.293900496653805 0 0 0 0 0.45466389132708684 11.408047703565217 0 11.408047703565217 1.7850160833622795 0 0 0 0 -12.780011359531684 4.2939386538200779 0 4.2939386538200779 30.206223914092334 0 0 0 0 -6.2062896723920602 -5.9528620146793401 0 -5.9528620146793401 -3.6426003105880227 0 0 0 0 -11.721633589081222 19.136002686216671 0 19.136002686216671 -2.1143923144845758 0 0 0 0 -2.720203668405702 6.8015436709247297 0 6.8015436709247297 -4.8871736517976387 0 0 0 0 -0.0014737339134094207 13.691581642700839 0 13.691581642700839 23.78937736194348 0 0 0 0 0.98691081591688246 3.4156440368278709 0 3.4156440368278709 -1.9031992160553273 0 0 0 0 2.9214524942032085 6.1484662515504169 0 6.1484662515504169 10.740104665754188 0 0 0 0 9.2430788136525734 38.150723440223373 0 38.150723440223373 53.703746056795353 0 0 0 0 6.3677063461389025 23.001907074867631 0 23.001907074867631 70.370478790347988 0 0 0 0 25.861154248370582 36.959689120434632 0 36.959689120434632 51.387498553842306 0 0 0 0 0.32230573591872014 -0.043602849076442851 0 -0.043602849076442851 -0.006603490226225972 0 0 0 0 48.242147373967413 31.769176545953087 0 31.769176545953087 11.313132854222204 0 0 0 0 0.7287535240939178 1.1408420471707359 0 1.1408420471707359 0.067242305187392049 0 0 0 0 0.82197545136371208 1.489661691396023 0 1.489661691396023 -0.27767451783245178 0 0 0 0 0.18636272626808559 0.11736284754172743 0 0.11736284754172743 -0.052870263789543515 0 0 0 0 21.23016179903243 -1.9058659807051299 0 -1.9058659807051299 -5.1244824305904331 0 0 0 0 -0.058996308032785938 0.31028310732691722 0 0.31028310732691722 0.41013619969109527 0 0 0 0 -2.6697135954661064 10.224671620469962 0 10.224671620469962 -6.095482873817673 0 0 0 0 0.76089905952423109 0.58974184349904135 0 0.58974184349904135 -0.41583230209653266 0 0 0 0 -2.9810176214909916 -1.1766386575254728 0 -1.1766386575254728 2.9626258354546735 0 0 0 0 35.91029825836597 12.931028652470559 0 12.931028652470559 2.1656055419589393 0 0 0 0 -2.684365870526193 -19.464171238079871 0 -19.464171238079871 37.192374915659457 0 0 0 0 -10.645086055408477 16.109473625278952 0 16.109473625278952 -1.1681246902735438 0 0 0 0 12.487180538855796 0.43219081359711709 0 0.43219081359711709 -1.6568362232719664 0 0 0 0 47.436230380026316 43.527718975159587 0 43.527718975159587 33.89164053251443 0 0 0 0 0.078834780397447402 0.18329209019188397 0 0.18329209019188397 0.58229708381719547 0 0 0 0 -19.221568773453207 2.2485124006989281 0 2.2485124006989281 87.941645826307649 0 0 0 0 -11.549335487704724 26.209615439474874 0 26.209615439474874 95.131128647502919 0 0 0 0 -8.2158029734588354 24.43413271454483 0 24.43413271454483 120.03606894099357 0 0 0 0 13.708369543015436 60.446765748634789 0 60.446765748634789 87.713829550237278 0 0 0 0 9.6228558948435534 38.431987074756762 0 38.431987074756762 53.456875599913474 0 0 0 0 9.78862592323377 37.125903772199308 0 37.125903772199308 62.541944082520786 0 0 0 0 -5.8537974735583447 20.459590944784395 0 20.459590944784395 74.118956967009581 0 0 0 0 -3.7307154020369353 18.472552483486652 0 18.472552483486652 66.442674540870939 0 0 0 0 23.641935159706776 12.700678128887375 0 12.700678128887375 5.5857523300364846 0 0 0 0 1.7212000238232861 -0.052318147084406519 0 -0.052318147084406519 40.795430440441123 0 0 0 0 -9.7017977262595139 0.76808049529790878 0 0.76808049529790878 70.577100644622988 0 0 0 0 1.3952390602293008 -4.0256801649156841 0 -4.0256801649156841 94.832710472233885 0 0 0 0 -13.509276122180609 10.596553491268423 0 10.596553491268423 45.353396518301452 0 0 0 0 8.0299707336460671 18.229405286499968 0 18.229405286499968 53.187033146248723 0 0 0 0 47.860617905324375 23.285351849992367 0 23.285351849992367 56.309310394331987 0 0 0 0 -13.366526842436429 1.0058008903361042 0 1.0058008903361042 50.225795430545986 0 0 0 0 -12.775250371251783 -10.059368408531789 0 -10.059368408531789 8.8791030834618496 0 0 0 0 -4.7331370266812058 8.8157406797290605 0 8.8157406797290605 53.582084644331189 0 0 0 0 8.849190499196979 -4.4383699151549081 0 -4.4383699151549081 51.532853584329132 0 0 0 0 -43.757478690847506 13.117280719270639 0 13.117280719270639 88.574841229125013 0 0 0 0 0.011834360594857818 0.08561754803051258 0 0.08561754803051258 0.078830139384667319 0 0 0 0 62.067248583578476 101.68430131119385 0 101.68430131119385 -5.1324919099279214 0 0 0 0 -136.01701653575446 -132.73642029734401 0 -132.73642029734401 70.04988769825286 0 0 0 0 -15.213822235787589 -9.56898897258354 0 -9.56898897258354 8.5680757217395467 0 0 0 0 14.060014261801449 -2.187312936737726 0 -2.187312936737726 40.179400349785283 0 0 0 0 -29.165207647449279 -33.794553556246683 0 -33.794553556246683 110.28402201457538 0 0 0 0 -8.7757160782157371 -6.0810151782497996 0 -6.0810151782497996 14.345352618548191 0 0 0 0 -26.001663380326136 -8.2298846455196326 0 -8.2298846455196326 -1.1520990443168557 0 0 0 0 -14.180048113778184 -15.946620583186814 0 -15.946620583186814 2.2808461005733989 0 0 0 0 -12.217792846099272 -0.30491705843087402 0 -0.30491705843087402 50.799589153604757 0 0 0 0 -16.56915037238365 -8.2563959995835887 0 -8.2563959995835887 12.865708570372739 0 0 0 0 -17.209717644498031 -0.11087715014218702 0 -0.11087715014218702 51.185177143452165 0 0 0 0 -10.959429031583113 0.55820095616945764 0 0.55820095616945764 39.906001175688289 0 0 0 0 -15.583531862282811 0.11381639101682595 0 0.11381639101682595 47.227425687000505 0 0 0 0 -19.105475076006009 2.6883070738749666 0 2.6883070738749666 50.078272674058098 0 0 0 0 -14.196743245362001 -1.1878713410114869 0 -1.1878713410114869 52.118282351500966 0 0 0 0 -15.235474420148364 0.047537835889670532 0 0.047537835889670532 60.91932737584284 0 0 0 0 -8.3639018302057551 -0.40925786910338502 0 -0.40925786910338502 47.265280910753063 0 0 0 0 -2.0785280097114427 8.2293802660001347 0 8.2293802660001347 57.86308908983483 0 0 0 0 21.43209696361442 10.045497082324346 0 10.045497082324346 49.043934895933489 0 0 0 0 -12.408526615442909 2.8477426219978952 0 2.8477426219978952 57.018566655340692 0 0 0 0 -12.489843031844392 4.3206468139823073 0 4.3206468139823073 54.546181106110453 0 0 0 0 -19.47869259740488 1.1539267270927667 0 1.1539267270927667 56.470272716556792 0 0 0 0 -12.853938245413708 0.34054726864633267 0 0.34054726864633267 47.638181368543883 0 0 0 0 -15.927659291469443 7.9571041868482553 0 7.9571041868482553 33.513948770363641 0 0 0 0 -19.237525162889192 3.1682921831516069 0 3.1682921831516069 49.095064487264608 0 0 0 0 -16.874928584038265 1.1176973852197989 0 1.1176973852197989 52.249565995756711 0 0 0 0 -5.7637137087573684 15.889647557789431 0 15.889647557789431 23.907028725348937 0 0 0 0 0.3151198650225524 -2.8764166197215673 0 -2.8764166197215673 24.024526921097276 0 0 0 0 -14.820065090077314 18.926584773560535 0 18.926584773560535 25.644776281347731 0 0 0 0 -2.0249758329208287 5.4328800528930543 0 5.4328800528930543 18.343554438177748 0 0 0 0 -2.4789404051515085 3.173033933346403 0 3.173033933346403 5.2344837923094047 0 0 0 0 -29.040900465685283 6.2225835558638209 0 6.2225835558638209 17.230799245806793 0 0 0 0 -7.3870985775173352 30.594802444949892 0 30.594802444949892 29.927542544217431 0 0 0 0 16.535394892311189 13.159706171623839 0 13.159706171623839 7.3413680622761603 0 0 0 0 -8.7772520731306827 11.419885380368214 0 11.419885380368214 66.206894944829401 0 0 0 0 -7.4580257768721907 6.3802398607876967 0 6.3802398607876967 29.60708615706244 0 0 0 0 -21.644672707018337 17.16533251725923 0 17.16533251725923 44.829401429004065 0 0 0 0 -25.458519225891791 -22.865809853327164 0 -22.865809853327164 52.024022517485719 0 0 0 0 -0.53654939306044813 -2.9825585935167638 0 -2.9825585935167638 27.340950516100733 0 0 0 0 -18.325633006670159 8.3777270894606772 0 8.3777270894606772 62.825475228266441 0 0 0 0 48.216333862518695 -55.897911717544048 0 -55.897911717544048 47.420858041899919 0 0 0 0 -42.148352359557521 -2.2439876842145168 0 -2.2439876842145168 33.270935542748703 0 0 0 0 -0.09292628311644513 -3.8698600302443467 0 -3.8698600302443467 0.58623397659566479 0 0 0 0 -3.710861781180256 1.1300749380880006 0 1.1300749380880006 24.843991113491938 0 0 0 0 -12.944665567248267 2.3778800797539361 0 2.3778800797539361 48.156182271035505 0 0 0 0 -3.1773939809882634 2.8487633225730988 0 2.8487633225730988 24.475541652126438 0 0 0 0 -7.9205117789098409 2.2831235220874078 0 2.2831235220874078 47.426534206675569 0 0 0 0 -6.6321904024171365 -0.38084838384475717 0 -0.38084838384475717 22.73144905882927 0 0 0 0 -24.070989771638324 26.013926052564784 0 26.013926052564784 40.291556535437849 0 0 0 0 -46.585609355350243 -12.807833272587231 0 -12.807833272587231 60.634261601269827 0 0 0 0 -1.933050779784462 3.8205243343317115 0 3.8205243343317115 9.2441431557880946 0 0 0 0 -2.7945038824034327 -4.9521724305541284 0 -4.9521724305541284 16.221886209623335 0 0 0 0 -8.1919549991456151 -2.9913355305479676 0 -2.9913355305479676 29.946058022806596 0 0 0 0 -6.8132131024680929 -2.8701607957073136 0 -2.8701607957073136 15.059575894873447 0 0 0 0 -12.872324074505855 -4.5585268539871322 0 -4.5585268539871322 19.902078665021691 0 0 0 0 0.84565837231059637 -6.4185673815764304 0 -6.4185673815764304 4.7083838380062843 0 0 0 0 -3.1586298030772468 -7.3054895015775401 0 -7.3054895015775401 8.8770165990608803 0 0 0 0 -1.7129212983842619 -4.7148788607632142 0 -4.7148788607632142 4.2509928737377578 0 0 0 0 85.784918421130442 -90.411268984280468 0 -90.411268984280468 -9.8189025242754724 0 0 0 0 0.7545336522863062 -4.6356095322919799 0 -4.6356095322919799 5.0523112432156552 0 0 0 0 -3.4311472374239003 -3.1588942728230904 0 -3.1588942728230904 14.322311471383728 0 0 0 0 193.9849050122393 -30.086555649919319 0 -30.086555649919319 9.9536447777645662 0 0 0 0 -74.009022350971009 -27.215351261122123 0 -27.215351261122123 356.9334163381136 0 0 0 0 -107.48313029069959 45.945693651388865 0 45.945693651388865 365.7957806974664 0 0 0 0 148.0729729263835 91.976818821510648 0 91.976818821510648 164.7841558204309 0 0 0 0 -3.6000973787827206 -136.37204869681409 0 -136.37204869681409 -68.600029957247898 0 0 0 0 -262.92351547385169 -125.85918063857753 0 -125.85918063857753 262.3287353711321 0 0 0 0 -231.56802022820921 -65.612625635189033 0 -65.612625635189033 582.19214754080167 0 0 0 0 -86.179733617110287 -51.191049294844561 0 -51.191049294844561 236.99657703744379 0 0 0 0 -56.872687234485397 -38.297636712183703 0 -38.297636712183703 158.31726913138118 0 0 0 0 97.732616190958652 281.89431787286958 0 281.89431787286958 484.56934963965614 0 0 0 0 -107.53878996998219 36.058515738975984 0 36.058515738975984 356.8734856054798 0 0 0 0 -42.148065074257829 95.917717104552139 0 95.917717104552139 247.57622063266535 0 0 0 0 12.004316635474424 -40.23321988315729 0 -40.23321988315729 -31.524063112035947 0 0 0 0 13.914452430265783 -72.775912386549862 0 -72.775912386549862 385.78041330911219 0 0 0 0 1.374646271697415 -1.5658311755845489 0 -1.5658311755845489 1.8956937226887405 0 0 0 0 0.010703233232913334 -0.35167786022886816 0 -0.35167786022886816 2.4396936597052559 0 0 0 0 -109.19636927438114 120.49589682166697 0 120.49589682166697 463.00360365744746 0 0 0 0 18.01302984290669 -82.170818666014384 0 -82.170818666014384 42.155787699946814 0 0 0 0 -149.94329880172586 -13.09716781533416 0 -13.09716781533416 246.58349764770537 0 0 0 0 22.750288032857497 -68.043228748385445 0 -68.043228748385445 16.387548412241244 0 0 0 0 -110.88870045469685 178.82269742009885 0 178.82269742009885 110.30590558774929 0 0 0 0 -12.042154361924759 -130.36205293301828 0 -130.36205293301828 -56.794365780879161 0 0 0 0 202.27116339974964 330.26789512842151 0 330.26789512842151 -454.8326740896191 0 0 0 0 14.991885734939336 9.9411511474878367 0 9.9411511474878367 3.9206673690805722 0 0 0 0 423.48948945710708 31.940686864123563 0 31.940686864123563 91.833653691144718 0 0 0 0 -269.7100308591007 336.36482933512161 0 336.36482933512161 40.356296127938549 0 0 0 0 14.548144244924163 56.092265357123324 0 56.092265357123324 392.00180005516086 0 0 0 0 56.586675364636577 28.170233346594614 0 28.170233346594614 409.76428065604887 0 0 0 0 -8.1174212293933579 11.988251876560753 0 11.988251876560753 327.67107476018282 0 0 0 0 37.518793652422737 153.83415678726669 0 153.83415678726669 316.20705608778735 0 0 0 0 -23.976781347441694 120.07733589155941 0 120.07733589155941 391.31586601574236 0 0 0 0 117.41688661046088 176.80838664614203 0 176.80838664614203 284.24837707466577 0 0 0 0 49.836986609608772 203.89937665432626 0 203.89937665432626 454.73652061930261 0 0 0 0 227.30584154124773 391.15054631025669 0 391.15054631025669 636.75386178051122 0 0 0 0 143.14096609689147 86.614389155354729 0 86.614389155354729 271.98693587924208 0 0 0 0 407.85048264639659 225.88875457894574 0 225.88875457894574 202.79040342871303 0 0 0 0 937.86082431191755 783.67244117525115 0 783.67244117525115 598.66174133336244 0 0 0 0 427.50655644930038 595.58929497995314 0 595.58929497995314 -462.45290629858937 0 0 0 0 51.588627013962792 0.9368929906268022 0 0.9368929906268022 791.70792158991662 0 0 0 0 7.0032234781186524 3.1955554438994653 0 3.1955554438994653 1.5665910126928893 0 0 0 0 -55.195390794421129 218.84196805760439 0 218.84196805760439 1444.031424003193 0 0 0 0 0.67053032065587104 -0.21807507058849751 0 -0.21807507058849751 -0.048969851756694993 0 0 0 0 80.11472815303955 43.633063296663749 0 43.633063296663749 128.32592432836827 0 0 0 0 140.49404320009398 -152.10996167917165 0 -152.10996167917165 -415.77231835636485 0 0 0 0 -5.2577670592220329 -85.562909253821999 0 -85.562909253821999 94.377510651487682 0 0 0 0 420.84010769330712 797.46937355639784 0 797.46937355639784 466.10844079370872 0 0 0 0 352.22095239942837 -93.137100601572456 0 -93.137100601572456 -120.08569584591532 0 0 0 0 47.774656045034817 -24.317258442348248 0 -24.317258442348248 476.82185153289174 0 0 0 0 0.91414365410315956 3.214472589090267 0 3.214472589090267 9.1627745608088702 0 0 0 0 109.22031391946518 173.82884505180118 0 173.82884505180118 63.840315206216474 0 0 0 0 -579.5187922382629 -120.71216567638839 0 -120.71216567638839 243.91128288457003 0 0 0 0 -63.918108486856454 51.221554678253597 0 51.221554678253597 30.872417883743765 0 0 0 0 0.42961947927451449 4.3994462765493303 0 4.3994462765493303 20.863429451082624 0 0 0 0 20.510493027337816 18.916107498209385 0 18.916107498209385 1.9859829240904219 0 0 0 0 42.602739583666107 -6.037991721806975 0 -6.037991721806975 40.559378635944086 0 0 0 0 22.672946868654208 -19.021495477883946 0 -19.021495477883946 30.224179363944131 0 0 0 0 1.0786002488114939 -0.37355345646905391 0 -0.37355345646905391 -0.28240376727203653 0 0 0 0 18.754214887936314 -26.834615383249911 0 -26.834615383249911 78.361152561043127 0 0 0 0 -21.357066521428635 19.758659814156545 0 19.758659814156545 369.4972618110769 0 0 0 0 27.072948953304376 192.81527041330446 0 192.81527041330446 327.19303816923275 0 0 0 0 20.243590132106874 19.107092280517463 0 19.107092280517463 230.57954574266114 0 0 0 0 96.833025200288944 173.14678032614938 0 173.14678032614938 146.88884644075006 0 0 0 0 93.839756577200433 293.66024731754442 0 293.66024731754442 390.58512427587038 0 0 0 0 38.283529155196049 228.76250145295307 0 228.76250145295307 394.82037324840348 0 0 0 0 -38.076915346074429 246.83328449013061 0 246.83328449013061 610.4140022512729 0 0 0 0 189.59866655676387 441.34608677767392 0 441.34608677767392 437.27978719075691 0 0 0 0 226.2928639242507 305.09371951539288 0 305.09371951539288 292.85845862013957 0 0 0 0 -52.92262361763494 -142.13776575412703 0 -142.13776575412703 690.10397989802368 0 0 0 0 49.207549819446513 426.87605224690014 0 426.87605224690014 976.63021147213294 0 0 0 0 309.89242135817221 720.45787770056086 0 720.45787770056086 434.57991110250441 0 0 0 0 146.83627270897057 176.20911708516982 0 176.20911708516982 1082.7164383593117 0 0 0 0 616.77176280484355 28.318050424462854 0 28.318050424462854 264.72760230894346 0 0 0 0 560.93127771164689 596.29592850438712 0 596.29592850438712 513.90763271874675 0 0 0 0 75.851947100954177 56.39382784344707 0 56.39382784344707 275.18502235483174 0 0 0 0 102.64183431401233 136.38156606934535 0 136.38156606934535 185.02872396497696 0 0 0 0 152.79805444981025 -30.558758325212693 0 -30.558758325212693 86.499286901074811 0 0 0 0 -50.880855814880192 150.3749040394905 0 150.3749040394905 -45.537644216223271 0 0 0 0 237.06597852591065 369.65859297892666 0 369.65859297892666 225.41967292826303 0 0 0 0 1.3809265442865342 -0.40563944201733193 0 -0.40563944201733193 -1.2225828299157087 0 0 0 0 172.30392293273337 160.56901785499394 0 160.56901785499394 112.20078534938239 0 0 0 0 94.671850860916607 242.84539448368923 0 242.84539448368923 369.32397666125325 0 0 0 0 93.532780359730623 307.04967265579762 0 307.04967265579762 295.23589686423293 0 0 0 0 -1.0951197559197681 7.8825717681793321 0 7.8825717681793321 17.387890529142169 0 0 0 0 0.75529623528183909 2.8690117541062818 0 2.8690117541062818 -0.35655749773209777 0 0 0 0 4.9108814454727963 10.233556284478254 0 10.233556284478254 18.288129373626361 0 0 0 0 -1.2126632422091461 5.9610703518956143 0 5.9610703518956143 17.120144232059829 0 0 0 0 -0.54153379159286885 6.6548920348650427 0 6.6548920348650427 17.279530165047618 0 0 0 0 -0.99012549646992909 7.3534271664102562 0 7.3534271664102562 18.325501724379137 0 0 0 0 -2.7630588682336565 6.3206286296262988 0 6.3206286296262988 18.373344929432506 0 0 0 0 -6.6888269518825378 1.8624964647992499 0 1.8624964647992499 2.3857383626988913 0 0 0 0 6.5413445761273579 3.4874145218309422 0 3.4874145218309422 31.219176182210504 0 0 0 0 40.100794521747503 66.718488799353509 0 66.718488799353509 64.416893458919731 0 0 0 0 -10.577763901687831 -1.637493797512434 0 -1.637493797512434 -27.026930649502901 0 0 0 0 -4.0726913961284259 1.2961135203627094 0 1.2961135203627094 -0.69623531547204465 0 0 0 0 2.5134034264629008 14.349990785794944 0 14.349990785794944 22.978568679962336 0 0 0 0 -2.5060856020476692 9.653088462622577 0 9.653088462622577 20.839099871962389 0 0 0 0 -18.417845600750297 -5.6463918693480082 0 -5.6463918693480082 60.985666436576139 0 0 0 0 -11.497507844223605 2.9888988775628604 0 2.9888988775628604 21.554479645375977 0 0 0 0 -57.104277226514569 -36.368133874129853 0 -36.368133874129853 73.068716082270839 0 0 0 0 -29.812347061228593 -45.517306609089246 0 -45.517306609089246 68.005369859885832 0 0 0 0 -42.566885182431633 -1.7730183594803748 0 -1.7730183594803748 77.313349799042044 0 0 0 0 -43.034355394469003 -8.1650650816063717 0 -8.1650650816063717 128.56738785567723 0 0 0 0 -94.138592087101642 -29.868599969508068 0 -29.868599969508068 202.54982649366139 0 0 0 0 -62.82102689712508 35.295391660246423 0 35.295391660246423 194.22091850639845 0 0 0 0 -27.410755219883413 328.64675756834185 0 328.64675756834185 504.02628505659231 0 0 0 0 56.386615501367032 -86.005684467472747 0 -86.005684467472747 84.200846674662898 0 0 0 0 -0.34806479167049664 -0.32972654951442237 0 -0.32972654951442237 -0.23546937172032756 0 0 0 0 1.2537082612370796 -39.135840102233487 0 -39.135840102233487 142.55854545376133 0 0 0 0 -117.51474448496128 -101.18661819025874 0 -101.18661819025874 98.722370568688348 0 0 0 0 -31.990534236618259 -61.067238669842482 0 -61.067238669842482 -28.646511479037827 0 0 0 0 -3.0808914456924867 32.487184430473462 0 32.487184430473462 100.88744486164433 0 0 0 0 -2.0523077016543381 0.54225569492909642 0 0.54225569492909642 0.13556246505008573 0 0 0 0 6.8581949952899777 29.39878882823723 0 29.39878882823723 39.970744185103285 0 0 0 0 -16.661586940850611 2.7861718673593714 0 2.7861718673593714 63.666238016283387 0 0 0 0 -0.13467719128129829 34.775679787202534 0 34.775679787202534 86.480141673478101 0 0 0 0 -5.4694977167499701 9.9234111805722023 0 9.9234111805722023 66.309969225461828 0 0 0 0 -25.695898741726069 16.057555239243811 0 16.057555239243811 91.644257610432362 0 0 0 0 7.0414307389677333 14.702973383800781 0 14.702973383800781 16.077334958925348 0 0 0 0 -4.9222795536502417 7.8612821526985499 0 7.8612821526985499 31.461495054165425 0 0 0 0 135.52460617131396 198.9968085282394 0 198.9968085282394 448.56350299488622 0 0 0 0 0.96446691469878321 2.0280017778210464 0 2.0280017778210464 -1.144458070393469 0 0 0 0 5.0411355454676254 10.578266384776271 0 10.578266384776271 14.903748026245012 0 0 0 0 97.098578440934261 259.09333442142815 0 259.09333442142815 436.03266931075996 0 0 0 0 82.10470614761698 234.36904210852663 0 234.36904210852663 411.64817318392306 0 0 0 0 91.629422936113542 292.40246244575974 0 292.40246244575974 397.36066032067174 0 0 0 0 49.03662669936773 251.86427328582158 0 251.86427328582158 459.52738654031418 0 0 0 0 98.973050980695007 -83.046386334226554 0 -83.046386334226554 436.83653892084294 0 0 0 0 119.80995127764436 156.53374335219996 0 156.53374335219996 534.00466644457447 0 0 0 0 1.7368670299711901 1.2383449558211552 0 1.2383449558211552 1.1250593828449809 0 0 0 0 202.22759413839458 314.42899333683454 0 314.42899333683454 617.50610017563849 0 0 0 0 246.40362656011985 310.59810707804354 0 310.59810707804354 402.45256317106032 0 0 0 0 225.18369494278505 430.17429453213219 0 430.17429453213219 536.14681808945898 0 0 0 0 236.06903649481364 304.32237411656388 0 304.32237411656388 549.32040577910448 0 0 0 0 0.1635552159826128 0.54539111749130598 0 0.54539111749130598 0.25424489443336284 0 0 0 0 18.394509300331492 1.0922057542138646 0 1.0922057542138646 -4.3706559464444581 0 0 0 0 31.931089541028086 23.622347560591152 0 23.622347560591152 5.5565872012448381 0 0 0 0 196.83647102368968 332.06615386984231 0 332.06615386984231 569.58012204845545 0 0 0 0 137.02643320398897 215.33621180108821 0 215.33621180108821 345.5437054123031 0 0 0 0 390.42357262867336 222.45243950213444 0 222.45243950213444 290.97220979547274 0 0 0 0 152.49240169080622 103.95258115133402 0 103.95258115133402 225.82347765176382 0 0 0 0 202.15000221597529 119.17036193161948 0 119.17036193161948 125.35682910882679 0 0 0 0 170.94088192125741 230.83181466617589 0 230.83181466617589 192.9586516967247 0 0 0 0 -0.37636999858763698 0.18335599498357169 0 0.18335599498357169 0.21706159703017391 0 0 0 0 143.51718472980929 267.04044883376082 0 267.04044883376082 373.17634099628776 0 0 0 0 173.00482580047083 237.32977964587235 0 237.32977964587235 345.76463072231854 0 0 0 0 144.16829234127135 249.51677426033348 0 249.51677426033348 369.49889003683711 0 0 0 0 117.06331330014291 264.2664337227252 0 264.2664337227252 361.50767797989829 0 0 0 0 226.21629609120203 422.82727350286586 0 422.82727350286586 550.86404986019625 0 0 0 0 55.251328900866383 220.83191265423557 0 220.83191265423557 508.0306111478094 0 0 0 0 -22.972600829918065 36.04280340792684 0 36.04280340792684 326.91870557341099 0 0 0 0 83.305719142130329 50.444583006204994 0 50.444583006204994 124.54082558699884 0 0 0 0 8.8294823632427324 172.82939399345196 0 172.82939399345196 874.22751497744321 0 0 0 0 2.6521477791091286 1.892284500071753 0 1.892284500071753 1.0506212860382469 0 0 0 0 214.53638065517779 303.60177751332043 0 303.60177751332043 -166.14946997665902 0 0 0 0 14.704858348463858 -43.351653812125733 0 -43.351653812125733 16.162065971444463 0 0 0 0 112.65185928910185 64.537785173926295 0 64.537785173926295 113.82069749794755 0 0 0 0 -10.385515718225179 -52.075612407759763 0 -52.075612407759763 81.397792309168835 0 0 0 0 -19.936825021082768 -44.811133476629038 0 -44.811133476629038 130.69050990633696 0 0 0 0 -0.16557236477910919 -89.278256518977287 0 -89.278256518977287 228.779962850429 0 0 0 0 63.008557658999052 -141.28583047918801 0 -141.28583047918801 163.97218518535374 0 0 0 0 -110.71637708620256 90.276846253396798 0 90.276846253396798 5.4840090931975283 0 0 0 0 -117.29189534212901 1.1173702965661505 0 1.1173702965661505 93.695039888574684 0 0 0 0 -52.611081385888383 -42.062272827645756 0 -42.062272827645756 103.45381015271414 0 0 0 0 -45.531059437344084 11.704912508677808 0 11.704912508677808 52.484313611799735 0 0 0 0 -35.344391273664769 8.8176157438392693 0 8.8176157438392693 46.886536419890035 0 0 0 0 8.9425214671264257 -21.384731081619975 0 -21.384731081619975 63.07328452434831 0 0 0 0 -43.752519746719827 0.84499104378664924 0 0.84499104378664924 67.551531321056245 0 0 0 0 4.7142771771414118 -60.382508951446653 0 -60.382508951446653 81.459971280099126 0 0 0 0 16.129302460902636 -72.7494833819419 0 -72.7494833819419 91.287924275166006 0 0 0 0 21.008156732194038 -76.741421588820231 0 -76.741421588820231 82.356480267058942 0 0 0 0 41.038967739905274 -62.24518439277017 0 -62.24518439277017 81.700110072881216 0 0 0 0 53.475386643443471 -87.91678438595045 0 -87.91678438595045 84.918843018225743 0 0 0 0 -7.6322243962677021 -33.190595162956015 0 -33.190595162956015 79.04913899062376 0 0 0 0 54.032385490176239 -48.794966969653615 0 -48.794966969653615 77.265435618177435 0 0 0 0 13.032946035542409 -19.492386887974135 0 -19.492386887974135 113.40593508586608 0 0 0 0 76.880323560610123 -25.153637134993915 0 -25.153637134993915 90.797320781861231 0 0 0 0 40.219917743072074 45.655396062626096 0 45.655396062626096 113.49119795099978 0 0 0 0 12.971984163123579 -24.327212207410412 0 -24.327212207410412 90.814931985194562 0 0 0 0 78.509513710397187 -82.59934408315894 0 -82.59934408315894 77.797682730859378 0 0 0 0 95.686159722799857 -55.970311949815368 0 -55.970311949815368 77.633647127506265 0 0 0 0 -82.128393120652618 115.15248450686704 0 115.15248450686704 -34.811268010351341 0 0 0 0 0.8852012942946299 0.92108812291533582 0 0.92108812291533582 1.0516599054430458 0 0 0 0 38.749805445187675 -126.48268022525673 0 -126.48268022525673 -20.435026894003386 0 0 0 0 -53.377517010330848 32.021155428010388 0 32.021155428010388 11.013043339953583 0 0 0 0 -72.220543112808627 63.300740927399602 0 63.300740927399602 -6.7870630429206358 0 0 0 0 -30.831821073637911 39.161424240621272 0 39.161424240621272 -86.720219337508752 0 0 0 0 -127.68620619376634 95.310385357704945 0 95.310385357704945 59.652984726242721 0 0 0 0 46.035793230848867 -101.73829984242184 0 -101.73829984242184 92.713765519292792 0 0 0 0 -92.381759973992303 117.86001405141724 0 117.86001405141724 282.03124046238372 0 0 0 0 1.7594859831716008 2.6196801613210425 0 2.6196801613210425 3.2568711084418425 0 0 0 0 49.139132322583464 -100.65247275868023 0 -100.65247275868023 92.157431106999866 0 0 0 0 26.99512631176367 -97.354847666007117 0 -97.354847666007117 96.519100550707662 0 0 0 0 26.365921817392064 -97.076455257669295 0 -97.076455257669295 98.625312149524689 0 0 0 0 14.827139275794252 -102.15083961126948 0 -102.15083961126948 126.78073058532027 0 0 0 0 -4.2407421393818368 -83.347797027177876 0 -83.347797027177876 111.75010304962052 0 0 0 0 56.094917922016975 -103.36332662213681 0 -103.36332662213681 90.667363038679468 0 0 0 0 80.46318720176896 -118.69315752164403 0 -118.69315752164403 99.475921313511208 0 0 0 0 41.840400304722607 -111.63351306540426 0 -111.63351306540426 108.8227825503418 0 0 0 0 36.021221034403425 -116.76424897544712 0 -116.76424897544712 147.24604293337325 0 0 0 0 28.148608368452187 -98.599507223108958 0 -98.599507223108958 113.71813029074474 0 0 0 0 90.092852936358213 -135.52010165502725 0 -135.52010165502725 128.34113537739904 0 0 0 0 94.434413143708753 90.440672076951159 0 90.440672076951159 -192.94470363057917 0 0 0 0 -152.87685099860937 -97.819852396511124 0 -97.819852396511124 69.958383712895738 0 0 0 0 -245.34944502970757 -114.58163369474278 0 -114.58163369474278 381.89196592128428 0 0 0 0 156.44340037495704 203.72195944910709 0 203.72195944910709 13.225427665536699 0 0 0 0 119.64295807965618 296.18098193056176 0 296.18098193056176 348.00286731218876 0 0 0 0 -1.4499674652502108 -26.539001837489195 0 -26.539001837489195 113.51128144708309 0 0 0 0 62.464707954218738 9.2789787643505406 0 9.2789787643505406 53.779461703183188 0 0 0 0 -27.777882405286164 20.931971666044774 0 20.931971666044774 49.916753474564757 0 0 0 0 -123.94374705329392 66.838007614926028 0 66.838007614926028 141.95767559920205 0 0 0 0 -91.321656818137853 52.254014220656245 0 52.254014220656245 57.847745111270342 0 0 0 0 -74.54767179591181 -7.4690465597814182 0 -7.4690465597814182 96.308711150761155 0 0 0 0 -85.383846819593145 46.748645582221798 0 46.748645582221798 62.043936567933997 0 0 0 0 -40.068761263458327 13.485651456954656 0 13.485651456954656 19.382828811001673 0 0 0 0 -45.009257314404351 -2.4329958165217249 0 -2.4329958165217249 82.224162660946604 0 0 0 0 9.7883055178231189 -24.911508199313175 0 -24.911508199313175 82.972869539958992 0 0 0 0 13.275106379847784 -25.946954927692786 0 -25.946954927692786 41.489709519466487 0 0 0 0 0.42105939115117508 -42.74063611780366 0 -42.74063611780366 56.522159663514685 0 0 0 0 -19.145322211193161 -15.233638359883116 0 -15.233638359883116 47.369380061249103 0 0 0 0 0.62429764298103052 -0.44378492617862264 0 -0.44378492617862264 -0.30118083724368461 0 0 0 0 -47.705737233174659 1.5800905018622871 0 1.5800905018622871 35.593001015900882 0 0 0 0 -18.881943720376512 -2.230529966775066 0 -2.230529966775066 34.303203505151032 0 0 0 0 -16.901021373583035 -1.4437215388570621 0 -1.4437215388570621 18.269000911466719 0 0 0 0 -32.476055429637199 14.839985105081723 0 14.839985105081723 16.2839105128337 0 0 0 0 -35.025234221164112 4.4261636342728252 0 4.4261636342728252 4.2350184561364586 0 0 0 0 -44.106191717610272 20.693220117682358 0 20.693220117682358 -4.8023810192025849 0 0 0 0 -36.388872106463964 23.806525740495317 0 23.806525740495317 1.5549815837293863 0 0 0 0 -52.111032109891653 16.02578933882819 0 16.02578933882819 -2.2305217753018951 0 0 0 0 -50.689955220484421 -0.55526337631727074 0 -0.55526337631727074 -35.106276628546766 0 0 0 0 -56.284935114195832 53.848445476913184 0 53.848445476913184 -11.55989480970311 0 0 0 0 -45.288210388061998 -3.13047730919061 0 -3.13047730919061 -20.669349632102239 0 0 0 0 -35.388897129597126 13.859874125054375 0 13.859874125054375 4.4568721261894098 0 0 0 0 -24.473704912367793 -21.696521131023474 0 -21.696521131023474 39.758796555790468 0 0 0 0 -53.753212209878257 29.094953664083732 0 29.094953664083732 5.2688072194068809 0 0 0 0 -10.785636759530462 -15.959081407312624 0 -15.959081407312624 51.413576336164624 0 0 0 0 -16.485399773744575 -8.4810330586624332 0 -8.4810330586624332 78.73810277242228 0 0 0 0 -16.479411701428035 -9.5054300989286276 0 -9.5054300989286276 44.147592023808102 0 0 0 0 -20.910899885578146 5.6686781143835105 0 5.6686781143835105 30.612391816590389 0 0 0 0 -26.210899373603638 -15.782598069266896 0 -15.782598069266896 54.100582072998805 0 0 0 0 -0.6168120169490976 -13.273710096565992 0 -13.273710096565992 33.466083113098648 0 0 0 0 7.3803127345747725 -6.5860544112774733 0 -6.5860544112774733 23.685085956913099 0 0 0 0 -4.633813250416722 1.2935238486284106 0 1.2935238486284106 20.068558935530746 0 0 0 0 -8.5692672006337034 -7.203009476641455 0 -7.203009476641455 29.513540599353291 0 0 0 0 -2.952276491216935 -4.0632916635981928 0 -4.0632916635981928 30.998886894343741 0 0 0 0 -8.2551188085694776 7.9893914787517133 0 7.9893914787517133 23.828256212433189 0 0 0 0 -3.8540501865201691 5.9217967934432636 0 5.9217967934432636 18.160875102934369 0 0 0 0 -2.4918745945734599 3.2146383918066022 0 3.2146383918066022 12.206364533492888 0 0 0 0 -6.0600960493412686 -1.1060470115596672 0 -1.1060470115596672 8.9285124770394759 0 0 0 0 -21.691299584625085 -4.5020361312490422 0 -4.5020361312490422 11.191975396226553 0 0 0 0 -7.9114333382203768 20.963390557395542 0 20.963390557395542 61.157915922852226 0 0 0 0 -8.1299790162042882 17.474185720457172 0 17.474185720457172 36.146507929718609 0 0 0 0 -30.552138316611263 -9.5261671493663016 0 -9.5261671493663016 28.810879122582264 0 0 0 0 -0.47226384749045991 0.11952928516650729 0 0.11952928516650729 1.3778856193660971 0 0 0 0 -7.5909359194181434 -1.6718378819005011 0 -1.6718378819005011 -3.6008475337475829 0 0 0 0 -13.765026543942213 -21.510674456463676 0 -21.510674456463676 7.053784369105415 0 0 0 0 -0.43957292191449593 0.25571365834299087 0 0.25571365834299087 0.87660993852365721 0 0 0 0 9.1606031926849028 22.787349464641011 0 22.787349464641011 12.058870473673778 0 0 0 0 5.1647271094082043 28.555243442152459 0 28.555243442152459 58.966790263788425 0 0 0 0 -3.449248591314813 47.143188584957443 0 47.143188584957443 43.995225296341232 0 0 0 0 17.519423230285611 8.5438454762515903 0 8.5438454762515903 61.159215187951304 0 0 0 0 -4.7551632582966423 -0.3480799057888575 0 -0.3480799057888575 0.88510795730428526 0 0 0 0 14.769992135131645 33.981638899289692 0 33.981638899289692 38.418658773589414 0 0 0 0 20.566068318787075 -3.8384767923780601 0 -3.8384767923780601 59.12925046341843 0 0 0 0 -3.1900623901269807 4.2531536145770019 0 4.2531536145770019 -3.4407698964726805 0 0 0 0 -21.274139123207988 75.092378602374083 0 75.092378602374083 117.36803079100719 0 0 0 0 14.158266511650254 9.0487111454895057 0 9.0487111454895057 59.552356665393745 0 0 0 0 -8.4709832480519935 -10.454232197765577 0 -10.454232197765577 5.6261841689265566 0 0 0 0 -12.678370851531326 23.982446172474738 0 23.982446172474738 35.840215144387912 0 0 0 0 -0.58604148886010332 3.5482443702916626 0 3.5482443702916626 -2.5062721422010554 0 0 0 0 0.90959854372931659 51.805612712447328 0 51.805612712447328 41.54924734499582 0 0 0 0 19.962454970018371 7.2356765920121688 0 7.2356765920121688 65.097115085198311 0 0 0 0 -18.735078628918018 28.380272980428344 0 28.380272980428344 35.342834784976731 0 0 0 0 -4.5897404109270372 -0.1115558053594583 0 -0.1115558053594583 1.4942610402434653 0 0 0 0 -11.530367637249583 11.416960879090766 0 11.416960879090766 63.912637463185092 0 0 0 0 -10.331809527183736 7.433296828593484 0 7.433296828593484 4.6810996989588602 0 0 0 0 -6.9553604890647875 8.966772573576236 0 8.966772573576236 28.142886727448058 0 0 0 0 -0.43331783828301518 -0.31741623881541869 0 -0.31741623881541869 0.021953418894838705 0 0 0 0 -27.996677100012221 -7.5559944347751298 0 -7.5559944347751298 17.874461660012457 0 0 0 0 -14.206111527035318 -20.483351131173549 0 -20.483351131173549 24.296406597113673 0 0 0 0 -14.905865565297063 -15.791027866114746 0 -15.791027866114746 37.474416840079357 0 0 0 0 -8.595294374225432 -1.469550629852165 0 -1.469550629852165 13.578775690409657 0 0 0 0 -5.8899883131580282 0.76342911092524446 0 0.76342911092524446 15.109058321340854 0 0 0 0 -7.1789102927365889 2.9334826396188873 0 2.9334826396188873 17.855772025854094 0 0 0 0 -2.9416469867356909 3.1669872679358377 0 3.1669872679358377 17.586333837760321 0 0 0 0 -2.610272687585848 1.9700834971226868 0 1.9700834971226868 19.295980905004399 0 0 0 0 -2.620787358868256 3.8952444800415833 0 3.8952444800415833 16.29364683017775 0 0 0 0 -0.80928230571544191 1.0533497414871817 0 1.0533497414871817 18.227717193129138 0 0 0 0 -1.2072836129464468 -0.29911253584653963 0 -0.29911253584653963 4.1901055956283528 0 0 0 0 -3.312394114645258 1.1349153219507571 0 1.1349153219507571 23.846755257185578 0 0 0 0 -3.4002659808356839 2.3124192164759734 0 2.3124192164759734 19.786916777225997 0 0 0 0 -0.4463172705038545 1.6484723094003506 0 1.6484723094003506 18.784626441647447 0 0 0 0 -18.845588318594139 -9.2062204521098465 0 -9.2062204521098465 18.907527664101508 0 0 0 0 -4.1723188211046818 0.077566423453390598 0 0.077566423453390598 17.479184578369313 0 0 0 0 -6.586663596219978 -1.3241482586963684 0 -1.3241482586963684 24.353001236137061 0 0 0 0 -4.4401193126977887 -3.652499328036356 0 -3.652499328036356 11.166389054127649 0 0 0 0 -3.5630194275167923 -0.2597037391642516 0 -0.2597037391642516 13.980807044628818 0 0 0 0 -11.584764185604172 -7.6687969159866043 0 -7.6687969159866043 17.970929886991144 0 0 0 0 -1.3587222718165788 -3.0017996672263649 0 -3.0017996672263649 4.7542155817975811 0 0 0 0 -5.369207766595764 -11.244162965585929 0 -11.244162965585929 14.686880880894023 0 0 0 0 -5.6588382714020611 -12.856518241967024 0 -12.856518241967024 6.2512266702178749 0 0 0 0 -12.674108199702687 -12.840555791191946 0 -12.840555791191946 15.616048181567749 0 0 0 0 -11.68975311024974 -13.072097147951354 0 -13.072097147951354 15.669721351870066 0 0 0 0 -59.247440188097016 -21.457603569022467 0 -21.457603569022467 25.130956399319984 0 0 0 0 0.16983646190060275 2.4429556433581148 0 2.4429556433581148 20.226691299713593 0 0 0 0 -12.935129934219397 -20.560273476746033 0 -20.560273476746033 22.665580797023722 0 0 0 0 -104.12889015034773 -22.14931877124809 0 -22.14931877124809 35.991272168015712 0 0 0 0 -4.9818793397907939 -24.705245906634445 0 -24.705245906634445 20.44995889155507 0 0 0 0 22.251307978334921 -19.040730437613092 0 -19.040730437613092 6.0485857473122451 0 0 0 0 0.16572132043838594 2.8373593843408038 0 2.8373593843408038 21.722900651154916 0 0 0 0 -2.7884177614589589 6.7496116834699933 0 6.7496116834699933 17.201391431279262 0 0 0 0 -3.375771559265786 4.7946560383697943 0 4.7946560383697943 19.963449939059501 0 0 0 0 -6.4711343215703891 6.8736634569513626 0 6.8736634569513626 18.705909037940728 0 0 0 0 -3.2839810385569308 3.8933012529687403 0 3.8933012529687403 15.742653108674858 0 0 0 0 -0.57245181865710038 2.8380879643009393 0 2.8380879643009393 19.783220650193471 0 0 0 0 2.6563553843477621 2.8680636307599343 0 2.8680636307599343 18.576955267478297 0 0 0 0 2.9861362693860087 1.4783350329462337 0 1.4783350329462337 14.986748254788836 0 0 0 0 -16.96187514943972 3.1569890288192255 0 3.1569890288192255 11.804178101934667 0 0 0 0 69.849247293962094 -55.566118715536504 0 -55.566118715536504 -74.296501008750056 0 0 0 0 -247.64327440614284 -18.872368047299915 0 -18.872368047299915 59.227441237908351 0 0 0 0 0.22634724954120156 3.5198181246484221 0 3.5198181246484221 22.565777642429737 0 0 0 0 -14.124726476205296 17.771014621455834 0 17.771014621455834 11.809100252648932 0 0 0 0 195.15454708218044 101.56487430699781 0 101.56487430699781 29.660651683745527 0 0 0 0 119.01912122181869 104.55683314055113 0 104.55683314055113 118.55101969766838 0 0 0 0 142.65551942723482 67.873306541008787 0 67.873306541008787 174.32809982282288 0 0 0 0 222.45265672181981 64.204132167440548 0 64.204132167440548 75.833569497408462 0 0 0 0 84.152875821260466 90.189520243830884 0 90.189520243830884 149.91932958137477 0 0 0 0 56.026741968690615 139.71271511705345 0 139.71271511705345 241.45640010254647 0 0 0 0 155.83117590831802 182.33052787040469 0 182.33052787040469 267.87801432428387 0 0 0 0 8.099850041381643 118.91749132947371 0 118.91749132947371 290.28801739883602 0 0 0 0 -0.0053806556684798945 -0.16938192458103885 0 -0.16938192458103885 0.70036065265038872 0 0 0 0 96.446186525214131 57.958533336972323 0 57.958533336972323 52.295988212659722 0 0 0 0 37.259317173155921 39.89464608283879 0 39.89464608283879 49.824115651903412 0 0 0 0 28.00998646488847 20.32589258274129 0 20.32589258274129 34.58959021327064 0 0 0 0 11.5173989946951 -19.597277920431225 0 -19.597277920431225 29.968692431164527 0 0 0 0 94.207677377658925 -16.149196288290568 0 -16.149196288290568 20.515831360622542 0 0 0 0 16.410609912186601 -8.7827468666782806 0 -8.7827468666782806 74.27535257564341 0 0 0 0 56.710491503075957 8.9430344483189401 0 8.9430344483189401 19.377690618061024 0 0 0 0 9.5910710904774419 -13.902008007751647 0 -13.902008007751647 13.144878133862221 0 0 0 0 8.6082941528225376 -8.4641574708512053 0 -8.4641574708512053 17.418916430917307 0 0 0 0 12.23270580336839 -8.42754087369849 0 -8.42754087369849 6.4535532409863663 0 0 0 0 4.5189273078209453 -21.613028083138488 0 -21.613028083138488 13.375991955967038 0 0 0 0 -4.3747979911127004 -11.433113227591093 0 -11.433113227591093 6.3122419466658357 0 0 0 0 6.6187014970301448 -12.332115826758127 0 -12.332115826758127 -20.552069793546252 0 0 0 0 -0.097729330441402418 -3.5870648631741489 0 -3.5870648631741489 1.42826456058323 0 0 0 0 0.60278456158982863 -17.822342947689322 0 -17.822342947689322 -5.1627163346820453 0 0 0 0 -2.35925095709689 -5.0462948454223806 0 -5.0462948454223806 2.1535695971651876 0 0 0 0 12.101607320309654 -10.482836144641624 0 -10.482836144641624 3.5710146063975117 0 0 0 0 10.513148732482488 10.74046090830393 0 10.74046090830393 10.359695564809954 0 0 0 0 17.002996467952361 22.105269574916292 0 22.105269574916292 37.970102396899165 0 0 0 0 26.333702622996668 4.3248258016428736 0 4.3248258016428736 11.6549759594036 0 0 0 0 21.694348002362048 20.120449370384449 0 20.120449370384449 38.79187393544089 0 0 0 0 0.049913074458976414 -0.3695503276022265 0 -0.3695503276022265 0.82667843565893406 0 0 0 0 32.419920824334675 48.131476447005753 0 48.131476447005753 62.370681795579003 0 0 0 0 11.170243188781036 17.594305714861548 0 17.594305714861548 53.853288745682221 0 0 0 0 14.864863347184269 25.903190266320507 0 25.903190266320507 43.156432476906048 0 0 0 0 9.6562670330127389 1.628310199786938 0 1.628310199786938 23.519464483537377 0 0 0 0 -6.7509924171719371 -3.9944758353649377 0 -3.9944758353649377 15.140239644395479 0 0 0 0 -0.061093979969930469 0.26635892129988026 0 0.26635892129988026 0.013650438948701549 0 0 0 0 6.2997743265827779 7.1262688391252595 0 7.1262688391252595 -1.9815261693402135 0 0 0 0 3.8482368597924221 -7.35538573701524 0 -7.35538573701524 -2.0293382609233959 0 0 0 0 5.3196543596642822 9.9876993264115299 0 9.9876993264115299 46.06216034083991 0 0 0 0 15.199993238441218 20.56485258788598 0 20.56485258788598 21.171343940113729 0 0 0 0 20.999539961158327 2.060280045869149 0 2.060280045869149 -12.318506350409734 0 0 0 0 8.5904779201607315 8.6784682754223468 0 8.6784682754223468 32.950844117609904 0 0 0 0 11.545712191818559 18.82534145137106 0 18.82534145137106 59.987581948727893 0 0 0 0 30.048662068185916 75.27111356941532 0 75.27111356941532 94.215416399507944 0 0 0 0 23.811377639390017 33.496093185971404 0 33.496093185971404 29.288526561756953 0 0 0 0 10.987517338526724 28.21495664580425 0 28.21495664580425 36.952464958769269 0 0 0 0 2.6357069801325199 28.801156550011001 0 28.801156550011001 95.027277302251605 0 0 0 0 0.004089393096857412 38.718158779306158 0 38.718158779306158 83.469243733154144 0 0 0 0 -10.771757228364928 15.484467418528766 0 15.484467418528766 50.10646988944427 0 0 0 0 0.044991410723847353 17.954437058117037 0 17.954437058117037 45.581202098874201 0 0 0 0 0.013258711762891298 -0.07810362936429982 0 -0.07810362936429982 0.3568153396364977 0 0 0 0 53.311162173900222 40.736700332556211 0 40.736700332556211 45.339606023566375 0 0 0 0 10.676682730049677 17.722298533219146 0 17.722298533219146 72.417848198958382 0 0 0 0 31.31679110908555 68.332847609741293 0 68.332847609741293 100.79806066786841 0 0 0 0 -0.077425703872699481 33.517128579387645 0 33.517128579387645 124.4500662107821 0 0 0 0 9.8774541044718518 84.727325708590797 0 84.727325708590797 229.44743449247335 0 0 0 0 32.907932342582022 54.478643534559524 0 54.478643534559524 103.06927000476207 0 0 0 0 46.965472598389788 54.750932086437388 0 54.750932086437388 85.252504151332687 0 0 0 0 23.081031022513525 91.06192915036263 0 91.06192915036263 212.35781131720796 0 0 0 0 0.13115772429176251 -0.46041906839874969 0 -0.46041906839874969 1.0089596141609434 0 0 0 0 19.525144557226838 73.838810688024751 0 73.838810688024751 225.8868059992401 0 0 0 0 28.645564662961448 131.28509331001078 0 131.28509331001078 307.17463691229568 0 0 0 0 5.7956802388178339 129.10835857986808 0 129.10835857986808 318.591501570525 0 0 0 0 108.69042022504929 163.88133835994267 0 163.88133835994267 311.44406687732044 0 0 0 0 99.547972048366532 301.13502201013034 0 301.13502201013034 647.35544578686677 0 0 0 0 0.53359329244614762 83.482444608828501 0 83.482444608828501 325.77609921109251 0 0 0 0 64.35462247073059 79.629371338593046 0 79.629371338593046 228.25965099059204 0 0 0 0 6.195654516553887 90.779305707216736 0 90.779305707216736 364.64108428606414 0 0 0 0 99.721248122137126 -110.23031518667631 0 -110.23031518667631 326.57726396761427 0 0 0 0 46.108462300022836 -127.18678404972707 0 -127.18678404972707 349.60378612147179 0 0 0 0 0.082447189535414966 -112.48142435021509 0 -112.48142435021509 357.66081314509574 0 0 0 0 51.020376258710655 -153.06640051101567 0 -153.06640051101567 350.01508495807093 0 0 0 0 0.032355560562673191 -157.29823029803811 0 -157.29823029803811 391.67127752364831 0 0 0 0 63.258867199935537 -185.61097346332645 0 -185.61097346332645 357.42854591936339 0 0 0 0 122.53200027705429 -179.34724244945028 0 -179.34724244945028 301.14704088186954 0 0 0 0 121.02026738650432 -169.88975846367248 0 -169.88975846367248 248.47330789608532 0 0 0 0 88.906427611705908 -97.311451149100321 0 -97.311451149100321 233.57690406923939 0 0 0 0 152.65033926901688 -151.9336088628836 0 -151.9336088628836 254.65790966925124 0 0 0 0 108.70115578224119 -132.27280970408174 0 -132.27280970408174 280.04959467690333 0 0 0 0 70.929939104566472 -83.568875147253493 0 -83.568875147253493 281.62641260257078 0 0 0 0 107.62060361438077 -132.54409911294624 0 -132.54409911294624 280.99692314867571 0 0 0 0 115.20809003714874 -82.698306709682583 0 -82.698306709682583 214.48486412497004 0 0 0 0 24.283202434757698 -31.16544394205448 0 -31.16544394205448 238.53200832931907 0 0 0 0 77.878009951518322 -78.982018857319417 0 -78.982018857319417 275.62787796712655 0 0 0 0 -22.823309191374278 7.4104284958739299 0 7.4104284958739299 282.26004441696909 0 0 0 0 25.249515389298267 16.904488682959709 0 16.904488682959709 188.6078189665277 0 0 0 0 118.44082285277045 -119.48741537913156 0 -119.48741537913156 306.48923653325983 0 0 0 0 27.634012301619578 -66.705527304889983 0 -66.705527304889983 378.83654048725657 0 0 0 0 134.26312224039526 -42.997574694656805 0 -42.997574694656805 348.18222899842658 0 0 0 0 49.274867534777592 -97.404342626390644 0 -97.404342626390644 333.60118087084265 0 0 0 0 -0.036228913859873382 -38.877744526511378 0 -38.877744526511378 393.05971887663327 0 0 0 0 19.139543102314292 -139.04805671576469 0 -139.04805671576469 311.51267971236848 0 0 0 0 150.27456799366803 -114.65584606847642 0 -114.65584606847642 37.736020139993343 0 0 0 0 0.12427878476593733 -0.070872145196826608 0 -0.070872145196826608 2.372481648058681 0 0 0 0 7.0551839557919536 27.254164314210357 0 27.254164314210357 58.463124721639815 0 0 0 0 0.074142901501719261 -24.902786193568318 0 -24.902786193568318 86.884911079683661 0 0 0 0 4.0857219528018369 2.6316128190446761 0 2.6316128190446761 -4.9477833020100661 0 0 0 0 34.538589765163593 -41.461703896839026 0 -41.461703896839026 8.634954916240531 0 0 0 0 0.02539612354670823 0.052675504028414366 0 0.052675504028414366 -0.019198939092703426 0 0 0 0 -0.078081248591360772 -1.0686760735292378 0 -1.0686760735292378 5.6114066457389526 0 0 0 0 4.7730240453659682 -5.9613321489346163 0 -5.9613321489346163 -5.3811207682083477 0 0 0 0 -4.2625338109879891 0.38352657169707527 0 0.38352657169707527 5.5368600027213688 0 0 0 0 -0.31105397445462124 -0.022255885718422519 0 -0.022255885718422519 0.95128461426499911 0 0 0 0 -7.9969282406054081 -5.5837904541876924 0 -5.5837904541876924 6.3143319125229027 0 0 0 0 0.025157522845941655 0.89890214226846132 0 0.89890214226846132 6.8933388481818838 0 0 0 0 0.19949470249736545 -0.31411454673187578 0 -0.31411454673187578 -0.44157035812000345 0 0 0 0 1.9629846236329414 0.23568491635705868 0 0.23568491635705868 -9.6192635550869454 0 0 0 0 -21.689991038470367 2.3329715272152498 0 2.3329715272152498 43.414334500303084 0 0 0 0 1.0002532058106777 -3.8015689020877375 0 -3.8015689020877375 2.4459099905854487 0 0 0 0 20.340231323244438 -20.177281016549387 0 -20.177281016549387 -8.9578135794672562 0 0 0 0 -12.617991975559988 17.16555600718948 0 17.16555600718948 37.561276923053811 0 0 0 0 34.975067157530084 65.252189618492963 0 65.252189618492963 118.43897041516902 0 0 0 0 34.004185475822965 -5.0206794410823932 0 -5.0206794410823932 39.106535258704753 0 0 0 0 25.562310297258364 138.55718913968281 0 138.55718913968281 243.83303076310767 0 0 0 0 -0.16249121831026514 27.163244685241807 0 27.163244685241807 192.58597664565059 0 0 0 0 4.5189612043450325 25.001747540769429 0 25.001747540769429 185.9262615931766 0 0 0 0 -2.3220289915439025 50.190213459904044 0 50.190213459904044 166.37364128978879 0 0 0 0 -8.4833269505493263 41.315241212836554 0 41.315241212836554 171.73658910798986 0 0 0 0 -3.6489436188705895 50.740134544499597 0 50.740134544499597 184.77180833062448 0 0 0 0 -15.731583214710895 39.392834764115833 0 39.392834764115833 172.73220135297743 0 0 0 0 2.5159665088962129 26.288549259865249 0 26.288549259865249 72.474753143120324 0 0 0 0 -15.860536487104355 23.883955091423559 0 23.883955091423559 139.6610328027059 0 0 0 0 -16.503047552529097 12.04449692745402 0 12.04449692745402 141.09225617564516 0 0 0 0 -6.3813233039418265 29.523331284057349 0 29.523331284057349 121.96980009803156 0 0 0 0 -0.36637012980582995 26.209659508651384 0 26.209659508651384 122.99819667181873 0 0 0 0 23.81847480900808 4.1459403673252382 0 4.1459403673252382 42.213035487518937 0 0 0 0 5.4014876357989579 -9.4936069827599567 0 -9.4936069827599567 44.939965043766279 0 0 0 0 -15.227258799845117 8.7701703924467438 0 8.7701703924467438 33.241777952447592 0 0 0 0 1.3387748097559433 -3.9599937967672503 0 -3.9599937967672503 1.7939468732395127 0 0 0 0 11.376869255184602 -4.4350195739134506 0 -4.4350195739134506 -27.123695257032523 0 0 0 0 19.794642535090361 -17.213193601721287 0 -17.213193601721287 -17.343659746995399 0 0 0 0 -0.18174783888758839 7.6531452678509595 0 7.6531452678509595 17.316668937950453 0 0 0 0 1.6578944958912416 6.5487779057039006 0 6.5487779057039006 5.3372589836071711 0 0 0 0 0.90710284665406204 -3.8348432658253699 0 -3.8348432658253699 1.907131120823216 0 0 0 0 7.372584606396714 -10.81835615165528 0 -10.81835615165528 13.935858228724101 0 0 0 0 18.25716106948812 0.67873463726937189 0 0.67873463726937189 -21.020269608476156 0 0 0 0 2.2799983818570126 16.995769952751289 0 16.995769952751289 40.845800504488579 0 0 0 0 4.4225095279959987 -15.19295486800911 0 -15.19295486800911 82.402662229891575 0 0 0 0 -0.26903842487058682 -0.91827504550019512 0 -0.91827504550019512 69.356107192317722 0 0 0 0 -11.580480929874284 -46.452969034617126 0 -46.452969034617126 38.490111451703342 0 0 0 0 10.779567311135565 -13.377571657736553 0 -13.377571657736553 26.7854590812276 0 0 0 0 -3.5525367226450726 -10.405858602131048 0 -10.405858602131048 4.0613768185285153 0 0 0 0 -1.1419679190055376 -3.4983827936412126 0 -3.4983827936412126 23.813860489521176 0 0 0 0 -12.101860373229329 -32.318802611200226 0 -32.318802611200226 163.55804050026927 0 0 0 0 -9.8705154087979281 -17.750907106856175 0 -17.750907106856175 157.50271042018358 0 0 0 0 -19.746827130498104 5.647205972674783 0 5.647205972674783 270.10042333434103 0 0 0 0 -26.957063697473131 -2.8227050045279611 0 -2.8227050045279611 228.88323480899271 0 0 0 0 9.0028631316072278 38.71090051651845 0 38.71090051651845 208.01532683664482 0 0 0 0 -0.32494441066455693 -5.9242408420323045 0 -5.9242408420323045 376.06494600143196 0 0 0 0 77.353971439875295 -46.614581982925301 0 -46.614581982925301 299.80069021349482 0 0 0 0 122.98742047359428 41.016428840332082 0 41.016428840332082 229.7522738303378 0 0 0 0 -9.9073544634820792 18.688619555483456 0 18.688619555483456 110.29181880556644 0 0 0 0 0.82849654316214583 -35.782990103500197 0 -35.782990103500197 107.82811873746687 0 0 0 0 -16.984832311524315 5.799943967263971 0 5.799943967263971 165.54059081183368 0 0 0 0 -18.393212785167862 -1.608991009784404 0 -1.608991009784404 149.68466594661004 0 0 0 0 -20.245374582613977 34.339366153497394 0 34.339366153497394 188.51313592327642 0 0 0 0 -18.66737077287442 39.432080294859361 0 39.432080294859361 219.25895930122351 0 0 0 0 -18.572607151252214 35.65669837511814 0 35.65669837511814 186.20881347942486 0 0 0 0 -15.615830704602786 51.708410300689138 0 51.708410300689138 195.87422899046214 0 0 0 0 -20.581398327484067 47.119441124461446 0 47.119441124461446 188.13079710312013 0 0 0 0 -16.21299439657605 52.770290624663176 0 52.770290624663176 194.01293081173208 0 0 0 0 64.22341058761117 7.4084125426816172 0 7.4084125426816172 230.43723050600966 0 0 0 0 -2.0104594491224361 38.589734503668296 0 38.589734503668296 225.88832066523901 0 0 0 0 20.807249757081081 18.425291048944928 0 18.425291048944928 267.30097941364511 0 0 0 0 4.4897275510052168 37.039397324995662 0 37.039397324995662 260.1816459413385 0 0 0 0 -10.524334601084774 60.277389549206418 0 60.277389549206418 209.45415077701909 0 0 0 0 20.479941731170129 40.471862040831184 0 40.471862040831184 197.92511844736873 0 0 0 0 -10.713256871065141 53.42489145665968 0 53.42489145665968 181.09684235224995 0 0 0 0 -3.8348138460510199 52.825601683522109 0 52.825601683522109 182.33408133858757 0 0 0 0 -16.723140670414523 47.241953862372611 0 47.241953862372611 198.12899774235461 0 0 0 0 -14.443271824140538 39.239369337523385 0 39.239369337523385 167.74831772294056 0 0 0 0 -24.587550048719095 51.011439197496657 0 51.011439197496657 182.38185147770855 0 0 0 0 -35.481787279574405 49.997264332713257 0 49.997264332713257 162.24894280843728 0 0 0 0 -36.633441835494295 19.003975909243309 0 19.003975909243309 129.29161090021444 0 0 0 0 -32.391233261066759 52.691204280694365 0 52.691204280694365 155.38263001090672 0 0 0 0 -4.6218347886598394 40.199011009059177 0 40.199011009059177 159.02302001336284 0 0 0 0 -13.595621035576187 61.415769643921521 0 61.415769643921521 176.2791091238214 0 0 0 0 -12.809620299580729 60.2855948583383 0 60.2855948583383 193.48315274397828 0 0 0 0 -6.3859519206350797 49.210220826309524 0 49.210220826309524 188.02619299327284 0 0 0 0 -10.389045248797288 55.632364007864453 0 55.632364007864453 180.54690483551531 0 0 0 0 -12.701557445956155 46.146746840709966 0 46.146746840709966 194.90780972276116 0 0 0 0 20.649994289271262 28.625793987415818 0 28.625793987415818 185.70535665464195 0 0 0 0 48.785203750193091 -17.637488848638895 0 -17.637488848638895 221.04020218521146 0 0 0 0 5.8350293144742409 33.408967508314163 0 33.408967508314163 200.98652282759576 0 0 0 0 25.528424046875841 29.454183795785866 0 29.454183795785866 174.59885185709572 0 0 0 0 29.39423108075971 3.2440865524004039 0 3.2440865524004039 198.76978412291464 0 0 0 0 37.209721639544796 14.23105399564156 0 14.23105399564156 145.14863000584955 0 0 0 0 -3.0437014994052447 45.669838845946288 0 45.669838845946288 175.9981632268973 0 0 0 0 106.43748788791754 -14.64120859286777 0 -14.64120859286777 140.25108351052768 0 0 0 0 146.10145332927118 -94.81507715360226 0 -94.81507715360226 174.84539757402672 0 0 0 0 91.012364682993052 -75.078079821189021 0 -75.078079821189021 219.01926700404147 0 0 0 0 174.14614098243169 -144.09347267930934 0 -144.09347267930934 218.90353027206947 0 0 0 0 214.70699305236235 -61.239027330037061 0 -61.239027330037061 106.87901297847202 0 0 0 0 62.275669953736212 28.763250385666652 0 28.763250385666652 89.987487399048405 0 0 0 0 115.57088904375894 -18.730951525669298 0 -18.730951525669298 150.16379000836605 0 0 0 0 90.716581014736448 -44.798563565935183 0 -44.798563565935183 167.38330831826897 0 0 0 0 73.368661453666846 -70.156170129062957 0 -70.156170129062957 90.205197970385086 0 0 0 0 -21.804668871503907 14.242757905197323 0 14.242757905197323 -4.5939988569552952 0 0 0 0 -126.64740610395711 -186.40631830084021 0 -186.40631830084021 -43.65761105090769 0 0 0 0 -95.118746487723456 -0.6925071772566298 0 -0.6925071772566298 81.558742459108544 0 0 0 0 -25.969748574850087 32.35864838874113 0 32.35864838874113 78.215640921909653 0 0 0 0 -35.84687659427027 -9.1327842201353633 0 -9.1327842201353633 130.12722922994726 0 0 0 0 17.148145396147527 41.1962517425236 0 41.1962517425236 111.10323347505619 0 0 0 0 -21.735963681440126 26.853438078727777 0 26.853438078727777 28.858331506704417 0 0 0 0 -64.750214308369436 -68.512752521115544 0 -68.512752521115544 -17.360945808617544 0 0 0 0 -2.7744816813984654 0.33401964504135151 0 0.33401964504135151 0.81277445435475215 0 0 0 0 -23.329580740999432 18.037182828458754 0 18.037182828458754 101.99780491468482 0 0 0 0 -0.32191516455195313 2.3543312412712112 0 2.3543312412712112 20.598185700735485 0 0 0 0 -18.864232096981965 -12.179405158014561 0 -12.179405158014561 18.847769754738692 0 0 0 0 -12.909720257492083 -14.425223122559146 0 -14.425223122559146 18.471969550693757 0 0 0 0 -2.3227238675396902 -7.0800033072346382 0 -7.0800033072346382 17.964046158098796 0 0 0 0 -20.36350867513147 1.8639791097521083 0 1.8639791097521083 20.662339838180515 0 0 0 0 0.26847183115473455 -8.0198095208722791 0 -8.0198095208722791 12.983064769438784 0 0 0 0 -26.693817993809503 -10.86961353630187 0 -10.86961353630187 24.546725797699764 0 0 0 0 -19.842360429784307 3.3619948744089925 0 3.3619948744089925 31.995416263433071 0 0 0 0 -5.2231841390458031 0.9089104862573123 0 0.9089104862573123 2.1658569122350997 0 0 0 0 11.288790093339912 -10.438445398740441 0 -10.438445398740441 33.655138041853206 0 0 0 0 -35.103695386908385 1.8846546778804623 0 1.8846546778804623 105.95208379460382 0 0 0 0 50.651568957911877 116.69040561193833 0 116.69040561193833 85.643202214532721 0 0 0 0 -15.975834769570199 48.124668117285637 0 48.124668117285637 127.57655787638214 0 0 0 0 4.3118215658034735 -5.7517153502471885 0 -5.7517153502471885 5.5009359308768921 0 0 0 0 3.8328219344983765 14.068556734521735 0 14.068556734521735 228.83299786642601 0 0 0 0 -25.789159164633475 -34.991978783153172 0 -34.991978783153172 0.67059697353761294 0 0 0 0 0.033523809979498054 -1.6282658595396606 0 -1.6282658595396606 0.40971655326879386 0 0 0 0 38.849314391821281 58.152684783173754 0 58.152684783173754 219.36559414478688 0 0 0 0 29.320631089638709 50.745358059082719 0 50.745358059082719 247.44608678598888 0 0 0 0 1.427850894329822 43.222103661180881 0 43.222103661180881 245.56752762809992 0 0 0 0 -39.682884219802645 9.2821948715027247 0 9.2821948715027247 211.03888382373043 0 0 0 0 -15.223291430655536 35.730921842929092 0 35.730921842929092 234.64796807057428 0 0 0 0 15.256516500170392 15.297507039384982 0 15.297507039384982 217.23464028627495 0 0 0 0 -28.843146271593469 12.758801201649476 0 12.758801201649476 248.98451379116159 0 0 0 0 -28.873803506162403 10.32699286431307 0 10.32699286431307 210.37573679703564 0 0 0 0 -41.524296838072985 -1.8654619310377711 0 -1.8654619310377711 236.44026838100399 0 0 0 0 -42.055325086994159 5.857214190882587 0 5.857214190882587 223.41160786712135 0 0 0 0 -39.433368594567582 19.829964025699155 0 19.829964025699155 198.26170855954115 0 0 0 0 -36.080455267214575 -1.8625871849399118 0 -1.8625871849399118 207.21050230065157 0 0 0 0 -39.352403869576165 26.769321636922541 0 26.769321636922541 174.23280114852969 0 0 0 0 -41.501327125720479 30.935669465875435 0 30.935669465875435 90.58503451719298 0 0 0 0 -43.180673196421367 -0.24726498082600301 0 -0.24726498082600301 139.29859207292975 0 0 0 0 -57.127428175526347 35.08108246759366 0 35.08108246759366 133.91933601208439 0 0 0 0 -50.317538265558596 -2.9407532892582822 0 -2.9407532892582822 91.354020512662828 0 0 0 0 -46.586738509284629 27.248401044874299 0 27.248401044874299 155.25559806631645 0 0 0 0 -30.447016612883061 16.24954563037727 0 16.24954563037727 146.7825458914449 0 0 0 0 -33.838460631548514 38.152354042471416 0 38.152354042471416 173.0508542187963 0 0 0 0 -31.837783068306862 5.8146676970463886 0 5.8146676970463886 171.64977845080648 0 0 0 0 -12.832025000950274 16.562727583637411 0 16.562727583637411 190.97548681012995 0 0 0 0 16.833060029607623 3.3106755716144107 0 3.3106755716144107 221.67160453160977 0 0 0 0 -21.347728197136348 29.495200509489223 0 29.495200509489223 207.72751181425701 0 0 0 0 -17.420566210182471 -3.0802461955204308 0 -3.0802461955204308 215.4555377002398 0 0 0 0 -17.46906012426598 0.096665879114880227 0 0.096665879114880227 251.19080880562251 0 0 0 0 -14.28241168887007 3.9495189055669471 0 3.9495189055669471 230.30896309734089 0 0 0 0 -7.8507966315164595 17.943178809277015 0 17.943178809277015 250.37399079167562 0 0 0 0 4.735311892693062 14.631304027687293 0 14.631304027687293 251.51593091282484 0 0 0 0 -10.217661255734413 18.53333818304236 0 18.53333818304236 250.65589594212361 0 0 0 0 6.44882044724568 -6.2847490640106116 0 -6.2847490640106116 296.80103351741855 0 0 0 0 -33.73581674882962 -4.4853726638757507 0 -4.4853726638757507 226.95716372549941 0 0 0 0 -39.128868185536476 -7.152717013588699 0 -7.152717013588699 236.04344096589193 0 0 0 0 -36.971971683536367 -4.826760389323681 0 -4.826760389323681 236.26349738046702 0 0 0 0 -26.529645702237758 8.0652162105761818 0 8.0652162105761818 228.97540376416146 0 0 0 0 -24.419844106435448 -0.74617035444680369 0 -0.74617035444680369 234.29599474625138 0 0 0 0 -27.56546583388149 -0.65406549654289847 0 -0.65406549654289847 248.31194900961418 0 0 0 0 -34.106056236649692 -5.6374796753843839 0 -5.6374796753843839 235.16614632963319 0 0 0 0 -33.056603369390132 -7.0754593123710947 0 -7.0754593123710947 236.03767619629798 0 0 0 0 -25.596576250415183 0.61883353516896022 0 0.61883353516896022 214.5284958719858 0 0 0 0 -21.353492999419359 9.0525269413919887 0 9.0525269413919887 224.2978180834034 0 0 0 0 -3.9702211174244439 33.337764704614528 0 33.337764704614528 231.60456278873608 0 0 0 0 -22.61527079364555 6.4888455897853419 0 6.4888455897853419 243.18013370037079 0 0 0 0 -12.165798004262342 12.163873504221556 0 12.163873504221556 239.58048954109108 0 0 0 0 -0.3978279383508152 49.290759645897197 0 49.290759645897197 270.94965625548502 0 0 0 0 -2.6798481912541092 34.985349993568889 0 34.985349993568889 224.88425051933154 0 0 0 0 38.319709906952539 104.71729946619598 0 104.71729946619598 229.64106822061149 0 0 0 0 51.480161955279982 92.157276811594784 0 92.157276811594784 160.08936555687978 0 0 0 0 4.5540273320575579 52.962025408676709 0 52.962025408676709 235.48743196848955 0 0 0 0 31.076158254052643 66.305376320815412 0 66.305376320815412 142.09581066461396 0 0 0 0 7.9622553432097902 51.016189524299989 0 51.016189524299989 186.48927560460288 0 0 0 0 -9.2854221638108356 25.157837424761965 0 25.157837424761965 221.29574282783142 0 0 0 0 -9.0967200790735347 21.305342104865076 0 21.305342104865076 179.04133135407756 0 0 0 0 -0.28134261226159651 32.277427733464719 0 32.277427733464719 181.08485191741784 0 0 0 0 3.4903739717492499 35.323891143962101 0 35.323891143962101 159.9315357428859 0 0 0 0 3.4249345477923043 8.4128565102892026 0 8.4128565102892026 119.85632161633112 0 0 0 0 4.6377882536307879 14.943713125903741 0 14.943713125903741 140.68731898203259 0 0 0 0 -14.191784569178708 77.526409052225063 0 77.526409052225063 355.36838055348562 0 0 0 0 -17.662141509401067 -56.403599349968317 0 -56.403599349968317 101.3055181431846 0 0 0 0 46.576995007807454 15.675061334433849 0 15.675061334433849 -28.139486106258119 0 0 0 0 0.5201981441750223 -0.83150103637139239 0 -0.83150103637139239 0.96405257237287856 0 0 0 0 -14.212862650716943 26.301997592163389 0 26.301997592163389 317.17000401947007 0 0 0 0 -5.1001344658702692 30.596100890848902 0 30.596100890848902 297.02015531010693 0 0 0 0 -11.756514005043755 11.527834767497552 0 11.527834767497552 287.38175310491351 0 0 0 0 -6.8809772403515126 39.332425064072595 0 39.332425064072595 282.53337506064963 0 0 0 0 -17.373093598959031 14.613730539273092 0 14.613730539273092 265.57941848167684 0 0 0 0 -8.7751189163154777 49.395760148297995 0 49.395760148297995 293.43998380779522 0 0 0 0 -6.5509765101760422 30.939791090568178 0 30.939791090568178 270.59000833559548 0 0 0 0 2.8601832312551778 31.719406495569274 0 31.719406495569274 249.63626035442576 0 0 0 0 7.5165711354038649 104.07049541547894 0 104.07049541547894 300.94303123476402 0 0 0 0 -0.11563124143831516 -0.004152472391879769 0 -0.004152472391879769 -0.13977663800201157 0 0 0 0 0.28814674220097913 -28.616112908217474 0 -28.616112908217474 -9.4109996564948233 0 0 0 0 0.93115327767145573 -0.69330701306898845 0 -0.69330701306898845 -15.34847928313684 0 0 0 0 -0.75962094421902293 -4.2371500710723922 0 -4.2371500710723922 -11.871724074997474 0 0 0 0 -6.8676279343194437 4.7135165385698201 0 4.7135165385698201 9.2951707347765478 0 0 0 0 -4.0771055094483017 3.9940346338407835 0 3.9940346338407835 -0.43928689141466748 0 0 0 0 -5.4003504838392473 6.899282717553433 0 6.899282717553433 -10.185493560748 0 0 0 0 -4.3058261112892069 0.11429871583823115 0 0.11429871583823115 0.60174087443374447 0 0 0 0 -0.3308514885518985 -0.18378894226256648 0 -0.18378894226256648 1.3706481486527338 0 0 0 0 -32.1285772672353 -13.69245017537196 0 -13.69245017537196 55.183079283207917 0 0 0 0 -5.1197769231663415 -1.5906457431210583 0 -1.5906457431210583 5.2349739242126816 0 0 0 0 55.874352327571614 59.043580889483565 0 59.043580889483565 71.380360018345527 0 0 0 0 44.745328281605907 70.136486138806504 0 70.136486138806504 91.465715132129844 0 0 0 0 48.596978941901398 28.341146616687183 0 28.341146616687183 58.327566333115101 0 0 0 0 19.960220593392478 6.6751088742312277 0 6.6751088742312277 93.326176621234481 0 0 0 0 14.763123716423252 6.0319704762223409 0 6.0319704762223409 118.02344109601108 0 0 0 0 27.891183851618734 33.524536535187508 0 33.524536535187508 98.315309348108713 0 0 0 0 27.670612100662765 32.359083380302764 0 32.359083380302764 102.48224497691263 0 0 0 0 -10.82745644251429 5.2806043606615276 0 5.2806043606615276 1.4072656491989619 0 0 0 0 -1.3238936298932913 -3.5359853123827634 0 -3.5359853123827634 5.1480949929500639 0 0 0 0 -4.9130673472100739 2.0572028478127322 0 2.0572028478127322 6.4969587731102365 0 0 0 0 0.44389711607789195 -1.5005166697737877 0 -1.5005166697737877 8.600554945798649 0 0 0 0 -0.93069618594643089 4.6622312325525854 0 4.6622312325525854 4.1084764026563789 0 0 0 0 -8.1951573906551403 0.23794166101288283 0 0.23794166101288283 5.6681368181452854 0 0 0 0 35.490234570898451 13.332340008257233 0 13.332340008257233 -8.4143734946192126 0 0 0 0 -2.4668336776373962 0.91372511950885382 0 0.91372511950885382 8.2372583184187533 0 0 0 0 -4.1637243260879586 5.2764662323570519 0 5.2764662323570519 25.16112669804852 0 0 0 0 -20.255429749315226 -26.703518902606447 0 -26.703518902606447 -14.123416347472812 0 0 0 0 -0.86012807157419324 2.2137966260874506 0 2.2137966260874506 2.9151847151427575 0 0 0 0 -0.50325553772963982 0.1056754535872102 0 0.1056754535872102 9.3449179940687657 0 0 0 0 -0.063022409209679608 -0.6350751079407928 0 -0.6350751079407928 8.1342685127383447 0 0 0 0 23.766979353121769 -2.405629261789727 0 -2.405629261789727 67.427534059999743 0 0 0 0 0.98800517626822049 -0.37568068886109884 0 -0.37568068886109884 -0.04183639513692583 0 0 0 0 -24.883837516906624 -0.035831662942655385 0 -0.035831662942655385 8.962073177593993 0 0 0 0 1.6662513410520914 -1.8284125731692313 0 -1.8284125731692313 2.0900144633429818 0 0 0 0 -10.676999294248958 18.936427131278833 0 18.936427131278833 22.761889355140738 0 0 0 0 -3.4382199455058071 -2.6835564397988492 0 -2.6835564397988492 87.316035140094755 0 0 0 0 15.578416261320399 -2.5587024057895178 0 -2.5587024057895178 87.068202725306037 0 0 0 0 -57.213763426181231 -13.903654244139034 0 -13.903654244139034 117.38278201012145 0 0 0 0 -6.2581038051403084 -14.567549856728874 0 -14.567549856728874 115.96510024041709 0 0 0 0 10.103777334529013 11.321517009950185 0 11.321517009950185 25.023776163085131 0 0 0 0 -33.188262382178436 -3.0882799922655977 0 -3.0882799922655977 38.106784281058935 0 0 0 0 -24.691837465834169 -25.654032068072411 0 -25.654032068072411 21.906447203160496 0 0 0 0 13.75383840076438 -13.37249029805389 0 -13.37249029805389 92.231736959671252 0 0 0 0 39.605466962199557 28.964326900057131 0 28.964326900057131 25.005493410310009 0 0 0 0 34.715696526739066 -33.982700770058727 0 -33.982700770058727 166.90223483602313 0 0 0 0 -13.20793825837427 -29.743852503139351 0 -29.743852503139351 159.1405077350646 0 0 0 0 16.1596748562024 3.7930428571562516 0 3.7930428571562516 99.371920904464787 0 0 0 0 -2.7223934978492252 -26.434169407308218 0 -26.434169407308218 189.06893457791375 0 0 0 0 -16.559383956771853 -9.5484666482880129 0 -9.5484666482880129 178.82985589458985 0 0 0 0 3.1021928210609531 -45.573700506556634 0 -45.573700506556634 241.67143849916465 0 0 0 0 26.101011031523285 -15.878702334364789 0 -15.878702334364789 181.30782628049201 0 0 0 0 -8.7931967451831952 3.5533523254744068 0 3.5533523254744068 167.48647512045864 0 0 0 0 -22.205920139911996 -13.5314512544428 0 -13.5314512544428 173.45268820271849 0 0 0 0 -11.278361614122332 -24.415712567053561 0 -24.415712567053561 115.00987067206006 0 0 0 0 -11.928823427456337 -22.954159605054883 0 -22.954159605054883 156.37377680240934 0 0 0 0 -20.602989463960057 -14.255572266920353 0 -14.255572266920353 155.42814204619208 0 0 0 0 -28.374625065688633 -18.235232710241689 0 -18.235232710241689 209.53689444607153 0 0 0 0 -24.386469304677121 -11.001845323229645 0 -11.001845323229645 205.96486663716496 0 0 0 0 -25.814906013397206 1.5723903661928489 0 1.5723903661928489 213.41679357350222 0 0 0 0 -34.198132997785251 -13.55387741386221 0 -13.55387741386221 216.2358006094455 0 0 0 0 -35.217179929863278 -16.622780133377091 0 -16.622780133377091 240.09864119661506 0 0 0 0 -30.184483512776524 -19.714663823820956 0 -19.714663823820956 245.72748580382904 0 0 0 0 -18.286949924055989 -19.562403404859651 0 -19.562403404859651 241.67076289113902 0 0 0 0 -37.21630725614159 -5.6650640699863288 0 -5.6650640699863288 259.64941771799931 0 0 0 0 -15.912727468405137 6.7477025726257125 0 6.7477025726257125 240.93009720884584 0 0 0 0 -36.017136662970643 -4.4491535824345192 0 -4.4491535824345192 240.66117004488478 0 0 0 0 -37.726070817504478 -7.8500289982221148 0 -7.8500289982221148 233.96073136512132 0 0 0 0 60.890905735892375 -74.478074145645223 0 -74.478074145645223 270.88269422913436 0 0 0 0 -19.916783204074363 -8.5932553921156796 0 -8.5932553921156796 260.43523606305462 0 0 0 0 -10.413931224279622 -15.76657579636958 0 -15.76657579636958 265.79581525579124 0 0 0 0 -17.529137777476507 22.694332248009687 0 22.694332248009687 295.41325466994022 0 0 0 0 -10.139274919602599 -25.525151809819363 0 -25.525151809819363 375.4031423729175 0 0 0 0 4.6044216817867891 61.604014774825373 0 61.604014774825373 348.67684591051511 0 0 0 0 138.36983326110453 -177.60095180228745 0 -177.60095180228745 442.9729041581304 0 0 0 0 83.961242303144672 -31.426663662863575 0 -31.426663662863575 194.59837193702697 0 0 0 0 -39.960479533292755 -6.1711546159203863 0 -6.1711546159203863 537.79087206073746 0 0 0 0 307.00962775350376 -47.661567792973074 0 -47.661567792973074 81.935983979841694 0 0 0 0 86.611080953820874 68.599965783869266 0 68.599965783869266 111.23237102605162 0 0 0 0 44.846726253627821 30.178952943822878 0 30.178952943822878 80.652984808737529 0 0 0 0 94.217067948606655 -50.365487201910582 0 -50.365487201910582 182.07251144587281 0 0 0 0 173.05470589762058 2.2704610716937168 0 2.2704610716937168 61.468057291313016 0 0 0 0 67.10004809329007 1.6488887047780736 0 1.6488887047780736 95.452407016477082 0 0 0 0 63.611776593516424 -11.228191224414331 0 -11.228191224414331 88.966956441732691 0 0 0 0 92.117039687764986 30.404070883183522 0 30.404070883183522 28.506327377785055 0 0 0 0 75.829414850965804 27.378614043718699 0 27.378614043718699 66.733231366391919 0 0 0 0 25.015855054496797 75.881328721749014 0 75.881328721749014 23.876734089408274 0 0 0 0 90.099694342713235 63.860817218695047 0 63.860817218695047 8.2066749512960087 0 0 0 0 24.883257306396899 70.613781237381772 0 70.613781237381772 46.127910704144597 0 0 0 0 45.429468623736398 60.145362014704915 0 60.145362014704915 35.955641937805922 0 0 0 0 -3.930465511210488 -0.032337689471766851 0 -0.032337689471766851 2.1758770570077886 0 0 0 0 1.8225458485082999 2.7352212555689377 0 2.7352212555689377 -2.3843851417392798 0 0 0 0 5.9770813172799535 46.667802434953046 0 46.667802434953046 54.3275262107054 0 0 0 0 23.920492525378222 28.06173372156627 0 28.06173372156627 29.110082904857791 0 0 0 0 50.731850137914307 -4.4449625164015742 0 -4.4449625164015742 11.74217815098109 0 0 0 0 -97.458272489470346 23.24263538410014 0 23.24263538410014 54.205865805062786 0 0 0 0 -21.622676528148759 56.026184640460997 0 56.026184640460997 34.907755649808678 0 0 0 0 -11.195802209453632 33.800899642350487 0 33.800899642350487 50.859303922341496 0 0 0 0 -28.30687923651476 56.111028583203733 0 56.111028583203733 46.982600265116389 0 0 0 0 31.47432022662224 51.026751743102068 0 51.026751743102068 46.692706217334489 0 0 0 0 -26.277190292179057 38.739786686979642 0 38.739786686979642 101.86509016757191 0 0 0 0 22.889246409795305 66.873393318412127 0 66.873393318412127 24.064126528654015 0 0 0 0 -24.167774368631854 78.409828713374736 0 78.409828713374736 40.843486743549875 0 0 0 0 -100.01167039441953 29.057263025722932 0 29.057263025722932 37.683995108905719 0 0 0 0 -186.76989262526968 -12.230923608876765 0 -12.230923608876765 26.793426838041341 0 0 0 0 -88.488544668451595 25.320032431438449 0 25.320032431438449 13.447146985941799 0 0 0 0 -110.74268377937665 31.633686009678058 0 31.633686009678058 38.688418610152439 0 0 0 0 -102.92470524695983 -42.086089659699155 0 -42.086089659699155 -35.135034351813374 0 0 0 0 -69.510187018846182 8.2494691623251128 0 8.2494691623251128 6.0136674655732349 0 0 0 0 -151.00430142912626 -71.884033058851855 0 -71.884033058851855 -15.036674881324871 0 0 0 0 -275.33865640270801 -54.642287233173874 0 -54.642287233173874 48.823959724839369 0 0 0 0 -260.66039497294719 65.429517456246685 0 65.429517456246685 44.176769125431747 0 0 0 0 -0.89692616533791902 -2.738939568711686 0 -2.738939568711686 15.796133665994333 0 0 0 0 -23.58335355948816 179.65934317860956 0 179.65934317860956 89.431064931115543 0 0 0 0 -100.36200527916276 34.174948916483118 0 34.174948916483118 10.211381889930635 0 0 0 0 -131.00379350785681 63.75739408073332 0 63.75739408073332 -91.017692064779112 0 0 0 0 33.170325437614991 96.17505033472662 0 96.17505033472662 8.4883174408751074 0 0 0 0 -136.85913928373111 66.313836769084446 0 66.313836769084446 142.59956873884221 0 0 0 0 -318.36538066004982 -243.76715248588516 0 -243.76715248588516 136.85497281261996 0 0 0 0 -50.886717397284201 -113.89108201223644 0 -113.89108201223644 89.383057605664362 0 0 0 0 -132.58589352926538 -131.54921971139265 0 -131.54921971139265 133.00165470240631 0 0 0 0 -126.33296584766276 -132.26575110992508 0 -132.26575110992508 -107.87607582454075 0 0 0 0 210.56704120198322 -286.33342977997063 0 -286.33342977997063 -90.730469635753252 0 0 0 0 -0.37454783860063912 -0.34466459591312315 0 -0.34466459591312315 5.3299291968649953 0 0 0 0 334.73709373851852 351.89660267543377 0 351.89660267543377 52.643493708885217 0 0 0 0 -443.5230870464195 10.355090192022544 0 10.355090192022544 344.85216774804576 0 0 0 0 -198.63243775785486 468.69642581193148 0 468.69642581193148 381.73485891042947 0 0 0 0 -0.18095943287792859 -7.9618473282065985 0 -7.9618473282065985 84.036745759061901 0 0 0 0 -247.2670587273883 -192.17473329353015 0 -192.17473329353015 98.582819417088103 0 0 0 0 295.25974649539785 -291.1215363085139 0 -291.1215363085139 84.149297250271047 0 0 0 0 2.020873213227901 -25.443753782570639 0 -25.443753782570639 358.9763892786068 0 0 0 0 -274.72908132174427 -97.14476886419925 0 -97.14476886419925 366.83992953494453 0 0 0 0 138.72872787170172 -224.34091349640221 0 -224.34091349640221 207.34243984559726 0 0 0 0 29.203746247273102 87.135126049990504 0 87.135126049990504 263.63283334065636 0 0 0 0 2.5340840296003933 -1.5792886377749937 0 -1.5792886377749937 1.4718076943495078 0 0 0 0 128.53844347427867 -60.168436604079034 0 -60.168436604079034 -50.193559363804525 0 0 0 0 28.85169499087624 132.25441923265316 0 132.25441923265316 640.58333374275389 0 0 0 0 -23.119674744474651 -6.228094885682367 0 -6.228094885682367 35.284269149742613 0 0 0 0 3.6826848936477745 -77.80874021056934 0 -77.80874021056934 50.261078626994276 0 0 0 0 38.022424089385936 -21.716776616756761 0 -21.716776616756761 16.846227574911609 0 0 0 0 28.867430255235377 -45.501401903413353 0 -45.501401903413353 70.041862906078677 0 0 0 0 -17.094203997033219 -14.352101797030627 0 -14.352101797030627 27.619347435469535 0 0 0 0 -16.496056884311656 -12.952602438628674 0 -12.952602438628674 18.622408241615631 0 0 0 0 -32.707874117321808 -29.677939819095627 0 -29.677939819095627 17.870962047387366 0 0 0 0 21.235706022534259 -22.927185742395523 0 -22.927185742395523 17.166298066593299 0 0 0 0 24.129277749862922 -70.76344871884794 0 -70.76344871884794 1.4195764918258647 0 0 0 0 -45.547054795860845 -66.454657630163638 0 -66.454657630163638 20.464395790149865 0 0 0 0 -73.459148197637106 45.913496106721709 0 45.913496106721709 100.25740990609847 0 0 0 0 -1.2453224539271186 -9.6994662529506428 0 -9.6994662529506428 78.631621653980559 0 0 0 0 46.38664615659718 -21.932160200780345 0 -21.932160200780345 26.129442960216693 0 0 0 0 51.846524362855007 -59.998462045277847 0 -59.998462045277847 4.2288277055413346 0 0 0 0 4.0520826191936976 -38.036898993494106 0 -38.036898993494106 20.524636838505103 0 0 0 0 -12.391554395598348 -1.7708616718678059 0 -1.7708616718678059 46.278807068531023 0 0 0 0 -2.0895335341342616 -7.351039788696653 0 -7.351039788696653 35.027232055501372 0 0 0 0 -41.313145862169243 -12.373002180428671 0 -12.373002180428671 57.798199103875959 0 0 0 0 0.1685533616760716 -6.7746803421116546 0 -6.7746803421116546 36.544265771801165 0 0 0 0 -2.1486029793657284 2.9704130032246852 0 2.9704130032246852 13.011898743570121 0 0 0 0 -1.401738211281554 -19.634075224494154 0 -19.634075224494154 68.974161762245785 0 0 0 0 -6.1452362856623992 -11.719265703953276 0 -11.719265703953276 30.189111106324077 0 0 0 0 0.15352153718572481 -21.50835960781842 0 -21.50835960781842 -2.3556789461144945 0 0 0 0 -14.198863451873876 -36.58909285765003 0 -36.58909285765003 -12.145587422655808 0 0 0 0 -1.3431974022998734 -1.6897010104605812 0 -1.6897010104605812 5.1613198438836392 0 0 0 0 -17.102495294387154 -4.4172427056264496 0 -4.4172427056264496 31.376022394582833 0 0 0 0 -25.759461941497648 -36.961119664176294 0 -36.961119664176294 1.2899517642763385 0 0 0 0 -21.836949840478155 -23.687670676805283 0 -23.687670676805283 33.963391184908687 0 0 0 0 -9.6660692622626101 -12.630382263352551 0 -12.630382263352551 14.619512008970041 0 0 0 0 -35.99812541809024 -4.8456228124523477 0 -4.8456228124523477 55.728755700863985 0 0 0 0 -13.921452048926596 21.478537171680273 0 21.478537171680273 31.77212024698747 0 0 0 0 -57.966297019816238 35.462758199812015 0 35.462758199812015 58.128363155550687 0 0 0 0 -15.712837466480297 -9.6808622648659082 0 -9.6808622648659082 21.413526139982537 0 0 0 0 -56.46142626158727 -35.013373593524705 0 -35.013373593524705 152.23418738783221 0 0 0 0 21.879653219273564 3.2581518550277906 0 3.2581518550277906 17.183890560114378 0 0 0 0 115.38534890994936 -103.33700282044992 0 -103.33700282044992 82.721057406059117 0 0 0 0 -11.701249697550793 9.3680379900179105 0 9.3680379900179105 50.588503963972471 0 0 0 0 -30.090932727019805 -23.288298827734252 0 -23.288298827734252 22.726229895943106 0 0 0 0 -0.50349269737506974 1.1279717412735764 0 1.1279717412735764 8.2802090385858591 0 0 0 0 -48.189274726787517 -20.751972944015506 0 -20.751972944015506 98.450148730031287 0 0 0 0 -1.5089176591176201 -2.9037234468752704 0 -2.9037234468752704 37.875531691495233 0 0 0 0 -12.116775410087598 -7.1832376810216374 0 -7.1832376810216374 36.774803661834085 0 0 0 0 -23.999040328241634 11.753509139911216 0 11.753509139911216 62.097334046651667 0 0 0 0 -12.504897304719236 4.1616526144425734 0 4.1616526144425734 46.414025510141983 0 0 0 0 13.793189319695898 -1.8945944678794149 0 -1.8945944678794149 9.9855101718021615 0 0 0 0 -7.6659566774653349 3.4529025374254303 0 3.4529025374254303 6.9484270160352342 0 0 0 0 27.95746436632993 7.4314428720545038 0 7.4314428720545038 20.277418819638115 0 0 0 0 22.743768037498285 20.869035103489068 0 20.869035103489068 19.315132076855662 0 0 0 0 -37.433008674131997 -6.6775213438149876 0 -6.6775213438149876 66.482170000001133 0 0 0 0 -4.1175184383020564 10.531857798905548 0 10.531857798905548 41.333639468633919 0 0 0 0 -3.1178634117132491 2.3206730596756699 0 2.3206730596756699 29.679245643267663 0 0 0 0 -8.4470061106562753 16.46530505688952 0 16.46530505688952 28.759267818211811 0 0 0 0 -1.5242166409546147 3.4954852260543472 0 3.4954852260543472 23.476721929855415 0 0 0 0 -6.801148172637852 -0.14645163815157503 0 -0.14645163815157503 23.532292558367772 0 0 0 0 6.8128054620538023 24.522949883919864 0 24.522949883919864 21.885808410873324 0 0 0 0 -0.99025061706011464 3.2428440346030705 0 3.2428440346030705 5.7801373012337152 0 0 0 0 -1.8207321192268875 -0.52118741945463753 0 -0.52118741945463753 1.2288783576672699 0 0 0 0 14.195731154635382 10.518608773734286 0 10.518608773734286 23.79459521660101 0 0 0 0 -48.645033395871906 -15.901358117262134 0 -15.901358117262134 56.267324976519376 0 0 0 0 208.24066731414587 53.437049461845163 0 53.437049461845163 74.959333586329194 0 0 0 0 148.07351899222181 606.22943937328455 0 606.22943937328455 1220.3342330380547 0 0 0 0 213.40841710447933 -49.687201852058934 0 -49.687201852058934 -31.055116258772614 0 0 0 0 4.4994327121672368 -0.15984141238589444 0 -0.15984141238589444 0.65454782200940631 0 0 0 0 -128.5573953731454 179.84815722876374 0 179.84815722876374 753.29708534550809 0 0 0 0 491.92079027774002 157.3501216835939 0 157.3501216835939 27.462506353754634 0 0 0 0 16.343670323723927 6.9748501836584182 0 6.9748501836584182 12.291025394602912 0 0 0 0 -22.705755698091139 53.5783055742736 0 53.5783055742736 16.755537735953112 0 0 0 0 58.219366545297234 9.1026200839241938 0 9.1026200839241938 15.536133328080268 0 0 0 0 10.922608458239742 1.607615112583666 0 1.607615112583666 4.3857472301240321 0 0 0 0 7.2480528242151365 7.9494278625370214 0 7.9494278625370214 11.551530396548628 0 0 0 0 5.7080004846112598 7.7003627075469723 0 7.7003627075469723 10.82899589290837 0 0 0 0 2.3452430819929759 4.5176339692025067 0 4.5176339692025067 6.9571870263898745 0 0 0 0 1.3331683333279285 3.8106855354744411 0 3.8106855354744411 14.388897292681534 0 0 0 0 432.88848956543444 382.55225481445814 0 382.55225481445814 289.60999488166635 0 0 0 0 2.1418332967440072 1.3092606586619793 0 1.3092606586619793 8.1397662105311355 0 0 0 0 717.97225196208888 817.12939828366416 0 817.12939828366416 945.99866250808554 0 0 0 0 150.29555098735761 695.74503263506995 0 695.74503263506995 1497.5892191187086 0 0 0 0 164.12333775531445 661.0979739919112 0 661.0979739919112 1282.5490766399998 0 0 0 0 147.68940301442498 568.68905959169206 0 568.68905959169206 1301.4112011534344 0 0 0 0 241.05126912579104 734.12629417170865 0 734.12629417170865 1181.7259357503535 0 0 0 0 5.2114246076028685 -3.2263185131916217 0 -3.2263185131916217 4.0109943761526878 0 0 0 0 325.04805686205009 -164.11944537814998 0 -164.11944537814998 83.579748695512535 0 0 0 0 117.3232581571757 -353.38254989410052 0 -353.38254989410052 1741.3320547331168 0 0 0 0 181.87997095177201 -356.20807030244396 0 -356.20807030244396 1584.3818868752514 0 0 0 0 -19.467569065670563 -239.65002682481645 0 -239.65002682481645 1680.456306166132 0 0 0 0 468.48256361435313 -564.85338276578841 0 -564.85338276578841 1732.9205896666153 0 0 0 0 -111.64518791432411 -40.094744853424345 0 -40.094744853424345 1497.9700746518101 0 0 0 0 113.54438358976216 -385.45312580239261 0 -385.45312580239261 1244.0160701075001 0 0 0 0 27.265949396397765 6.1442232724475616 0 6.1442232724475616 9.3954241739338613 0 0 0 0 1.7312847601009962 -1.980003673214485 0 -1.980003673214485 1.9108287567028697 0 0 0 0 -0.27793572510601949 1.2528150817179622 0 1.2528150817179622 7.6076346827182162 0 0 0 0 -1.4218734499190759 0.39579431763195316 0 0.39579431763195316 19.141720360392583 0 0 0 0 0.67496919129644084 3.4094917072106909 0 3.4094917072106909 19.250598925013037 0 0 0 0 3.6268475746512014 0.8468338374617943 0 0.8468338374617943 6.2865519346140246 0 0 0 0 -1.3132693792551891 0.21986220134749601 0 0.21986220134749601 18.221401402697666 0 0 0 0 34.648135115499826 66.300940705550602 0 66.300940705550602 10.749042853880383 0 0 0 0 171.02323744325068 17.082321491907351 0 17.082321491907351 -97.425663738726143 0 0 0 0 -11.21808366793266 1.9685342206412315 0 1.9685342206412315 19.492544626173185 0 0 0 0 -1.4645036032485059 0.75996169722261442 0 0.75996169722261442 4.9066589749715739 0 0 0 0 -30.457114449751316 -1.8567611915641464 0 -1.8567611915641464 -62.694299255992519 0 0 0 0 -252.52558731449426 50.408833104425867 0 50.408833104425867 20.138767515061772 0 0 0 0 -1.2168647226981031 -1.9013164669818057 0 -1.9013164669818057 14.210634025085199 0 0 0 0 311.56057190401725 55.343548329063196 0 55.343548329063196 -62.549238019939366 0 0 0 0 -11.905774181948686 -0.74931676386404433 0 -0.74931676386404433 16.066362425757688 0 0 0 0 0.41535014366518896 3.7819897604074164 0 3.7819897604074164 11.022949339680011 0 0 0 0 -9.2365806802217776 -1.4574984536702686 0 -1.4574984536702686 8.5015880102291703 0 0 0 0 4.7009089435545661 -3.2736972367038106 0 -3.2736972367038106 19.278796477396099 0 0 0 0 -4.9816754805030996 -6.2998396996790689 0 -6.2998396996790689 18.478334120612999 0 0 0 0 -4.1255059835586962 -3.4744280235427141 0 -3.4744280235427141 27.344058525970468 0 0 0 0 -5.1766579864274718 6.4328359425417148 0 6.4328359425417148 30.955503634981142 0 0 0 0 -14.663744997093659 1.8555987263375755 0 1.8555987263375755 44.631612533208681 0 0 0 0 33.477560949523081 -25.090111865085419 0 -25.090111865085419 25.915389473633695 0 0 0 0 -26.437194277149729 -36.124487645960471 0 -36.124487645960471 34.657648221629643 0 0 0 0 -33.759384578547497 -4.6751305513053012 0 -4.6751305513053012 7.1850003445906623 0 0 0 0 0.91886080632440992 2.3255616820132339 0 2.3255616820132339 6.2807840257050032 0 0 0 0 125.35449481442447 -88.724932703091326 0 -88.724932703091326 58.917383038424305 0 0 0 0 147.9778350280269 -0.59006416297870601 0 -0.59006416297870601 -30.953113434836268 0 0 0 0 24.537031446929177 100.49905498889711 0 100.49905498889711 -50.760700715843996 0 0 0 0 205.40662572531392 -101.19537026511534 0 -101.19537026511534 -99.824900779638483 0 0 0 0 379.38518439279233 -131.50460582123924 0 -131.50460582123924 -23.187373288128583 0 0 0 0 192.42393955790641 -132.86876409256547 0 -132.86876409256547 173.36683328234358 0 0 0 0 851.57262756628131 -278.27615582216276 0 -278.27615582216276 -41.345735562877962 0 0 0 0 -5.4194850640756158 0.6180317292601103 0 0.6180317292601103 4.9494942432029347 0 0 0 0 1.9209717090426941 -4.9408821969437913 0 -4.9408821969437913 19.468455441881829 0 0 0 0 -94.251483511996412 -52.342666675278451 0 -52.342666675278451 218.60528189535034 0 0 0 0 -5.281344662555739 1.8538376665565011 0 1.8538376665565011 9.3048266381956637 0 0 0 0 -7.3592195409789838 2.5550076613508281 0 2.5550076613508281 16.071678400374367 0 0 0 0 107.40109847897494 35.161504058072751 0 35.161504058072751 -84.439406750654598 0 0 0 0 -549.0223322187129 -108.09037258763419 0 -108.09037258763419 277.8928412317473 0 0 0 0 89.044048294972981 -375.69354902134364 0 -375.69354902134364 386.88108006150651 0 0 0 0 493.49145316467047 -103.90330313122831 0 -103.90330313122831 -37.089228925669886 0 0 0 0 303.49651201554116 -1078.5306477597987 0 -1078.5306477597987 1092.165938734157 0 0 0 0 27.074253556782178 -108.82810803073005 0 -108.82810803073005 922.270234728574 0 0 0 0 3.0553094109299246 -2.3206089449596612 0 -2.3206089449596612 -1.0577175639196099 0 0 0 0 7.9991998755191283 -1.5023611777780346 0 -1.5023611777780346 1.1478951676820479 0 0 0 0 324.40357267515901 -696.64491680966603 0 -696.64491680966603 1705.2622500758525 0 0 0 0 382.41933366656076 160.98853754623451 0 160.98853754623451 -87.047464342245803 0 0 0 0 608.0833390744333 -971.00585763536947 0 -971.00585763536947 1378.7545414876367 0 0 0 0 857.52627951154432 -789.84929213874034 0 -789.84929213874034 1412.3317628914956 0 0 0 0 500.37226334902954 -743.5664825963122 0 -743.5664825963122 1501.0293097659578 0 0 0 0 641.67852496906437 -378.81139230927511 0 -378.81139230927511 1789.4237752945155 0 0 0 0 -174.28779726819744 -224.96346680753049 0 -224.96346680753049 585.74267359215446 0 0 0 0 884.3546045376487 -1060.5856084457228 0 -1060.5856084457228 868.90922996365407 0 0 0 0 570.90302079708249 -835.46859153742207 0 -835.46859153742207 1291.0655183225172 0 0 0 0 21.270094105327644 -1019.5480515517629 0 -1019.5480515517629 1747.7035813882931 0 0 0 0 -145.34383890032052 -11.359027582913768 0 -11.359027582913768 1151.0591176711932 0 0 0 0 848.79836559306489 -456.10745101592272 0 -456.10745101592272 1095.7489271545419 0 0 0 0 258.86043629758757 -396.68996242219509 0 -396.68996242219509 1498.5482631003767 0 0 0 0 335.74427149225778 -693.10009944214107 0 -693.10009944214107 960.12561107374495 0 0 0 0 425.93952596291911 -258.2211052939092 0 -258.2211052939092 1057.040844197345 0 0 0 0 152.34939520381408 -506.48097503777353 0 -506.48097503777353 948.97508405847475 0 0 0 0 225.9084888989303 -580.96842430972231 0 -580.96842430972231 570.2972689586386 0 0 0 0 223.15013391775045 -457.18045209019692 0 -457.18045209019692 595.35326149302637 0 0 0 0 726.27404193327618 -760.80420405989025 0 -760.80420405989025 484.54971452973768 0 0 0 0 560.522500992711 -471.24123742387565 0 -471.24123742387565 164.85898603328314 0 0 0 0 207.75369580304664 -264.27455089466093 0 -264.27455089466093 115.30264931982674 0 0 0 0 326.79488369179154 -369.88411722887986 0 -369.88411722887986 198.2757753117221 0 0 0 0 283.41550646192945 -373.90304829409251 0 -373.90304829409251 225.86174461042538 0 0 0 0 149.78161866952408 -304.9305055969071 0 -304.9305055969071 292.63070545265509 0 0 0 0 93.573779506794381 -223.0507264125572 0 -223.0507264125572 185.80771507971076 0 0 0 0 7.5767612510919662 -154.6318119270145 0 -154.6318119270145 207.36508346677874 0 0 0 0 72.764302438449249 -108.91300869689076 0 -108.91300869689076 144.14333117197748 0 0 0 0 24.137415506823345 -14.473512337710417 0 -14.473512337710417 82.946465972425358 0 0 0 0 126.80487922229554 -146.4998527040043 0 -146.4998527040043 85.659946772520925 0 0 0 0 187.91870848920485 -226.03653259107432 0 -226.03653259107432 165.38175635621883 0 0 0 0 187.23291821364887 -83.569580832827242 0 -83.569580832827242 11.824941555481928 0 0 0 0 -45.212163220595357 -41.035571870517742 0 -41.035571870517742 73.536970657427446 0 0 0 0 14.867775166644606 -12.528917007071868 0 -12.528917007071868 37.885987311878125 0 0 0 0 -58.821437725697479 -52.563207336891992 0 -52.563207336891992 44.949645382541348 0 0 0 0 30.911521297554827 -82.25300996855367 0 -82.25300996855367 92.104024720334564 0 0 0 0 -4.9617814537932778 -5.815458220473416 0 -5.815458220473416 39.712282740213865 0 0 0 0 153.92091393409919 92.199030527415744 0 92.199030527415744 -36.454003890794411 0 0 0 0 -127.93523247264261 120.59919600186095 0 120.59919600186095 79.87850188066659 0 0 0 0 -174.24756790812444 -6.8612974154402764 0 -6.8612974154402764 93.117425517048105 0 0 0 0 -101.98397963635489 87.418860279376531 0 87.418860279376531 48.842071754042991 0 0 0 0 0.63146276892415076 1.0751376965883104 0 1.0751376965883104 1.7839961776030435 0 0 0 0 -81.763141570575272 -3.834409956340096 0 -3.834409956340096 41.084794033900835 0 0 0 0 -24.672273584497816 -19.467729646348744 0 -19.467729646348744 32.743352349119959 0 0 0 0 338.43254799657552 -122.15526552374649 0 -122.15526552374649 80.814093352557393 0 0 0 0 35.207325723499025 308.17615878531251 0 308.17615878531251 -64.745862230469356 0 0 0 0 -29.145567205488987 -9.9616526460740715 0 -9.9616526460740715 -31.671170147914381 0 0 0 0 -60.566410946440556 -68.443486395521177 0 -68.443486395521177 -12.492354321162566 0 0 0 0 33.487363872861806 -15.453597366747999 0 -15.453597366747999 39.543606237923086 0 0 0 0 -20.241682033341931 9.9006748497267836 0 9.9006748497267836 11.174839100105601 0 0 0 0 -48.839967407107906 30.28371140294621 0 30.28371140294621 18.74173585108656 0 0 0 0 -46.308022791984513 5.1055215933374711 0 5.1055215933374711 60.393300176849152 0 0 0 0 12.59140540968815 -30.538988606973362 0 -30.538988606973362 38.548045798299427 0 0 0 0 -42.666262712107937 -10.643391429339317 0 -10.643391429339317 14.372972305813164 0 0 0 0 4.5109032956011106 17.089748015805526 0 17.089748015805526 29.015895880434982 0 0 0 0 -75.667110022047382 15.942228624737254 0 15.942228624737254 47.308822697246796 0 0 0 0 -13.312284370421366 -19.791103502513579 0 -19.791103502513579 19.763031618658715 0 0 0 0 -16.757129112970688 -28.791966028578827 0 -28.791966028578827 -3.2924801128465333 0 0 0 0 -2.357688376259115 -16.593644288460531 0 -16.593644288460531 19.118674544822298 0 0 0 0 -12.217529764885104 -0.83827264608947871 0 -0.83827264608947871 4.362846444871586 0 0 0 0 -19.645916580096518 -21.71011551639458 0 -21.71011551639458 5.1161422901132028 0 0 0 0 -31.79676842174122 -6.3021679066805518 0 -6.3021679066805518 29.401239484719554 0 0 0 0 6.9617335397123554 -49.355243320955196 0 -49.355243320955196 -62.799832938202599 0 0 0 0 71.138531148572639 4.5347459821095981 0 4.5347459821095981 14.374195222524577 0 0 0 0 -74.014389431178699 -2.8696918876485142 0 -2.8696918876485142 34.573603077958978 0 0 0 0 6.745671575779852 -96.16891123172536 0 -96.16891123172536 285.28753060946474 0 0 0 0 46.482717333530331 -27.910282208612443 0 -27.910282208612443 66.593594860176381 0 0 0 0 21.88046137477204 -34.83747368472541 0 -34.83747368472541 67.216777669462317 0 0 0 0 -5.3192448843988132 -23.114361451138393 0 -23.114361451138393 82.484232275095565 0 0 0 0 -5.3842641242153482 1.143136699593569 0 1.143136699593569 -0.5122929226789843 0 0 0 0 107.75022138800159 -40.866723335566348 0 -40.866723335566348 247.69456904964318 0 0 0 0 77.526564004745069 -308.28367957775845 0 -308.28367957775845 342.60002905077636 0 0 0 0 -87.112036808343305 -121.84544351651311 0 -121.84544351651311 214.86792627089744 0 0 0 0 10.654468671714994 -117.05793823731801 0 -117.05793823731801 334.03431277582422 0 0 0 0 -1.4796642799255069 0.22979016136481789 0 0.22979016136481789 0.01679233417629078 0 0 0 0 40.756510334550171 -89.020647091612773 0 -89.020647091612773 -197.99174612768002 0 0 0 0 -136.83292841075314 -142.92733830280849 0 -142.92733830280849 354.23673405608133 0 0 0 0 -0.99769343800366372 0.084305604848871951 0 0.084305604848871951 0.41480929559969582 0 0 0 0 -124.51232673170773 -162.68654163405154 0 -162.68654163405154 202.71444537297793 0 0 0 0 -38.83924018173451 143.31495320070189 0 143.31495320070189 210.91943848509982 0 0 0 0 -87.585718826026834 -2.8820948607772152 0 -2.8820948607772152 164.53534000265063 0 0 0 0 121.16444062168193 33.342636802102788 0 33.342636802102788 84.244455435764394 0 0 0 0 161.09390279661505 -124.7002648354387 0 -124.7002648354387 159.53905011595634 0 0 0 0 251.25733742281955 -54.18751075561886 0 -54.18751075561886 214.26971137202418 0 0 0 0 211.55224334150728 -155.16756539035123 0 -155.16756539035123 195.41959471904556 0 0 0 0 349.07784066454423 -282.59386323560466 0 -282.59386323560466 293.42213704926689 0 0 0 0 442.81940953962044 -24.503330482415549 0 -24.503330482415549 506.35824739071359 0 0 0 0 220.15500214489839 -246.91030475564185 0 -246.91030475564185 341.88727637103511 0 0 0 0 130.1722739824724 -258.53295154413877 0 -258.53295154413877 956.97044008818921 0 0 0 0 134.25790934449276 -214.70167149816893 0 -214.70167149816893 436.40741722357052 0 0 0 0 659.38216552621861 -465.55720976449538 0 -465.55720976449538 482.77685083473625 0 0 0 0 0.43532336297189644 -2.2512489470274746 0 -2.2512489470274746 8.8025130882811027 0 0 0 0 945.83914715771152 -547.70009308518638 0 -547.70009308518638 238.36700151186596 0 0 0 0 307.88457215890753 -665.83203642735316 0 -665.83203642735316 836.45398120783011 0 0 0 0 232.2520939546215 -472.46002769860752 0 -472.46002769860752 434.83777577041474 0 0 0 0 116.82165193251285 -415.90868265507015 0 -415.90868265507015 407.64989129906462 0 0 0 0 120.80493988484909 -429.8856791386097 0 -429.8856791386097 383.03541754953767 0 0 0 0 37.805969120081613 -404.68716191100975 0 -404.68716191100975 649.0109936557019 0 0 0 0 15.224306402609848 -305.1171781425428 0 -305.1171781425428 386.0923473571238 0 0 0 0 69.679781577875275 -270.5802291708751 0 -270.5802291708751 407.8702663137592 0 0 0 0 73.445807602496757 -353.3762773428225 0 -353.3762773428225 285.18278420891875 0 0 0 0 87.116043595583335 -405.00813356567596 0 -405.00813356567596 449.32880218523132 0 0 0 0 222.7769628126772 -472.3912798794745 0 -472.3912798794745 356.79613799389335 0 0 0 0 100.11130736274754 -472.47580899075547 0 -472.47580899075547 409.21259162636488 0 0 0 0 67.628881876608034 -412.92915852792794 0 -412.92915852792794 377.90738707417404 0 0 0 0 147.24870290028389 -394.15243380056745 0 -394.15243380056745 284.88282029741458 0 0 0 0 -69.290566959770899 -223.68335010428655 0 -223.68335010428655 307.12722486246639 0 0 0 0 -66.716866433038604 -223.41714370483896 0 -223.41714370483896 304.8064931714689 0 0 0 0 88.761798683034499 -420.73644705350307 0 -420.73644705350307 384.2988713976647 0 0 0 0 -12.005131070859761 -422.95766448545146 0 -422.95766448545146 594.40244682811317 0 0 0 0 -74.19981753435053 -292.73916067388927 0 -292.73916067388927 747.785337587904 0 0 0 0 -248.71204881225387 -180.02286053444868 0 -180.02286053444868 607.44727031800721 0 0 0 0 -58.031511108114728 -247.78952818189646 0 -247.78952818189646 428.68891140370761 0 0 0 0 -109.62072596557209 -160.39992087077553 0 -160.39992087077553 405.9817122234017 0 0 0 0 -307.45248924428142 112.71647742461209 0 112.71647742461209 169.43948393001119 0 0 0 0 -104.77055153689184 395.61590437435552 0 395.61590437435552 -407.69362046935203 0 0 0 0 -98.779829921149172 -165.14982669743767 0 -165.14982669743767 1653.138822130456 0 0 0 0 -3.0888740954145142 2.6506248728921591 0 2.6506248728921591 1.4609662258483311 0 0 0 0 -95.081989497939276 9.0661226583142707 0 9.0661226583142707 -19.30411627666399 0 0 0 0 -517.11558605176674 829.66141579675605 0 829.66141579675605 1500.8464915072725 0 0 0 0 -277.53993834710968 -106.82834441126033 0 -106.82834441126033 1326.6550515751183 0 0 0 0 -543.80688543285851 386.86639292024847 0 386.86639292024847 440.64808977273788 0 0 0 0 64.31685116655396 294.05957640553754 0 294.05957640553754 1232.6527756552787 0 0 0 0 -2.6481422507778283 -1.4652251045664888 0 -1.4652251045664888 1.9898332551757107 0 0 0 0 -59.235950892716112 -242.46220266071759 0 -242.46220266071759 1498.5506336340991 0 0 0 0 -58.880356243167626 57.255085693013825 0 57.255085693013825 -22.136153713923704 0 0 0 0 -122.52729433858758 21.817707612410231 0 21.817707612410231 96.605460568993294 0 0 0 0 -8.8823665611907217 3.9094274562997811 0 3.9094274562997811 8.2116835710403535 0 0 0 0 -115.47818258322555 -6.8195145407765949 0 -6.8195145407765949 79.476606789547077 0 0 0 0 -69.246001986121428 1.9971656370489654 0 1.9971656370489654 78.650379204485944 0 0 0 0 -43.781151257122261 -57.341454693323726 0 -57.341454693323726 -19.135862663650187 0 0 0 0 -2.5582840475812918 -5.0468122925486618 0 -5.0468122925486618 31.799901891515688 0 0 0 0 0.35809842417908733 -4.4244144606516507 0 -4.4244144606516507 22.66789097221853 0 0 0 0 51.168219947674061 -150.83162994412669 0 -150.83162994412669 167.79030975669048 0 0 0 0 -223.23947972824078 -53.06043737458549 0 -53.06043737458549 67.079758547435631 0 0 0 0 -8.68513002897771 -1.3823593480847194 0 -1.3823593480847194 29.116744116992777 0 0 0 0 51.507787404567807 -169.43250084327701 0 -169.43250084327701 221.06074531270133 0 0 0 0 243.8263399504209 -147.64290879936993 0 -147.64290879936993 43.765044376821606 0 0 0 0 192.55604315248979 -447.21416861357102 0 -447.21416861357102 345.50410672130965 0 0 0 0 -28.548869579383307 -332.68549564637033 0 -332.68549564637033 1498.1629206985108 0 0 0 0 -95.581491271961909 -131.20392187805919 0 -131.20392187805919 72.249130349541701 0 0 0 0 14.838416611028606 -54.770173551411062 0 -54.770173551411062 105.31913020903448 0 0 0 0 23.128255415449132 -58.999737010562058 0 -58.999737010562058 34.631486547186796 0 0 0 0 -27.216706545903435 -136.02663742638833 0 -136.02663742638833 38.669338805024609 0 0 0 0 -45.813261196100939 -89.423225747599645 0 -89.423225747599645 28.176520962213544 0 0 0 0 -42.907923280480816 -52.291751143615329 0 -52.291751143615329 -8.8713231525834999 0 0 0 0 -45.841308138386154 -95.735050417241837 0 -95.735050417241837 -46.508664201755892 0 0 0 0 -0.22668304448974674 -0.86191480785319641 0 -0.86191480785319641 -0.38436648156290332 0 0 0 0 6.6534795596373968 -50.315417674995842 0 -50.315417674995842 -329.04716276150066 0 0 0 0 4.5929876278910058 -90.979883393216369 0 -90.979883393216369 101.02725958202791 0 0 0 0 -43.344038052027372 -25.177984380818089 0 -25.177984380818089 -46.863679575095006 0 0 0 0 -3.674030586888914 -8.2024029134891236 0 -8.2024029134891236 2.4149682363693259 0 0 0 0 332.73889059911988 -606.46750948878855 0 -606.46750948878855 1077.5827088808619 0 0 0 0 -75.060006560188015 -270.64178824762348 0 -270.64178824762348 1458.8544831463587 0 0 0 0 0.47452587935155111 -46.174037614578992 0 -46.174037614578992 652.25639934578794 0 0 0 0 153.32586770557575 -52.193657499279652 0 -52.193657499279652 -413.54396281641675 0 0 0 0 -1.1488491894255828 -2.9966648110194143 0 -2.9966648110194143 -0.70124749565763622 0 0 0 0 -0.26435677872075791 -0.80463285953480579 0 -0.80463285953480579 -0.004525103331687319 0 0 0 0 -68.508312473302908 -260.7524026154224 0 -260.7524026154224 305.95212125709077 0 0 0 0 35.225486587496277 -58.37666666979203 0 -58.37666666979203 -64.171055141540819 0 0 0 0 26.89026958434377 -79.144855172537063 0 -79.144855172537063 70.452020844706567 0 0 0 0 7.2815837134687058 -91.882318367863263 0 -91.882318367863263 132.61727208492812 0 0 0 0 0.024395873653209388 -136.13763888441463 0 -136.13763888441463 85.21911734148307 0 0 0 0 -4.2525225184913324 -50.01199133753471 0 -50.01199133753471 189.74088955970001 0 0 0 0 -0.052768991667295206 -139.07558136089807 0 -139.07558136089807 310.52154654631886 0 0 0 0 -24.989350673338805 -103.76654386194423 0 -103.76654386194423 352.67632734650033 0 0 0 0 -53.990495734690455 -144.08244582255793 0 -144.08244582255793 453.86511236636579 0 0 0 0 -39.654475571967282 -6.4083780650362314 0 -6.4083780650362314 383.58245775406249 0 0 0 0 8.7000387623082815 -35.942718125865213 0 -35.942718125865213 53.118323734299793 0 0 0 0 -310.06624623464518 146.5660231431126 0 146.5660231431126 586.07165841150345 0 0 0 0 37.008697276340172 -406.45666736200292 0 -406.45666736200292 863.40607450902462 0 0 0 0 -41.22447568913617 -136.82438365148846 0 -136.82438365148846 398.93641771624607 0 0 0 0 -126.19055215426448 -191.6715878875475 0 -191.6715878875475 641.52755693418294 0 0 0 0 242.86606457026892 -366.09941350757799 0 -366.09941350757799 465.61697399781769 0 0 0 0 198.23708744593091 -237.97833689304025 0 -237.97833689304025 372.26010295383821 0 0 0 0 214.64493208117491 -251.45562451909836 0 -251.45562451909836 306.23258479217475 0 0 0 0 70.015483899583984 -213.94921982317874 0 -213.94921982317874 367.99515908226022 0 0 0 0 81.295518765587303 -251.05035368642893 0 -251.05035368642893 386.72556534255637 0 0 0 0 -4.2194440027475366 -166.31825948029655 0 -166.31825948029655 397.0723439779249 0 0 0 0 -0.038215475474778417 -154.72645333800807 0 -154.72645333800807 414.80071239067183 0 0 0 0 16.159131017218101 -215.65609077026238 0 -215.65609077026238 453.42950814718643 0 0 0 0 -2.8514001900807884 0.22286396264389374 0 0.22286396264389374 1.3246184953133131 0 0 0 0 -36.271861021205439 32.16572428630343 0 32.16572428630343 102.94263122421307 0 0 0 0 -20.842476299213388 -9.2071855606125155 0 -9.2071855606125155 -2.1692506122835766 0 0 0 0 -6.8605569075436961 7.7124062224061163 0 7.7124062224061163 11.407259055712643 0 0 0 0 -11.911287268500246 -4.5208444711756783 0 -4.5208444711756783 33.905421453961026 0 0 0 0 -26.940443585586138 18.469433915767922 0 18.469433915767922 25.697650944299482 0 0 0 0 2.5519607701289715 -38.948683864993654 0 -38.948683864993654 21.042775409117894 0 0 0 0 -43.926585589674232 9.983231669275483 0 9.983231669275483 32.963183106785436 0 0 0 0 13.83602085403777 24.626508543155978 0 24.626508543155978 17.910839644264342 0 0 0 0 11.931207688950053 13.031458236022218 0 13.031458236022218 -6.1299555159866941 0 0 0 0 -1.6456411506732698 0.21262068202512996 0 0.21262068202512996 23.771710293736596 0 0 0 0 -63.190533531391281 -47.59821504608226 0 -47.59821504608226 44.236332330208825 0 0 0 0 -22.439307122842251 8.1989252288756234 0 8.1989252288756234 18.609156855307447 0 0 0 0 10.821289660794463 110.47624795050524 0 110.47624795050524 82.273375927721872 0 0 0 0 -18.23881124263923 -47.98278031634436 0 -47.98278031634436 -35.073696079592992 0 0 0 0 -1.5205116746746392 -0.055964658841219261 0 -0.055964658841219261 0.98006696764123546 0 0 0 0 34.489248380074969 42.275127628621249 0 42.275127628621249 -52.567019236572378 0 0 0 0 -1.4213531568375046 2.6025351239692158 0 2.6025351239692158 18.143658018987232 0 0 0 0 -45.532624071269765 -29.084072077224846 0 -29.084072077224846 85.398122137833525 0 0 0 0 -9.584910055654575 -28.559722304687057 0 -28.559722304687057 1.4213930759869982 0 0 0 0 21.362434330328256 3.6556624940275242 0 3.6556624940275242 43.346370961053253 0 0 0 0 67.459999884129502 -4.2166500204502881 0 -4.2166500204502881 44.533776872879116 0 0 0 0 -1.0427570043516927 3.1524933142532685 0 3.1524933142532685 1.2904894840221814 0 0 0 0 -409.13809964337486 -68.207045964009012 0 -68.207045964009012 -14.202562137086716 0 0 0 0 46.507482188435162 112.62598781672682 0 112.62598781672682 -28.889399425411284 0 0 0 0 31.99200888238861 53.633863966055969 0 53.633863966055969 50.909579016391035 0 0 0 0 81.065010255891366 61.990944407034476 0 61.990944407034476 33.698231566085269 0 0 0 0 60.436171755022315 32.108017518537054 0 32.108017518537054 2.4520762234751601 0 0 0 0 -85.289278951272991 107.88887526488725 0 107.88887526488725 65.802121784640349 0 0 0 0 42.62256113509855 60.243523029536959 0 60.243523029536959 82.834331393168213 0 0 0 0 -46.71064228162362 53.143617429394681 0 53.143617429394681 97.438227436477064 0 0 0 0 -27.666995338679442 24.724437949929552 0 24.724437949929552 132.56903855097426 0 0 0 0 7.9141631827717447 42.012414020045981 0 42.012414020045981 99.584438708091625 0 0 0 0 20.120873266882654 19.964878194937455 0 19.964878194937455 26.588576342789565 0 0 0 0 15.990145620579142 8.5698867307391993 0 8.5698867307391993 -0.033476789926680794 0 0 0 0 -11.365695417842289 -12.081369901481594 0 -12.081369901481594 26.638306684000781 0 0 0 0 68.321521176739452 79.508629866025558 0 79.508629866025558 35.3098526426337 0 0 0 0 91.322007334514296 -101.70690566859651 0 -101.70690566859651 132.41840826462294 0 0 0 0 1.2090965926196566 1.5299736268364903 0 1.5299736268364903 2.9857217341522073 0 0 0 0 -3.1652370234046998 -18.271398891456442 0 -18.271398891456442 18.157077822378596 0 0 0 0 -16.743250102294525 0.4120779680488198 0 0.4120779680488198 16.520406316270964 0 0 0 0 -0.187387990347605 3.8353154272201708 0 3.8353154272201708 9.7194581689782353 0 0 0 0 -13.519456341146451 -23.745481366882132 0 -23.745481366882132 37.710852871754241 0 0 0 0 20.647586350654137 -31.391129813428734 0 -31.391129813428734 23.606725578482155 0 0 0 0 50.451758934579175 -26.778014528298627 0 -26.778014528298627 26.774010662846649 0 0 0 0 -103.90374599034112 -5.014221229557279 0 -5.014221229557279 73.46546581135317 0 0 0 0 -98.933338572802199 59.403316958372329 0 59.403316958372329 82.90525727566046 0 0 0 0 -46.733030319223303 25.651544598360566 0 25.651544598360566 -8.0177038334513782 0 0 0 0 -10.568652487883355 46.257677888996341 0 46.257677888996341 46.243908696226754 0 0 0 0 -46.245346307890664 6.0200083811764458 0 6.0200083811764458 149.41061846886714 0 0 0 0 -47.474030918982862 53.316165460787033 0 53.316165460787033 65.14393497521678 0 0 0 0 -54.141811149600812 31.58364542659649 0 31.58364542659649 29.437900376845391 0 0 0 0 -0.98676491280658518 1.946757228736324 0 1.946757228736324 31.09560431053729 0 0 0 0 0.54000937384547876 8.3332589382935147 0 8.3332589382935147 29.785547419474625 0 0 0 0 -12.325295184129345 -15.62287194014516 0 -15.62287194014516 1.160952033893409 0 0 0 0 -14.323532971028499 103.70681453892553 0 103.70681453892553 164.47855097375896 0 0 0 0 -18.969561140940812 46.240793508979266 0 46.240793508979266 277.19869755127183 0 0 0 0 136.15016687698812 142.86120528872539 0 142.86120528872539 7.3570594437642285 0 0 0 0 -3.6101324935834533 0.89626250926477669 0 0.89626250926477669 -0.12957081694894867 0 0 0 0 14.663112766132144 -166.97446131292213 0 -166.97446131292213 57.177685167952063 0 0 0 0 -1.1594564286722289 -3.9435471568260709 0 -3.9435471568260709 0.62000473135208267 0 0 0 0 -9.8818168735305107 0.86787768449590885 0 0.86787768449590885 11.820145473182947 0 0 0 0 -6.027295099383835 4.1787855297497494 0 4.1787855297497494 2.2251044529877708 0 0 0 0 -13.232147134470779 6.0681457557567455 0 6.0681457557567455 14.068492775114009 0 0 0 0 29.324985647521316 5.1910235968346115 0 5.1910235968346115 -83.616932347605143 0 0 0 0 -13.000427665166171 -15.540303210180014 0 -15.540303210180014 67.681247974283451 0 0 0 0 -3.9654527805437283 -37.255476226249428 0 -37.255476226249428 74.068374000333108 0 0 0 0 -2.5017742983025677 -0.68535924950738547 0 -0.68535924950738547 3.4983076270103082 0 0 0 0 0.62598343095456599 -1.4192573522111775 0 -1.4192573522111775 -1.1842508373614011 0 0 0 0 -33.857903075632066 14.332055191278641 0 14.332055191278641 4.366804091249719 0 0 0 0 -3.8114384668381334 10.381782636379572 0 10.381782636379572 25.732766799825249 0 0 0 0 25.244393189233506 -14.707375825351392 0 -14.707375825351392 54.139658090447483 0 0 0 0 -2.1324228643783707 23.238172576977373 0 23.238172576977373 50.004150024604961 0 0 0 0 -17.771872056784559 61.47011523609126 0 61.47011523609126 31.747437578843346 0 0 0 0 -3.3286215555350367 18.64731329879023 0 18.64731329879023 33.645565209215448 0 0 0 0 -32.785474159285513 68.588210790051562 0 68.588210790051562 28.903366568122735 0 0 0 0 -8.3505188398002019 10.660252432971902 0 10.660252432971902 23.258983657098725 0 0 0 0 -6.1666128066812025 7.5615564237430508 0 7.5615564237430508 29.896318930476728 0 0 0 0 -14.196625726165564 52.593580966900788 0 52.593580966900788 -7.1081439639592645 0 0 0 0 15.453624754277598 82.586773630755715 0 82.586773630755715 20.269345784942743 0 0 0 0 -4.4902675567019301 13.221412569228862 0 13.221412569228862 27.910511666823268 0 0 0 0 -6.3002685548754016 6.2792598469350196 0 6.2792598469350196 47.322977103699941 0 0 0 0 -12.222703377512687 -9.2323748039487157 0 -9.2323748039487157 74.265788066406003 0 0 0 0 -8.9616624668044373 -6.8049275473476154 0 -6.8049275473476154 36.264303774343674 0 0 0 0 -4.7949217304112608 -13.741491680979379 0 -13.741491680979379 47.451879367809049 0 0 0 0 -6.4515420435609485 7.2358413564770672 0 7.2358413564770672 41.589960552264529 0 0 0 0 -34.926027948753472 26.260030223769718 0 26.260030223769718 57.533168032765388 0 0 0 0 -2.5786980335035397 6.8209082585806122 0 6.8209082585806122 35.722192215161648 0 0 0 0 43.672088947121665 31.292714079267171 0 31.292714079267171 47.099586011623614 0 0 0 0 2.2925399576361087 54.83423692559154 0 54.83423692559154 47.112771098298623 0 0 0 0 1.9772120290407589 7.0127017854652749 0 7.0127017854652749 -2.6689194604624191 0 0 0 0 -26.715261461603404 47.089359388624871 0 47.089359388624871 75.994690902673028 0 0 0 0 -2.849803912398035 8.2342531368957435 0 8.2342531368957435 68.495583028299137 0 0 0 0 -40.976123345395081 65.129015006005829 0 65.129015006005829 67.3489320378103 0 0 0 0 -9.7680222258290534 8.3692498180656685 0 8.3692498180656685 9.8027536645668505 0 0 0 0 -27.624217523331026 -21.218768519866174 0 -21.218768519866174 96.391006615907827 0 0 0 0 -45.063957036132706 -2.3229812895107216 0 -2.3229812895107216 82.24864111041515 0 0 0 0 -0.50797946147101847 7.9966450025297053 0 7.9966450025297053 59.573171852343158 0 0 0 0 -94.084732306093429 33.74759219464795 0 33.74759219464795 85.433199768285704 0 0 0 0 -69.542067263886793 24.8116108378901 0 24.8116108378901 84.166295293957091 0 0 0 0 -58.551542772191169 1.0089817700936692 0 1.0089817700936692 75.804588750157563 0 0 0 0 -19.650692323890325 36.321795816991653 0 36.321795816991653 44.515463697187442 0 0 0 0 -25.730045784736831 28.766875855189937 0 28.766875855189937 84.272764551740693 0 0 0 0 -20.34537951434595 40.79865379707644 0 40.79865379707644 92.9133734004281 0 0 0 0 -33.350427968568638 -60.272673592662741 0 -60.272673592662741 154.11411482777672 0 0 0 0 -34.67685729052539 22.519982524401545 0 22.519982524401545 284.21432053019601 0 0 0 0 -5.7201430726531726 -21.695386833683159 0 -21.695386833683159 72.852345205193828 0 0 0 0 -0.70347382618683696 16.352997140258992 0 16.352997140258992 87.587641716505232 0 0 0 0 -6.3595755498972721 33.306274247733768 0 33.306274247733768 71.795623763097751 0 0 0 0 58.007046333533253 69.842522896509308 0 69.842522896509308 136.24249701269599 0 0 0 0 73.274525480701442 156.72227254674362 0 156.72227254674362 257.39840578786158 0 0 0 0 -0.45470051479334206 -0.77725463804328498 0 -0.77725463804328498 3.3749596646583302 0 0 0 0 7.675679313245837 -138.24495023476845 0 -138.24495023476845 105.7861012681571 0 0 0 0 40.413006890354609 -21.350740061365798 0 -21.350740061365798 -26.838967016119156 0 0 0 0 -165.98288144320125 -90.583869666539528 0 -90.583869666539528 114.74034079634771 0 0 0 0 -52.014260213353737 -39.836576964892174 0 -39.836576964892174 -46.355059492930444 0 0 0 0 -63.558746349107452 -27.496903044327158 0 -27.496903044327158 5.8236752136544965 0 0 0 0 -71.391367586309002 39.991172715361358 0 39.991172715361358 267.18343491676831 0 0 0 0 143.95819328031718 107.86082336796341 0 107.86082336796341 57.749047176785552 0 0 0 0 66.34650710021333 28.474571175607139 0 28.474571175607139 8.5232235591249719 0 0 0 0 4.0258093790389466 -33.086065751663455 0 -33.086065751663455 17.94437562377982 0 0 0 0 148.59226553524445 -29.892424734880592 0 -29.892424734880592 16.004694200241374 0 0 0 0 -17.177308519769667 49.376456278812157 0 49.376456278812157 36.561919999773181 0 0 0 0 -27.872769323711168 20.20777815431461 0 20.20777815431461 27.392750656653789 0 0 0 0 -2.0326902019787667 11.608618991246487 0 11.608618991246487 4.6952434763297788 0 0 0 0 -14.004101119098976 26.904415701404389 0 26.904415701404389 26.133725826439331 0 0 0 0 -31.921512260776808 -26.623687462655653 0 -26.623687462655653 12.455605167653687 0 0 0 0 -83.4333159971996 -14.906439732227682 0 -14.906439732227682 17.695372283473262 0 0 0 0 -1.5146192922409771 -0.75219089570231823 0 -0.75219089570231823 30.099751144651663 0 0 0 0 -1.2242956794362301 -2.079151964323164 0 -2.079151964323164 35.665970544157304 0 0 0 0 -91.746140856646861 -39.271870686975944 0 -39.271870686975944 56.693143205739034 0 0 0 0 -132.01413706085324 32.05239504470245 0 32.05239504470245 83.667444966582593 0 0 0 0 -27.680365860897723 -15.449383740056874 0 -15.449383740056874 11.89716013710904 0 0 0 0 -48.661581995731467 22.812209707489274 0 22.812209707489274 77.219833695673515 0 0 0 0 -32.639248987634573 -2.1606379634731638 0 -2.1606379634731638 51.512132958621805 0 0 0 0 -2.0032803583951182 0.35691537160366593 0 0.35691537160366593 -0.35703347728201251 0 0 0 0 -35.85984296748677 11.845118780881421 0 11.845118780881421 85.966851518056501 0 0 0 0 12.684793887569157 86.693878733758993 0 86.693878733758993 108.15083910904286 0 0 0 0 -36.054439183425984 -24.666308541914987 0 -24.666308541914987 -4.4477723902723483 0 0 0 0 22.463781631250981 21.699143657121567 0 21.699143657121567 23.362689125585348 0 0 0 0 -3.1926571057001354 3.5725479008008634 0 3.5725479008008634 9.8029544227261134 0 0 0 0 -15.065738318080548 -1.2338623108553293 0 -1.2338623108553293 32.754699872447759 0 0 0 0 -45.613858938222791 22.926339081926471 0 22.926339081926471 86.670923263800432 0 0 0 0 -1.6512982197610477 -3.2809071139661716 0 -3.2809071139661716 39.544755846023271 0 0 0 0 -42.178572489266116 -14.303287014461603 0 -14.303287014461603 28.73090594046289 0 0 0 0 -19.759701767514002 -13.752873716251543 0 -13.752873716251543 -0.59642316646568361 0 0 0 0 -61.738769806019718 -3.9130757785997048 0 -3.9130757785997048 35.308758392457094 0 0 0 0 -45.023524985759764 -23.440177090421912 0 -23.440177090421912 6.8749909095240582 0 0 0 0 -1.0562038810609504 0.083824211325246978 0 0.083824211325246978 0.51293518188470344 0 0 0 0 -112.69506361969593 -96.704883687709298 0 -96.704883687709298 -48.162993838012426 0 0 0 0 -42.48414568330486 -14.009582999902705 0 -14.009582999902705 3.9124277595697095 0 0 0 0 -58.095593011038773 -40.721724454944706 0 -40.721724454944706 -40.449760772535228 0 0 0 0 -154.48361321701282 -23.26921274682536 0 -23.26921274682536 29.118282827821531 0 0 0 0 -98.716922500338683 -13.732999293301873 0 -13.732999293301873 25.016249425862043 0 0 0 0 -65.392779910488116 11.368733569758206 0 11.368733569758206 10.57562198827145 0 0 0 0 -59.428722718070951 12.684589633394182 0 12.684589633394182 33.587026781082386 0 0 0 0 -58.079738843927316 -10.153360811358652 0 -10.153360811358652 20.479723607259075 0 0 0 0 -33.083616698533206 6.9260225793714199 0 6.9260225793714199 33.255171843165954 0 0 0 0 -27.170682452201078 21.296177497714325 0 21.296177497714325 31.526800828798514 0 0 0 0 -21.562719914372565 9.4426306213772477 0 9.4426306213772477 25.047533537045638 0 0 0 0 8.2947666153730779 11.275370194641255 0 11.275370194641255 26.363231397386699 0 0 0 0 -10.009296166207605 24.333574274719467 0 24.333574274719467 24.230352002450672 0 0 0 0 -13.265332199787963 12.661750278660293 0 12.661750278660293 22.504701813106294 0 0 0 0 7.9146190873515252 23.868102438979804 0 23.868102438979804 20.585969849196772 0 0 0 0 -46.578456788736844 22.283248522472604 0 22.283248522472604 28.595627150893051 0 0 0 0 -51.565391913344456 0.37992044407928915 0 0.37992044407928915 15.697754706267915 0 0 0 0 -20.801614410479431 24.2972596411214 0 24.2972596411214 14.316427064335585 0 0 0 0 -67.056368177900367 12.381423415590689 0 12.381423415590689 45.355697539345783 0 0 0 0 -37.66123282920762 3.721250787451936 0 3.721250787451936 19.538602123911915 0 0 0 0 -40.008696503285478 24.982675949217082 0 24.982675949217082 46.276211624506686 0 0 0 0 14.478228081073325 30.006603954355342 0 30.006603954355342 35.418237537609457 0 0 0 0 -6.8931663087930701 13.038992558953396 0 13.038992558953396 26.40936493616573 0 0 0 0 -16.483210615093071 24.373913284415721 0 24.373913284415721 34.616694980006287 0 0 0 0 -34.869323893277851 12.067276751073223 0 12.067276751073223 40.40695445016172 0 0 0 0 -9.5659749123945801 26.253807513623769 0 26.253807513623769 43.923967445236485 0 0 0 0 -5.9716226861930863 15.561368804364974 0 15.561368804364974 47.046436677268503 0 0 0 0 16.344339171805586 21.220968323126726 0 21.220968323126726 45.097271120674122 0 0 0 0 -18.516084033015204 11.075581241931104 0 11.075581241931104 49.315632718320558 0 0 0 0 -10.075732239454965 22.086807675374075 0 22.086807675374075 62.423747124503279 0 0 0 0 -63.725484058575432 28.062953662269138 0 28.062953662269138 64.558102828737901 0 0 0 0 -54.871666947268977 16.768225647052532 0 16.768225647052532 51.079164386783305 0 0 0 0 -31.222552610751961 27.451788484308054 0 27.451788484308054 44.986293284484418 0 0 0 0 -60.589694316538498 41.421202957269998 0 41.421202957269998 51.232934895031576 0 0 0 0 -22.528534135163454 74.298540521958785 0 74.298540521958785 68.36827617594281 0 0 0 0 -60.926134261012521 32.888219384140029 0 32.888219384140029 23.709031259662879 0 0 0 0 -4.6716900535840864 39.724609421848527 0 39.724609421848527 2.7005197216385568 0 0 0 0 -16.544272155536419 23.973174222648595 0 23.973174222648595 -14.538642823681585 0 0 0 0 -0.099955063654034559 0.070631523410267905 0 0.070631523410267905 0.98267102108739834 0 0 0 0 -78.449676001535977 -34.003911975814844 0 -34.003911975814844 45.835257902872399 0 0 0 0 27.335123924527124 93.611442954502763 0 93.611442954502763 54.342417626206952 0 0 0 0 -33.684489598821131 -20.37752708447897 0 -20.37752708447897 -7.8610742056407616 0 0 0 0 -37.659188189584938 -33.09467219024009 0 -33.09467219024009 -41.172315519636186 0 0 0 0 -55.198476058446658 -41.056090573050824 0 -41.056090573050824 -11.305263060417929 0 0 0 0 -54.864146441949288 -36.26202694280073 0 -36.26202694280073 30.547042899441294 0 0 0 0 64.558362948309082 76.322455418516256 0 76.322455418516256 196.13609497609286 0 0 0 0 -72.616590944161771 -11.953155512193916 0 -11.953155512193916 120.87710893466283 0 0 0 0 54.109134799082199 97.884493418847342 0 97.884493418847342 151.65229516201725 0 0 0 0 -66.9212216547606 18.462636686421163 0 18.462636686421163 33.449931405815732 0 0 0 0 -96.083603179055217 14.636350509832482 0 14.636350509832482 59.731587116773881 0 0 0 0 -106.85145303915215 48.607590458658706 0 48.607590458658706 100.24981962802849 0 0 0 0 -58.265312942748096 122.9536794446376 0 122.9536794446376 183.98577686744829 0 0 0 0 -0.99156667630015471 -4.1410958389094921 0 -4.1410958389094921 42.106005442648822 0 0 0 0 -4.435460724495897 23.469600002632433 0 23.469600002632433 67.974072919547325 0 0 0 0 0.75146297885045721 -1.8524171349270624 0 -1.8524171349270624 29.466690486062674 0 0 0 0 -87.623390206717886 -4.2349236874069902 0 -4.2349236874069902 57.57656884847529 0 0 0 0 -68.862129300084689 -15.563425260366785 0 -15.563425260366785 63.684593342599328 0 0 0 0 -41.005272294452197 -33.465431652723964 0 -33.465431652723964 46.847182835002059 0 0 0 0 -21.731009309460987 -29.430323558073496 0 -29.430323558073496 13.20322821413356 0 0 0 0 1.1787202036525479 -4.6587020569831896 0 -4.6587020569831896 24.666730737170568 0 0 0 0 27.607634740221897 -30.395956634412869 0 -30.395956634412869 11.354618533580378 0 0 0 0 39.730998347612569 4.4269490310771289 0 4.4269490310771289 22.64518140329892 0 0 0 0 31.266046814608501 2.1449500204080323 0 2.1449500204080323 29.990857585999038 0 0 0 0 42.663346512586443 8.2608319629566722 0 8.2608319629566722 19.780403602107981 0 0 0 0 14.166255284014824 18.043163637266844 0 18.043163637266844 22.86785810901074 0 0 0 0 29.478729089663645 9.6529104779933732 0 9.6529104779933732 25.443051890568313 0 0 0 0 28.431079196381006 11.876454650006053 0 11.876454650006053 20.673523055497299 0 0 0 0 40.2362365980037 16.233503123505216 0 16.233503123505216 16.433439454604013 0 0 0 0 26.831490175420186 19.661420878540412 0 19.661420878540412 23.064275556793291 0 0 0 0 8.9559283457947885 14.140157076261062 0 14.140157076261062 25.392061235204892 0 0 0 0 27.331934779782671 14.476566566301699 0 14.476566566301699 23.541103673078396 0 0 0 0 56.715091510342745 33.241849405872017 0 33.241849405872017 34.432277224097561 0 0 0 0 15.442818064758413 18.059756356839785 0 18.059756356839785 65.138069226934022 0 0 0 0 29.207251345199438 17.396789874774186 0 17.396789874774186 61.765335883667831 0 0 0 0 90.810555069425959 45.98783102374 0 45.98783102374 36.876843456086135 0 0 0 0 27.19028640452359 24.801833596558026 0 24.801833596558026 149.30017227997632 0 0 0 0 52.296872811719524 5.5502621076990977 0 5.5502621076990977 18.508055382937528 0 0 0 0 50.897533112479863 5.9071687151354126 0 5.9071687151354126 18.585183536252771 0 0 0 0 0.83042681022696252 -3.4934447829785382 0 -3.4934447829785382 14.320184138479227 0 0 0 0 88.709747101025499 80.092831891278365 0 80.092831891278365 147.90096417057612 0 0 0 0 0.59554002090610259 -1.417974566100507 0 -1.417974566100507 4.5684330682465841 0 0 0 0 232.25704503398887 -20.605360255794039 0 -20.605360255794039 -60.784119324585845 0 0 0 0 -118.61072657271734 -124.9024587392787 0 -124.9024587392787 27.940539086679564 0 0 0 0 -0.95765951157748463 -3.5577988901201962 0 -3.5577988901201962 65.184699224267689 0 0 0 0 -26.997349543081555 -30.456697973673727 0 -30.456697973673727 48.819861448608208 0 0 0 0 30.868170244651878 174.09388170438433 0 174.09388170438433 44.313029898099558 0 0 0 0 -341.04749309695171 -198.5208948327803 0 -198.5208948327803 355.80455271932624 0 0 0 0 -0.68780405344991935 -7.6610293647318528 0 -7.6610293647318528 80.517417367919336 0 0 0 0 63.075072846124897 -100.20668948652792 0 -100.20668948652792 334.13855685563976 0 0 0 0 231.63536211235819 -108.80834298723994 0 -108.80834298723994 68.990680930142844 0 0 0 0 54.953036392195258 -78.243766558954121 0 -78.243766558954121 157.16800877068363 0 0 0 0 48.109764454469712 -43.822581860879382 0 -43.822581860879382 121.79031066294556 0 0 0 0 49.711981289604125 -41.895075164562058 0 -41.895075164562058 123.02567323794392 0 0 0 0 30.064333102401861 -23.210480228165579 0 -23.210480228165579 107.58705728326458 0 0 0 0 5.2748266574932359 8.0561718381095488 0 8.0561718381095488 94.5732863117737 0 0 0 0 32.101653720353511 -26.079310208771403 0 -26.079310208771403 72.405087110562818 0 0 0 0 42.023491243203694 -41.578283451054631 0 -41.578283451054631 70.740299960649281 0 0 0 0 26.546100004329332 -40.535329289397851 0 -40.535329289397851 94.774482592962158 0 0 0 0 59.657887841729803 -64.626773019724169 0 -64.626773019724169 100.47424346145817 0 0 0 0 63.606973165139038 -66.984046078761821 0 -66.984046078761821 81.324430597207538 0 0 0 0 112.61228681332068 -53.267336237593554 0 -53.267336237593554 72.618438973377124 0 0 0 0 26.553309433114919 -25.92020530640275 0 -25.92020530640275 108.0304251511439 0 0 0 0 63.931431629233998 -33.872703523705241 0 -33.872703523705241 108.35146200398594 0 0 0 0 56.094388915327613 -59.485310836099416 0 -59.485310836099416 72.237559005234289 0 0 0 0 177.26340523523538 -96.15441240673681 0 -96.15441240673681 83.271907629589805 0 0 0 0 109.8447800300581 -71.860139026877107 0 -71.860139026877107 30.360940304770338 0 0 0 0 129.15998351384621 -115.66716160837041 0 -115.66716160837041 75.767673279333394 0 0 0 0 -89.17090469835972 -21.697399796189075 0 -21.697399796189075 74.893625234017236 0 0 0 0 107.36838575369524 -26.179347506420413 0 -26.179347506420413 15.149416370850304 0 0 0 0 49.028758785864198 -88.962956176827106 0 -88.962956176827106 58.487835434074441 0 0 0 0 -280.39660100655402 21.943412884023246 0 21.943412884023246 143.46096162056347 0 0 0 0 -90.427412784678211 19.567912417086973 0 19.567912417086973 66.9140785404079 0 0 0 0 -82.62103376878531 35.433286246212447 0 35.433286246212447 -19.769700050751453 0 0 0 0 -57.066129624395217 -9.0080590647926329 0 -9.0080590647926329 31.653675392150035 0 0 0 0 -38.174147162402392 -32.411537925921948 0 -32.411537925921948 -36.760154608887433 0 0 0 0 -0.19573135065812286 0.030517407378773065 0 0.030517407378773065 0.96664367734489076 0 0 0 0 69.099303364058869 -70.271099754618263 0 -70.271099754618263 14.859517926506669 0 0 0 0 -249.59129261608527 95.887564000814109 0 95.887564000814109 47.978186413211006 0 0 0 0 -0.39532533671971715 0.2946440463283333 0 0.2946440463283333 1.4699589161614952 0 0 0 0 -175.63040406013761 -45.135920516501756 0 -45.135920516501756 67.095848087861668 0 0 0 0 -15.481262289759457 -73.312748985386406 0 -73.312748985386406 86.549280492487014 0 0 0 0 -34.771066277195544 -35.159800732526492 0 -35.159800732526492 105.74513898633813 0 0 0 0 -71.343199761287224 100.34374465746441 0 100.34374465746441 -56.730446918416192 0 0 0 0 -151.50876223398282 -3.6624047639718356 0 -3.6624047639718356 33.536792755094211 0 0 0 0 -71.035370744958982 -21.345048045697695 0 -21.345048045697695 -9.0799928675078263 0 0 0 0 -79.305630501917875 19.260047828650386 0 19.260047828650386 35.692665984865016 0 0 0 0 -48.877493345794392 17.731459156177152 0 17.731459156177152 28.776093824495547 0 0 0 0 -40.097189374444781 29.339956692776013 0 29.339956692776013 28.872738267968089 0 0 0 0 -26.684045876702839 9.2987123367347522 0 9.2987123367347522 53.940329214894518 0 0 0 0 -17.708124054361519 8.1171834692713674 0 8.1171834692713674 27.123100692482694 0 0 0 0 -46.076563600224176 19.745696221233629 0 19.745696221233629 8.9139673711197247 0 0 0 0 -37.459390016164207 1.1410358820066904 0 1.1410358820066904 45.639843546103293 0 0 0 0 8.1866624636122651 4.344660585591555 0 4.344660585591555 55.628542892095084 0 0 0 0 -17.142242722336675 18.531484269654356 0 18.531484269654356 56.667685230187999 0 0 0 0 1.265848655127229 -18.846950603885489 0 -18.846950603885489 58.729601818133233 0 0 0 0 -0.69578141490512735 -22.7512317212786 0 -22.7512317212786 67.014767231949008 0 0 0 0 21.196935000971621 -14.98241799803418 0 -14.98241799803418 45.476639264094047 0 0 0 0 -1.0063488215959069 -29.391325093174601 0 -29.391325093174601 40.242477728074846 0 0 0 0 -21.083062971996242 1.6211752420313132 0 1.6211752420313132 5.2005235942451691 0 0 0 0 0.68284150547231093 -34.592571656466134 0 -34.592571656466134 43.311466680293961 0 0 0 0 -37.972776881437539 -45.576638316504614 0 -45.576638316504614 44.334814210316836 0 0 0 0 -6.1811364865447729 -45.259188081555976 0 -45.259188081555976 84.779655440299393 0 0 0 0 19.05581396796174 -65.305506623435576 0 -65.305506623435576 79.759373044882523 0 0 0 0 -47.225933025965219 -70.705539766199763 0 -70.705539766199763 84.397416798050472 0 0 0 0 29.387611006047223 -52.255032118051531 0 -52.255032118051531 54.889504464951642 0 0 0 0 32.369442981450788 -40.0106353383635 0 -40.0106353383635 89.552292413305622 0 0 0 0 39.812336272538801 -61.72893083884901 0 -61.72893083884901 89.030245620142693 0 0 0 0 20.425355541094405 -66.214614967124362 0 -66.214614967124362 118.40324105882792 0 0 0 0 17.399010866257754 -52.410677057383509 0 -52.410677057383509 116.03746690763182 0 0 0 0 19.593289184638024 -75.172546238231917 0 -75.172546238231917 140.87916320136719 0 0 0 0 -2.7616274437495747 -62.000123116158193 0 -62.000123116158193 216.41021267774704 0 0 0 0 -9.628446397152743 -30.818312802972287 0 -30.818312802972287 126.3025359651856 0 0 0 0 28.637388888201656 -8.783220428095774 0 -8.783220428095774 116.66427559959357 0 0 0 0 -65.658203624831003 -4.3483540046090638 0 -4.3483540046090638 126.8664131181622 0 0 0 0 -0.11812206031107203 -0.011454778135040034 0 -0.011454778135040034 0.42042716841866223 0 0 0 0 -122.93986270260829 -66.179365622674595 0 -66.179365622674595 72.996063156704622 0 0 0 0 -1.5905716112185333 -1.8632203283148154 0 -1.8632203283148154 3.1093536249255962 0 0 0 0 -109.89003071949676 -69.990226668704054 0 -69.990226668704054 -100.18781462303195 0 0 0 0 -205.49510690800938 105.54985315185468 0 105.54985315185468 112.94329193280646 0 0 0 0 8.7092587211326133 96.6517402487857 0 96.6517402487857 45.107653642131481 0 0 0 0 -4.3981704468690381 -174.795849524613 0 -174.795849524613 87.120119451553364 0 0 0 0 -126.1615085800947 -2.6775174503472954 0 -2.6775174503472954 196.42390204336152 0 0 0 0 -136.00694639573021 66.991482509069328 0 66.991482509069328 42.274901958466216 0 0 0 0 34.651579563543301 -128.16209382355919 0 -128.16209382355919 -79.457299459014394 0 0 0 0 -136.61295689392512 44.332817613214502 0 44.332817613214502 -74.937746646399319 0 0 0 0 -7.4207101733937577 12.550274069310944 0 12.550274069310944 -87.916247912653489 0 0 0 0 -28.913685280647968 -290.78565558547803 0 -290.78565558547803 330.76061892146572 0 0 0 0 -128.52824640807421 -155.15301410206303 0 -155.15301410206303 401.53755030940556 0 0 0 0 -116.31326063233314 -180.01287102773313 0 -180.01287102773313 422.10227264043169 0 0 0 0 -78.991393584003163 -36.20248041564173 0 -36.20248041564173 349.34976696693593 0 0 0 0 -91.933280730637989 -179.85604233990125 0 -179.85604233990125 415.47667196424118 0 0 0 0 -137.54720586951123 -165.21694351308906 0 -165.21694351308906 427.20544809786225 0 0 0 0 -0.25802812072811321 -156.30713198407102 0 -156.30713198407102 76.368975984799363 0 0 0 0 -39.504045905319231 -46.015601973798766 0 -46.015601973798766 394.9707561888481 0 0 0 0 0.94478510481360201 0.10945860494333104 0 0.10945860494333104 0.37878563541289623 0 0 0 0 3.1316781032923 -0.39216099024700313 0 -0.39216099024700313 0.59480634843059932 0 0 0 0 -17.264150502415077 -36.311576450521898 0 -36.311576450521898 244.62139761717935 0 0 0 0 39.197633763216345 29.915313015637366 0 29.915313015637366 340.61863620897861 0 0 0 0 24.240756415953456 -21.785739370019655 0 -21.785739370019655 170.63522506714435 0 0 0 0 -283.1094916166785 19.72964649757796 0 19.72964649757796 1064.5265277803301 0 0 0 0 -176.67194079417914 539.08340767388927 0 539.08340767388927 -213.54100656866649 0 0 0 0 0.44582558654069704 2.5416887534616581 0 2.5416887534616581 5.0130453241145503 0 0 0 0 101.26060498973388 -512.25555547077988 0 -512.25555547077988 905.44784925029307 0 0 0 0 -80.910810470853448 -49.796992040508485 0 -49.796992040508485 521.27324540639165 0 0 0 0 165.31040944849747 -257.22578526692814 0 -257.22578526692814 457.91502316557762 0 0 0 0 -28.927651998999409 -80.441888410839056 0 -80.441888410839056 302.07452667766302 0 0 0 0 -0.25615301079976316 6.0905236545772414 0 6.0905236545772414 12.128326965551317 0 0 0 0 -117.71097555216227 -47.380461963477501 0 -47.380461963477501 306.84791720879002 0 0 0 0 140.48287480802264 188.93726104837424 0 188.93726104837424 -316.59594289593952 0 0 0 0 140.6357335370999 634.76707399853149 0 634.76707399853149 612.14024949329041 0 0 0 0 -497.47616969899082 139.8458347548949 0 139.8458347548949 413.19934428528904 0 0 0 0 -1.8587267034428603 -0.23376382358338432 0 -0.23376382358338432 2.4015174089286617 0 0 0 0 -386.84418392351017 369.71743982630164 0 369.71743982630164 10.863424158411362 0 0 0 0 -251.1379665563752 91.731634856303572 0 91.731634856303572 -34.918590069779384 0 0 0 0 -256.61156593855145 244.83595353864985 0 244.83595353864985 -18.406203245816869 0 0 0 0 -123.14137794979501 -118.58299884983444 0 -118.58299884983444 278.77432554525694 0 0 0 0 48.38298500267129 -0.81407617008699162 0 -0.81407617008699162 257.65998254598708 0 0 0 0 -311.15059002800069 -6.8694568136120324 0 -6.8694568136120324 333.58247583498041 0 0 0 0 -44.217903328413421 -217.70805087157635 0 -217.70805087157635 446.08208081611519 0 0 0 0 -168.30243270937217 -134.97930136162813 0 -134.97930136162813 537.90567262726836 0 0 0 0 -111.38191069721893 -165.83056954493895 0 -165.83056954493895 421.43683159653665 0 0 0 0 -172.40971618591522 -67.411400764012683 0 -67.411400764012683 366.34322014559621 0 0 0 0 -110.55662921159796 -54.846318418200099 0 -54.846318418200099 32.337559743807105 0 0 0 0 -129.38560019530502 35.885035445935841 0 35.885035445935841 139.48360419482924 0 0 0 0 -31.145003756832239 46.122800635552267 0 46.122800635552267 56.637323990020462 0 0 0 0 -23.118920407145424 93.45154965202255 0 93.45154965202255 65.622965534261311 0 0 0 0 77.442161746316515 144.16979882076794 0 144.16979882076794 141.67712471339473 0 0 0 0 -41.193397071437403 39.193273703570412 0 39.193273703570412 61.380378997557273 0 0 0 0 -10.859739334962399 -47.902111680639564 0 -47.902111680639564 323.68180453651075 0 0 0 0 115.46330268277097 19.726144561237561 0 19.726144561237561 126.4473935089818 0 0 0 0 2.185310707586988 -0.55291309074999262 0 -0.55291309074999262 0.40722887513463402 0 0 0 0 298.85786817797225 -127.33769884740468 0 -127.33769884740468 354.7245937630621 0 0 0 0 20.337304672406674 -112.65381088724348 0 -112.65381088724348 451.28258648864357 0 0 0 0 -96.785636298773625 320.7157974036345 0 320.7157974036345 175.43604683727153 0 0 0 0 72.596236327268457 253.64291273024355 0 253.64291273024355 210.85749520844729 0 0 0 0 255.8345872011455 163.21619817568717 0 163.21619817568717 251.54570461082676 0 0 0 0 20.574676474233684 144.74876275573661 0 144.74876275573661 302.10175290231382 0 0 0 0 -0.55015803400845087 0.20964445229103745 0 0.20964445229103745 0.076127250775929411 0 0 0 0 155.67536188542846 167.75745559966845 0 167.75745559966845 198.43127581645967 0 0 0 0 164.51578542110065 63.289646311540309 0 63.289646311540309 -317.96372603834061 0 0 0 0 -2.9818729389022569 1.3479043846358287 0 1.3479043846358287 -1.3202534996668494 0 0 0 0 90.710259046747126 47.435097446094005 0 47.435097446094005 46.463018541157453 0 0 0 0 28.198190539777968 92.612448875344967 0 92.612448875344967 177.54526853147399 0 0 0 0 2.9058363844112591 -14.487406281146832 0 -14.487406281146832 71.083378732424535 0 0 0 0 -22.096510792570825 57.336654685072062 0 57.336654685072062 17.457520385403768 0 0 0 0 309.4601938682934 -20.793131121632541 0 -20.793131121632541 -31.613873835060076 0 0 0 0 489.58582246082835 424.76178352717034 0 424.76178352717034 123.80218825840262 0 0 0 0 104.55941932587587 110.7334176432023 0 110.7334176432023 112.13947108020875 0 0 0 0 115.10042470455573 103.35084368453408 0 103.35084368453408 96.275218666207365 0 0 0 0 117.24317460358412 226.220714018325 0 226.220714018325 387.98432886290902 0 0 0 0 189.02637770039655 176.68586290668645 0 176.68586290668645 123.35507776799022 0 0 0 0 146.73543381115849 442.98428941071143 0 442.98428941071143 553.13805088065783 0 0 0 0 107.63011417251266 366.1467509087106 0 366.1467509087106 406.53329407472529 0 0 0 0 -4.0861638398859448 -1.0535806518608943 0 -1.0535806518608943 7.0560679149925534 0 0 0 0 211.65393339279069 208.48065435010813 0 208.48065435010813 239.87675847993523 0 0 0 0 187.22038420639117 327.62065567382206 0 327.62065567382206 549.6074203740045 0 0 0 0 -4.3591634273823381 -0.80573289315517016 0 -0.80573289315517016 5.8139933698464006 0 0 0 0 -230.57463231755781 35.998773388905192 0 35.998773388905192 545.53422770517591 0 0 0 0 13.744013779025551 442.61674427607727 0 442.61674427607727 1013.6212551421686 0 0 0 0 -188.63409935140032 289.96648889322614 0 289.96648889322614 1101.831176108808 0 0 0 0 -154.19077135956829 403.34994332876158 0 403.34994332876158 1402.6641844540663 0 0 0 0 88.593947492970059 557.34631019939116 0 557.34631019939116 1499.8662652031417 0 0 0 0 6.2262109921519944 380.27126369163466 0 380.27126369163466 922.35455247285972 0 0 0 0 254.61905606045366 576.17261356721247 0 576.17261356721247 1013.7551164880606 0 0 0 0 395.63601522676288 856.91168359250878 0 856.91168359250878 1571.3238848368983 0 0 0 0 -1.7749929804826086 -0.3148227974719795 0 -0.3148227974719795 4.3489691082400554 0 0 0 0 196.50003822993691 451.48967777284997 0 451.48967777284997 1600.313603509383 0 0 0 0 371.91120576964397 445.64052100723347 0 445.64052100723347 1500.4754580834094 0 0 0 0 358.11389855775633 519.65395082025316 0 519.65395082025316 1180.9926659415441 0 0 0 0 221.11142138400419 -114.91781718496713 0 -114.91781718496713 487.10263289633804 0 0 0 0 -111.16065499726426 -121.48287795711985 0 -121.48287795711985 774.73947894494995 0 0 0 0 -76.300598188694579 -338.72777202288876 0 -338.72777202288876 1796.6710082854424 0 0 0 0 0.50588528979270408 2.8645886576328934 0 2.8645886576328934 6.0312444889322414 0 0 0 0 -34.199058619995085 -171.61946253649285 0 -171.61946253649285 139.92844947491994 0 0 0 0 -142.67871823822611 -120.0159326958601 0 -120.0159326958601 366.15750922009101 0 0 0 0 0.17990077346584643 6.4191318531949726 0 6.4191318531949726 12.779756380624452 0 0 0 0 -240.92440997927815 186.18515490094887 0 186.18515490094887 512.50267246762542 0 0 0 0 -200.43729701578684 -183.61990582057933 0 -183.61990582057933 174.96340777218495 0 0 0 0 -699.53311700122435 -313.36895217403571 0 -313.36895217403571 194.69158934582993 0 0 0 0 -198.75820933251737 229.98006494783658 0 229.98006494783658 735.01369016048284 0 0 0 0 -435.69751953481807 178.64825025270227 0 178.64825025270227 1379.5023887506559 0 0 0 0 -432.29244031325408 28.1719242295745 0 28.1719242295745 1109.175749865617 0 0 0 0 -392.83128332497773 330.72776153285258 0 330.72776153285258 1499.7218728857133 0 0 0 0 -403.58167548913411 261.82385938290645 0 261.82385938290645 1257.5475285058874 0 0 0 0 -415.25804695798263 212.08461371730982 0 212.08461371730982 1500.1017293311361 0 0 0 0 -234.65638985171321 207.39868450090307 0 207.39868450090307 1311.5096700491576 0 0 0 0 14.00171758701488 268.35033108809148 0 268.35033108809148 1440.1274826650433 0 0 0 0 -12.938878535226099 109.98705988011807 0 109.98705988011807 1499.7801910842954 0 0 0 0 -234.32210409894347 227.02965493960392 0 227.02965493960392 1483.7067315689274 0 0 0 0 -43.695465851746484 36.810183793006217 0 36.810183793006217 1351.6029028813773 0 0 0 0 -81.610658678801627 -4.0411551547231284 0 -4.0411551547231284 1499.841641761278 0 0 0 0 241.26094900395103 63.473725443671356 0 63.473725443671356 1336.0054972042872 0 0 0 0 -241.9153982800369 -119.33760724988224 0 -119.33760724988224 1499.9201497590084 0 0 0 0 -133.82908490650178 -96.443220508439026 0 -96.443220508439026 1342.0334939678196 0 0 0 0 -183.07367533698155 -141.82463042183599 0 -141.82463042183599 1320.1050216440885 0 0 0 0 -197.53772293476794 -98.931687037233417 0 -98.931687037233417 1279.8073625618408 0 0 0 0 -46.847424438451341 38.069503668747075 0 38.069503668747075 1117.4183531706012 0 0 0 0 -81.67002339240095 -145.85786989362967 0 -145.85786989362967 982.32852882969291 0 0 0 0 223.97868137580113 -82.085429405891318 0 -82.085429405891318 832.62867024198977 0 0 0 0 8.1620644759283323 382.04719443550994 0 382.04719443550994 1016.2254676658586 0 0 0 0 -36.566332102763454 -17.249018873061686 0 -17.249018873061686 1348.4315398733452 0 0 0 0 217.71469356465172 32.61068697767405 0 32.61068697767405 432.86818858879087 0 0 0 0 -27.044232868708676 592.19678799792018 0 592.19678799792018 -98.750841434192807 0 0 0 0 154.86932853343771 -12.206636412614444 0 -12.206636412614444 244.20375480371604 0 0 0 0 55.717510625845861 -176.55043276287617 0 -176.55043276287617 378.72826610586162 0 0 0 0 479.6002582651077 20.612329214421152 0 20.612329214421152 450.30556724786493 0 0 0 0 -43.314060880008213 -188.54833637767013 0 -188.54833637767013 795.07261084927268 0 0 0 0 8.8237924912760946 -39.252041608752279 0 -39.252041608752279 610.76286774620985 0 0 0 0 403.47986046211577 -334.59312312796635 0 -334.59312312796635 279.82950102126961 0 0 0 0 169.17315023973171 -339.06707343043081 0 -339.06707343043081 350.92710059473939 0 0 0 0 195.27704161339187 -156.97832204241524 0 -156.97832204241524 621.46174259060535 0 0 0 0 171.16140163284845 -327.13132600600829 0 -327.13132600600829 -33.189621476827597 0 0 0 0 0.55745981754342289 -1.7135911834680986 0 -1.7135911834680986 2.4800662526225636 0 0 0 0 -64.491201357447608 -18.388140748558726 0 -18.388140748558726 897.60606600337223 0 0 0 0 -26.754468622794164 90.722228054230641 0 90.722228054230641 312.20981754759396 0 0 0 0 -125.12643022738817 -3.7528504512521863 0 -3.7528504512521863 166.92360744493726 0 0 0 0 0.86220870623712109 -2.9391442939183996 0 -2.9391442939183996 3.8730476566775316 0 0 0 0 -138.21368310469632 77.63041771301323 0 77.63041771301323 156.98892550519713 0 0 0 0 6.6509213690163165 12.76803245615929 0 12.76803245615929 167.25932467528946 0 0 0 0 -1.1085394171844851 -0.52778039488226369 0 -0.52778039488226369 -0.16528736345501294 0 0 0 0 -61.78242275933394 34.914806350920117 0 34.914806350920117 136.21455507324208 0 0 0 0 -68.905911598343863 95.537590051663074 0 95.537590051663074 -83.269190183676074 0 0 0 0 25.09193621863983 18.575849273621316 0 18.575849273621316 73.168613115058179 0 0 0 0 -92.457073175921323 137.65895742619773 0 137.65895742619773 182.28781915593299 0 0 0 0 111.64040351962774 60.019191304222659 0 60.019191304222659 -25.829079311725195 0 0 0 0 127.82749181162757 2.0730964289446092 0 2.0730964289446092 15.693712007509021 0 0 0 0 -0.56981090516119637 2.5624621081108216 0 2.5624621081108216 14.426583988829165 0 0 0 0 -69.864939153258831 30.419562751732428 0 30.419562751732428 7.2222302457666956 0 0 0 0 66.778289010886056 -8.1818325839267345 0 -8.1818325839267345 39.23977712029955 0 0 0 0 -171.83488324530299 -32.914149003111561 0 -32.914149003111561 234.14537202709289 0 0 0 0 22.5675202366034 -130.93898457151818 0 -130.93898457151818 104.24341988749438 0 0 0 0 80.753716757412349 -21.545604463409745 0 -21.545604463409745 42.940338914117092 0 0 0 0 0.64972008278161875 1.0064924622497395 0 1.0064924622497395 5.1747979961543749 0 0 0 0 301.34603055011996 -425.19672852695476 0 -425.19672852695476 406.70506132068658 0 0 0 0 316.68650212574482 85.126211260145737 0 85.126211260145737 31.17820824642331 0 0 0 0 165.16878906796524 209.74259588545101 0 209.74259588545101 285.2664388341409 0 0 0 0 -106.47750023502904 -56.676796005275264 0 -56.676796005275264 35.032553871343225 0 0 0 0 -11.42975697363579 -165.47771678238223 0 -165.47771678238223 147.58337729256891 0 0 0 0 -22.660001568300743 -14.431890472961982 0 -14.431890472961982 50.411234757951661 0 0 0 0 -1.7695463604403188 3.7961717595886175 0 3.7961717595886175 14.964113802555991 0 0 0 0 -35.30758929310332 10.833669118582634 0 10.833669118582634 34.157339988472813 0 0 0 0 -19.254705767925202 -20.486718542656604 0 -20.486718542656604 31.047783082337446 0 0 0 0 3.2084236120131209 -6.2095855315211566 0 -6.2095855315211566 27.956479821707944 0 0 0 0 -9.5823697087178061 -9.2557152741112532 0 -9.2557152741112532 39.169012580017807 0 0 0 0 -9.4135448458384516 -3.4768318678296355 0 -3.4768318678296355 3.6021827910141409 0 0 0 0 384.41149203616351 -87.864580837067479 0 -87.864580837067479 160.15985149901644 0 0 0 0 -8.5273845700566611 -1.7624941048895479 0 -1.7624941048895479 3.5443969471121992 0 0 0 0 -29.474594277788128 10.001740895660532 0 10.001740895660532 29.286803316955229 0 0 0 0 22.665313429375715 103.59046785334249 0 103.59046785334249 48.497107126738229 0 0 0 0 -3.9749724855417576 -1.0395496163862852 0 -1.0395496163862852 -0.43809865474295684 0 0 0 0 -5.6253228182822568 2.902857497000241 0 2.902857497000241 64.222877134955525 0 0 0 0 88.720628742561757 67.834658798533383 0 67.834658798533383 67.577323174829871 0 0 0 0 11.405520841053772 -3.6568477174096188 0 -3.6568477174096188 156.20239937318274 0 0 0 0 0.53779842191478777 -1.0612708534511341 0 -1.0612708534511341 1.4040015470612204 0 0 0 0 38.463183675046594 -124.66949370532075 0 -124.66949370532075 -140.27648829143618 0 0 0 0 -14.615933300591081 -196.53255594834474 0 -196.53255594834474 -111.00578269505422 0 0 0 0 -134.23995048578354 208.36432994214238 0 208.36432994214238 397.30817977835409 0 0 0 0 58.72641623670944 0.53235558134565508 0 0.53235558134565508 -83.570432763282952 0 0 0 0 50.660865563717323 -143.69356374407744 0 -143.69356374407744 152.42496065327487 0 0 0 0 -67.165309397458486 32.74285581989443 0 32.74285581989443 157.29146535852851 0 0 0 0 -76.77652354369377 -159.90226040405196 0 -159.90226040405196 147.07540682048693 0 0 0 0 -88.339691323808552 -85.546819058478377 0 -85.546819058478377 388.68622377634983 0 0 0 0 -35.83623036896438 -91.873610718850841 0 -91.873610718850841 387.48708942619163 0 0 0 0 75.184460877114049 -21.648072103690083 0 -21.648072103690083 34.020831729734709 0 0 0 0 -2.7999405964800488 -13.562640285518228 0 -13.562640285518228 39.921396838803958 0 0 0 0 -22.243377086839018 27.043768234735808 0 27.043768234735808 0.10397114895044979 0 0 0 0 39.572044787114351 -99.103485139367194 0 -99.103485139367194 222.09050732611695 0 0 0 0 0.48779055285700712 2.4021599732870595 0 2.4021599732870595 11.012933664621812 0 0 0 0 338.18190327235493 -534.47467551543286 0 -534.47467551543286 717.32460065534997 0 0 0 0 152.41797823795909 -148.45393748420008 0 -148.45393748420008 189.03167884456479 0 0 0 0 -58.69078528936555 -203.69421370077316 0 -203.69421370077316 781.98624956034746 0 0 0 0 25.198050881364736 -358.90967199836882 0 -358.90967199836882 819.44600182170871 0 0 0 0 15.497526340488207 -289.15668618716228 0 -289.15668618716228 935.77491264275136 0 0 0 0 -199.71330557755931 -205.14215627272822 0 -205.14215627272822 1176.1805821811486 0 0 0 0 -125.96166007155819 -183.91822022395968 0 -183.91822022395968 822.9639983485672 0 0 0 0 -88.214619392365165 -73.19977013252506 0 -73.19977013252506 901.87462822685484 0 0 0 0 -167.27098442734538 -249.32736874178659 0 -249.32736874178659 1071.6095648182873 0 0 0 0 -206.69332377430226 -309.28021436659526 0 -309.28021436659526 1221.3829777422241 0 0 0 0 -268.98893428431495 -211.38219312033334 0 -211.38219312033334 1340.933320707383 0 0 0 0 -283.75870644534592 -240.26494596768612 0 -240.26494596768612 1499.9535144819481 0 0 0 0 -153.1323365163193 -436.08096538598943 0 -436.08096538598943 1499.6149954677257 0 0 0 0 -67.588515183091744 -415.28132032245117 0 -415.28132032245117 1143.2320146974805 0 0 0 0 95.307055652417276 -661.20801344039921 0 -661.20801344039921 1500.0459597080267 0 0 0 0 229.35167685749352 -471.6592191395892 0 -471.6592191395892 1057.5669003285395 0 0 0 0 235.20023014434136 -501.97632389610442 0 -501.97632389610442 963.05594384637345 0 0 0 0 568.22158178818268 -609.87084739079637 0 -609.87084739079637 262.98165149163663 0 0 0 0 283.33542445425616 -756.74142401644076 0 -756.74142401644076 935.04623910289092 0 0 0 0 2105.2691170795192 -1130.7591770958861 0 -1130.7591770958861 -254.73580410796421 0 0 0 0 1281.8807823881025 -1653.7462005480911 0 -1653.7462005480911 1498.1253565979928 0 0 0 0 309.3844319207368 -860.66513433663692 0 -860.66513433663692 1218.793703811798 0 0 0 0 70.424952491560362 -6.0830117782961679 0 -6.0830117782961679 -13.842097811098938 0 0 0 0 173.14991139696622 476.85586555013685 0 476.85586555013685 1322.3898072074903 0 0 0 0 7.5781452482002853 6.6351915994032797 0 6.6351915994032797 -2.2066378469327006 0 0 0 0 1855.8080061451365 -1427.052888753271 0 -1427.052888753271 1131.8868976973718 0 0 0 0 0.40758676603197252 0.71384048760628449 0 0.71384048760628449 2.7911858364685713 0 0 0 0 -59.868432804978738 47.022866206355502 0 47.022866206355502 112.02796704651155 0 0 0 0 1.0776249977866805 6.5802237203327749 0 6.5802237203327749 38.782046324281936 0 0 0 0 585.78693217808188 -784.76885330713935 0 -784.76885330713935 823.68038965810524 0 0 0 0 0.4765402540919379 7.0403778324580815 0 7.0403778324580815 46.347911026414565 0 0 0 0 -39.734767829205794 -21.652339705836312 0 -21.652339705836312 49.807668182934776 0 0 0 0 -15.824896472063983 -17.918929776553341 0 -17.918929776553341 19.650849636466774 0 0 0 0 -9.5512867322806869 16.219578390927381 0 16.219578390927381 42.780655662701065 0 0 0 0 110.98138695802118 136.331113495767 0 136.331113495767 37.769469351001561 0 0 0 0 0.039217747925035629 0.2921134898201514 0 0.2921134898201514 4.9025835508666704 0 0 0 0 154.4565444166621 24.276002004598325 0 24.276002004598325 -0.59734673199955068 0 0 0 0 -148.19097757063281 -70.189564006208087 0 -70.189564006208087 596.46331222932849 0 0 0 0 70.359548410840119 22.684724610422563 0 22.684724610422563 -172.3911095614767 0 0 0 0 -21.541598422393008 35.361968713041279 0 35.361968713041279 -15.275519628522034 0 0 0 0 1.9177620337398946 2.2566208415723956 0 2.2566208415723956 0.58927278591786081 0 0 0 0 3.6683910229055101 -2.5277716901032363 0 -2.5277716901032363 8.3361831259717292 0 0 0 0 9.6728632380379622 13.159498796596381 0 13.159498796596381 -43.459505727373198 0 0 0 0 -37.763391875679417 -14.074128968846708 0 -14.074128968846708 -47.923517423489557 0 0 0 0 68.231625668961044 281.10911815546388 0 281.10911815546388 1583.7029792045523 0 0 0 0 97.222221567708601 359.13587215548796 0 359.13587215548796 1620.87777954986 0 0 0 0 117.43273671564749 284.33747086577841 0 284.33747086577841 1500.0099308401059 0 0 0 0 141.55223481146493 315.28546481638023 0 315.28546481638023 1520.6281923034248 0 0 0 0 47.890452744474324 252.13650299114306 0 252.13650299114306 1550.4330565516329 0 0 0 0 50.624286438635949 244.20384994925013 0 244.20384994925013 1489.0160819777993 0 0 0 0 -28.141767739685292 35.342074891565971 0 35.342074891565971 -12.870325683470583 0 0 0 0 -63.106959417720645 12.59051588377497 0 12.59051588377497 -10.65268989069591 0 0 0 0 30.857114877446747 91.093784426615457 0 91.093784426615457 107.52621075349543 0 0 0 0 21.256442333228733 37.34583675369322 0 37.34583675369322 -21.492765354631956 0 0 0 0 -14.329468951472336 -38.158869182460876 0 -38.158869182460876 28.40999547316369 0 0 0 0 5.2151931210757709 7.0348473809013292 0 7.0348473809013292 -1.1490339277129582 0 0 0 0 17.018233583097658 254.16358898440194 0 254.16358898440194 1500.3204168850334 0 0 0 0 28.036241839033664 -8.4638656439983606 0 -8.4638656439983606 -58.462670986938065 0 0 0 0 17.024885813132002 253.87866590525482 0 253.87866590525482 1498.7751816751584 0 0 0 0 6.3246121708836265 11.397446145319936 0 11.397446145319936 0.037109014725098088 0 0 0 0 -36.384375900745908 85.810068519244851 0 85.810068519244851 208.13032649524689 0 0 0 0 101.30221990924974 212.42939373722402 0 212.42939373722402 187.39190233593399 0 0 0 0 -44.951831653909437 -59.882862188963486 0 -59.882862188963486 -32.786935009658919 0 0 0 0 0.11178308098504086 -0.5838825530684062 0 -0.5838825530684062 1.3687115375527483 0 0 0 0 -15.809837655051979 -7.8054102269143186 0 -7.8054102269143186 5.0451565322091483 0 0 0 0 -46.278993501823379 -12.156120098597967 0 -12.156120098597967 13.722790817953864 0 0 0 0 0.57582090214936166 -2.1243959953369469 0 -2.1243959953369469 3.8417286922775489 0 0 0 0 -43.074489432209134 -44.858992016266654 0 -44.858992016266654 -11.213438897992091 0 0 0 0 94.796132481482289 70.097793112380174 0 70.097793112380174 105.22886497364379 0 0 0 0 24.726940924885298 84.073916574116083 0 84.073916574116083 167.87719578900578 0 0 0 0 -0.063593762483791672 -0.073205543946951224 0 -0.073205543946951224 0.23797088430466218 0 0 0 0 22.664513767833512 83.327597776566336 0 83.327597776566336 200.4799512157133 0 0 0 0 -21.274081093137966 30.204031248878891 0 30.204031248878891 -7.5634859777792371 0 0 0 0 38.446997228045447 63.962082464482933 0 63.962082464482933 125.49642485961886 0 0 0 0 30.485415905836476 27.13717512979747 0 27.13717512979747 98.885359106886824 0 0 0 0 3.2255011135788063 -3.6782455831075254 0 -3.6782455831075254 8.4305245148599397 0 0 0 0 -5.3158220816153516 -8.4179898707232041 0 -8.4179898707232041 20.471240177048458 0 0 0 0 -9.3710697166399086 2.857334475414973 0 2.857334475414973 26.972464054975717 0 0 0 0 -11.558466650196351 -1.7397187096776179 0 -1.7397187096776179 36.065024122457544 0 0 0 0 16.866486637608617 45.293050771527305 0 45.293050771527305 66.272021261998816 0 0 0 0 1.6605963536365449 -3.7796727697152832 0 -3.7796727697152832 5.3778313324228222 0 0 0 0 10.109850010104765 19.35501148885669 0 19.35501148885669 99.262113440280586 0 0 0 0 -22.910998064799514 -22.170168562586696 0 -22.170168562586696 6.1420874726700276 0 0 0 0 -5.9423753304099591 0.82663523737573996 0 0.82663523737573996 9.5547316456140834 0 0 0 0 -15.314751970398675 -8.3865399567839631 0 -8.3865399567839631 23.289459369443648 0 0 0 0 -12.803749142892514 3.7467550587866754 0 3.7467550587866754 38.225046497089352 0 0 0 0 -21.625587164171634 -6.0482161360669124 0 -6.0482161360669124 43.142863268787551 0 0 0 0 -5.1249773210656713 6.8224362087485133 0 6.8224362087485133 28.135654047906655 0 0 0 0 -36.740241491255119 -9.7387474245715566 0 -9.7387474245715566 34.078182727722378 0 0 0 0 -16.967886571360623 -7.0976166359669151 0 -7.0976166359669151 -7.1595211198979314 0 0 0 0 -22.590469746405233 11.777749412037792 0 11.777749412037792 66.928921789938613 0 0 0 0 -9.0593170555109062 4.3574763355377115 0 4.3574763355377115 -2.7581724332791016 0 0 0 0 11.773342178125404 18.788385790255234 0 18.788385790255234 49.084698131501682 0 0 0 0 -15.053331952456801 13.056445215420354 0 13.056445215420354 73.614902477648911 0 0 0 0 -13.940851381402382 11.001656252308749 0 11.001656252308749 52.035865300056685 0 0 0 0 -3.5982380180855671 23.19761987482525 0 23.19761987482525 33.511771189623687 0 0 0 0 -20.526701959983257 4.716597491515131 0 4.716597491515131 51.471983977930904 0 0 0 0 -10.365301624735192 4.3512274061357665 0 4.3512274061357665 0.038705489245407065 0 0 0 0 -7.6422568485008924 4.3388729092166614 0 4.3388729092166614 37.701779072963291 0 0 0 0 -1.6932499605303051 1.5804979166134601 0 1.5804979166134601 0.083625304341950368 0 0 0 0 -10.147139130108144 12.569027759509481 0 12.569027759509481 64.945947145368336 0 0 0 0 -7.600391133264111 20.658813855214248 0 20.658813855214248 61.189284020043488 0 0 0 0 -7.8279117380984289 24.308305960554264 0 24.308305960554264 44.011317543318 0 0 0 0 -8.2178060340693264 10.715765028431179 0 10.715765028431179 30.656485098410485 0 0 0 0 -1.787079180723822 18.570302499751051 0 18.570302499751051 39.655630255227152 0 0 0 0 -6.268030050549533 1.0937267038947969 0 1.0937267038947969 9.7765301367318926 0 0 0 0 -7.2147695317145981 0.96753821098102222 0 0.96753821098102222 4.8144033977637015 0 0 0 0 -4.066804501042725 4.6748296370533353 0 4.6748296370533353 11.822870779904406 0 0 0 0 -1.6199755323709724 -1.2434567476939264 0 -1.2434567476939264 21.028017149099469 0 0 0 0 -5.9793965986594966 5.6418998795189808 0 5.6418998795189808 6.3513284719508292 0 0 0 0 -5.5747405679521762 -0.40844241018021421 0 -0.40844241018021421 36.161913533742791 0 0 0 0 -2.3843065723211545 2.0400502086154653 0 2.0400502086154653 5.088356305036875 0 0 0 0 -0.44975843945553606 11.429500618985003 0 11.429500618985003 22.53958007257279 0 0 0 0 -39.567576668556399 29.251337947227057 0 29.251337947227057 -5.7866790550151563 0 0 0 0 -1.0901196382753147 0.82779766996622239 0 0.82779766996622239 16.273216307970898 0 0 0 0 -24.842878363978798 26.843814246886495 0 26.843814246886495 -14.330252293753801 0 0 0 0 -10.277794310375384 26.639100564385444 0 26.639100564385444 56.766823620582727 0 0 0 0 -48.641992753136662 74.936551903237159 0 74.936551903237159 97.432264799623965 0 0 0 0 161.56972125943253 -110.4125027257478 0 -110.4125027257478 -5.9910980228873996 0 0 0 0 -116.90052111048078 26.512399114662458 0 26.512399114662458 218.81454981651041 0 0 0 0 -23.612664111299409 41.879487861293455 0 41.879487861293455 -3.1743858910842846 0 0 0 0 0.49644268767337962 30.94509541771663 0 30.94509541771663 -8.1926310002742184 0 0 0 0 -1.0500487288497879 36.606014031359337 0 36.606014031359337 -17.500712478766218 0 0 0 0 -24.400297652371592 41.463625770495128 0 41.463625770495128 -10.80554935418786 0 0 0 0 16.292402947988819 8.3376015562448629 0 8.3376015562448629 -1.8574598309478461 0 0 0 0 68.06055302334255 57.553602963098342 0 57.553602963098342 -8.0059013428440267 0 0 0 0 -22.061483084233487 114.12382311185161 0 114.12382311185161 34.545981081708703 0 0 0 0 -75.843622751947748 90.456474179194743 0 90.456474179194743 36.698717956340261 0 0 0 0 -0.19324264408974678 8.9178380054595294 0 8.9178380054595294 46.653406194883964 0 0 0 0 4.8991753463870964 8.4145548464787225 0 8.4145548464787225 45.609690609027894 0 0 0 0 -27.461381425570721 -1.9664079007584405 0 -1.9664079007584405 40.59909347483881 0 0 0 0 -2.2600434358369057 14.736885740843718 0 14.736885740843718 39.855846291265976 0 0 0 0 -7.0361372421200485 19.184902936952312 0 19.184902936952312 63.843619921673962 0 0 0 0 -18.295702716369078 23.9256415869786 0 23.9256415869786 67.52314937418214 0 0 0 0 -7.7873239361876623 5.0663359625252369 0 5.0663359625252369 8.3222733003192104 0 0 0 0 -13.495806032716928 22.572520822417573 0 22.572520822417573 57.469413471797452 0 0 0 0 -12.818466891045205 16.58296873715517 0 16.58296873715517 44.549805250482677 0 0 0 0 -15.216097919582353 13.79743555857749 0 13.79743555857749 60.163998239742796 0 0 0 0 -16.06686908241943 16.513477143287673 0 16.513477143287673 52.21573557559168 0 0 0 0 -5.3899534844800314 29.109220853555144 0 29.109220853555144 64.133868429353242 0 0 0 0 -33.121839815041653 7.8521761491510915 0 7.8521761491510915 70.99332104828045 0 0 0 0 -15.995465696861515 -5.175586331737577 0 -5.175586331737577 23.971407728671693 0 0 0 0 -11.540598272498414 5.7809618740020596 0 5.7809618740020596 47.029401079489162 0 0 0 0 -11.839130746306466 11.997961575750196 0 11.997961575750196 13.979121919353929 0 0 0 0 -22.809755039289797 16.229982286040922 0 16.229982286040922 38.13224136633562 0 0 0 0 0.47405662357328371 7.5431737606489362 0 7.5431737606489362 30.59897701440477 0 0 0 0 -15.770328913743693 9.8539949575785499 0 9.8539949575785499 43.89427814188457 0 0 0 0 -2.8880466590475242 7.4451548542571597 0 7.4451548542571597 51.41895833447839 0 0 0 0 -6.531624587068336 22.098404309826947 0 22.098404309826947 50.014208394990419 0 0 0 0 -10.971103069317678 16.432177168149792 0 16.432177168149792 44.434762551507447 0 0 0 0 -8.7298961607367787 -3.7536573874440791 0 -3.7536573874440791 4.5391999375045415 0 0 0 0 -11.889525091652445 -10.084158158467744 0 -10.084158158467744 38.944175451199044 0 0 0 0 26.733617283325543 21.193551558117974 0 21.193551558117974 -4.9755370829375352 0 0 0 0 -1.4792764940764831 2.8176635824313658 0 2.8176635824313658 0.42234569402855104 0 0 0 0 49.899874222560129 -63.913501219243926 0 -63.913501219243926 70.294078757941406 0 0 0 0 -5.0731653786257578 5.5779303001985276 0 5.5779303001985276 28.773233178910083 0 0 0 0 -17.635320729046271 25.313210185824232 0 25.313210185824232 33.982458010043047 0 0 0 0 -1.1119568213288169 4.7209822422580423 0 4.7209822422580423 28.17130095935002 0 0 0 0 -38.27188821280356 -1.0769350305147327 0 -1.0769350305147327 37.527303464341799 0 0 0 0 -16.351711042149418 8.0210283400451772 0 8.0210283400451772 23.015102532840842 0 0 0 0 -47.125836918090158 0.63983913686615779 0 0.63983913686615779 24.205519774745085 0 0 0 0 10.888628248219845 2.6214168276314922 0 2.6214168276314922 13.267649848119618 0 0 0 0 -58.840443471841013 62.617904923878996 0 62.617904923878996 4.1212758225301513 0 0 0 0 0.71102505637516689 5.8378370278722613 0 5.8378370278722613 31.272441024970689 0 0 0 0 0.56821452736756128 3.683954315099224 0 3.683954315099224 30.58849482216559 0 0 0 0 -41.994609453038095 34.251727767252305 0 34.251727767252305 33.074165643221932 0 0 0 0 117.32508376630688 51.498304151100456 0 51.498304151100456 -62.304202484998314 0 0 0 0 -87.257888652848351 7.920493159364014 0 7.920493159364014 23.367586333992222 0 0 0 0 -85.655852132146492 -145.05150971315197 0 -145.05150971315197 251.49531111015494 0 0 0 0 273.35975676397004 -119.26112775304864 0 -119.26112775304864 -14.538575171853154 0 0 0 0 13.928374110580819 -41.307666277322824 0 -41.307666277322824 99.498813530655752 0 0 0 0 90.769619894739776 116.86669721852559 0 116.86669721852559 139.12628932798543 0 0 0 0 37.488591582591312 19.170797065120496 0 19.170797065120496 89.247512911248577 0 0 0 0 2.4578140783909532 15.979296570903898 0 15.979296570903898 114.95212548432028 0 0 0 0 19.804031979021374 20.042780721872987 0 20.042780721872987 287.36930965954889 0 0 0 0 101.57718371899591 81.874210428963124 0 81.874210428963124 73.756221146017197 0 0 0 0 -1.837443574686191 -0.5586600319972117 0 -0.5586600319972117 2.8403614495285581 0 0 0 0 92.861228225284776 83.85225261965752 0 83.85225261965752 85.029677216172786 0 0 0 0 41.069402102659069 21.930656795375398 0 21.930656795375398 43.540239153924631 0 0 0 0 91.416791714750843 80.826996316092846 0 80.826996316092846 81.532025466069172 0 0 0 0 96.579797151608147 71.621022765481939 0 71.621022765481939 54.365113563457271 0 0 0 0 94.547260199212587 53.43627885947717 0 53.43627885947717 11.234955753170652 0 0 0 0 -1.166549327320759 1.3395641903137872 0 1.3395641903137872 0.32876236685717686 0 0 0 0 14.344815659972539 -2.813488220378531 0 -2.813488220378531 9.0183233487659891 0 0 0 0 -16.087115206343015 -12.066015470743878 0 -12.066015470743878 12.876646417707889 0 0 0 0 -137.95502094494793 7.9639840811605609 0 7.9639840811605609 92.651864577957895 0 0 0 0 -9.8931415231051023 2.6328628962599723 0 2.6328628962599723 9.907339213021185 0 0 0 0 8.5464445410841705 21.258841889161431 0 21.258841889161431 6.021135520966709 0 0 0 0 -0.057011572744345429 0.22311098582759037 0 0.22311098582759037 -0.4253448781242426 0 0 0 0 22.668653835224859 80.709057838249919 0 80.709057838249919 65.391594625960352 0 0 0 0 -151.71395584772267 -23.156176761847746 0 -23.156176761847746 26.624299051708022 0 0 0 0 -31.179673124412602 27.908111164717411 0 27.908111164717411 51.834420098748524 0 0 0 0 -29.918784408307715 65.424857716534461 0 65.424857716534461 45.13286907579095 0 0 0 0 -64.291194008984803 67.991980204815263 0 67.991980204815263 63.570460593466123 0 0 0 0 -47.246183047735599 -4.6686192684173875 0 -4.6686192684173875 68.632814220984983 0 0 0 0 1.1414648428447265 0.63675305340240129 0 0.63675305340240129 37.436542319315777 0 0 0 0 -39.637971931205584 25.215048235820177 0 25.215048235820177 19.003662346337478 0 0 0 0 -25.479736603710023 20.687333774310446 0 20.687333774310446 14.183793892337235 0 0 0 0 -6.0659146104245565 -7.8343915639788975 0 -7.8343915639788975 18.269533535707694 0 0 0 0 6.3656716048531052 -13.652271667659534 0 -13.652271667659534 18.498552884373566 0 0 0 0 -14.278631113909 -1.3322623494377694 0 -1.3322623494377694 23.85526511540229 0 0 0 0 -16.769675993862336 -9.5317286953886651 0 -9.5317286953886651 -1.2660210911326431 0 0 0 0 17.566662261301076 54.145911600668114 0 54.145911600668114 62.661497575800468 0 0 0 0 -56.090912258395008 -21.609060578736717 0 -21.609060578736717 35.23260919952736 0 0 0 0 -0.091975212705643017 0.19908686491683891 0 0.19908686491683891 0.56716749759475249 0 0 0 0 4.6549325620371462 31.323597693831289 0 31.323597693831289 22.519715232800081 0 0 0 0 -5.4845164494738583 34.686602300322193 0 34.686602300322193 52.296083347730018 0 0 0 0 -36.128767277811676 16.55794440887621 0 16.55794440887621 16.452884454983177 0 0 0 0 -3.2375926035776956 13.022541175678271 0 13.022541175678271 10.799687196044943 0 0 0 0 -0.16592959366313204 0.29742540088077174 0 0.29742540088077174 1.1133069483474358 0 0 0 0 -4.528563817821265 24.172235576783123 0 24.172235576783123 33.290618204599014 0 0 0 0 2.8048949586620893 23.939915881599518 0 23.939915881599518 30.365205708965732 0 0 0 0 -4.381539090676597 25.447558878775453 0 25.447558878775453 44.350507472516711 0 0 0 0 -1.9977487988900293 29.024658194681251 0 29.024658194681251 29.831265262884699 0 0 0 0 1.3177870113685231 24.657148968940419 0 24.657148968940419 18.960432990783374 0 0 0 0 -6.2886825983565586 26.733927538425633 0 26.733927538425633 30.933770213667231 0 0 0 0 2.0181794709761789 21.17585957256324 0 21.17585957256324 32.479275926798437 0 0 0 0 2.1916162137385697 17.853822445240326 0 17.853822445240326 34.259266852062865 0 0 0 0 1.7661484075260887 15.471891185847198 0 15.471891185847198 24.807626323890872 0 0 0 0 -3.2287529405512032 12.748421618714929 0 12.748421618714929 23.612985829075569 0 0 0 0 -6.4003367957334376 17.021395473397206 0 17.021395473397206 17.899916394828324 0 0 0 0 -8.5268044454614937 -1.7755063882905233 0 -1.7755063882905233 13.001928323439643 0 0 0 0 -8.917221814507684 3.7263336643954972 0 3.7263336643954972 38.625803481870207 0 0 0 0 -5.4757855090418843 7.7013130057057424 0 7.7013130057057424 37.899294860722875 0 0 0 0 -3.334065173102772 7.1186158190575952 0 7.1186158190575952 30.326717492320313 0 0 0 0 -6.3995775783891986 12.008229372149799 0 12.008229372149799 40.440345472779882 0 0 0 0 -2.2681702661996042 11.658264518038777 0 11.658264518038777 40.388634231198921 0 0 0 0 -46.137134813103899 10.685829768366602 0 10.685829768366602 28.300545685540783 0 0 0 0 -8.823986765505424 9.9361041280844802 0 9.9361041280844802 -2.4363831992741325 0 0 0 0 -34.344734057164715 8.6732840939566813 0 8.6732840939566813 56.309906746188062 0 0 0 0 -60.15780537291289 -23.327516749759525 0 -23.327516749759525 23.909400736185034 0 0 0 0 -32.184125539686875 -7.1477109143361304 0 -7.1477109143361304 42.819230891731422 0 0 0 0 24.760569770114216 52.836558619620519 0 52.836558619620519 51.512810775293474 0 0 0 0 -0.098134375472841484 0.22601081819698354 0 0.22601081819698354 0.58093322131003333 0 0 0 0 -27.921918128275365 28.825861409763093 0 28.825861409763093 72.221568840445798 0 0 0 0 39.318062488625628 26.245208455689863 0 26.245208455689863 27.04273747285697 0 0 0 0 -5.3048855237357699 1.902732284179276 0 1.902732284179276 -2.6560514176257861 0 0 0 0 -26.739989151492068 3.6618018366909837 0 3.6618018366909837 60.801840661217284 0 0 0 0 -24.130637441769977 14.047853998337814 0 14.047853998337814 59.136797339520854 0 0 0 0 -12.168931055400321 1.7729709882032694 0 1.7729709882032694 60.444698326798971 0 0 0 0 -19.621288425678813 11.909928257424326 0 11.909928257424326 59.222316336059748 0 0 0 0 -1.7623172208657252 10.845169059765794 0 10.845169059765794 -3.20610328157818 0 0 0 0 -34.699407869258209 74.732908492790784 0 74.732908492790784 -65.140852578460908 0 0 0 0 -5.6124805364261192 10.113340082736613 0 10.113340082736613 -0.18910478395218888 0 0 0 0 -4.0025448906984007 11.332202268171091 0 11.332202268171091 -2.4786571782205762 0 0 0 0 -1.0273842296446674 10.695927634551481 0 10.695927634551481 -86.592682082653937 0 0 0 0 -6.9114043141184993 10.111348116107365 0 10.111348116107365 -10.112876422881527 0 0 0 0 -5.5685191730400634 7.3627076082072094 0 7.3627076082072094 -3.6023129359223276 0 0 0 0 18.500068210264544 0.20832290187900071 0 0.20832290187900071 -31.067655665399798 0 0 0 0 -18.781670634448247 20.418758694071268 0 20.418758694071268 -3.4380321733320045 0 0 0 0 64.187638669847729 117.26745623959869 0 117.26745623959869 -205.83335277554352 0 0 0 0 -124.67896680272656 -159.38689973356941 0 -159.38689973356941 -71.930075877629861 0 0 0 0 -5.5034793530330717 29.297600804122339 0 29.297600804122339 29.967674509476637 0 0 0 0 -0.097906441528948562 23.870553722435943 0 23.870553722435943 -2.0262438991412637 0 0 0 0 -6.8023835439875029 13.5598442182486 0 13.5598442182486 43.92442646350537 0 0 0 0 -6.5307788804471443 28.47899304706425 0 28.47899304706425 53.459691499425389 0 0 0 0 -8.5317206931028977 8.9575917235633824 0 8.9575917235633824 54.766845016863954 0 0 0 0 -19.455026705395994 20.590513801616908 0 20.590513801616908 76.320966891540593 0 0 0 0 -25.000915301809528 1.3508422507384239 0 1.3508422507384239 90.418681633235337 0 0 0 0 -1.4854057205296387 0.29552754393242253 0 0.29552754393242253 0.30374128059726591 0 0 0 0 -18.931471544779924 -0.48900082070940698 0 -0.48900082070940698 62.346707995438919 0 0 0 0 -17.025996379366916 4.9376059364440152 0 4.9376059364440152 51.645466948453759 0 0 0 0 -2.1043844858919147 10.674798328064796 0 10.674798328064796 0.95643627766850825 0 0 0 0 -3.6748312391891886 10.379520137163126 0 10.379520137163126 -0.14226085729023907 0 0 0 0 11.081618387660797 -54.538783152985161 0 -54.538783152985161 -174.52911045654582 0 0 0 0 -1.0649490623560496 11.389044412051589 0 11.389044412051589 -0.2112878496045596 0 0 0 0 -0.15602544031338361 9.269029509276784 0 9.269029509276784 3.999818308419794 0 0 0 0 -9.3464773217253452 -49.819907977271214 0 -49.819907977271214 214.78728950337791 0 0 0 0 -30.678280451358063 -53.373797751781694 0 -53.373797751781694 241.82622620220536 0 0 0 0 -20.8442857631876 -78.658624884517849 0 -78.658624884517849 304.80156753771007 0 0 0 0 -14.325345844676349 -0.89867946609592764 0 -0.89867946609592764 182.28291123635063 0 0 0 0 -26.585237920554846 40.52424698057257 0 40.52424698057257 310.32458339269579 0 0 0 0 -16.332194006281043 18.013825330064719 0 18.013825330064719 152.42496471752565 0 0 0 0 46.030046417363337 6.4213398690990289 0 6.4213398690990289 -8.5769726116941456 0 0 0 0 1.7659143123814118 2.0026308054071507 0 2.0026308054071507 -0.0053838810488251454 0 0 0 0 -28.961836815436982 -22.35437527031263 0 -22.35437527031263 137.16700934770779 0 0 0 0 28.111540073074138 -0.93495718153280905 0 -0.93495718153280905 -7.0086824873251317 0 0 0 0 16.277038506194003 99.682659420605887 0 99.682659420605887 400.25228385767696 0 0 0 0 104.10539071042513 -99.196872698270454 0 -99.196872698270454 104.98907535340004 0 0 0 0 -4.4508097429705096 8.4690547181015319 0 8.4690547181015319 2.7122249867208659 0 0 0 0 0.79180174506964995 -0.32783063889991482 0 -0.32783063889991482 1.7326711265004491 0 0 0 0 -37.794883473859045 51.569343566281532 0 51.569343566281532 216.47268027241807 0 0 0 0 181.08365723043335 -48.025349377861858 0 -48.025349377861858 250.62614816066343 0 0 0 0 -118.01030156475827 -102.04864982408617 0 -102.04864982408617 415.30183787708938 0 0 0 0 -129.72373499503192 -109.70394947010936 0 -109.70394947010936 382.52187463310111 0 0 0 0 -102.97625885678417 -128.24981416443461 0 -128.24981416443461 281.40172616599739 0 0 0 0 -99.728262859899587 -101.42606260312823 0 -101.42606260312823 384.79600128925085 0 0 0 0 -1.2448551437810238 -167.12422814135061 0 -167.12422814135061 525.94276001930029 0 0 0 0 286.00321333128159 366.89186437445096 0 366.89186437445096 228.066564141649 0 0 0 0 -79.222538421943682 205.30620405372974 0 205.30620405372974 586.01392414125166 0 0 0 0 1.2864017974251425 -1.6783215856526894 0 -1.6783215856526894 3.2643757384168666 0 0 0 0 -32.75891970414159 149.6384294764739 0 149.6384294764739 150.03891077640583 0 0 0 0 -275.65752156338203 48.397219792099349 0 48.397219792099349 248.56099862132396 0 0 0 0 9.7902202302357182 143.41360294740298 0 143.41360294740298 206.34668657957809 0 0 0 0 61.735811769833163 -302.80866856017747 0 -302.80866856017747 -42.679970197772491 0 0 0 0 284.13444474782472 41.022488143516625 0 41.022488143516625 37.283621033915551 0 0 0 0 -64.33824223463489 305.83498477545072 0 305.83498477545072 -4.3516906972256493 0 0 0 0 128.06257140039997 46.72988780464766 0 46.72988780464766 -30.644709948879608 0 0 0 0 -3.3902582852715568 89.935557292606973 0 89.935557292606973 15.854656388393778 0 0 0 0 -65.366120425811005 28.057950864413215 0 28.057950864413215 71.359659029178147 0 0 0 0 -13.690656826038321 60.709620615310996 0 60.709620615310996 176.6757517539736 0 0 0 0 78.333657760795177 -58.404371218417509 0 -58.404371218417509 131.99880242686413 0 0 0 0 -63.614514235236129 -59.436588256230607 0 -59.436588256230607 68.499411699873235 0 0 0 0 -14.908288110984358 17.535955633014964 0 17.535955633014964 90.75039937395195 0 0 0 0 -7.0335273425207561 -19.435850572390336 0 -19.435850572390336 -156.92513917787801 0 0 0 0 31.85746631233269 264.52725071514215 0 264.52725071514215 -78.826269383609542 0 0 0 0 -217.71187547475711 -273.16630260160309 0 -273.16630260160309 216.37726120484876 0 0 0 0 -1.4731777729270128 0.26917630640438261 0 0.26917630640438261 0.78846721017494303 0 0 0 0 -160.55917475985416 -271.4851802472831 0 -271.4851802472831 -64.971453538993956 0 0 0 0 -1.7794443379258844 0.11403216470809951 0 0.11403216470809951 1.0218855626421544 0 0 0 0 -306.54839230687139 -124.88164942787262 0 -124.88164942787262 220.14999250141409 0 0 0 0 -44.663310143787385 -113.97789223083237 0 -113.97789223083237 45.380171576523935 0 0 0 0 97.311223861524013 109.48923882886265 0 109.48923882886265 187.56830725879263 0 0 0 0 -4.5044022528588386 1.3703247093047892 0 1.3703247093047892 -1.0134696075924836 0 0 0 0 38.873754650450792 73.791836044198135 0 73.791836044198135 127.39805468999168 0 0 0 0 85.916508026697556 84.228181640319235 0 84.228181640319235 150.7294770896915 0 0 0 0 47.447852808101743 54.949323393979284 0 54.949323393979284 128.49042808063678 0 0 0 0 -1.0359294751924608 30.204456751831458 0 30.204456751831458 130.01435222634245 0 0 0 0 -12.493304220901337 11.340233025766793 0 11.340233025766793 102.51684420857055 0 0 0 0 14.812763720296061 32.515996602844098 0 32.515996602844098 111.12831823180022 0 0 0 0 18.627955288138764 51.054362878126994 0 51.054362878126994 162.14194279727417 0 0 0 0 48.456647165419781 69.353280448509395 0 69.353280448509395 87.178055015579957 0 0 0 0 8.4143132408735255 42.81752747815699 0 42.81752747815699 120.29782997996517 0 0 0 0 12.816438444366213 40.499775780077471 0 40.499775780077471 81.510888149488892 0 0 0 0 54.106606598158578 152.72502442661425 0 152.72502442661425 23.554510562390533 0 0 0 0 26.589350800619286 38.752416744264337 0 38.752416744264337 67.293521003433852 0 0 0 0 -33.76282470604383 -24.45454605894156 0 -24.45454605894156 144.0307838584049 0 0 0 0 -3.6698300165466975 0.2518286978595583 0 0.2518286978595583 1.5590151548922648 0 0 0 0 27.604798537946408 -120.75151487746916 0 -120.75151487746916 138.33808894695903 0 0 0 0 -93.310007801798875 -65.410986134139762 0 -65.410986134139762 21.328468778920069 0 0 0 0 -85.795642485250028 70.572614572265593 0 70.572614572265593 -2.5149661088216817 0 0 0 0 -36.409360720077075 13.616405662595753 0 13.616405662595753 134.30717145343078 0 0 0 0 40.326200570749734 1.6051193825624068 0 1.6051193825624068 15.539083009243768 0 0 0 0 0.25826443559695988 0.81206576183639356 0 0.81206576183639356 0.94012141394487747 0 0 0 0 -18.901293158454791 37.228844465549628 0 37.228844465549628 14.504626150504919 0 0 0 0 5.8260521993915972 60.470266445019661 0 60.470266445019661 88.115654265056946 0 0 0 0 -64.723909434091183 -3.4835079573385883 0 -3.4835079573385883 172.95621872368429 0 0 0 0 -4.0864449434352021 2.949972765836705 0 2.949972765836705 7.8322665767728878 0 0 0 0 0.075941602643954553 -1.4155200502635914 0 -1.4155200502635914 -0.026981470218939485 0 0 0 0 -26.326480088765493 57.94495188723522 0 57.94495188723522 -32.384656910089689 0 0 0 0 -14.66267436283124 11.907658063752933 0 11.907658063752933 11.827562948752529 0 0 0 0 -12.755954116947805 19.844819160878956 0 19.844819160878956 -2.3906926500312693 0 0 0 0 -11.802309316571312 10.001621560775838 0 10.001621560775838 -3.9580700444988395 0 0 0 0 -13.56610516608248 55.551982022194352 0 55.551982022194352 15.387440710531337 0 0 0 0 -8.0497519849093351 16.347080272890707 0 16.347080272890707 5.4092247903308817 0 0 0 0 -4.2360600950531371 1.6686258550289335 0 1.6686258550289335 2.1640847446948825 0 0 0 0 -36.499527051064035 7.6196708023926476 0 7.6196708023926476 17.551007654017667 0 0 0 0 -54.136623139864241 36.794320420754957 0 36.794320420754957 -4.7266610397509794 0 0 0 0 -213.97974460270871 28.669754334774552 0 28.669754334774552 51.110956412099767 0 0 0 0 -76.915391112358066 11.216206458974966 0 11.216206458974966 2.8656928973396134 0 0 0 0 -18.862995578466219 13.651044291100312 0 13.651044291100312 -1.0383227562051056 0 0 0 0 -0.1109592668329249 3.239262389323855 0 3.239262389323855 -5.4277838891164336 0 0 0 0 8.735556591553177 31.778260895092899 0 31.778260895092899 19.672866325636278 0 0 0 0 -68.157095569455123 86.428096094819921 0 86.428096094819921 -16.563773248206417 0 0 0 0 51.235391376350435 61.482301872253629 0 61.482301872253629 -29.736905758916691 0 0 0 0 -1.8879335558300223 -3.1972481944136923 0 -3.1972481944136923 12.529958248664897 0 0 0 0 48.591910261240628 125.75252528670535 0 125.75252528670535 91.345929509006965 0 0 0 0 55.499825702856469 48.410194281210352 0 48.410194281210352 60.860242397333423 0 0 0 0 3.4452257752376507 5.1323545493812013 0 5.1323545493812013 4.2183224223150688 0 0 0 0 -21.235716659482932 46.931858300831664 0 46.931858300831664 96.337701834632753 0 0 0 0 100.3734495301278 -50.26910033842978 0 -50.26910033842978 -140.28885353118676 0 0 0 0 -22.759046112887972 42.982761069486514 0 42.982761069486514 240.81074663729305 0 0 0 0 25.517821285360924 23.588309389530878 0 23.588309389530878 46.306233809629248 0 0 0 0 22.619901418038374 21.922103582624725 0 21.922103582624725 9.3210700729858047 0 0 0 0 -10.318884556957073 33.365661943058512 0 33.365661943058512 18.853947906007306 0 0 0 0 22.476510342688911 9.8376079360814259 0 9.8376079360814259 6.0226586136360858 0 0 0 0 28.124434044818827 5.5153715318992909 0 5.5153715318992909 -10.21325684900512 0 0 0 0 31.295642490764294 -1.1699084051524551 0 -1.1699084051524551 -44.933009711894556 0 0 0 0 67.255761687635641 43.104804310181862 0 43.104804310181862 -50.937974120900435 0 0 0 0 23.784145468918279 9.5149553994152924 0 9.5149553994152924 2.3269536079372628 0 0 0 0 160.52852588631424 -0.96848633109175353 0 -0.96848633109175353 -89.338333395222435 0 0 0 0 115.37879564886271 129.39986686134216 0 129.39986686134216 22.580273122688595 0 0 0 0 -0.49536910084862029 62.043211165655521 0 62.043211165655521 -16.558490605191764 0 0 0 0 76.651393549419936 83.814409822291054 0 83.814409822291054 62.297180055320496 0 0 0 0 -65.961479144769783 142.32759280708524 0 142.32759280708524 269.89488978896043 0 0 0 0 236.69472446511645 270.67426899406564 0 270.67426899406564 231.34416557305303 0 0 0 0 228.25643384081806 98.486517505603501 0 98.486517505603501 77.668737373620388 0 0 0 0 649.02056100121627 575.17111587001637 0 575.17111587001637 382.84373013169534 0 0 0 0 50.974619932679161 157.71415843104478 0 157.71415843104478 508.57121242997528 0 0 0 0 109.71178760035514 -19.328842340637038 0 -19.328842340637038 774.49462575654616 0 0 0 0 63.737955141517887 83.791331942389661 0 83.791331942389661 929.34457412144184 0 0 0 0 -5.414664805095299 109.12133557496281 0 109.12133557496281 254.69248874797267 0 0 0 0 -8.1993858612140684 102.59117993044492 0 102.59117993044492 460.72157312478703 0 0 0 0 -64.486028609602272 76.44616854418382 0 76.44616854418382 343.25378683443523 0 0 0 0 -48.606659753843815 65.750469912978588 0 65.750469912978588 210.07581245567144 0 0 0 0 -45.845459087267045 125.32446017162874 0 125.32446017162874 236.74660703347035 0 0 0 0 -34.531058468457104 159.78644297304527 0 159.78644297304527 143.92092378397865 0 0 0 0 -45.469370018193331 119.00788665807431 0 119.00788665807431 165.89698003239391 0 0 0 0 -57.556665607387913 111.05760824341087 0 111.05760824341087 160.92043009224653 0 0 0 0 4.749414602550587 98.409065463129082 0 98.409065463129082 166.96327884872881 0 0 0 0 -15.327226226345374 14.690149893671332 0 14.690149893671332 -22.771301006234353 0 0 0 0 0.38094450211286812 1.9510643731760489 0 1.9510643731760489 6.6311357038899246 0 0 0 0 63.236975524419677 -193.25472375897925 0 -193.25472375897925 365.6164476087979 0 0 0 0 48.728783933306772 -144.30634691162868 0 -144.30634691162868 200.65718098240905 0 0 0 0 41.703947082045488 198.99088628928439 0 198.99088628928439 121.72033170971918 0 0 0 0 -53.63456875196789 162.44482830768175 0 162.44482830768175 545.57619558741135 0 0 0 0 -8.4446998555890787 -9.5521198633723543 0 -9.5521198633723543 56.956609011300316 0 0 0 0 -43.830010442800813 25.940048069920522 0 25.940048069920522 87.63871579813167 0 0 0 0 -3.2233419973774744 -58.922110651490584 0 -58.922110651490584 125.8417595433084 0 0 0 0 -79.376456077749481 6.5008795714238659 0 6.5008795714238659 337.5373568940322 0 0 0 0 -13.869498236013911 -11.271343537167922 0 -11.271343537167922 218.68563489722328 0 0 0 0 1.8366271214260879 10.615034144002522 0 10.615034144002522 0.19928718199312256 0 0 0 0 2.7246336940051776 10.918308182532201 0 10.918308182532201 -1.2699196122175636 0 0 0 0 7.0874322049266993 10.124511511367018 0 10.124511511367018 -2.2208135799992306 0 0 0 0 3.4831463223160881 10.352756722833874 0 10.352756722833874 -2.0691536964804982 0 0 0 0 3.9782599266176537 11.146032790310272 0 11.146032790310272 4.2546304491078395 0 0 0 0 -70.351413856276167 4.9736541583897633 0 4.9736541583897633 232.70000105913459 0 0 0 0 7.2180594161544462 11.64649816581402 0 11.64649816581402 4.4916097786151647 0 0 0 0 15.227065744976471 17.559071631128973 0 17.559071631128973 33.178924221083435 0 0 0 0 14.290342639259279 13.904238263141451 0 13.904238263141451 38.971393703108333 0 0 0 0 17.042599251835441 16.270449738084153 0 16.270449738084153 34.512271765441255 0 0 0 0 -27.490542430617097 -14.030650622324174 0 -14.030650622324174 57.239836792709411 0 0 0 0 4.6528584136142399 21.920669139710299 0 21.920669139710299 36.37094143788272 0 0 0 0 -8.8415008620228264 20.437412106527063 0 20.437412106527063 37.125887561993295 0 0 0 0 -4.015932134202103 14.440671843825839 0 14.440671843825839 33.646330821333322 0 0 0 0 291.57872718728686 273.49299056239943 0 273.49299056239943 -372.86337135066424 0 0 0 0 155.28512699257044 -308.26455176842865 0 -308.26455176842865 359.59797790284119 0 0 0 0 -56.744814905175645 -54.523269189395251 0 -54.523269189395251 495.12697858308093 0 0 0 0 -39.087575347747588 308.70397853896429 0 308.70397853896429 210.23040650827897 0 0 0 0 8.5787793303260287 10.404558367649265 0 10.404558367649265 -2.1885553332864376 0 0 0 0 17.822088408523996 16.318188825487596 0 16.318188825487596 38.65695892158692 0 0 0 0 15.134692017126781 15.756394635503966 0 15.756394635503966 41.304107201124864 0 0 0 0 17.040949202150841 16.439454283527084 0 16.439454283527084 38.936137423061155 0 0 0 0 23.560389110598862 18.279844763178971 0 18.279844763178971 37.727578786891172 0 0 0 0 17.709421428471309 20.893833728440654 0 20.893833728440654 41.134873623610474 0 0 0 0 20.371863784650678 22.770687179022673 0 22.770687179022673 7.5288620495663405 0 0 0 0 20.481572671900039 18.737006271750943 0 18.737006271750943 40.800387804831189 0 0 0 0 20.637599837368782 18.832252184934532 0 18.832252184934532 35.91519483524462 0 0 0 0 16.933950823550958 16.38398292952661 0 16.38398292952661 36.033609594027439 0 0 0 0 22.941644076273406 21.565222148501562 0 21.565222148501562 34.384096056510316 0 0 0 0 23.157668137881274 24.847397579475 0 24.847397579475 39.585850754396688 0 0 0 0 -5.1440718419919529 -3.8084607941502213 0 -3.8084607941502213 14.46102848245782 0 0 0 0 -14.982979224755752 -25.020825542873354 0 -25.020825542873354 22.228462379902339 0 0 0 0 3.6461147881998102 19.313942126939764 0 19.313942126939764 36.76061686795947 0 0 0 0 -2.6804475279499229 13.163199997725314 0 13.163199997725314 35.159063295111991 0 0 0 0 3.1516909744075292 16.798111690700352 0 16.798111690700352 37.180788204766941 0 0 0 0 12.894911454981866 17.3574539795909 0 17.3574539795909 32.564506671145864 0 0 0 0 13.552320456365806 19.134613205291316 0 19.134613205291316 36.385784859751766 0 0 0 0 10.666983513693594 21.734708351858899 0 21.734708351858899 36.256338192777548 0 0 0 0 15.508885415059581 16.704684365690355 0 16.704684365690355 32.8388621142185 0 0 0 0 7.528720824977313 16.673277103191595 0 16.673277103191595 29.658977090561166 0 0 0 0 4.0436398995187801 22.781338010189756 0 22.781338010189756 32.303266137261744 0 0 0 0 13.545426237802644 20.7870615750453 0 20.7870615750453 29.637855628149737 0 0 0 0 14.119247622983266 23.027393756030392 0 23.027393756030392 34.659032008499707 0 0 0 0 4.60834590126683 18.107982247485779 0 18.107982247485779 31.615413048681148 0 0 0 0 -1.4547914690292032 -0.48313186736959324 0 -0.48313186736959324 17.518489831121769 0 0 0 0 -22.747304754642471 -8.6007273824698132 0 -8.6007273824698132 37.118619132743333 0 0 0 0 -25.971280072722948 4.5260647017130395 0 4.5260647017130395 18.669084391072829 0 0 0 0 -6.3116378977405283 -1.3617845098624812 0 -1.3617845098624812 13.096742580042807 0 0 0 0 -39.706220076972841 3.9428898295027466 0 3.9428898295027466 32.966084497018073 0 0 0 0 16.916611817393743 -17.713526027512671 0 -17.713526027512671 31.029407500449452 0 0 0 0 22.707321262013807 17.100952346658232 0 17.100952346658232 35.8942965153974 0 0 0 0 57.733702009269109 8.7316038497992849 0 8.7316038497992849 39.999397017161755 0 0 0 0 54.179359774146405 -7.8574748078335688 0 -7.8574748078335688 17.542756092389027 0 0 0 0 22.615010236894648 8.5027212765016884 0 8.5027212765016884 52.444989542530493 0 0 0 0 20.77204391351728 -2.1359203107645044 0 -2.1359203107645044 0.048007880102886702 0 0 0 0 23.672148471790251 -11.33603050237798 0 -11.33603050237798 22.452052629985701 0 0 0 0 11.973256013958348 -11.542795490262506 0 -11.542795490262506 3.1132513879128965 0 0 0 0 0.081243506690589218 -1.8272977820794871 0 -1.8272977820794871 19.946564106219405 0 0 0 0 18.389055711735864 21.784758231123305 0 21.784758231123305 15.926838517618307 0 0 0 0 39.67094802999145 19.44129519708622 0 19.44129519708622 -14.856239420408656 0 0 0 0 24.425576477732875 3.580151043341175 0 3.580151043341175 -2.4729090127111704 0 0 0 0 64.753286132588983 -2.4464158372411475 0 -2.4464158372411475 12.472097933423356 0 0 0 0 47.35793992423487 12.265075629582498 0 12.265075629582498 0.68290876186074456 0 0 0 0 16.278147707675544 27.91219520818413 0 27.91219520818413 16.368044075767102 0 0 0 0 48.83569023410405 51.529204223819761 0 51.529204223819761 24.736581820819993 0 0 0 0 -43.919431442790255 60.56882312615744 0 60.56882312615744 311.34144340136663 0 0 0 0 127.48191111544611 52.461713359796704 0 52.461713359796704 24.029080237880635 0 0 0 0 51.151161861362056 14.323150375705836 0 14.323150375705836 38.712420501477027 0 0 0 0 96.275399874621144 -17.894435919395619 0 -17.894435919395619 61.230912371691375 0 0 0 0 71.684106557245741 38.154832872826773 0 38.154832872826773 89.95200766929338 0 0 0 0 54.306466902811849 15.091662868660933 0 15.091662868660933 60.399026133196458 0 0 0 0 124.27468351837388 40.41082552701846 0 40.41082552701846 36.527199773630855 0 0 0 0 83.690872321430106 7.2159262122113432 0 7.2159262122113432 -172.31838384018374 0 0 0 0 0.60592691957503142 0.10816083394393416 0 0.10816083394393416 0.086919831887612986 0 0 0 0 145.28202227223528 129.94191249567848 0 129.94191249567848 -79.81620341643611 0 0 0 0 73.308628436245215 91.570415718032791 0 91.570415718032791 31.834361163750145 0 0 0 0 242.61622843631358 -62.220136635527524 0 -62.220136635527524 117.83271510577924 0 0 0 0 20.891756545526732 40.769163953153111 0 40.769163953153111 377.93352781623616 0 0 0 0 24.035903375325461 56.006965322102587 0 56.006965322102587 209.72159710873893 0 0 0 0 36.640674510075769 34.221668747937656 0 34.221668747937656 164.82409603151427 0 0 0 0 40.215340746110996 20.963343417721262 0 20.963343417721262 174.74770288272884 0 0 0 0 41.493095416140193 11.527716501259306 0 11.527716501259306 101.44382698133268 0 0 0 0 38.114135814167128 -46.718093751638435 0 -46.718093751638435 94.048394577723229 0 0 0 0 89.044196369854035 2.3531625312789402 0 2.3531625312789402 6.1680600869349291 0 0 0 0 88.185913040945451 16.129099252376704 0 16.129099252376704 54.564109905808436 0 0 0 0 54.272849142561199 22.425948418018379 0 22.425948418018379 82.218756335485523 0 0 0 0 41.9690352108139 24.961404546173071 0 24.961404546173071 62.074161637234283 0 0 0 0 54.176982774955604 24.111603831752291 0 24.111603831752291 54.405836045236356 0 0 0 0 33.699307050258511 4.4961585819237371 0 4.4961585819237371 48.17798729637434 0 0 0 0 49.479668156794446 45.986223790338045 0 45.986223790338045 47.752894830434727 0 0 0 0 29.785228087689347 33.85908038915295 0 33.85908038915295 56.526672771393351 0 0 0 0 71.935287191938642 87.807010598620764 0 87.807010598620764 80.038228556149988 0 0 0 0 33.922332665173826 56.285687857583071 0 56.285687857583071 108.12846172756326 0 0 0 0 46.628622749333829 52.949628330974292 0 52.949628330974292 104.54127554233492 0 0 0 0 32.990869340744666 61.892047636731149 0 61.892047636731149 150.52728272706918 0 0 0 0 46.628850175953517 110.17938872012473 0 110.17938872012473 149.16772043364108 0 0 0 0 22.818733704236138 112.54454367072049 0 112.54454367072049 157.54339913043077 0 0 0 0 44.527795918930678 93.685776240067753 0 93.685776240067753 96.743704476508356 0 0 0 0 45.152470108130046 110.63944731280935 0 110.63944731280935 126.54113897179923 0 0 0 0 87.217766664345561 149.88314713558884 0 149.88314713558884 124.6904904611165 0 0 0 0 23.466982125316463 137.60159449458297 0 137.60159449458297 242.80141868746432 0 0 0 0 25.414254462613826 105.21697517342182 0 105.21697517342182 168.81808074127184 0 0 0 0 18.304890717262367 115.33696580845844 0 115.33696580845844 159.72131203016579 0 0 0 0 -8.6051524821681031 -4.5035951471924278 0 -4.5035951471924278 6.5079247717210613 0 0 0 0 22.726650384183813 46.79522496273421 0 46.79522496273421 80.598308999014762 0 0 0 0 112.51530719509356 123.4925027052559 0 123.4925027052559 95.614600058479027 0 0 0 0 -15.152982318453244 -10.672066584084405 0 -10.672066584084405 17.919997773627983 0 0 0 0 -7.8609658622117422 -6.5716765077777382 0 -6.5716765077777382 8.8068607386085205 0 0 0 0 -8.8846627214982288 -8.06776230891019 0 -8.06776230891019 12.496078982487688 0 0 0 0 7.5026692130513766 -69.585729573093886 0 -69.585729573093886 -70.091656538475945 0 0 0 0 -5.511049984194222 -5.7346537401984747 0 -5.7346537401984747 8.6910614493645539 0 0 0 0 -1.1328028443400981 -0.30195142062301983 0 -0.30195142062301983 3.2182775135676813 0 0 0 0 87.413487872946462 141.44899138998107 0 141.44899138998107 156.19270956238688 0 0 0 0 69.481879941103671 119.60148924392706 0 119.60148924392706 167.51667741385972 0 0 0 0 108.5050067281536 186.52744749548401 0 186.52744749548401 275.94889419441824 0 0 0 0 185.08673920095725 133.53961467952468 0 133.53961467952468 142.70073256665637 0 0 0 0 69.957630646355938 116.2782647315471 0 116.2782647315471 184.84711379767759 0 0 0 0 13.900627447972283 86.432346973442691 0 86.432346973442691 170.38871616730466 0 0 0 0 -0.88414052591449011 1.2706946111676416 0 1.2706946111676416 2.8287657427016395 0 0 0 0 -18.898357529206351 16.763880328437153 0 16.763880328437153 39.887514428681243 0 0 0 0 3.0235475559649174 7.8747113870745089 0 7.8747113870745089 9.432388474929887 0 0 0 0 7.8759092213867916 10.113656390691176 0 10.113656390691176 16.93613179537715 0 0 0 0 7.0638538093608076 12.029345932896831 0 12.029345932896831 16.415762936399915 0 0 0 0 6.4952601214563401 10.894409880336752 0 10.894409880336752 19.240788255066036 0 0 0 0 -0.064910822362606702 1.9485027695062023 0 1.9485027695062023 4.0461785291248802 0 0 0 0 7.2665167143568397 9.0070024292726885 0 9.0070024292726885 19.493735379030113 0 0 0 0 -2.0943475603285151 15.793827945022713 0 15.793827945022713 31.70159501348212 0 0 0 0 -8.5906297438421184 -0.018523511493373945 0 -0.018523511493373945 10.691301129545771 0 0 0 0 -0.10710202589802975 1.5307685839470651 0 1.5307685839470651 18.651508910958427 0 0 0 0 0.88114072009079791 11.94934772598117 0 11.94934772598117 15.01196899927163 0 0 0 0 8.8462063127557258 6.9493742921877129 0 6.9493742921877129 19.97064909391338 0 0 0 0 -27.758481910535693 -10.793522791683245 0 -10.793522791683245 34.105435368501276 0 0 0 0 -32.033934819565928 -7.3578427415395709 0 -7.3578427415395709 33.165706982947086 0 0 0 0 -23.454659208574526 23.669266497408898 0 23.669266497408898 0.0021679738783859648 0 0 0 0 -0.84975143308890289 -0.92059232544240288 0 -0.92059232544240288 0.26452980461065856 0 0 0 0 30.98413302751527 33.405744643203434 0 33.405744643203434 13.762891431322601 0 0 0 0 -5.4012965477747343 -15.87116278877329 0 -15.87116278877329 14.426009578110097 0 0 0 0 -6.679037544053017 39.783747903766198 0 39.783747903766198 44.907982871371132 0 0 0 0 120.05082857830951 99.924786745099482 0 99.924786745099482 52.796954199934589 0 0 0 0 42.137235408965211 38.769798449473456 0 38.769798449473456 26.311275519397896 0 0 0 0 123.35249987357177 123.89730588171767 0 123.89730588171767 -15.383399962505791 0 0 0 0 97.162453921963547 222.60658694724225 0 222.60658694724225 299.23370037952918 0 0 0 0 2.3832352180785512 1.1592747071432541 0 1.1592747071432541 0.45938752045029219 0 0 0 0 -7.9420747420848556 4.625421247434133 0 4.625421247434133 336.00793935437378 0 0 0 0 33.340638451935774 8.076427248030086 0 8.076427248030086 -20.932251925303717 0 0 0 0 -36.85018721562119 -2.2328632813832883 0 -2.2328632813832883 38.278210769022735 0 0 0 0 -38.09179811271656 18.272954991362894 0 18.272954991362894 20.960389848915156 0 0 0 0 5.6076979269044749 2.9810373268005073 0 2.9810373268005073 3.2324581090477196 0 0 0 0 -14.973663288408716 22.442299907252163 0 22.442299907252163 -5.0913108145286969 0 0 0 0 13.056479469312649 -1.7776973519630701 0 -1.7776973519630701 68.864371895986551 0 0 0 0 -9.30884804333067 -11.825936466384519 0 -11.825936466384519 160.37631886579038 0 0 0 0 13.023474493358208 -11.435655689784653 0 -11.435655689784653 30.201005584315681 0 0 0 0 13.464538657768003 18.940106542156173 0 18.940106542156173 53.497237650109128 0 0 0 0 37.645527419104951 55.407103898769492 0 55.407103898769492 88.230233241566566 0 0 0 0 0.64255178551828185 0.27906424469240321 0 0.27906424469240321 0.17694093218691265 0 0 0 0 58.662916785215835 29.448527653778001 0 29.448527653778001 72.362310556532975 0 0 0 0 -1.1323260536614157 63.912255547568748 0 63.912255547568748 178.74979921627892 0 0 0 0 7.9349825994941057 20.445340896121706 0 20.445340896121706 104.25305548351389 0 0 0 0 5.5640103787471347 43.568733076661601 0 43.568733076661601 138.88783371629324 0 0 0 0 -5.0635489973482777 33.825271335852449 0 33.825271335852449 147.8098737968412 0 0 0 0 0.16661577468334343 53.161350802941115 0 53.161350802941115 156.59790278181026 0 0 0 0 -35.249360080982441 49.820943072026239 0 49.820943072026239 165.93829191403711 0 0 0 0 -6.862574272015884 141.46585592482779 0 141.46585592482779 330.63296414274373 0 0 0 0 86.873780133647756 248.64831058762684 0 248.64831058762684 396.87186801468488 0 0 0 0 251.17712816848336 209.96039972667131 0 209.96039972667131 157.79475985975046 0 0 0 0 10.225574607047974 1.3786973697806388 0 1.3786973697806388 13.891596864068561 0 0 0 0 192.33396494329963 228.0567939933926 0 228.0567939933926 354.25338877124886 0 0 0 0 0.79346717797750621 0.01268150804451551 0 0.01268150804451551 0.2215869658589984 0 0 0 0 54.378074453688342 49.369194920738664 0 49.369194920738664 89.627612989916088 0 0 0 0 0.60580980202929002 0.17919317657466038 0 0.17919317657466038 0.34008619287422803 0 0 0 0 65.281486075347914 28.732433592684174 0 28.732433592684174 167.72939259439227 0 0 0 0 149.62649300791571 232.49221150825906 0 232.49221150825906 233.82966453057543 0 0 0 0 140.23929608775688 3.2429792249495222 0 3.2429792249495222 361.62160334148302 0 0 0 0 231.45931197842174 148.57464915146556 0 148.57464915146556 218.0261065858067 0 0 0 0 129.12944915416915 60.494471694806975 0 60.494471694806975 143.79496591249335 0 0 0 0 133.38507391775204 136.17890786487624 0 136.17890786487624 248.45492328722503 0 0 0 0 0.18213019620884552 5.8927882382504322 0 5.8927882382504322 18.070268755156576 0 0 0 0 1.6457703112255737 0.29336362035400043 0 0.29336362035400043 1.7068589177954685 0 0 0 0 0.097610159252834894 0.49817902231626476 0 0.49817902231626476 1.7485256623684933 0 0 0 0 0.094338093200803996 15.691269670162001 0 15.691269670162001 68.469627871015632 0 0 0 0 136.84948501123472 48.501155702258984 0 48.501155702258984 57.131780293748307 0 0 0 0 -49.780296430234131 86.965167799334267 0 86.965167799334267 554.33552617054374 0 0 0 0 20.71460618828451 155.90132439488752 0 155.90132439488752 395.00135395673715 0 0 0 0 -259.18230431720104 -88.763659345747328 0 -88.763659345747328 1500.3477005154891 0 0 0 0 -121.42081304484171 -185.26199545599047 0 -185.26199545599047 1147.556932435451 0 0 0 0 -91.713778798341423 62.158973242903812 0 62.158973242903812 1085.1708829994895 0 0 0 0 -102.29403279761397 76.488805563308233 0 76.488805563308233 1275.8104023655724 0 0 0 0 -0.16823573555115434 -0.15283591116327599 0 -0.15283591116327599 0.25373390974635157 0 0 0 0 -3.0008205997163486 -28.869559870144485 0 -28.869559870144485 684.0233063776177 0 0 0 0 41.802415946666201 53.275791392341489 0 53.275791392341489 72.154572989627923 0 0 0 0 -48.425804440770563 242.89204396480818 0 242.89204396480818 1057.0386906162769 0 0 0 0 -1.8236292701917893 -2.3808394760662672 0 -2.3808394760662672 2.7154780625337409 0 0 0 0 -32.71943891094292 295.66235419396662 0 295.66235419396662 1232.5619799544402 0 0 0 0 -4.5228108002771137 40.233375484383942 0 40.233375484383942 131.04703234259068 0 0 0 0 -0.74612677143042383 -1.0658580069387789 0 -1.0658580069387789 2.1461363554177879 0 0 0 0 -7.9592640427537376 243.87364413805608 0 243.87364413805608 1338.9696441382694 0 0 0 0 113.71855223938098 159.25749128401185 0 159.25749128401185 159.31439447622637 0 0 0 0 99.176719104688004 76.905186971198418 0 76.905186971198418 108.59842062486678 0 0 0 0 125.13074642015056 167.12180116308082 0 167.12180116308082 195.77605750382827 0 0 0 0 98.080643942418703 169.66380935937468 0 169.66380935937468 203.5870401888933 0 0 0 0 73.702451497431923 215.71545352629983 0 215.71545352629983 329.21265676925805 0 0 0 0 33.616766058876578 -27.102518261810474 0 -27.102518261810474 358.78433242950268 0 0 0 0 -42.474940959766336 195.27575805509105 0 195.27575805509105 1499.6449942619265 0 0 0 0 131.81759763417654 278.14080592810024 0 278.14080592810024 1346.7725706169094 0 0 0 0 269.34156877631688 389.9455368025574 0 389.9455368025574 1229.3095456643641 0 0 0 0 123.85070436515909 264.45540328671802 0 264.45540328671802 1449.0522598047464 0 0 0 0 128.88610712049118 305.1725037258675 0 305.1725037258675 1514.2759235524791 0 0 0 0 189.54521197858355 407.84010240051612 0 407.84010240051612 1495.7823284309507 0 0 0 0 121.21834615686225 153.91195511034675 0 153.91195511034675 -83.073409200445894 0 0 0 0 31.777218738103159 -38.979554967354488 0 -38.979554967354488 639.30811557026755 0 0 0 0 74.651727165223974 232.23639097461637 0 232.23639097461637 520.90033651504564 0 0 0 0 157.37459301914166 256.34827357751874 0 256.34827357751874 128.88768761550091 0 0 0 0 74.183321265434159 59.237044112552212 0 59.237044112552212 56.278814072855312 0 0 0 0 43.018518689671083 9.7469408200195176 0 9.7469408200195176 -68.825926099975732 0 0 0 0 -12.556829462815301 -22.495271129300818 0 -22.495271129300818 -48.217849888820638 0 0 0 0 94.657413600260838 -58.539960211024663 0 -58.539960211024663 -36.130614935749691 0 0 0 0 30.181019461821364 -107.78711345321244 0 -107.78711345321244 -1.1880475942380144 0 0 0 0 90.923265009780408 -5.0230869735096348 0 -5.0230869735096348 -65.463976495937459 0 0 0 0 16.994250385872952 40.490187818802042 0 40.490187818802042 -28.102855893339438 0 0 0 0 -105.79713151504882 36.046880550686183 0 36.046880550686183 57.42929224510226 0 0 0 0 0.076871512821562918 0.080749266749468473 0 0.080749266749468473 12.878705677453624 0 0 0 0 -30.89846076618349 9.1218494691224805 0 9.1218494691224805 -9.5341090032889042 0 0 0 0 -29.446930322754628 2.432352127244485 0 2.432352127244485 -31.543905525933951 0 0 0 0 -3.2075358827218508 -1.3939159325240327 0 -1.3939159325240327 14.729793583859504 0 0 0 0 -16.415682970591774 -0.30466864605938326 0 -0.30466864605938326 38.183545871204842 0 0 0 0 -24.807104409491117 6.2032228873549684 0 6.2032228873549684 -6.0867232425662223 0 0 0 0 -38.043711130568212 -20.43023985862601 0 -20.43023985862601 -26.174023632377612 0 0 0 0 -41.920372442536049 -15.46516316531779 0 -15.46516316531779 -13.294984072619172 0 0 0 0 -1.6501730444731493 22.067353150654526 0 22.067353150654526 44.485405919188452 0 0 0 0 -0.22269268320941604 -0.14843826562905349 0 -0.14843826562905349 -0.50256200793019445 0 0 0 0 10.905711172092808 -15.269632784165879 0 -15.269632784165879 -84.205005338495539 0 0 0 0 17.005120264477341 22.531717104853669 0 22.531717104853669 120.04245595572547 0 0 0 0 -0.60939835200658865 0.85580897481648321 0 0.85580897481648321 4.836886431150127 0 0 0 0 -0.38170167383873199 3.2655266900508764 0 3.2655266900508764 55.489809506474558 0 0 0 0 -3.5615923853704894 -5.8678047376005793 0 -5.8678047376005793 8.3063821239432443 0 0 0 0 -15.599140017014179 36.405204513099306 0 36.405204513099306 257.19302799845173 0 0 0 0 54.425355201789444 87.161514757934128 0 87.161514757934128 288.25830368647803 0 0 0 0 50.445468289614382 64.531956520728272 0 64.531956520728272 202.64049185764907 0 0 0 0 -0.46126491512084211 -2.4878862385225524 0 -2.4878862385225524 2.4155585701127009 0 0 0 0 57.839858169516901 112.48300271039261 0 112.48300271039261 126.88823779822451 0 0 0 0 14.654107658353951 103.4701415572199 0 103.4701415572199 127.9482953439292 0 0 0 0 7.3775960383559323 80.882011692152446 0 80.882011692152446 288.39010448897739 0 0 0 0 61.428471373984252 -103.43692034022934 0 -103.43692034022934 162.12973717445493 0 0 0 0 -3.5722069468607067 -0.78526286334881235 0 -0.78526286334881235 6.7234724177260823 0 0 0 0 10.34648564381132 21.576893767905858 0 21.576893767905858 50.650200917250913 0 0 0 0 -90.275215092515282 -52.23846610289911 0 -52.23846610289911 -37.127302359469468 0 0 0 0 -2.1770400219112567 5.7718291454506865 0 5.7718291454506865 20.342004597871593 0 0 0 0 1.9945855430453721 2.5043647073316357 0 2.5043647073316357 15.582425243978168 0 0 0 0 2.7724337403515165 3.7146453616696817 0 3.7146453616696817 26.242324245287818 0 0 0 0 -146.10682551372636 -19.7856265680457 0 -19.7856265680457 26.553994447118384 0 0 0 0 -23.981414965778157 -40.092882914643269 0 -40.092882914643269 11.154987732912559 0 0 0 0 -5.9551979748995301 -48.310858930918585 0 -48.310858930918585 14.824912309908541 0 0 0 0 -57.084350742876182 -72.41956890936126 0 -72.41956890936126 4.8895249943998351 0 0 0 0 -0.12083900143223889 0.88289131775768226 0 0.88289131775768226 5.4774844195626891 0 0 0 0 0.17758298246662108 12.544744089431333 0 12.544744089431333 10.083053966263833 0 0 0 0 -58.703730525740177 -32.433832222370256 0 -32.433832222370256 -1.7895803629617149 0 0 0 0 -0.68688970981761921 1.9598418666716864 0 1.9598418666716864 13.666280828143627 0 0 0 0 -94.320633195403744 -97.560942169935061 0 -97.560942169935061 17.960117379370786 0 0 0 0 39.404978208244188 -146.8940235677137 0 -146.8940235677137 496.76658795376716 0 0 0 0 -82.088198139355399 -154.17339467971397 0 -154.17339467971397 679.97707465142685 0 0 0 0 -77.637307982821952 -147.83525290148282 0 -147.83525290148282 515.50864112746149 0 0 0 0 206.31548391662994 -773.51657870461077 0 -773.51657870461077 1497.1007528989485 0 0 0 0 0.16874244181878201 0.58879913365925951 0 0.58879913365925951 6.2138283007318265 0 0 0 0 -15.240451636555747 400.84180972305239 0 400.84180972305239 378.3431684021416 0 0 0 0 -202.80313191156841 240.90954056915871 0 240.90954056915871 1496.8088128766765 0 0 0 0 -186.46628041858469 -25.032443071742819 0 -25.032443071742819 525.48277690080431 0 0 0 0 54.1431503170637 29.302489492725499 0 29.302489492725499 532.32019309542375 0 0 0 0 87.044607065232583 -109.43109547664244 0 -109.43109547664244 -25.987869565492474 0 0 0 0 140.82545002023753 -93.399884573398595 0 -93.399884573398595 24.953666335937214 0 0 0 0 84.610804362659451 105.87024607648254 0 105.87024607648254 -183.44247248437387 0 0 0 0 170.94663546497912 -380.1431839916047 0 -380.1431839916047 626.8141483944928 0 0 0 0 -175.03871379566041 -271.07479448950835 0 -271.07479448950835 1497.3544323261528 0 0 0 0 0.30127642452569203 0.036994904639829906 0 0.036994904639829906 5.8761180569751872 0 0 0 0 -257.48497358127145 254.01324084599582 0 254.01324084599582 1498.0313343005328 0 0 0 0 224.13771172380149 469.72807268081311 0 469.72807268081311 557.86653207600102 0 0 0 0 -370.7277800968493 -199.65763167357636 0 -199.65763167357636 1496.9118018379304 0 0 0 0 -320.05740215202854 -62.300811590723242 0 -62.300811590723242 532.20195103738297 0 0 0 0 0.32249096079993411 4.4227678675179192 0 4.4227678675179192 0.93782226278716507 0 0 0 0 22.823241117476442 -21.462708923365426 0 -21.462708923365426 31.755351015041015 0 0 0 0 29.240831269261321 117.37149437544758 0 117.37149437544758 388.4420510762011 0 0 0 0 98.347746301353709 -15.91552047060577 0 -15.91552047060577 -58.304046140756327 0 0 0 0 -142.75024794111977 -39.890043062984944 0 -39.890043062984944 67.110345166289335 0 0 0 0 20.384812350149758 -28.147415946645197 0 -28.147415946645197 -12.258256191855253 0 0 0 0 10.586027711612857 5.9506650179685039 0 5.9506650179685039 14.380333682431228 0 0 0 0 -14.563496676962593 -6.1569449911042149 0 -6.1569449911042149 2.450319976127787 0 0 0 0 -42.020937971027884 -38.496972450649992 0 -38.496972450649992 11.208645975555555 0 0 0 0 -13.071357889819421 -10.617102340731513 0 -10.617102340731513 -2.9186760869740738 0 0 0 0 11.934407913291579 23.251121906141634 0 23.251121906141634 48.815504122210768 0 0 0 0 6.2881328609166758 43.138264826206978 0 43.138264826206978 67.694009266000648 0 0 0 0 -6.9330020820484606 18.81753400775051 0 18.81753400775051 49.683210962961311 0 0 0 0 -11.892417377260534 5.7948274087796321 0 5.7948274087796321 42.449863334785334 0 0 0 0 -41.866234865694423 -30.832106772946645 0 -30.832106772946645 24.011884871294569 0 0 0 0 9.9734032626121696 20.732227493988198 0 20.732227493988198 25.767904611281551 0 0 0 0 21.216547333901872 39.711850453575607 0 39.711850453575607 46.063501748042654 0 0 0 0 32.752738157832027 33.291660270002467 0 33.291660270002467 51.108335514706596 0 0 0 0 8.6750200967885505 4.1066099603737598 0 4.1066099603737598 -9.3562857432003739 0 0 0 0 23.993508379744753 46.445102930462781 0 46.445102930462781 52.579021377496247 0 0 0 0 3.9083099415820346 -1.2229339309626397 0 -1.2229339309626397 0.07288970341707568 0 0 0 0 12.594599049249894 45.677047573531581 0 45.677047573531581 74.947004553292572 0 0 0 0 274.74574266460922 -234.09162335139081 0 -234.09162335139081 169.03322706198287 0 0 0 0 45.629339396749636 416.11999871491935 0 416.11999871491935 1497.7106522763797 0 0 0 0 3.0248519053235232 -0.84746183340477543 0 -0.84746183340477543 8.9353725400338675 0 0 0 0 369.05414729952525 640.17384959549599 0 640.17384959549599 1143.6681082143732 0 0 0 0 46.493730249487193 233.19499759395265 0 233.19499759395265 859.70932101731159 0 0 0 0 -241.17308294697187 166.80260391996126 0 166.80260391996126 1500.5796654272744 0 0 0 0 132.47929042083413 89.914953467402484 0 89.914953467402484 154.10527498160809 0 0 0 0 -24.740190226744218 -159.04617586132372 0 -159.04617586132372 57.135621618617733 0 0 0 0 104.72542771970654 495.98875210930419 0 495.98875210930419 697.43467143428279 0 0 0 0 -19.950325380997143 89.307311015072628 0 89.307311015072628 446.07109235326243 0 0 0 0 209.6767198208218 286.19069660782043 0 286.19069660782043 -38.803729881052277 0 0 0 0 171.8260532670952 -399.48477277730854 0 -399.48477277730854 1006.482735071495 0 0 0 0 -229.82957943134633 29.477688223618316 0 29.477688223618316 994.46036866424947 0 0 0 0 -211.54831307307225 -239.5573038657094 0 -239.5573038657094 1497.2830163432081 0 0 0 0 -142.98640906041166 -148.36406721202366 0 -148.36406721202366 862.66995664921342 0 0 0 0 68.902239537455756 -77.232729771378217 0 -77.232729771378217 546.39536804119962 0 0 0 0 10.157168569069945 7.960203618055651 0 7.960203618055651 4.696464647597054 0 0 0 0 -34.921959523771861 153.99282793376653 0 153.99282793376653 -135.3578913882593 0 0 0 0 4.2750218092273826 38.581142086837644 0 38.581142086837644 -23.095648512480693 0 0 0 0 27.040581430276916 141.78580664153014 0 141.78580664153014 45.229670746615739 0 0 0 0 -28.486465363758782 15.573789046828097 0 15.573789046828097 195.09608380352802 0 0 0 0 14.267398633847211 10.386893249023139 0 10.386893249023139 2.900506869734798 0 0 0 0 -66.859838581751319 77.80960614347714 0 77.80960614347714 -34.959652258989081 0 0 0 0 -40.94931337284811 112.67323773580665 0 112.67323773580665 6.4097542357048951 0 0 0 0 -21.619852042480488 91.850681700620044 0 91.850681700620044 63.477139951743084 0 0 0 0 -101.01422254340741 77.341219270987494 0 77.341219270987494 61.844721635698079 0 0 0 0 -121.39796589970774 35.975727066524996 0 35.975727066524996 -2.1661443971133849 0 0 0 0 -23.355666010017558 81.270273590929719 0 81.270273590929719 93.842502194374902 0 0 0 0 1.5551301280464305 2.1765754381420521 0 2.1765754381420521 1.6426263962441396 0 0 0 0 82.245542889959324 106.94152648044837 0 106.94152648044837 75.457700416751322 0 0 0 0 -68.37982964478897 59.284869112743763 0 59.284869112743763 86.065315889365593 0 0 0 0 -75.704690571822596 21.309335812340805 0 21.309335812340805 232.33615875805845 0 0 0 0 29.894548437610865 -42.298989690320013 0 -42.298989690320013 99.370684610981698 0 0 0 0 -71.29812368701414 -50.167055986851665 0 -50.167055986851665 82.164523912091681 0 0 0 0 -36.608100163033669 39.078336919670619 0 39.078336919670619 93.680345696851873 0 0 0 0 -45.806640726674686 61.651220761523291 0 61.651220761523291 341.23289093285348 0 0 0 0 0.12477236872169506 0.78831685541260299 0 0.78831685541260299 1.9997403827976257 0 0 0 0 105.22522897221461 -201.75173646337316 0 -201.75173646337316 351.53233285672752 0 0 0 0 -192.07010400529643 243.31380055898444 0 243.31380055898444 141.68932188564941 0 0 0 0 -200.90766680658226 287.11308687329802 0 287.11308687329802 1.6069873211454251 0 0 0 0 -189.63364323389737 -4.5911847946154012 0 -4.5911847946154012 76.624642374303221 0 0 0 0 -181.00415045086197 109.15420387509766 0 109.15420387509766 115.56987613112869 0 0 0 0 -223.70586221620965 102.45906394143231 0 102.45906394143231 26.658100914457464 0 0 0 0 1.3830228035733141 2.6955264996217139 0 2.6955264996217139 3.488837084737213 0 0 0 0 -192.35058980255053 34.149066566384136 0 34.149066566384136 -80.89980416398339 0 0 0 0 -196.1329732594279 -24.697334691180004 0 -24.697334691180004 115.20213253756083 0 0 0 0 -128.99590129051671 27.232178891346848 0 27.232178891346848 -8.4501453486664104 0 0 0 0 -210.96210969034837 -53.682153677611495 0 -53.682153677611495 102.56935762214198 0 0 0 0 27.425331374435245 -65.923566516978099 0 -65.923566516978099 117.14484407665805 0 0 0 0 -4.6766165441097201 -5.5318777635047809 0 -5.5318777635047809 40.283007752237609 0 0 0 0 -76.728646099990783 -24.043790294948849 0 -24.043790294948849 41.09730108887743 0 0 0 0 -3.9938710876623276 -1.7311924398014185 0 -1.7311924398014185 15.487388662548426 0 0 0 0 -74.609262416656293 18.055763122200005 0 18.055763122200005 60.400687250701594 0 0 0 0 -141.2773036301362 38.552427588478167 0 38.552427588478167 116.87174933002461 0 0 0 0 -9.089809854814515 0.30557848258993658 0 0.30557848258993658 58.903183244705765 0 0 0 0 -31.017330979087092 -58.793337995473848 0 -58.793337995473848 56.300497374459155 0 0 0 0 11.089361688330428 72.726083579058468 0 72.726083579058468 73.774134805535141 0 0 0 0 -68.71611390675389 94.847403960699012 0 94.847403960699012 105.05259418498827 0 0 0 0 23.333505845135733 43.292014497854325 0 43.292014497854325 96.948084852281681 0 0 0 0 18.961010339794257 50.925789845734471 0 50.925789845734471 93.739348611918103 0 0 0 0 27.044119265066911 57.535590839099314 0 57.535590839099314 98.735166535915141 0 0 0 0 -93.215787195737221 139.34444267558774 0 139.34444267558774 41.414779313850886 0 0 0 0 -172.66723440626993 -218.51824995414245 0 -218.51824995414245 291.77403008851979 0 0 0 0 -23.59705291729415 112.24077449219476 0 112.24077449219476 438.53371825764316 0 0 0 0 1.1072812874475471 -0.83462501133274714 0 -0.83462501133274714 0.78054000564178949 0 0 0 0 -10.360871029652383 -1.0983819453860875 0 -1.0983819453860875 53.725971499774829 0 0 0 0 59.021105602069838 -128.9129553277271 0 -128.9129553277271 -180.6098358517047 0 0 0 0 55.478288977978991 21.25508977813297 0 21.25508977813297 94.432098934779788 0 0 0 0 1.6142101504931361 -81.6022224481585 0 -81.6022224481585 347.10462724255558 0 0 0 0 59.211136475522835 85.932806627626633 0 85.932806627626633 233.19648135261195 0 0 0 0 5.0260906707035247 11.271417467218271 0 11.271417467218271 262.40324532927843 0 0 0 0 -3.2108202334584348 60.572776806711772 0 60.572776806711772 149.98647985579737 0 0 0 0 11.19996553162764 51.372298909094752 0 51.372298909094752 150.65045518206534 0 0 0 0 19.59787843893173 23.600364900810746 0 23.600364900810746 74.064512080371969 0 0 0 0 53.26892021798858 42.245176667521264 0 42.245176667521264 76.95837244280483 0 0 0 0 -15.267290726051215 107.35665092723139 0 107.35665092723139 55.140810498391147 0 0 0 0 19.992088626206169 54.141293913016852 0 54.141293913016852 85.263173445420762 0 0 0 0 -34.006348530222112 106.63189699848408 0 106.63189699848408 164.77798300393442 0 0 0 0 -0.23400596999625733 0.0048685567167296995 0 0.0048685567167296995 0.011353480480810418 0 0 0 0 142.51454852157713 -38.951359619621144 0 -38.951359619621144 -117.46243944268463 0 0 0 0 -3.7902262923189483 43.143902980324128 0 43.143902980324128 117.37687827184982 0 0 0 0 -98.819673699546911 46.376415357402948 0 46.376415357402948 121.3232218361527 0 0 0 0 103.72067781732744 161.37942716949283 0 161.37942716949283 223.22669692096315 0 0 0 0 -48.712443367001924 34.211353076480918 0 34.211353076480918 340.14204787573544 0 0 0 0 -48.935283849420102 29.404042797385955 0 29.404042797385955 236.67852488213975 0 0 0 0 -18.626655391043641 40.265445941437065 0 40.265445941437065 240.31894954067684 0 0 0 0 4.0168185808173611 -2.7251158353247078 0 -2.7251158353247078 1.8303549550586595 0 0 0 0 -29.144263113897523 -30.164719431504636 0 -30.164719431504636 -27.143967690610225 0 0 0 0 -11.052998825079612 17.047303304460002 0 17.047303304460002 187.22613815654404 0 0 0 0 61.906552524559174 -67.308892014952107 0 -67.308892014952107 69.483997677229127 0 0 0 0 -0.0089541004013521386 -0.85380915896181975 0 -0.85380915896181975 3.6123933922848792 0 0 0 0 -2.6639995937921412 -33.977559313515485 0 -33.977559313515485 11.861709852404601 0 0 0 0 5.8479800256178613 -5.4799798421667489 0 -5.4799798421667489 4.2724723057056515 0 0 0 0 1.6638710954284761 -22.082753849725123 0 -22.082753849725123 -0.67355917001259513 0 0 0 0 5.7772239716578042 -10.288649937741866 0 -10.288649937741866 4.3084554259658034 0 0 0 0 -9.2220345158113393 -12.158003336227107 0 -12.158003336227107 7.1443702283638686 0 0 0 0 -1.9262870766401647 -14.207659984657766 0 -14.207659984657766 -17.891515656549018 0 0 0 0 -1.4135713023492826 -33.850437582580071 0 -33.850437582580071 -7.7428154708177317 0 0 0 0 -101.28599234501598 -73.469169479508309 0 -73.469169479508309 -19.3837900422659 0 0 0 0 -30.18611476649312 -21.925289015758608 0 -21.925289015758608 16.945528264557652 0 0 0 0 -63.527167321797606 11.432268243570434 0 11.432268243570434 67.096247687997675 0 0 0 0 -11.051374678304777 1.3338633867014984 0 1.3338633867014984 47.760726647644532 0 0 0 0 -218.14096374561939 -80.143471474991202 0 -80.143471474991202 -66.009448012529901 0 0 0 0 -9.2849486322775192 -43.87561993124109 0 -43.87561993124109 -68.862755861471669 0 0 0 0 101.61074518787824 -15.694877434518276 0 -15.694877434518276 -63.089013150376559 0 0 0 0 -0.23874702420022009 0.2471925074687249 0 0.2471925074687249 -0.31654849925811845 0 0 0 0 29.908257755234203 19.026750333290693 0 19.026750333290693 -42.9448218131256 0 0 0 0 -15.142426743018461 21.35977413258297 0 21.35977413258297 -32.65205939002044 0 0 0 0 13.893175912028426 25.233472691292263 0 25.233472691292263 -36.529642274486832 0 0 0 0 -3.6529152093014545 -51.667392501523864 0 -51.667392501523864 -40.587118739815196 0 0 0 0 -1.0736187527031922 1.3605702175582763 0 1.3605702175582763 2.1261413647964957 0 0 0 0 -27.099730607317497 -101.41286610563111 0 -101.41286610563111 -59.570784739305964 0 0 0 0 60.577069559000421 -89.812319755350472 0 -89.812319755350472 -79.182104313207674 0 0 0 0 31.658135108137174 -10.804220071433519 0 -10.804220071433519 -105.13378024732447 0 0 0 0 -1.8926846111413105 -2.192885238566781 0 -2.192885238566781 1.2460261194596853 0 0 0 0 -146.21063081592945 -61.67140254030528 0 -61.67140254030528 -32.12339126063307 0 0 0 0 0.36931959758774752 76.117930751174754 0 76.117930751174754 419.62273816549714 0 0 0 0 -95.705469109010409 338.53969890003464 0 338.53969890003464 1494.5503609607258 0 0 0 0 319.47525125541989 288.52728174551885 0 288.52728174551885 -28.845198859577067 0 0 0 0 207.3806929895228 521.91642906532434 0 521.91642906532434 616.03714304294408 0 0 0 0 -77.723306883972043 -191.29317386643925 0 -191.29317386643925 283.84600193804363 0 0 0 0 46.577907616196256 -101.46360079767146 0 -101.46360079767146 225.23087743156066 0 0 0 0 -1.7118990501035865 2.8387111503407709 0 2.8387111503407709 17.169007069579422 0 0 0 0 -11.41310157814538 -68.778571545111845 0 -68.778571545111845 458.8626069627623 0 0 0 0 135.05010592845676 -723.92876617295951 0 -723.92876617295951 1496.7722857974222 0 0 0 0 1.1534380990441278 1.850762627950246 0 1.850762627950246 6.7723418794858503 0 0 0 0 -87.563945532929182 -198.13915761061935 0 -198.13915761061935 878.96024782704626 0 0 0 0 -98.955118208043601 -116.19617928711159 0 -116.19617928711159 458.01215173858509 0 0 0 0 26.067121343094684 -30.324622510661357 0 -30.324622510661357 174.49863661805284 0 0 0 0 -8.3869400673700802 -1.9929997406903155 0 -1.9929997406903155 9.1504211694053197 0 0 0 0 33.154003802028228 13.991599260223666 0 13.991599260223666 26.549556831156224 0 0 0 0 -150.03496222830887 -50.372328714034666 0 -50.372328714034666 11.155497576990456 0 0 0 0 -3.9236128099590815 -15.015178464062046 0 -15.015178464062046 18.717937333547525 0 0 0 0 -6.4040691621214787 -2.0274207656397039 0 -2.0274207656397039 13.723756557709024 0 0 0 0 -33.836561931401775 4.8719874195194279 0 4.8719874195194279 24.996552403259557 0 0 0 0 -28.65905202051394 43.344517805920987 0 43.344517805920987 -23.046244142300566 0 0 0 0 -27.322993956655409 -16.795912511268398 0 -16.795912511268398 29.90564558512051 0 0 0 0 -3.2039278203754975 5.5526382986408862 0 5.5526382986408862 10.954766726812522 0 0 0 0 0.25498017606780948 4.3293190756084954 0 4.3293190756084954 13.813822497490094 0 0 0 0 2.5524656448871497 -14.151973557643032 0 -14.151973557643032 13.447985667567991 0 0 0 0 -0.83440299159826736 8.029562930791144 0 8.029562930791144 28.913276423503703 0 0 0 0 73.366263730179526 2.7043285934414598 0 2.7043285934414598 -6.5431722801549768 0 0 0 0 -0.10203659366781581 4.2930490452603962 0 4.2930490452603962 12.528682556641371 0 0 0 0 71.99028180824007 37.430998619856837 0 37.430998619856837 26.011622227786575 0 0 0 0 86.961104986005466 41.114343563738657 0 41.114343563738657 14.147597553177548 0 0 0 0 60.724014168404324 79.767535882399898 0 79.767535882399898 50.9783173218093 0 0 0 0 46.342151807204573 52.022271425662439 0 52.022271425662439 55.448003517427424 0 0 0 0 34.927407786350102 75.295596339668919 0 75.295596339668919 11.110613607110281 0 0 0 0 33.755800724198252 31.042148427100983 0 31.042148427100983 29.316929711869307 0 0 0 0 -228.88353276432863 74.616929279163742 0 74.616929279163742 1499.9898466628601 0 0 0 0 62.54748863459146 14.293026124749304 0 14.293026124749304 702.61365404193202 0 0 0 0 -50.76511894520965 171.25791825074339 0 171.25791825074339 596.15326598739557 0 0 0 0 -4.0344254119093961 -5.0894233972353575 0 -5.0894233972353575 6.3108498588794646 0 0 0 0 52.533945454637582 410.15766104222894 0 410.15766104222894 1037.2916609584663 0 0 0 0 14.430921399161775 79.71072514012485 0 79.71072514012485 61.943733993553906 0 0 0 0 17.806515003395166 103.31577986897128 0 103.31577986897128 58.697299070438021 0 0 0 0 -34.978645780557599 219.28622154570985 0 219.28622154570985 173.06937042896971 0 0 0 0 35.080720509841512 124.69349881777816 0 124.69349881777816 9.8538854566868395 0 0 0 0 29.100424721888771 116.35681451121491 0 116.35681451121491 4.5717708985348509 0 0 0 0 7.9679934769895908 184.62164354413835 0 184.62164354413835 -169.02622755780976 0 0 0 0 -32.733387395461648 297.1978423163805 0 297.1978423163805 -111.82891706731607 0 0 0 0 -34.484016652930222 289.78971671400359 0 289.78971671400359 -21.671112033141981 0 0 0 0 0.062489557261539597 -4.9758531378420159 0 -4.9758531378420159 6.6275320534522137 0 0 0 0 61.895694210275977 369.39504597485757 0 369.39504597485757 1152.3892900978681 0 0 0 0 475.95312095376994 -219.07676774539868 0 -219.07676774539868 396.01748299672909 0 0 0 0 225.51503415294533 619.55274678862406 0 619.55274678862406 1499.5573873190228 0 0 0 0 191.99849644240825 -242.57846361417182 0 -242.57846361417182 477.40622916572829 0 0 0 0 1.4431152658160138 -1.7194867682388804 0 -1.7194867682388804 3.7013975022002015 0 0 0 0 71.487458180612521 251.04074982939346 0 251.04074982939346 -349.47253428808835 0 0 0 0 -643.76488691813142 225.31904187989858 0 225.31904187989858 1295.0024687552359 0 0 0 0 3.8591008699881604 2.7664332540094563 0 2.7664332540094563 1.779341572969507 0 0 0 0 -35.972011139554411 94.805911012626893 0 94.805911012626893 20.249325000622775 0 0 0 0 -19.813933518696473 11.754776108974852 0 11.754776108974852 -231.98748660762067 0 0 0 0 8.6428211899775533 73.064355066630014 0 73.064355066630014 27.056898923561675 0 0 0 0 9.7834967051942385 58.267479905232904 0 58.267479905232904 -63.606964555850936 0 0 0 0 58.923711061792829 70.631604431815504 0 70.631604431815504 25.355807231198014 0 0 0 0 -12.428103749251498 92.197107162256543 0 92.197107162256543 124.39293197118241 0 0 0 0 -14.683696148900708 70.574739550407685 0 70.574739550407685 24.94555984059707 0 0 0 0 -90.169313077037941 134.74310301650257 0 134.74310301650257 248.99373005940015 0 0 0 0 36.846637996078925 148.74073443324596 0 148.74073443324596 138.17069666635325 0 0 0 0 -79.048085824953432 181.58510965537425 0 181.58510965537425 162.92930252847145 0 0 0 0 40.636490029070274 165.66006860927519 0 165.66006860927519 149.36356033142147 0 0 0 0 -133.32285910384985 70.435791747248004 0 70.435791747248004 107.27050689342559 0 0 0 0 -75.571963216849952 137.75236861689882 0 137.75236861689882 154.63332452135364 0 0 0 0 -139.55069100618061 59.626622398684049 0 59.626622398684049 152.93896964804662 0 0 0 0 -99.854152562963918 17.230266812446644 0 17.230266812446644 197.30159473439562 0 0 0 0 -192.58225605266671 -20.426363006419706 0 -20.426363006419706 178.49711991509139 0 0 0 0 -82.9983718516567 94.708481298861898 0 94.708481298861898 250.41522764315596 0 0 0 0 -45.445107321057208 -38.112134066454018 0 -38.112134066454018 259.0009916039653 0 0 0 0 5.3884446236300079 24.00312395185756 0 24.00312395185756 305.27446264297032 0 0 0 0 -73.408835697194917 121.27347018293585 0 121.27347018293585 225.50081979754759 0 0 0 0 12.752208520913143 188.91227591522329 0 188.91227591522329 277.93644801605478 0 0 0 0 108.9798785174313 167.81868596274035 0 167.81868596274035 208.34082155394572 0 0 0 0 66.581425053248154 95.039547221165776 0 95.039547221165776 256.58420673839282 0 0 0 0 267.23807971077372 75.675236676899658 0 75.675236676899658 406.35219724630952 0 0 0 0 86.09908554806816 8.0144894737059076 0 8.0144894737059076 525.2260158186109 0 0 0 0 309.04481324407084 250.32673579355014 0 250.32673579355014 663.31455857940455 0 0 0 0 1.3543101037250296 1.7788570113307145 0 1.7788570113307145 1.9117159861079074 0 0 0 0 160.99758434224236 285.41797604425301 0 285.41797604425301 474.20399854026437 0 0 0 0 192.04482756443326 34.125447824022558 0 34.125447824022558 0.92976801049371716 0 0 0 0 538.62241584338392 176.61601322190472 0 176.61601322190472 56.424366453342373 0 0 0 0 40.977526855230479 171.48070727367394 0 171.48070727367394 220.80733506375691 0 0 0 0 167.2723507371627 226.9019218824069 0 226.9019218824069 150.92718079564293 0 0 0 0 267.57594070933442 136.42012346092997 0 136.42012346092997 20.452976848238904 0 0 0 0 36.74715238913366 141.59891302341006 0 141.59891302341006 95.183925199438818 0 0 0 0 136.52720085138048 115.82784756701585 0 115.82784756701585 52.842222056169703 0 0 0 0 83.284588983073718 23.752884410068873 0 23.752884410068873 35.705721113357868 0 0 0 0 144.86157226702721 49.752516815307899 0 49.752516815307899 13.310057807646444 0 0 0 0 115.41045574691702 94.544956328558328 0 94.544956328558328 36.471908191197144 0 0 0 0 2.3804811175374883 4.1146052768204875 0 4.1146052768204875 6.463983353095017 0 0 0 0 35.118853429768592 -8.7764227998995921 0 -8.7764227998995921 -7.2304772802635853 0 0 0 0 74.61651872382572 37.54483706596875 0 37.54483706596875 22.030758019962377 0 0 0 0 -32.155166545211429 5.790188887180193 0 5.790188887180193 -22.765426498146553 0 0 0 0 1.2321184738438924 3.8687567179400055 0 3.8687567179400055 11.360190094563393 0 0 0 0 -125.82082367752039 104.96461854239169 0 104.96461854239169 46.95431055060908 0 0 0 0 26.005598173908368 72.291782580035942 0 72.291782580035942 -61.849070620795828 0 0 0 0 -79.773802412333566 -6.3954429259329117 0 -6.3954429259329117 51.360619742656127 0 0 0 0 4.2730794022594978 -197.70206252601929 0 -197.70206252601929 550.26734564550861 0 0 0 0 96.130820820304507 -32.872144516426488 0 -32.872144516426488 -27.915900290732679 0 0 0 0 245.41466932343883 390.91640090241344 0 390.91640090241344 439.53099876775013 0 0 0 0 0.49250092143571345 1.4510595393208803 0 1.4510595393208803 5.1564569287892539 0 0 0 0 -38.892157632168164 94.207137488760054 0 94.207137488760054 949.0966476109279 0 0 0 0 293.44429526736542 -117.7251636366309 0 -117.7251636366309 615.04939117238837 0 0 0 0 -64.421569141595114 -29.913269679342193 0 -29.913269679342193 566.0403611166621 0 0 0 0 -101.18411834873922 -12.782238187523035 0 -12.782238187523035 612.3788175098889 0 0 0 0 -52.752452561999462 -31.565657944414852 0 -31.565657944414852 564.24296384318222 0 0 0 0 46.19989808059583 -202.60113861398713 0 -202.60113861398713 134.8254537446046 0 0 0 0 64.281772784452272 -49.267254510166822 0 -49.267254510166822 176.26280328982102 0 0 0 0 -39.519017894076356 -85.438043573611594 0 -85.438043573611594 359.51206382931559 0 0 0 0 17.279995977163708 9.6181715814636846 0 9.6181715814636846 255.44407421628057 0 0 0 0 58.446789189411291 86.540843698385288 0 86.540843698385288 547.23955974443743 0 0 0 0 -99.816095906087298 14.630768526327302 0 14.630768526327302 689.26199892314617 0 0 0 0 112.14029592373103 -85.065007571938168 0 -85.065007571938168 392.33831629276392 0 0 0 0 -0.43620841539206601 -39.1956077703544 0 -39.1956077703544 626.29039269783971 0 0 0 0 -14.898998507271152 -38.799678192550346 0 -38.799678192550346 385.7916642473956 0 0 0 0 0.21016317334982984 18.659484977186366 0 18.659484977186366 225.56009701306175 0 0 0 0 25.961481788258705 37.96497321309289 0 37.96497321309289 108.96672424065946 0 0 0 0 23.253085685182086 -28.23889710189178 0 -28.23889710189178 123.59069024652126 0 0 0 0 37.997234607067952 59.795386698166112 0 59.795386698166112 4.9440727351975511 0 0 0 0 32.687246743956472 -9.5922983504576678 0 -9.5922983504576678 4.8816315595977358 0 0 0 0 35.540647050261754 -51.395082343782633 0 -51.395082343782633 105.43112983294122 0 0 0 0 14.853752414258381 31.064879413101153 0 31.064879413101153 -15.31076156518975 0 0 0 0 -6.0392807181643207 48.28024579097837 0 48.28024579097837 -29.018139464991691 0 0 0 0 36.000821538242839 6.2839848628027539 0 6.2839848628027539 -120.7637802377285 0 0 0 0 -0.049589439929919245 39.944102109435796 0 39.944102109435796 13.699280200366047 0 0 0 0 0.010942008074834449 0.45113993560335075 0 0.45113993560335075 5.5580997410179407 0 0 0 0 9.1816151482714758 -0.72234046623270842 0 -0.72234046623270842 -3.3659860065654357 0 0 0 0 -0.3496646018435855 -0.18271313858070926 0 -0.18271313858070926 1.3877884885753957 0 0 0 0 -7.0548246536875148 -9.1428228414961836 0 -9.1428228414961836 5.8600372922155657 0 0 0 0 -0.14813296552603453 0.45095224412140844 0 0.45095224412140844 5.6603955390401666 0 0 0 0 0.12215632265578469 0.41333441315873642 0 0.41333441315873642 5.3391375610735849 0 0 0 0 -0.0038151391045118891 0.57577744498485117 0 0.57577744498485117 5.1644257468215073 0 0 0 0 -0.21283808559543838 -0.54419970861774658 0 -0.54419970861774658 0.88686816010405778 0 0 0 0 -0.22017903356953406 -0.13914134301770842 0 -0.13914134301770842 3.0708267703418812 0 0 0 0 51.397614548512912 157.49397538959067 0 157.49397538959067 483.94040019733802 0 0 0 0 -55.294978669001722 -198.39840665930126 0 -198.39840665930126 266.27784751147556 0 0 0 0 -92.661207100667298 -72.437960094393929 0 -72.437960094393929 648.87926626860281 0 0 0 0 -23.905689067774233 164.84601130108058 0 164.84601130108058 -20.194296578541071 0 0 0 0 104.3383974721238 -26.920677186732064 0 -26.920677186732064 -68.055396962095983 0 0 0 0 -11.554309537494873 -23.962934481958655 0 -23.962934481958655 59.067938865100587 0 0 0 0 198.44177912685325 -14.522747535844246 0 -14.522747535844246 56.053198053341475 0 0 0 0 7.6525220733899459 -0.10044076682606828 0 -0.10044076682606828 245.04190484771971 0 0 0 0 16.933077880281644 -74.311003151786281 0 -74.311003151786281 227.90143464451467 0 0 0 0 110.37660256187365 112.39382121715335 0 112.39382121715335 544.62822176072223 0 0 0 0 522.33622740105659 198.03217787614631 0 198.03217787614631 419.39844511817864 0 0 0 0 191.88014649659161 -36.861622089050798 0 -36.861622089050798 259.63943557030143 0 0 0 0 297.04642855878268 -14.428472128527574 0 -14.428472128527574 39.536543767346302 0 0 0 0 172.03549867989727 27.470361956795387 0 27.470361956795387 222.52652444517662 0 0 0 0 174.42586306498742 -41.865139887454461 0 -41.865139887454461 34.738608054591168 0 0 0 0 186.83596444661401 -36.696552914497261 0 -36.696552914497261 -68.459824061752443 0 0 0 0 148.35724190557013 33.689708324243838 0 33.689708324243838 -67.616676133912193 0 0 0 0 0.49245584160616529 0.3858611871681461 0 0.3858611871681461 0.014846447056768852 0 0 0 0 7.3590721074712349 4.3625719294905139 0 4.3625719294905139 34.023819791462302 0 0 0 0 166.12615779461817 -15.528835884193086 0 -15.528835884193086 -8.7177153965021716 0 0 0 0 129.41313649677465 -28.958993741591257 0 -28.958993741591257 17.273494442662923 0 0 0 0 128.61132210875763 -61.980921722542917 0 -61.980921722542917 2.1604175609791127 0 0 0 0 94.840203935575971 -77.852839592556847 0 -77.852839592556847 -4.0752322955304408 0 0 0 0 58.694457522087134 -105.6395638508111 0 -105.6395638508111 17.99165542532819 0 0 0 0 168.6983077039464 -94.317701607389608 0 -94.317701607389608 2.3070945415456663 0 0 0 0 199.94614359878193 -27.003779738959565 0 -27.003779738959565 -28.971522513471427 0 0 0 0 141.02209832511275 -53.315076804103228 0 -53.315076804103228 67.270047799182066 0 0 0 0 224.75639064448276 -131.68032161748488 0 -131.68032161748488 136.1283635995278 0 0 0 0 171.18394786308042 -0.4578030560114712 0 -0.4578030560114712 233.68210184737472 0 0 0 0 311.7819580531459 -71.005936955167272 0 -71.005936955167272 268.00631825983146 0 0 0 0 89.999068092832189 -93.418506181966222 0 -93.418506181966222 337.95781529880151 0 0 0 0 69.067468304860597 -27.10593724352475 0 -27.10593724352475 130.3321039610164 0 0 0 0 146.06684505554446 -60.703576895154583 0 -60.703576895154583 5.9546305472686072 0 0 0 0 60.297474091640368 -119.05137102879962 0 -119.05137102879962 48.657201758429437 0 0 0 0 -13.795264750984757 3.7480404828420433 0 3.7480404828420433 124.38424868635775 0 0 0 0 -89.765280774609209 37.933349584869575 0 37.933349584869575 141.58565331286081 0 0 0 0 -80.888074312894105 -61.075235628675728 0 -61.075235628675728 130.39762728368805 0 0 0 0 -255.81558136154877 -54.423493370350116 0 -54.423493370350116 133.63004076985089 0 0 0 0 -277.35979271551855 25.328751427648967 0 25.328751427648967 36.476560753028025 0 0 0 0 -136.43930268717099 16.080685981334682 0 16.080685981334682 31.703397885277809 0 0 0 0 -56.027556689498795 -74.64354656027399 0 -74.64354656027399 -139.44013510575314 0 0 0 0 -320.94985457383564 -127.76752320430751 0 -127.76752320430751 16.312691410683328 0 0 0 0 58.039981576583585 -98.540751926972007 0 -98.540751926972007 -39.04451238882757 0 0 0 0 -56.236327303781849 -60.504857441684635 0 -60.504857441684635 35.36640338232246 0 0 0 0 -80.598256163715689 -110.93520677834749 0 -110.93520677834749 40.320595936049358 0 0 0 0 -62.255874251452667 -72.437566789923039 0 -72.437566789923039 26.320338061450457 0 0 0 0 -30.827246786996227 -98.874418230563606 0 -98.874418230563606 71.88301265582777 0 0 0 0 22.557035432834255 -80.488206359579635 0 -80.488206359579635 47.684842635000678 0 0 0 0 -5.0360591817929219 -69.556178342369094 0 -69.556178342369094 104.34108620001643 0 0 0 0 -55.677537208926665 -37.30478621933571 0 -37.30478621933571 97.185311313187412 0 0 0 0 -23.369805003745739 -35.936538230838778 0 -35.936538230838778 159.5640066229098 0 0 0 0 -10.086906750975345 -14.060922847402253 0 -14.060922847402253 185.64203972145879 0 0 0 0 -31.623722560583722 -59.155662435921386 0 -59.155662435921386 165.69274022964237 0 0 0 0 16.366020243961799 -46.289775896430001 0 -46.289775896430001 110.84581803475157 0 0 0 0 19.27891026031989 -38.919330715569231 0 -38.919330715569231 118.24713973039434 0 0 0 0 -11.670786903706073 -17.679135928283358 0 -17.679135928283358 191.09683376859539 0 0 0 0 16.462390774103113 -1.3774047992592386 0 -1.3774047992592386 141.22107111215337 0 0 0 0 16.996031295259456 7.7292625525515177 0 7.7292625525515177 120.26083368398031 0 0 0 0 61.661082322276485 -25.156184806028705 0 -25.156184806028705 69.958714649328613 0 0 0 0 68.809661515293584 -45.828817672987498 0 -45.828817672987498 59.619874537129363 0 0 0 0 20.73469237015216 -83.805302481269791 0 -83.805302481269791 42.936961124309164 0 0 0 0 51.422202935938799 -66.883229274315454 0 -66.883229274315454 49.626961479814781 0 0 0 0 86.567517601932622 -33.872705892052181 0 -33.872705892052181 17.063300556601462 0 0 0 0 112.19582884939089 -9.5386529902607435 0 -9.5386529902607435 37.772642369793175 0 0 0 0 85.003263393817662 42.228623080520265 0 42.228623080520265 12.866210488915385 0 0 0 0 58.727315720015156 40.495852110663691 0 40.495852110663691 32.465276216447819 0 0 0 0 33.409938000244864 4.6743073159632331 0 4.6743073159632331 30.017159197097726 0 0 0 0 66.6843951333706 -10.84823728937954 0 -10.84823728937954 44.812380749830481 0 0 0 0 64.237101250205683 36.589644438532559 0 36.589644438532559 87.235465194076824 0 0 0 0 23.162498514844508 43.586852224551194 0 43.586852224551194 185.66750416492141 0 0 0 0 23.882299550445524 110.43990923275487 0 110.43990923275487 218.67818439312759 0 0 0 0 23.853754832006551 42.32241609319226 0 42.32241609319226 153.66017173758155 0 0 0 0 66.764109205403543 77.901401696202811 0 77.901401696202811 97.24163652700372 0 0 0 0 61.431883258010885 27.744248463774056 0 27.744248463774056 60.48260061576002 0 0 0 0 62.35704732299309 35.561935579446867 0 35.561935579446867 30.808472381650063 0 0 0 0 13.733903340618497 5.1512356165803794 0 5.1512356165803794 40.562403972452557 0 0 0 0 126.44069566478855 185.63430232045391 0 185.63430232045391 268.24908304397104 0 0 0 0 79.441227375473943 96.920726722499239 0 96.920726722499239 100.90886301357386 0 0 0 0 -82.291144610026478 -20.872099422784231 0 -20.872099422784231 166.73472815868809 0 0 0 0 0.013694677423312226 0.40648343336500226 0 0.40648343336500226 1.9133552934594604 0 0 0 0 0.051252092656942194 24.265910577960312 0 24.265910577960312 -38.648415385945555 0 0 0 0 -23.453385416343203 22.870000326551235 0 22.870000326551235 -16.350447496159177 0 0 0 0 -0.057414515145096226 0.64225766804826634 0 0.64225766804826634 4.4231607386983285 0 0 0 0 -13.451484978772896 21.90033946220683 0 21.90033946220683 42.311194360459922 0 0 0 0 32.367171048845364 12.317538994396273 0 12.317538994396273 -21.063579361580196 0 0 0 0 -29.609056394665458 -8.947014095769191 0 -8.947014095769191 28.954295493975224 0 0 0 0 -0.041099326180358949 0.62741965877964023 0 0.62741965877964023 4.7370411676165531 0 0 0 0 -0.039974956510123685 0.51469046364874327 0 0.51469046364874327 5.282901558720539 0 0 0 0 -0.13419638468337286 0.76032956380913674 0 0.76032956380913674 5.128520209396811 0 0 0 0 13.099229932435264 12.387782821007022 0 12.387782821007022 25.066848184060291 0 0 0 0 8.0740358790877735 8.9018354821037065 0 8.9018354821037065 22.948654386833368 0 0 0 0 5.6136024919732108 12.594050263877762 0 12.594050263877762 17.494951274598861 0 0 0 0 3.6422183397512526 14.003641287912615 0 14.003641287912615 23.06099798903233 0 0 0 0 5.4362372013449658 11.198291349869578 0 11.198291349869578 22.072245147552167 0 0 0 0 7.1049914730132286 13.182086310702289 0 13.182086310702289 23.080862934069955 0 0 0 0 7.6235129596030902 13.267095366660214 0 13.267095366660214 22.749424620850959 0 0 0 0 11.736904903671302 11.671089514507912 0 11.671089514507912 22.407978304316202 0 0 0 0 20.150455123834263 11.506903881567268 0 11.506903881567268 23.457067729011669 0 0 0 0 -0.84647442334903111 1.8807587810970503 0 1.8807587810970503 3.0520264193678948 0 0 0 0 12.60372330564752 8.2228880360398762 0 8.2228880360398762 24.348782982495322 0 0 0 0 24.069079443902819 9.9578370916873951 0 9.9578370916873951 5.5767158504311016 0 0 0 0 19.666067101903081 22.794914931124367 0 22.794914931124367 11.028711862188175 0 0 0 0 12.752902901275661 28.912116933801371 0 28.912116933801371 43.288776076737122 0 0 0 0 12.197046322630285 18.978039971878388 0 18.978039971878388 23.133362069076611 0 0 0 0 1.8482907532663018 10.678928616851806 0 10.678928616851806 21.256016124159089 0 0 0 0 20.250070084328286 11.207450065619014 0 11.207450065619014 21.471462706325838 0 0 0 0 -46.586733859159267 57.800028070382723 0 57.800028070382723 216.49838075530351 0 0 0 0 -3.3935167302905995 31.128729723078948 0 31.128729723078948 174.32544296262131 0 0 0 0 3.0508190739694672 4.0919193621007706 0 4.0919193621007706 0.15034323271665073 0 0 0 0 66.476173082294736 70.80833588256246 0 70.80833588256246 82.907395310772699 0 0 0 0 -0.66049283212409726 1.8634033473303617 0 1.8634033473303617 3.7394059912479145 0 0 0 0 10.558992940895223 -3.0937744230650424 0 -3.0937744230650424 33.282282260005331 0 0 0 0 -57.698690723299933 62.086684247909943 0 62.086684247909943 116.22184574099992 0 0 0 0 -137.23829251027519 -83.439420701504787 0 -83.439420701504787 54.282839648509253 0 0 0 0 1.2986433791119456 1.4979869537848458 0 1.4979869537848458 0.11814836926236261 0 0 0 0 118.56050105780128 46.845528247763468 0 46.845528247763468 -122.48752998509917 0 0 0 0 -0.33956448030146369 0.81575790810197901 0 0.81575790810197901 -0.23866786970114084 0 0 0 0 -72.719022827596746 21.71056250057336 0 21.71056250057336 -4.0087992477238004 0 0 0 0 1.0929092514699494 1.8536396587399508 0 1.8536396587399508 -1.1744124789610932 0 0 0 0 76.046055665990025 -15.532871127064936 0 -15.532871127064936 -77.996780826095346 0 0 0 0 48.94596816899184 43.368856105191298 0 43.368856105191298 -0.64688863796800433 0 0 0 0 3.6897515105179082 21.469101995239726 0 21.469101995239726 135.66926147305094 0 0 0 0 12.525477866167572 9.0990576996193724 0 9.0990576996193724 -0.091083894365429074 0 0 0 0 29.302222905725102 19.688484782174783 0 19.688484782174783 104.39002303394193 0 0 0 0 -2.7659921946460599 8.3206058695768661 0 8.3206058695768661 108.88989057868093 0 0 0 0 -15.991324325029382 50.362582842470147 0 50.362582842470147 142.58029128092676 0 0 0 0 -61.05214298143801 76.166685834859891 0 76.166685834859891 164.41328245425575 0 0 0 0 -0.21181775712612883 0.51204860515125716 0 0.51204860515125716 -0.07971903883646192 0 0 0 0 -21.945948468350252 4.3588989500221942 0 4.3588989500221942 -65.649696619717361 0 0 0 0 0.5914407072184158 4.780623569916429 0 4.780623569916429 11.628591331592558 0 0 0 0 76.010735536541688 81.800637679691135 0 81.800637679691135 64.197478684058296 0 0 0 0 7.6839287432048877 34.72462679023738 0 34.72462679023738 171.18759742285329 0 0 0 0 7.1131480334279331 61.307853612590407 0 61.307853612590407 -53.454484476766083 0 0 0 0 -80.222426787770985 26.518577565538294 0 26.518577565538294 96.312951576095656 0 0 0 0 -33.310532471439956 -4.1345463210245725 0 -4.1345463210245725 14.738722461661382 0 0 0 0 -14.959106596147002 -9.995709202658535 0 -9.995709202658535 63.409939827496956 0 0 0 0 -42.616093991033267 -5.1581332181522157 0 -5.1581332181522157 328.63025843305513 0 0 0 0 -19.7778010435519 -10.879236907020235 0 -10.879236907020235 25.352237129503905 0 0 0 0 -8.3767720348820838 -8.50620030696426 0 -8.50620030696426 22.995797828794913 0 0 0 0 -9.0933648848740631 2.0315248898623395 0 2.0315248898623395 54.586982189659466 0 0 0 0 -32.459416236843936 -18.721822103187151 0 -18.721822103187151 97.248002315565827 0 0 0 0 -30.874275677815604 -17.842964629820926 0 -17.842964629820926 70.30180092457158 0 0 0 0 -51.816708818949337 -10.377191126348407 0 -10.377191126348407 108.66243967906485 0 0 0 0 -5.3913407364478871 9.1332982974236074 0 9.1332982974236074 39.672611781682122 0 0 0 0 -6.0890319272164106 5.3460006078676088 0 5.3460006078676088 28.023007689480437 0 0 0 0 -6.0765285667516515 -0.0062599193334236247 0 -0.0062599193334236247 42.565698280836031 0 0 0 0 -7.3043511088064399 -23.241517216675163 0 -23.241517216675163 116.0964042583073 0 0 0 0 -6.7526991382679356 38.579851332441365 0 38.579851332441365 105.01820243816474 0 0 0 0 40.930914434663464 47.13653826947575 0 47.13653826947575 -12.79256603250542 0 0 0 0 6.4344408950793959 9.0111297000184187 0 9.0111297000184187 -8.5038819456854142 0 0 0 0 7.3179995129403324 16.144162365821103 0 16.144162365821103 112.53287177635775 0 0 0 0 14.390027443659164 -12.129936694869684 0 -12.129936694869684 197.93549562824046 0 0 0 0 -3.4456689384387573 19.360540239424154 0 19.360540239424154 120.57726227237617 0 0 0 0 11.728186036236366 27.09969090015511 0 27.09969090015511 82.150581316460375 0 0 0 0 3.0119989559989335 46.701733398120268 0 46.701733398120268 104.09341118847078 0 0 0 0 -232.65855430993997 18.960307713583461 0 18.960307713583461 139.97943830404984 0 0 0 0 -227.25911777232551 -56.700998357321168 0 -56.700998357321168 124.39925204249448 0 0 0 0 -246.60188578091902 -27.72610375180011 0 -27.72610375180011 22.306846657287679 0 0 0 0 -239.78314178980099 -53.308901104192046 0 -53.308901104192046 127.73183754843194 0 0 0 0 -383.03505208060324 -47.603447463880002 0 -47.603447463880002 131.55799712831322 0 0 0 0 -160.39906238415233 -149.22350758622633 0 -149.22350758622633 -58.747451620118227 0 0 0 0 -32.22628095777327 7.0578115815296769 0 7.0578115815296769 87.587408539000535 0 0 0 0 -97.084097998241305 -168.58591638581856 0 -168.58591638581856 64.850762993388344 0 0 0 0 -136.88609315102713 -79.0654430282666 0 -79.0654430282666 110.57985629101313 0 0 0 0 -272.45467838509012 -88.599410032747983 0 -88.599410032747983 119.39654725123546 0 0 0 0 -71.715757579735509 -1.3922924858416081 0 -1.3922924858416081 65.136670747335302 0 0 0 0 -126.48711057334685 -81.737475113102846 0 -81.737475113102846 68.439208900497761 0 0 0 0 25.73973209527685 -55.120867624282255 0 -55.120867624282255 67.529891063463083 0 0 0 0 -46.810187648304236 -2.5778865346728708 0 -2.5778865346728708 127.6920180064335 0 0 0 0 -1.2127113324452652 -3.4132871009179091 0 -3.4132871009179091 2.6415150825374951 0 0 0 0 34.514228705418645 -75.454644153673144 0 -75.454644153673144 141.66290192441011 0 0 0 0 -124.42021995953837 -88.198195597280574 0 -88.198195597280574 -41.353253393866908 0 0 0 0 57.05838970119612 -29.577369996948619 0 -29.577369996948619 -39.87312253282289 0 0 0 0 -2.5120386280938343 5.6913187376663501 0 5.6913187376663501 27.093728637268285 0 0 0 0 -1.0247992540762958 -1.3089805979146689 0 -1.3089805979146689 4.6873990634366987 0 0 0 0 -157.75272051498018 39.178047575154778 0 39.178047575154778 110.22311502291996 0 0 0 0 -316.04206586676776 -106.00078675031727 0 -106.00078675031727 55.319547738632536 0 0 0 0 -337.84669780600166 -86.713643288927415 0 -86.713643288927415 58.442556576861534 0 0 0 0 -241.37892437546634 100.45409298629238 0 100.45409298629238 2.3827803638487239 0 0 0 0 -64.667675171406131 73.364907561386644 0 73.364907561386644 -63.361408461627434 0 0 0 0 -3.4883368727111335 0.98983202099469736 0 0.98983202099469736 7.7727581913271697 0 0 0 0 -78.13407238839136 90.017755475339072 0 90.017755475339072 -20.283907423880009 0 0 0 0 10.78039028764033 17.09235797785368 0 17.09235797785368 -21.882463391932106 0 0 0 0 -18.750575969719193 73.812629813444801 0 73.812629813444801 -46.312553616022342 0 0 0 0 7.0208234272895425 46.435013784357579 0 46.435013784357579 -29.121652928151889 0 0 0 0 -11.233739968611644 65.806738095896435 0 65.806738095896435 -37.60946109618817 0 0 0 0 -29.315325288125365 53.453064628045468 0 53.453064628045468 -4.9449816183769144 0 0 0 0 -41.175335308410922 61.116915177852206 0 61.116915177852206 -8.3080622926645447 0 0 0 0 -29.990194457618031 50.225521920856409 0 50.225521920856409 -10.824234915839043 0 0 0 0 -50.693384461166147 54.89322425973296 0 54.89322425973296 -0.5706926925922744 0 0 0 0 -32.327432466553773 40.483014335663029 0 40.483014335663029 9.1129093769704923 0 0 0 0 -71.836338945354669 33.880275811468891 0 33.880275811468891 23.66011048200744 0 0 0 0 -99.184474702859376 44.6728200453108 0 44.6728200453108 18.418356902438973 0 0 0 0 -183.99578138676475 -20.850425995955447 0 -20.850425995955447 67.280488252052237 0 0 0 0 -82.066155719858443 43.190281587127174 0 43.190281587127174 18.065199557226151 0 0 0 0 4.3157490719262963 9.2790303709099931 0 9.2790303709099931 3.1018440556937357 0 0 0 0 -0.77786928406567313 14.032543842260566 0 14.032543842260566 21.124399179974716 0 0 0 0 -17.582578915475295 59.717753010928391 0 59.717753010928391 3.887499398952059 0 0 0 0 3.7918088869210642 12.347530277428501 0 12.347530277428501 22.206335123622395 0 0 0 0 3.8350922994504799 22.912751492054667 0 22.912751492054667 11.708567203143502 0 0 0 0 4.9025039306933582 24.452906174830261 0 24.452906174830261 13.939008498145601 0 0 0 0 -10.452415326815071 18.067014298590948 0 18.067014298590948 27.430171444022562 0 0 0 0 -1.2928921161228573 15.032465027543367 0 15.032465027543367 20.858609353439533 0 0 0 0 -8.5388945993108791 12.695055809919722 0 12.695055809919722 19.726001366396304 0 0 0 0 -7.2084269065017503 10.216706562989359 0 10.216706562989359 47.976985810977041 0 0 0 0 -8.0092051538103988 23.323874434267054 0 23.323874434267054 38.461975903366692 0 0 0 0 1.7865118652441083 17.884635548321732 0 17.884635548321732 14.155453467089416 0 0 0 0 1.716286809210942 4.9716954033792717 0 4.9716954033792717 48.352234710662742 0 0 0 0 61.475024659590417 -53.700932220839604 0 -53.700932220839604 68.440445458109025 0 0 0 0 -5.5072078158022499 9.6586383416327664 0 9.6586383416327664 23.485783336571316 0 0 0 0 -4.1821321918780541 47.463769450921973 0 47.463769450921973 -15.413557770385523 0 0 0 0 14.262087263713511 -4.125886514026206 0 -4.125886514026206 37.007910364191048 0 0 0 0 -4.4197954077152417 38.818174554002326 0 38.818174554002326 12.33127922458516 0 0 0 0 8.6233380262585797 32.07543861445447 0 32.07543861445447 1.1362044127017725 0 0 0 0 18.128967631214437 2.7387550681014545 0 2.7387550681014545 30.823797832941636 0 0 0 0 0.068592623304766676 17.950816939935976 0 17.950816939935976 25.935064117482398 0 0 0 0 -12.089419082557697 31.915916220455301 0 31.915916220455301 -10.904211133776698 0 0 0 0 60.296767818083481 25.237703789818625 0 25.237703789818625 -16.21877688333916 0 0 0 0 54.924014297547956 7.2738216583820758 0 7.2738216583820758 -7.2841992945104721 0 0 0 0 -5.0420477538092996 38.161488971491053 0 38.161488971491053 -16.445693955407478 0 0 0 0 50.070827991895499 53.989341784543285 0 53.989341784543285 0.23656577531073708 0 0 0 0 3.0433449778473678 8.8401149652851068 0 8.8401149652851068 17.608800856892188 0 0 0 0 -11.313991555817665 45.923644777940353 0 45.923644777940353 -17.209313014725922 0 0 0 0 -3.7655424714441779 46.083276926574399 0 46.083276926574399 -17.846839908481343 0 0 0 0 -16.67026956775635 51.805676972595393 0 51.805676972595393 -20.246145700861234 0 0 0 0 -20.664629158397702 41.854803080837883 0 41.854803080837883 -5.280508979325532 0 0 0 0 -23.657897699300406 28.983916571679401 0 28.983916571679401 -3.3503003623482073 0 0 0 0 -28.769168729574631 40.794768231680791 0 40.794768231680791 -5.2227081066193932 0 0 0 0 47.75602335436318 45.77189470639405 0 45.77189470639405 -26.633209086285206 0 0 0 0 -53.196932629641196 -10.044045171160178 0 -10.044045171160178 103.19347254329477 0 0 0 0 -80.022984650082378 102.82381072866883 0 102.82381072866883 36.743360848369775 0 0 0 0 127.55172962533072 22.853334547176928 0 22.853334547176928 -84.297440984955756 0 0 0 0 3.1147558626961529 10.059564382792164 0 10.059564382792164 24.930579100413169 0 0 0 0 -0.53606340899880112 -1.131288250176496 0 -1.131288250176496 3.3406762687138354 0 0 0 0 -34.985740758472957 29.26368477928736 0 29.26368477928736 16.628650694503449 0 0 0 0 -37.830620580041341 20.142302009138803 0 20.142302009138803 -7.451132506972499 0 0 0 0 -50.604461018768461 7.9486003557831282 0 7.9486003557831282 11.075962807452015 0 0 0 0 -48.198285794735625 13.739287514034004 0 13.739287514034004 22.960467301978497 0 0 0 0 -79.908083004209999 50.684054465926238 0 50.684054465926238 30.570052645423857 0 0 0 0 -5.7978222029938706 -30.196370049576217 0 -30.196370049576217 74.952106717326387 0 0 0 0 -10.736215382061459 49.072872650831414 0 49.072872650831414 -30.13401773271471 0 0 0 0 1.908227231733155 4.3888769198919526 0 4.3888769198919526 10.459269670175544 0 0 0 0 -54.016814620453033 -51.964663289090822 0 -51.964663289090822 74.399980611269712 0 0 0 0 -90.814320403881766 16.557782373267401 0 16.557782373267401 49.165869855423807 0 0 0 0 -43.258910670514524 19.216864331941906 0 19.216864331941906 27.798363165225965 0 0 0 0 -39.659838832136074 35.857097133914067 0 35.857097133914067 7.5190939820240601 0 0 0 0 -30.82363748336077 -32.086014711962434 0 -32.086014711962434 81.520555049079121 0 0 0 0 -35.802633837922258 20.933505175209575 0 20.933505175209575 26.987020375800057 0 0 0 0 -33.96935522800743 -20.779980071383761 0 -20.779980071383761 92.809085600369144 0 0 0 0 -37.375197134954306 -75.47482977294203 0 -75.47482977294203 129.96918249351074 0 0 0 0 -21.306368228244878 -26.015622456758138 0 -26.015622456758138 202.42735321432338 0 0 0 0 -20.651022669356166 -75.535793255639874 0 -75.535793255639874 167.77518640400012 0 0 0 0 -3.6562995578289019 -34.276247789193803 0 -34.276247789193803 69.189621923680534 0 0 0 0 -34.537717836646152 -71.671576745702623 0 -71.671576745702623 301.99439448367775 0 0 0 0 -40.519463401522842 -64.960290383689426 0 -64.960290383689426 215.99244017760429 0 0 0 0 -25.917785253229169 -1.2738520664497628 0 -1.2738520664497628 246.95511736353455 0 0 0 0 0.84260562171601383 1.3884988749095761 0 1.3884988749095761 3.3622481517922438 0 0 0 0 321.01009623894089 18.758217575659728 0 18.758217575659728 -60.96237308797572 0 0 0 0 32.430502087870337 -121.389139053078 0 -121.389139053078 289.39263300644234 0 0 0 0 -17.593575403522095 -98.363935938559734 0 -98.363935938559734 238.5220629966243 0 0 0 0 48.746412099605891 -92.256688981822663 0 -92.256688981822663 21.736568195228756 0 0 0 0 17.809718878373587 -25.137253278040589 0 -25.137253278040589 265.8932880469365 0 0 0 0 -40.631604015799653 -17.807427922898569 0 -17.807427922898569 459.07345824765071 0 0 0 0 -22.057108809547856 -48.87278310777765 0 -48.87278310777765 -67.081184691141971 0 0 0 0 -47.116845069514056 -119.51140914072494 0 -119.51140914072494 702.65938245184952 0 0 0 0 195.31309036729999 -25.334015526852454 0 -25.334015526852454 -94.069228825963364 0 0 0 0 -262.74863565530757 98.726932540412236 0 98.726932540412236 332.51399415933702 0 0 0 0 0.48403289884914835 1.4522144818054592 0 1.4522144818054592 3.8776363667729612 0 0 0 0 0.10263462908380916 6.7537485946218112 0 6.7537485946218112 -98.936653644868784 0 0 0 0 -1.6182919396689357 4.172138357636868 0 4.172138357636868 5.2111702688343939 0 0 0 0 -245.29648520556037 232.89565380840941 0 232.89565380840941 298.10674884086256 0 0 0 0 1.0267356601652455 3.3986200665698476 0 3.3986200665698476 8.8076641845230199 0 0 0 0 -7.1256161129291513 -126.82250422803554 0 -126.82250422803554 -49.451670060559991 0 0 0 0 2.7840234878244048 5.9895736761813403 0 5.9895736761813403 7.2752145487874316 0 0 0 0 1.2928986765367041 6.4723489822143563 0 6.4723489822143563 13.900604583318739 0 0 0 0 -3.6382978235329801 10.648020629781968 0 10.648020629781968 3.7020860980787802 0 0 0 0 -130.12440991227291 132.58883445887841 0 132.58883445887841 32.641589484223005 0 0 0 0 4.8955699381832005 7.9313528649213367 0 7.9313528649213367 25.094762015607557 0 0 0 0 6.873976199380877 11.964564299531048 0 11.964564299531048 23.837650109349852 0 0 0 0 9.9745885149249602 12.067164252081966 0 12.067164252081966 23.180015565514623 0 0 0 0 5.6844416777530569 12.010142972289032 0 12.010142972289032 24.2239617281557 0 0 0 0 35.894017854084268 -9.0534658026590478 0 -9.0534658026590478 -31.425536668239147 0 0 0 0 -0.95465236976133383 -33.396044972347227 0 -33.396044972347227 -29.638452943345328 0 0 0 0 3.3283663699642467 -1.1975183696116729 0 -1.1975183696116729 9.71454472421037 0 0 0 0 14.156138639363689 8.5038299633833958 0 8.5038299633833958 19.107732504442538 0 0 0 0 9.2685106076950206 10.398681648570346 0 10.398681648570346 24.076954239933002 0 0 0 0 24.726335941352545 7.2822915198485134 0 7.2822915198485134 14.031539263921331 0 0 0 0 9.1469864121290811 2.4998769086869288 0 2.4998769086869288 12.0951147175183 0 0 0 0 79.186232873271365 3.3074337952657515 0 3.3074337952657515 -46.747769436284216 0 0 0 0 80.010424422851429 -55.450844512841286 0 -55.450844512841286 -29.851845337841951 0 0 0 0 209.44153421525152 -295.8160107020849 0 -295.8160107020849 -236.72453533552471 0 0 0 0 -254.84452278180879 -135.6877394115927 0 -135.6877394115927 6.717676878128259 0 0 0 0 241.97914014554499 131.7172446091372 0 131.7172446091372 24.639092243465711 0 0 0 0 -0.79181021402190965 -1.0221311035833454 0 -1.0221311035833454 14.230952768530216 0 0 0 0 4.198315200704883 0.26450155675411224 0 0.26450155675411224 14.600496038672645 0 0 0 0 1.3906991801866666 4.2432337867317074 0 4.2432337867317074 13.535166845969144 0 0 0 0 110.70781370747932 27.732935204745445 0 27.732935204745445 37.119177272295929 0 0 0 0 -3.9227694218453371 -4.2105131257356945 0 -4.2105131257356945 6.2632779705900674 0 0 0 0 447.82517319213821 44.479593656466022 0 44.479593656466022 -251.47717508601636 0 0 0 0 -2078.8708534096659 -1401.5379074663506 0 -1401.5379074663506 -1023.2671736146294 0 0 0 0 583.28284602392159 7.4287364138581324 0 7.4287364138581324 -330.12259638984142 0 0 0 0 1759.6727278255803 794.363293602044 0 794.363293602044 -942.44088328035923 0 0 0 0 117.50942073323131 99.475928590327385 0 99.475928590327385 2580.1685413244595 0 0 0 0 1812.1466260140849 1676.4234889294671 0 1676.4234889294671 915.81386106234277 0 0 0 0 58.520906168020304 1104.2469194108062 0 1104.2469194108062 157.53600811782235 0 0 0 0 524.73413934456312 -689.77557762742435 0 -689.77557762742435 1113.3771806571749 0 0 0 0 1.1853549097866787 4.2344220586955821 0 4.2344220586955821 13.099770278987762 0 0 0 0 527.93258308352415 -439.84300239189724 0 -439.84300239189724 148.67383964853798 0 0 0 0 -1.0292719173078455 2.8489679589914707 0 2.8489679589914707 19.025158808243916 0 0 0 0 -74.873685170290287 -343.50807649052149 0 -343.50807649052149 1357.5553772194326 0 0 0 0 -296.88095898761185 936.24251222019848 0 936.24251222019848 1840.5741870777965 0 0 0 0 263.92538736235838 -274.37002758087328 0 -274.37002758087328 418.37588539716671 0 0 0 0 -482.43923075419156 -496.32469007205145 0 -496.32469007205145 1307.8249613465341 0 0 0 0 1290.2820102817036 -188.82801989461586 0 -188.82801989461586 -438.31684016693907 0 0 0 0 -3.8876338005966318 0.98117857699253364 0 0.98117857699253364 52.591201170595014 0 0 0 0 -3.4807822798253589 -1.0213353813657164 0 -1.0213353813657164 8.7423403457546609 0 0 0 0 -1161.8141143363928 16.53922420834715 0 16.53922420834715 842.98876319004012 0 0 0 0 59.113815801346391 -46.36348955153062 0 -46.36348955153062 138.20350066356696 0 0 0 0 -1.2685083613587911 7.4311592822601824 0 7.4311592822601824 35.054347393541889 0 0 0 0 -13.570099376380995 6.7478577181900619 0 6.7478577181900619 48.635011302278144 0 0 0 0 -3.6547109277444614 -0.51518008306119256 0 -0.51518008306119256 47.485829316670788 0 0 0 0 -12.168711776238979 4.0657331576221623 0 4.0657331576221623 52.60838084309944 0 0 0 0 -9.7042746885099405 3.3091542898546322 0 3.3091542898546322 51.669582566395547 0 0 0 0 -2.4090857485139168 7.2962998261609755 0 7.2962998261609755 47.047688706290501 0 0 0 0 -4.7519859451049342 3.3714926146894868 0 3.3714926146894868 50.280642158351839 0 0 0 0 -8.0655997671346995 6.2347672725481971 0 6.2347672725481971 50.269776745859417 0 0 0 0 -10.784290752463676 1.9872186188440537 0 1.9872186188440537 51.243867644470811 0 0 0 0 -10.413704385273491 0.95536955545640012 0 0.95536955545640012 49.033987727096246 0 0 0 0 -17.049029318717203 -0.19751937750334037 0 -0.19751937750334037 54.734867805298563 0 0 0 0 -1.7298044036410829 7.2706845963839442 0 7.2706845963839442 54.153014449966577 0 0 0 0 -8.1104080923227428 8.0078435920142965 0 8.0078435920142965 62.637316360916884 0 0 0 0 -8.0087056016395763 8.6679815383831738 0 8.6679815383831738 51.544374118722772 0 0 0 0 -0.36413860697575728 6.1629533882369287 0 6.1629533882369287 47.555176656904223 0 0 0 0 -0.014331072284448965 6.8745543797085702 0 6.8745543797085702 39.485651078190131 0 0 0 0 -16.407255525708024 14.670074084599037 0 14.670074084599037 51.970530856200639 0 0 0 0 4.4600180451371347 2.2926981891611149 0 2.2926981891611149 -0.7366173147107844 0 0 0 0 -2.3321806151598139 17.699560080396623 0 17.699560080396623 28.141528744901734 0 0 0 0 -165.57872416908964 396.17503240562291 0 396.17503240562291 308.97861588807973 0 0 0 0 -67.957092159798236 -288.63063817433977 0 -288.63063817433977 712.04340562734433 0 0 0 0 -116.55049643751391 -91.710979318228055 0 -91.710979318228055 838.4949506824014 0 0 0 0 -123.06195250375845 -22.287476557288755 0 -22.287476557288755 533.56894866307266 0 0 0 0 70.801507618514393 65.594489499009796 0 65.594489499009796 413.85237205933299 0 0 0 0 189.38466487213327 -96.895085818156076 0 -96.895085818156076 551.28937586379107 0 0 0 0 37.676341710936128 125.94996195425847 0 125.94996195425847 497.9173800104727 0 0 0 0 -0.29658103620170095 86.346986219954488 0 86.346986219954488 574.98665624403293 0 0 0 0 45.605543137567338 22.966828749336855 0 22.966828749336855 -35.056766625625642 0 0 0 0 1.7472765595000936 0.90296213212431553 0 0.90296213212431553 0.73185057423796351 0 0 0 0 -49.109607540864232 -14.835339749404739 0 -14.835339749404739 302.73389653526101 0 0 0 0 66.692166341997179 17.37774112497118 0 17.37774112497118 313.95218067803944 0 0 0 0 -23.459628381626317 27.087443799784523 0 27.087443799784523 345.34216883308909 0 0 0 0 -37.733747681960153 10.897216717105039 0 10.897216717105039 377.51806712772668 0 0 0 0 60.079010284669948 167.28773664146865 0 167.28773664146865 244.97813518462863 0 0 0 0 -50.056542098451608 59.14473573192754 0 59.14473573192754 294.3669362205801 0 0 0 0 -0.53105440418240724 -0.072814567511073847 0 -0.072814567511073847 0.45319895886271411 0 0 0 0 -20.812775839320636 57.518531330139012 0 57.518531330139012 273.20279267984733 0 0 0 0 -13.229301826662493 43.320647977638146 0 43.320647977638146 164.67151350047061 0 0 0 0 -9.9680858100124397 18.674205344323127 0 18.674205344323127 206.11151915870505 0 0 0 0 -0.7073343661634226 58.908226074699996 0 58.908226074699996 151.64454184842907 0 0 0 0 -9.6220450882065052 43.230032654239039 0 43.230032654239039 128.76983685337473 0 0 0 0 5.7686588211501881 16.87806087653405 0 16.87806087653405 79.125964497266978 0 0 0 0 -0.51097724391729571 8.6730194004521763 0 8.6730194004521763 100.57653158761968 0 0 0 0 -0.084413799303547421 22.084669342031702 0 22.084669342031702 88.30940391439799 0 0 0 0 5.3933964693135987 39.513846508042917 0 39.513846508042917 128.69606116237992 0 0 0 0 2.6092603610602509 19.78168870126683 0 19.78168870126683 107.73782737034344 0 0 0 0 -2.6265410855702385 0.75419943713131943 0 0.75419943713131943 138.53563043036411 0 0 0 0 1.350793525175277 5.5543581973124674 0 5.5543581973124674 47.818526050697983 0 0 0 0 -24.532498469772918 8.7519053607065871 0 8.7519053607065871 47.894223905521358 0 0 0 0 73.36651329569645 84.924305241653201 0 84.924305241653201 60.208921187389933 0 0 0 0 37.219853543337194 4.2456531510251807 0 4.2456531510251807 51.850045980229879 0 0 0 0 56.528329808272701 56.310795551984484 0 56.310795551984484 101.80241762848163 0 0 0 0 16.825184605984987 12.081175189076021 0 12.081175189076021 79.744039140328823 0 0 0 0 12.019701583548681 -4.2299657048752124 0 -4.2299657048752124 62.070561622156674 0 0 0 0 3.1929047428566264 6.3536250095603464 0 6.3536250095603464 76.380107217111799 0 0 0 0 3.3460120133423743 10.565295235679514 0 10.565295235679514 54.949778454843909 0 0 0 0 -7.7219457601695467 4.8867286565000541 0 4.8867286565000541 65.248713142140332 0 0 0 0 6.5743169647591344 1.0779480524251994 0 1.0779480524251994 56.947765444318065 0 0 0 0 9.0113390608975124 7.5971633466165258 0 7.5971633466165258 65.158851520871394 0 0 0 0 14.582638233997386 -6.1952317632167251 0 -6.1952317632167251 45.559176229598961 0 0 0 0 -6.8051901247325759 -0.45327784318942577 0 -0.45327784318942577 107.7966508947502 0 0 0 0 0.2402124274361328 -0.13716502841303679 0 -0.13716502841303679 0.11707278000164845 0 0 0 0 6.4934211416353946 -5.6419052509481844 0 -5.6419052509481844 68.786244367798645 0 0 0 0 1.5695077885584396 8.4455000964153442 0 8.4455000964153442 96.844901315296738 0 0 0 0 15.885029062209924 -7.8353029181707825 0 -7.8353029181707825 68.3407805855677 0 0 0 0 5.7924415881626032 -14.568433226471825 0 -14.568433226471825 81.703949612790893 0 0 0 0 10.960868421027158 -18.565315055438987 0 -18.565315055438987 130.92711918362693 0 0 0 0 0.33502177266924349 0.081269555714641228 0 0.081269555714641228 0.20289714790576152 0 0 0 0 12.263324313290212 7.5263270720370201 0 7.5263270720370201 60.850334392918739 0 0 0 0 -13.530936089810439 10.117823119886452 0 10.117823119886452 84.342168162376765 0 0 0 0 -18.628105943756282 -8.9665200296149123 0 -8.9665200296149123 71.945627205048368 0 0 0 0 0.24399875501489987 -8.4793457066480187 0 -8.4793457066480187 62.234023358949344 0 0 0 0 -8.0647180625478541 -17.417929399613058 0 -17.417929399613058 61.852061884301747 0 0 0 0 9.1959469885215412 5.1795341379656747 0 5.1795341379656747 73.297597935044905 0 0 0 0 1.6247330197410292 -13.875001830710971 0 -13.875001830710971 97.879072147145052 0 0 0 0 8.8856179977433385 -8.9485782735682733 0 -8.9485782735682733 57.948766594839981 0 0 0 0 0.031212602069444983 0.43330709911242593 0 0.43330709911242593 104.11585176922381 0 0 0 0 6.6758593806556519 -2.3279036048479611 0 -2.3279036048479611 45.770445557194762 0 0 0 0 -1.4750907254476715 -6.1069682656016084 0 -6.1069682656016084 140.21684365338297 0 0 0 0 0.097418732809553266 -0.31798848791505918 0 -0.31798848791505918 0.21902341061975505 0 0 0 0 1.4908898540376185 -1.0770762129650393 0 -1.0770762129650393 60.336410701391287 0 0 0 0 2.3082610306776132 -2.7678995723981643 0 -2.7678995723981643 60.766479318583151 0 0 0 0 6.9857171709677459 3.1586338335764594 0 3.1586338335764594 51.698027341713896 0 0 0 0 -18.480764997774486 -33.594683242023166 0 -33.594683242023166 142.56447512356317 0 0 0 0 3.6591988700315086 -2.9234549084739569 0 -2.9234549084739569 0.046744861085049827 0 0 0 0 -24.846660375289048 -15.271082712079078 0 -15.271082712079078 118.21327454829213 0 0 0 0 -29.937817756971754 4.2665242716157081 0 4.2665242716157081 197.85046020119262 0 0 0 0 -4.109733793002988 -8.1327735271270285 0 -8.1327735271270285 70.705271503335098 0 0 0 0 -2.1467099738758861 -4.9368803614743229 0 -4.9368803614743229 68.74020351209947 0 0 0 0 11.800864507645315 -3.6470210000406951 0 -3.6470210000406951 46.583382995559077 0 0 0 0 1.5209350191771049 -3.0010844143012179 0 -3.0010844143012179 -0.051461469214011846 0 0 0 0 22.10967342973845 -5.8631205333549588 0 -5.8631205333549588 83.040665019732842 0 0 0 0 -18.966766309850073 -30.134930286958479 0 -30.134930286958479 119.81825093713269 0 0 0 0 -14.915494237140592 -34.250110401670099 0 -34.250110401670099 131.14818014491902 0 0 0 0 46.427494773799481 -39.915180011954362 0 -39.915180011954362 34.363010666302898 0 0 0 0 11.794371746839261 18.78665869118413 0 18.78665869118413 41.091297274036265 0 0 0 0 -1.5862218170851143 -3.0242618961201799 0 -3.0242618961201799 0.11640888394887394 0 0 0 0 -1.8392625829885674 -6.4258766266048042 0 -6.4258766266048042 59.646103742145215 0 0 0 0 -3.0038282399723357 -7.8243440438691323 0 -7.8243440438691323 62.161763120973774 0 0 0 0 -5.5665313651389887 -2.5887075832446556 0 -2.5887075832446556 -1.1832173992492061 0 0 0 0 -5.471550498039818 -24.108730518873926 0 -24.108730518873926 21.670871611796997 0 0 0 0 -7.7105300510969528 -0.28812347012808459 0 -0.28812347012808459 48.73591245161515 0 0 0 0 -5.2521838096274678 -7.0001621318951948 0 -7.0001621318951948 56.524247286462924 0 0 0 0 -7.0349700610845503 -6.1593940702514374 0 -6.1593940702514374 66.369770830664379 0 0 0 0 -8.7661465997493906 1.1972759999916889 0 1.1972759999916889 56.826777273716289 0 0 0 0 -12.385690200143472 2.5954413022882363 0 2.5954413022882363 58.262936269347847 0 0 0 0 -13.408653872199011 1.5498700752177683 0 1.5498700752177683 58.218939735415915 0 0 0 0 -17.217441196781692 3.0532813465142681 0 3.0532813465142681 57.961418408936879 0 0 0 0 -12.568589368812496 2.0940524073913593 0 2.0940524073913593 55.905226346949348 0 0 0 0 -9.0708800133442224 3.3539011948776078 0 3.3539011948776078 60.848690464699757 0 0 0 0 -8.9895925993403125 4.180704981146846 0 4.180704981146846 53.775329664895253 0 0 0 0 -12.584653663185463 1.7547356830742729 0 1.7547356830742729 59.310457854546257 0 0 0 0 -8.1442294719058737 3.0018025593799393 0 3.0018025593799393 60.152279682639346 0 0 0 0 -6.3666364359046383 0.67603437179423054 0 0.67603437179423054 62.662472231750755 0 0 0 0 -7.2879041103894906 1.2192521004290029 0 1.2192521004290029 79.013331261576241 0 0 0 0 -8.8404248544301876 -1.8939625193950747 0 -1.8939625193950747 65.451603636553045 0 0 0 0 8.3428458431460477 -5.2712460853563243 0 -5.2712460853563243 202.83994895529759 0 0 0 0 -0.019826839738498969 -7.8387493148438807 0 -7.8387493148438807 212.60728878985537 0 0 0 0 1.9017179420403139 -5.7911743177719472 0 -5.7911743177719472 207.94974632897902 0 0 0 0 10.096491352999985 -2.5082144262487418 0 -2.5082144262487418 206.15991030307123 0 0 0 0 1.5360253140768521 -3.0311876080559159 0 -3.0311876080559159 214.91797878044599 0 0 0 0 4.8672852149040171 15.688298459418547 0 15.688298459418547 214.94479692561436 0 0 0 0 6.3534435474684257 4.8618193537586194 0 4.8618193537586194 225.24780845625355 0 0 0 0 0.04819855683782738 -4.8552501633203065 0 -4.8552501633203065 232.1666994963598 0 0 0 0 -2.6715121044560792 20.834822087941575 0 20.834822087941575 277.73331798488653 0 0 0 0 133.78192135848354 73.236760457506534 0 73.236760457506534 230.33980174619501 0 0 0 0 0.21081860285471016 0.00078672965588566512 0 0.00078672965588566512 0.53989691569433162 0 0 0 0 -0.22511331199673007 111.35065663240279 0 111.35065663240279 348.70631361471169 0 0 0 0 -20.673567947968976 18.468439446976845 0 18.468439446976845 303.24308451685283 0 0 0 0 0.17773153193396224 -0.1153802235346717 0 -0.1153802235346717 0.41354496843625554 0 0 0 0 -4.0507465317882421 14.367528301354469 0 14.367528301354469 226.14050853528352 0 0 0 0 -17.366833605145352 16.60457615664609 0 16.60457615664609 253.6908451714844 0 0 0 0 3.2611551378329438 31.466937481436617 0 31.466937481436617 263.3549486266129 0 0 0 0 3.4003781619312683 34.318816278328768 0 34.318816278328768 183.98112051185308 0 0 0 0 -37.986456210453326 -7.2305821119389293 0 -7.2305821119389293 212.47770967216275 0 0 0 0 -3.6201245528859261 19.640995107097297 0 19.640995107097297 195.06290684423584 0 0 0 0 -2.1075081234231376 -8.4585420536795937 0 -8.4585420536795937 182.71708593355288 0 0 0 0 1.6801560802177633 -11.989299788008793 0 -11.989299788008793 196.62757566476284 0 0 0 0 2.3706521417218482 1.1566961902626645 0 1.1566961902626645 202.8402546007128 0 0 0 0 -17.140492884279709 -15.965020687990545 0 -15.965020687990545 196.69833542625565 0 0 0 0 -23.314427029513141 9.5462294330536679 0 9.5462294330536679 190.36601953798527 0 0 0 0 18.803731981690348 37.087507107618876 0 37.087507107618876 177.70279568324804 0 0 0 0 -8.3604464273470853 23.413767108562752 0 23.413767108562752 186.09507342339384 0 0 0 0 -14.034563124287999 36.099487532728745 0 36.099487532728745 239.32334694460224 0 0 0 0 -17.432759760940229 -8.5728660834683978 0 -8.5728660834683978 162.28580041893383 0 0 0 0 -0.46639577147351396 -0.070478696293918119 0 -0.070478696293918119 0.38116785286462829 0 0 0 0 -20.416679204828313 13.487064528497285 0 13.487064528497285 220.52298550839259 0 0 0 0 -25.160742275831879 1.7500914830279726 0 1.7500914830279726 192.83783503035374 0 0 0 0 -22.279107643530438 -9.2932065927307121 0 -9.2932065927307121 211.8721441374644 0 0 0 0 -1.3649348954236302 21.369249126713839 0 21.369249126713839 212.22189995000736 0 0 0 0 -12.88417742142839 13.049807188626801 0 13.049807188626801 238.83903099725285 0 0 0 0 -36.383488358677937 -25.993991764726161 0 -25.993991764726161 214.96496579887753 0 0 0 0 4.8501041668803282 18.941042341652064 0 18.941042341652064 229.94989765636637 0 0 0 0 17.92750312766907 44.048147944416996 0 44.048147944416996 155.97775934192759 0 0 0 0 -12.565419073325643 20.710265374778828 0 20.710265374778828 241.43508449322326 0 0 0 0 -0.97150520834524268 -0.10014307841998971 0 -0.10014307841998971 0.57649654144738349 0 0 0 0 -7.3298752516329841 36.835090635140659 0 36.835090635140659 222.37716603991976 0 0 0 0 19.273453374694295 15.540042572063612 0 15.540042572063612 163.45457064231596 0 0 0 0 -8.4016066753633112 1.837199002635316 0 1.837199002635316 171.86877539938541 0 0 0 0 16.758445446344631 4.6939161077552853 0 4.6939161077552853 116.96569551413995 0 0 0 0 -7.3593697104612659 16.114007059884898 0 16.114007059884898 167.9254034321566 0 0 0 0 12.073736181807192 21.067383864912699 0 21.067383864912699 124.86450315942284 0 0 0 0 -19.826786516593472 -1.5929185071654501 0 -1.5929185071654501 127.74069648565137 0 0 0 0 -0.038675900831902754 0.27960935113115681 0 0.27960935113115681 0.25453102409928618 0 0 0 0 11.040075559500117 17.228034089974244 0 17.228034089974244 106.61420307055596 0 0 0 0 -13.401342773425441 -5.0548039684144896 0 -5.0548039684144896 121.72128957780296 0 0 0 0 -3.1492736967699102 -1.7201907996204682 0 -1.7201907996204682 76.123085976614675 0 0 0 0 9.7972676879186906 -7.8692688571391045 0 -7.8692688571391045 70.075215260854748 0 0 0 0 -8.4049612871053299 -25.293831091719767 0 -25.293831091719767 100.08777888310942 0 0 0 0 0.23075141222145534 -0.43360986145047775 0 -0.43360986145047775 0.26516160592257165 0 0 0 0 -0.97893108151991726 1.2371174843915469 0 1.2371174843915469 68.118232539593009 0 0 0 0 4.6017314140702865 17.637722114839562 0 17.637722114839562 87.519377874705242 0 0 0 0 -1.1607836810844105 2.86148863415292 0 2.86148863415292 57.392563863082614 0 0 0 0 1.2580930886614965 -6.8756969992682571 0 -6.8756969992682571 62.262773353140801 0 0 0 0 1.6191492266569298 -4.2261026627747924 0 -4.2261026627747924 58.350901278136007 0 0 0 0 136.85395822160785 -74.396002838439017 0 -74.396002838439017 183.24702040296688 0 0 0 0 4.9735213203958759 -2.7214220684046779 0 -2.7214220684046779 0.12971321007378922 0 0 0 0 -100.82559160928815 19.228492105896294 0 19.228492105896294 523.06124027473925 0 0 0 0 7.7933762659119132 6.2749469536756806 0 6.2749469536756806 78.950056239300466 0 0 0 0 -0.0076938129821257917 -6.6502044275057415 0 -6.6502044275057415 69.29381815220404 0 0 0 0 13.216753209185393 -19.88523000461646 0 -19.88523000461646 40.997970094224002 0 0 0 0 4.5871726992825064 -2.4202919439887722 0 -2.4202919439887722 0.21843208097895062 0 0 0 0 40.058787378374973 -7.7103176056261873 0 -7.7103176056261873 280.50308312371749 0 0 0 0 8.2585370700553824 -18.039101876535369 0 -18.039101876535369 301.14451012111385 0 0 0 0 -13.56371250983176 -28.739875425497303 0 -28.739875425497303 320.15083587386835 0 0 0 0 7.5608289474039339 -14.223192922374437 0 -14.223192922374437 283.39254672255629 0 0 0 0 -4.8067174420217142 -27.191567718860824 0 -27.191567718860824 103.28557432735397 0 0 0 0 19.103358638151292 -4.5574280675091359 0 -4.5574280675091359 27.24825229738417 0 0 0 0 18.497710249498947 4.0970763020632148 0 4.0970763020632148 37.825775256639645 0 0 0 0 0.10308095636882729 -0.2259543981191996 0 -0.2259543981191996 0.18200229855467853 0 0 0 0 -17.393634405183185 -6.2057190666128008 0 -6.2057190666128008 126.97725893779716 0 0 0 0 -5.8106472927162542 -18.15070213144827 0 -18.15070213144827 106.03964294066827 0 0 0 0 -0.47193261170069534 0.29023406757673342 0 0.29023406757673342 0.30459041986589863 0 0 0 0 1.9388535073146898 16.974499918604124 0 16.974499918604124 167.44763230458557 0 0 0 0 -12.083793449386874 -13.441399664648998 0 -13.441399664648998 138.92448084730859 0 0 0 0 -0.58217193733256167 0.13330758190743097 0 0.13330758190743097 0.35236914849498291 0 0 0 0 -7.2839860569982591 -9.6343805604938098 0 -9.6343805604938098 199.38537657769484 0 0 0 0 3.3763708094539595 -31.833566759894893 0 -31.833566759894893 87.278080849348044 0 0 0 0 9.5629719953115853 -6.8642453882857808 0 -6.8642453882857808 82.914484054330387 0 0 0 0 -6.5095311056347356 -19.992710948874446 0 -19.992710948874446 77.619013922831982 0 0 0 0 2.6784827015371193 -1.6984360020470746 0 -1.6984360020470746 0.25114089091925296 0 0 0 0 39.552102430452706 -14.871013626938293 0 -14.871013626938293 213.83679188540555 0 0 0 0 16.374540789226899 -48.74133440780497 0 -48.74133440780497 274.54353071773221 0 0 0 0 -45.298441795947298 -6.2258469376756693 0 -6.2258469376756693 353.30696098261978 0 0 0 0 -40.915681435163989 -44.655465775023913 0 -44.655465775023913 381.4616679793719 0 0 0 0 -18.96418685388943 -49.188596842563129 0 -49.188596842563129 227.00441020142171 0 0 0 0 -9.6457388144889933 -13.925626740267035 0 -13.925626740267035 194.73159365117317 0 0 0 0 -2.0485530913082357 21.403159403955215 0 21.403159403955215 277.17884034756571 0 0 0 0 -3.5584222054021826 4.6157258122782423 0 4.6157258122782423 69.580332425735833 0 0 0 0 0.85373483944665107 -0.69260441993471034 0 -0.69260441993471034 0.58880692117870614 0 0 0 0 17.961313243472006 -13.167654154731281 0 -13.167654154731281 10.304403543793455 0 0 0 0 -2.8476683233160855 5.8515323895153415 0 5.8515323895153415 40.027022047717765 0 0 0 0 -0.0036193672976549823 0.25221727641253011 0 0.25221727641253011 1.2270746120757394 0 0 0 0 54.607534748978395 -20.1959920099398 0 -20.1959920099398 308.04664274775132 0 0 0 0 37.917495361736243 26.399098401452648 0 26.399098401452648 341.81928346611676 0 0 0 0 4.6931340258706058 -62.45142051277071 0 -62.45142051277071 290.59758148404217 0 0 0 0 -3.5384014854168226 -3.4588711512096779 0 -3.4588711512096779 362.36038739400101 0 0 0 0 -21.9049757255099 -32.286121414290392 0 -32.286121414290392 231.27149167695097 0 0 0 0 14.8192808226759 -43.269278198109532 0 -43.269278198109532 233.28006465578801 0 0 0 0 -10.918457606830572 -20.471542919767671 0 -20.471542919767671 245.77309263827919 0 0 0 0 2.3511822477926856 -51.850360441501834 0 -51.850360441501834 237.56564823787994 0 0 0 0 -14.428634379367818 0.59194138171005761 0 0.59194138171005761 443.45055172760476 0 0 0 0 -0.0022334916127591683 0.15737861591070157 0 0.15737861591070157 0.7851175810264408 0 0 0 0 18.299423756433395 -86.801329388988961 0 -86.801329388988961 378.84583334029185 0 0 0 0 19.305042361767747 -98.037443264784088 0 -98.037443264784088 217.69024784206704 0 0 0 0 -8.537095218517015 -31.676925452738942 0 -31.676925452738942 374.13213307937167 0 0 0 0 0.14751970524391583 7.50563588681689 0 7.50563588681689 184.77184815767396 0 0 0 0 -11.282994767094547 0.79987303425878054 0 0.79987303425878054 5.6607243575417669 0 0 0 0 0.037118223594871935 -0.31326437559700082 0 -0.31326437559700082 0.35892336352208565 0 0 0 0 -1.0647983477324701 -3.7110937906763866 0 -3.7110937906763866 -4.2601040333902347 0 0 0 0 7.5825125382848144 -13.659100022305211 0 -13.659100022305211 5.2777012864753488 0 0 0 0 -8.6020987781462956 -8.651784354573465 0 -8.651784354573465 16.990959095383005 0 0 0 0 26.494695819910739 -74.355748094188129 0 -74.355748094188129 187.31785830455192 0 0 0 0 -0.034404230285899826 0.054252260624146231 0 0.054252260624146231 0.6562899828203399 0 0 0 0 -0.047579575278940689 12.038179633502295 0 12.038179633502295 -1.2176239809396066 0 0 0 0 24.057228574680607 -48.110509720172558 0 -48.110509720172558 46.316696068323381 0 0 0 0 3.3439881135260379 -6.0506474474459537 0 -6.0506474474459537 152.69944004504941 0 0 0 0 -0.25822791406229056 0.050067047731118919 0 0.050067047731118919 0.37726074940642818 0 0 0 0 -5.8680516757609302 -17.820870302861294 0 -17.820870302861294 168.6738563320323 0 0 0 0 0.37165569495957868 32.02873641543556 0 32.02873641543556 224.88623661523161 0 0 0 0 -3.7051362373774044 -8.1175370118080536 0 -8.1175370118080536 24.269292324352136 0 0 0 0 0.013982903421631908 -10.348147527201945 0 -10.348147527201945 6.1613890811277088 0 0 0 0 -1.8291613861996439 -7.4597982045052049 0 -7.4597982045052049 2.637737510525767 0 0 0 0 -2.9701813584014332 -9.6856434662404354 0 -9.6856434662404354 3.4311375508514175 0 0 0 0 -9.4276765838352929 -1.5334916564570449 0 -1.5334916564570449 18.025463495185249 0 0 0 0 -11.172608626945497 -5.8562304421748195 0 -5.8562304421748195 13.63173029054451 0 0 0 0 -2.3920942942475136 -0.54127292810517247 0 -0.54127292810517247 10.842194181888772 0 0 0 0 0.61654847336437157 10.951108251178084 0 10.951108251178084 33.738304719892767 0 0 0 0 0.006600968185993897 -8.8360885359660486 0 -8.8360885359660486 1.4097795164925628 0 0 0 0 0.10413057515566629 0.00078191088945800402 0 0.00078191088945800402 -0.011868857373286801 0 0 0 0 -0.0097706923453645261 -0.078667611577344587 0 -0.078667611577344587 0.81299829171381433 0 0 0 0 -5.4838948204813782 1.8481303291373479 0 1.8481303291373479 12.165244643936603 0 0 0 0 0.63651890121136534 -1.3119162628481718 0 -1.3119162628481718 4.0204012713220436 0 0 0 0 0.00050344405739905819 -0.57602436178314442 0 -0.57602436178314442 3.2056523243591073 0 0 0 0 0.0015801733148685787 -0.57320894209677464 0 -0.57320894209677464 3.2044248296733713 0 0 0 0 -4.5673698370226532 -28.065282049865345 0 -28.065282049865345 138.12371471463848 0 0 0 0 7.479800903405561 -35.115819768878282 0 -35.115819768878282 105.82858071947703 0 0 0 0 2.3575239449650001 -17.643485719921046 0 -17.643485719921046 145.05929300535354 0 0 0 0 -1.5232401563425242 -34.648753836061587 0 -34.648753836061587 173.58585435178247 0 0 0 0 9.1048825349547435 -51.299762166469009 0 -51.299762166469009 170.0101396505197 0 0 0 0 60.220194628304263 -66.961384074580565 0 -66.961384074580565 87.005503114720341 0 0 0 0 47.58145443780252 1.5350925745660788 0 1.5350925745660788 49.089819090906531 0 0 0 0 0.28583363337732293 0.067600089619652692 0 0.067600089619652692 1.6530882106149392 0 0 0 0 7.5551649189176118 3.5005146059775143 0 3.5005146059775143 51.874773453602756 0 0 0 0 20.730611594718241 -29.934560543737462 0 -29.934560543737462 -6.4254087853478268 0 0 0 0 -2.1814739878118417 -1.8725089998988551 0 -1.8725089998988551 5.551303715314134 0 0 0 0 0.12387531959012676 -10.838495391959441 0 -10.838495391959441 -23.773771525375196 0 0 0 0 -3.4055862048678733 2.3719975724343385 0 2.3719975724343385 14.177878279992001 0 0 0 0 0.65686450384037687 -3.4755190834184191 0 -3.4755190834184191 5.393876479620463 0 0 0 0 -2.6091049052395903 0.37120330398647639 0 0.37120330398647639 4.8206328878877684 0 0 0 0 -0.95211184643862712 -4.1338100224742007 0 -4.1338100224742007 6.67956314819547 0 0 0 0 0.73912391017966617 -1.5043624229750776 0 -1.5043624229750776 4.5994611308542801 0 0 0 0 2.8292061463355367 0.68842583664809354 0 0.68842583664809354 6.7527704341628123 0 0 0 0 -0.50103231484106003 0.06571464919026937 0 0.06571464919026937 1.6182978935263463 0 0 0 0 -1.9945386975263557 -0.60121459802640231 0 -0.60121459802640231 6.8401461022035051 0 0 0 0 -3.5084308499590406 -43.000431174281402 0 -43.000431174281402 -18.500306056941554 0 0 0 0 -20.429416721516645 9.6211022741044872 0 9.6211022741044872 -5.4353762520913733 0 0 0 0 -1.2849379952572115 1.3714639530833601 0 1.3714639530833601 0.95877650484328569 0 0 0 0 -16.032185421186114 -5.2096427143114852 0 -5.2096427143114852 8.3837362214981113 0 0 0 0 -35.640637988329217 -12.889874438369588 0 -12.889874438369588 5.6108643916159053 0 0 0 0 5.7373599053717044 0.85122127991053276 0 0.85122127991053276 -9.2464058135956293 0 0 0 0 -13.381361606388964 2.0145351833853056 0 2.0145351833853056 8.7888032964547165 0 0 0 0 -3.6339132986962568 10.599731972391965 0 10.599731972391965 1.1307427654537605 0 0 0 0 -8.3790709023555792 4.4029870192607632 0 4.4029870192607632 17.888927630374383 0 0 0 0 6.0775461202868186 -4.3911592653268272 0 -4.3911592653268272 2.3947436725015478 0 0 0 0 2.4917960820543215 -19.941748197989 0 -19.941748197989 5.1455724891129648 0 0 0 0 -0.60857684942689261 -0.99061716591312177 0 -0.99061716591312177 1.7939328489137125 0 0 0 0 -0.60387882041044372 -1.3947176891768294 0 -1.3947176891768294 1.28412693631088 0 0 0 0 18.099711961007927 -27.856849663003231 0 -27.856849663003231 -15.877674273971934 0 0 0 0 -1.1259714752188756 3.7313261829403928 0 3.7313261829403928 69.080683160966146 0 0 0 0 -19.891106497548861 -23.193769982724916 0 -23.193769982724916 59.591659937155782 0 0 0 0 -4.1531853183041108 3.7953754590125754 0 3.7953754590125754 43.471520536419121 0 0 0 0 -4.1787094268056535 -19.972836148146598 0 -19.972836148146598 100.83119804911257 0 0 0 0 1.4150263607048683 0.47226725433791472 0 0.47226725433791472 -1.6673514684718782 0 0 0 0 -8.625682691940419 4.7730725609499132 0 4.7730725609499132 122.71027172065806 0 0 0 0 -16.782985460600059 -25.568519423999533 0 -25.568519423999533 214.09332459590416 0 0 0 0 -23.97272641001922 -11.294083029977628 0 -11.294083029977628 203.39967949359561 0 0 0 0 -18.593623827008059 -16.827901386699523 0 -16.827901386699523 178.90580908724496 0 0 0 0 1.8801647988567538 -27.914264892388019 0 -27.914264892388019 179.60315208803513 0 0 0 0 -4.0816971293352822 -7.2594941488932818 0 -7.2594941488932818 127.03123245055031 0 0 0 0 -13.433810826619975 -26.212180476077265 0 -26.212180476077265 117.78523287139251 0 0 0 0 -6.8975121395428687 -11.041774264624109 0 -11.041774264624109 121.75046702320105 0 0 0 0 5.1934382620047668 -3.9059160724798403 0 -3.9059160724798403 1.8447081686023843 0 0 0 0 46.575372393848738 -13.244608772278298 0 -13.244608772278298 18.374585397714327 0 0 0 0 7.0450867972781452 -0.56198122707792209 0 -0.56198122707792209 138.01598885472049 0 0 0 0 36.528520479109488 -10.153652978515311 0 -10.153652978515311 138.68660507625464 0 0 0 0 -1.0776109483936125 25.388236638962553 0 25.388236638962553 209.57401785523689 0 0 0 0 0.52120942154401906 0.55831107504074851 0 0.55831107504074851 0.85934319390005953 0 0 0 0 -36.196208744817227 13.122907091387788 0 13.122907091387788 8.5639493304042844 0 0 0 0 -1.6979267466819721 88.7391266648998 0 88.7391266648998 -1.6031365123562864 0 0 0 0 -37.585457724951084 -10.409668807435082 0 -10.409668807435082 62.709219376833516 0 0 0 0 -14.272451226532212 -96.786927225388354 0 -96.786927225388354 61.168458571206429 0 0 0 0 -36.402089275484741 12.479698556566291 0 12.479698556566291 30.321652192949841 0 0 0 0 0.5383645162667765 -0.63102501049694837 0 -0.63102501049694837 0.25971516223142999 0 0 0 0 -33.79293198482037 18.668739387703681 0 18.668739387703681 -0.93469668409306905 0 0 0 0 -39.237445589840149 8.703148996894015 0 8.703148996894015 4.9242742554706638 0 0 0 0 0.50528398323588375 -2.8033933653147187 0 -2.8033933653147187 6.5776454986411181 0 0 0 0 -0.13815155247357325 -8.8037138231802601 0 -8.8037138231802601 7.0422876023221761 0 0 0 0 2.7960825378413574 -4.1655777478972595 0 -4.1655777478972595 5.0141369182019844 0 0 0 0 -2.782075674513635 -3.0020273388145142 0 -3.0020273388145142 5.3010876782245759 0 0 0 0 -27.966943105433529 -1.3571563762234291 0 -1.3571563762234291 8.3757304298633244 0 0 0 0 -8.2691082121386899 -9.5736749252391746 0 -9.5736749252391746 6.9789413983016857 0 0 0 0 -9.6663558428404031 1.6814872817467403 0 1.6814872817467403 2.9303230262594298 0 0 0 0 -10.625243379237418 6.25563184456405 0 6.25563184456405 -14.167722277255962 0 0 0 0 0.21314350474379573 1.8357598516918898 0 1.8357598516918898 2.9886890716179977 0 0 0 0 66.069351126880633 38.73617387503964 0 38.73617387503964 6.9789194862096338 0 0 0 0 -0.13126578875875516 -0.08533670112086611 0 -0.08533670112086611 1.2585156147519712 0 0 0 0 -0.87617033630795049 6.8428700757413026 0 6.8428700757413026 56.932757073263929 0 0 0 0 -0.94592881505445803 3.7708022786919173 0 3.7708022786919173 24.177055061258216 0 0 0 0 11.340718621344877 -22.675513604968728 0 -22.675513604968728 46.772524449028424 0 0 0 0 25.150913795783708 -62.173317353310267 0 -62.173317353310267 36.557522010451066 0 0 0 0 -18.667000410946457 -46.225336483308638 0 -46.225336483308638 53.085339937235403 0 0 0 0 6.4507232399162149 -18.954120008796963 0 -18.954120008796963 -2.3185905508798896 0 0 0 0 -81.894926701873374 32.181392198501271 0 32.181392198501271 4.734268851345405 0 0 0 0 3.0964133643316147 -2.7289585365183342 0 -2.7289585365183342 1.1358138483005895 0 0 0 0 0.59815995625039786 -0.33403011467893862 0 -0.33403011467893862 -0.10166252985233015 0 0 0 0 24.329948644684009 -32.726300950678706 0 -32.726300950678706 -74.860251202564541 0 0 0 0 -1.443133585914893 -5.6497447479287075 0 -5.6497447479287075 309.80940475544048 0 0 0 0 -41.644586009383602 -41.175830850643251 0 -41.175830850643251 -10.393829890577763 0 0 0 0 -5.9089485444658294 4.1092517555080121 0 4.1092517555080121 294.24465686588701 0 0 0 0 -186.89503312132365 100.1683124598494 0 100.1683124598494 -63.336489543842617 0 0 0 0 49.978253170386097 -23.950678658062316 0 -23.950678658062316 -88.310736484687368 0 0 0 0 112.31174471482882 -56.091908091329969 0 -56.091908091329969 10.419449280256231 0 0 0 0 0.31177321620777665 -0.097382453375089995 0 -0.097382453375089995 -0.04895244152425704 0 0 0 0 -29.609585421555039 3.167179894756373 0 3.167179894756373 -1.9940598020912148 0 0 0 0 26.322793245316007 -41.210527750612528 0 -41.210527750612528 40.510521725402214 0 0 0 0 0.068573419819387027 -8.2164505150883542 0 -8.2164505150883542 -0.77433733301586471 0 0 0 0 -5.0307869017465237 -40.711243454763462 0 -40.711243454763462 27.194349841738585 0 0 0 0 9.4721832403047301 -35.293154999286344 0 -35.293154999286344 -0.39582828830680228 0 0 0 0 41.413294457546726 19.384258792812034 0 19.384258792812034 43.651912806311884 0 0 0 0 0.89881808517423512 -1.027858346485246 0 -1.027858346485246 0.69194354458879559 0 0 0 0 54.071755018039994 -54.505097231545733 0 -54.505097231545733 7.6809656441400875 0 0 0 0 195.29453352880228 -147.07283456035657 0 -147.07283456035657 -34.453093469477608 0 0 0 0 -6.3832300149841785 -90.965529305682139 0 -90.965529305682139 48.925718083977699 0 0 0 0 20.158436433949191 -98.08451042141678 0 -98.08451042141678 -48.154944184918349 0 0 0 0 10.341997202438336 -25.883210030035571 0 -25.883210030035571 81.245618660243053 0 0 0 0 -7.2330868474754944 -23.389729583148053 0 -23.389729583148053 46.16901819728082 0 0 0 0 -7.0621576319252686 -11.144813420277444 0 -11.144813420277444 88.928185134223895 0 0 0 0 24.410277220462831 -45.336472023031092 0 -45.336472023031092 44.326500913233758 0 0 0 0 -6.9033578547309844 -14.233585155605397 0 -14.233585155605397 17.900403341373021 0 0 0 0 -35.179157785146799 39.920376610943094 0 39.920376610943094 27.010688083828427 0 0 0 0 -11.70523612247689 -59.950518227637076 0 -59.950518227637076 -34.727120996067242 0 0 0 0 4.674491346191644 -34.017030726614394 0 -34.017030726614394 -17.005180995147384 0 0 0 0 -4.883522798030981 -18.409121299509934 0 -18.409121299509934 42.264036798427696 0 0 0 0 1.5726501564818136 -10.461935587116386 0 -10.461935587116386 -18.106166643177858 0 0 0 0 -1.5904212230521342 -1.7505273409715443 0 -1.7505273409715443 2.1780639161531354 0 0 0 0 1.929930426897954 -10.274617488772492 0 -10.274617488772492 -19.217692139061 0 0 0 0 10.629993505323682 -3.3077511749324913 0 -3.3077511749324913 -96.799893057672307 0 0 0 0 -0.80379226829642203 -0.13790024408929469 0 -0.13790024408929469 0.075887363166536659 0 0 0 0 1.9248616051518184 -1.9349774510192219 0 -1.9349774510192219 2.2206222965032794 0 0 0 0 -1.5632274258384768 5.8941160305171252 0 5.8941160305171252 40.135155990290514 0 0 0 0 6.162389909131889 -21.503164779178405 0 -21.503164779178405 22.483356412558351 0 0 0 0 -1.7773999365514328 2.3801157909774702 0 2.3801157909774702 11.163699875192833 0 0 0 0 -1.394958786645748 0.3099033998286842 0 0.3099033998286842 1.2081136400756236 0 0 0 0 -3.1979844421762209 -13.701050106622461 0 -13.701050106622461 2.5000884263863554 0 0 0 0 -19.250088361908411 -14.685798808817708 0 -14.685798808817708 56.743277693134587 0 0 0 0 -1.3108548090658587 3.6640092417856067 0 3.6640092417856067 114.31213436908729 0 0 0 0 -26.85892614887814 -1.221785270194232 0 -1.221785270194232 20.464308719212568 0 0 0 0 -2.5631464874358816 3.7604307953298317 0 3.7604307953298317 13.031282776733377 0 0 0 0 -7.8777620411715077 40.272907704581939 0 40.272907704581939 20.579325894490466 0 0 0 0 31.436863727131481 40.660341364291526 0 40.660341364291526 -115.49306577863717 0 0 0 0 -54.38212132595919 36.616699887359573 0 36.616699887359573 2.3918019166303566 0 0 0 0 -19.045410118938435 -10.509019616896694 0 -10.509019616896694 41.804347775197584 0 0 0 0 -25.58183380845918 17.13372962037829 0 17.13372962037829 3.1104946213381481 0 0 0 0 -11.080210658513693 23.54622367697084 0 23.54622367697084 5.9314166182666668 0 0 0 0 -2.4554456455166744 1.1740014287693441 0 1.1740014287693441 11.26513873537121 0 0 0 0 -10.737172212519852 19.874614751317495 0 19.874614751317495 -17.552916750675649 0 0 0 0 9.7698310775392656 5.6269688178217621 0 5.6269688178217621 -7.7320621335675241 0 0 0 0 35.977419449361605 9.0259860575133644 0 9.0259860575133644 -30.043434384690045 0 0 0 0 52.112496197840045 -25.96871000234205 0 -25.96871000234205 12.824038216189365 0 0 0 0 10.736543630079154 -13.897193398010131 0 -13.897193398010131 26.445375218616391 0 0 0 0 12.777548619083234 -6.0503688645112561 0 -6.0503688645112561 -14.83482177980477 0 0 0 0 4.3349991931893328 -18.022371794841092 0 -18.022371794841092 -2.1534926551685203 0 0 0 0 -0.65226938227145226 0.58749303369152983 0 0.58749303369152983 0.12603396333344108 0 0 0 0 0.66339456401976804 2.2331959026050754 0 2.2331959026050754 -19.136582846444071 0 0 0 0 8.6893224146619872 -1.0535154069107193 0 -1.0535154069107193 1.8300708879396552 0 0 0 0 4.4740204736738178 10.945524361093703 0 10.945524361093703 -6.9328667256731933 0 0 0 0 -3.4785917986729742 2.2589888600962134 0 2.2589888600962134 0.59141535629106556 0 0 0 0 3.0923997129268344 5.3104378127718519 0 5.3104378127718519 -1.7427973259254941 0 0 0 0 -8.0288249355003245 -1.1282791692428873 0 -1.1282791692428873 3.0576556712258025 0 0 0 0 -7.951118285521602 7.5221667216392234 0 7.5221667216392234 0.2768859857278585 0 0 0 0 -11.608334199637738 11.943764999545238 0 11.943764999545238 1.8867050200533413 0 0 0 0 -3.7202770284670548 -0.032499933372783119 0 -0.032499933372783119 8.3033759201541244 0 0 0 0 21.748582914361805 -76.181717509041846 0 -76.181717509041846 -22.192410409501463 0 0 0 0 -7.1525401704150227 8.7240632734046812 0 8.7240632734046812 2.4091827692827792 0 0 0 0 -3.9382452955537808 4.1785978457631181 0 4.1785978457631181 0.42684930964489354 0 0 0 0 -13.025548043149456 0.90739968434263574 0 0.90739968434263574 5.7898653548618313 0 0 0 0 -9.6960660570985056 -1.6918708666053135 0 -1.6918708666053135 7.7596050412721524 0 0 0 0 -4.0544457664025231 -5.8346395193002536 0 -5.8346395193002536 3.8582001462618791 0 0 0 0 -10.001558768458381 -2.7357776507997187 0 -2.7357776507997187 4.609145177382743 0 0 0 0 -2.9184971275629437 -4.1265203088969429 0 -4.1265203088969429 -1.0159086929597834 0 0 0 0 -4.4191184865715059 -3.8148118452809285 0 -3.8148118452809285 4.6230154999322792 0 0 0 0 -4.5573949353371859 -4.0589013427807004 0 -4.0589013427807004 4.9492048908941797 0 0 0 0 -2.8343696267277307 -1.9827457687631522 0 -1.9827457687631522 -0.037547698700166166 0 0 0 0 -7.7020324279501438 -0.72566842123342212 0 -0.72566842123342212 2.7814579973492073 0 0 0 0 -7.9585622526888073 -0.94065712740484742 0 -0.94065712740484742 3.5186271756028873 0 0 0 0 -7.61932394831274 -0.52949535095285682 0 -0.52949535095285682 3.2289643374606385 0 0 0 0 -9.7363697159333924 -0.64335465543808823 0 -0.64335465543808823 0.55298107195267221 0 0 0 0 -4.5145322307353011 -1.8210874374392745 0 -1.8210874374392745 -0.69781600373633523 0 0 0 0 -1.0436837674541266 0.97617461212939816 0 0.97617461212939816 -1.5058048552564287 0 0 0 0 -1.1780220121086162 -0.14835003015674175 0 -0.14835003015674175 0.023372128994765262 0 0 0 0 -8.6337064846742919 -9.8087457320725662 0 -9.8087457320725662 -5.6685982428607531 0 0 0 0 -7.5490825335017551 -14.710913113261313 0 -14.710913113261313 27.126057475099515 0 0 0 0 -8.4298337552750127 8.0066837162012234 0 8.0066837162012234 32.855737185425824 0 0 0 0 3.5168222206190194 2.5464549596072175 0 2.5464549596072175 -0.14771241867856588 0 0 0 0 0.021903258005750104 3.468427358820918 0 3.468427358820918 24.317968941548315 0 0 0 0 5.3255677570529656 -6.0619969437502732 0 -6.0619969437502732 6.749836894654436 0 0 0 0 3.6773288231852348 0.33796371688731597 0 0.33796371688731597 -1.2496613791045093 0 0 0 0 -2.1331671965079053 -2.9888684590391676 0 -2.9888684590391676 -3.1207314176499494 0 0 0 0 -6.1877945651335722 -8.1618379811843624 0 -8.1618379811843624 -2.5547774742863112 0 0 0 0 1.107296633217338 -6.1858766093218946 0 -6.1858766093218946 -4.8814137324661715 0 0 0 0 -12.789862780930662 0.89609166566879139 0 0.89609166566879139 5.8029186937928898 0 0 0 0 1.2921731306282709 6.6972192443936365 0 6.6972192443936365 23.247346284802916 0 0 0 0 8.5682134941441745 -3.8087772637700255 0 -3.8087772637700255 6.4804841157529154 0 0 0 0 -2.9857501504828203 1.1349234049794177 0 1.1349234049794177 3.3507424000126775 0 0 0 0 0.037815232902015695 -0.36021561879266883 0 -0.36021561879266883 2.3111565282879951 0 0 0 0 -25.202319552031284 -20.143805876839906 0 -20.143805876839906 10.963198248828121 0 0 0 0 0.011483342744217554 -0.56827440300730814 0 -0.56827440300730814 2.1040288650401635 0 0 0 0 -1.0156213221253032 -0.89656294448650442 0 -0.89656294448650442 2.0255903047946049 0 0 0 0 -1.4752425415665504 -1.2400848973593384 0 -1.2400848973593384 3.6303668731270591 0 0 0 0 -0.013697504987953741 -5.6141210989212915 0 -5.6141210989212915 -5.6725192968151532 0 0 0 0 -1.4352997452977994 -1.3086243474535877 0 -1.3086243474535877 3.0202524054184323 0 0 0 0 -1.0285195253184076 -0.78995662605393591 0 -0.78995662605393591 2.8450768331967993 0 0 0 0 -0.22316806239824935 -0.79138316983103607 0 -0.79138316983103607 3.1112959185462614 0 0 0 0 -1.8990813498841135 -3.6358506885044335 0 -3.6358506885044335 3.414748245399096 0 0 0 0 -3.0799849311660363 -7.4999174560853135 0 -7.4999174560853135 -0.34931935282656923 0 0 0 0 0.78440250411632939 -2.4981573656426441 0 -2.4981573656426441 4.0519902329851902 0 0 0 0 -0.72063037925787188 -5.5494163827988814 0 -5.5494163827988814 -6.4699229461475625 0 0 0 0 0.7811166606065596 -9.1868791498873179 0 -9.1868791498873179 -3.6871826619826606 0 0 0 0 0.25202598620062933 -0.50779817742825628 0 -0.50779817742825628 0.72860214296045456 0 0 0 0 -5.0791278910199349 -4.9154086421985994 0 -4.9154086421985994 0.48091486231714953 0 0 0 0 -9.8950009811671293 70.647867946850965 0 70.647867946850965 -27.693528647985659 0 0 0 0 -28.157962806726118 27.129638857040845 0 27.129638857040845 162.53821466130466 0 0 0 0 144.78213967642733 -38.924830397594633 0 -38.924830397594633 -51.878634177030108 0 0 0 0 -12.969296617022565 23.828991311074788 0 23.828991311074788 131.9799214986092 0 0 0 0 25.893891219348802 -132.86765823279256 0 -132.86765823279256 124.86276017040291 0 0 0 0 152.44642722766403 -146.93765130483007 0 -146.93765130483007 112.43170998156938 0 0 0 0 -33.798913371445451 -40.250618912461505 0 -40.250618912461505 105.80221886024447 0 0 0 0 -9.377598814616249 -34.561572779315611 0 -34.561572779315611 38.678799770452315 0 0 0 0 -10.194640215447233 -8.2279479289596225 0 -8.2279479289596225 7.5410869498123887 0 0 0 0 -45.996850056555786 0.92995757773132937 0 0.92995757773132937 38.881526611552545 0 0 0 0 -0.40063863900587648 -9.2610578026851726 0 -9.2610578026851726 30.228572139174503 0 0 0 0 1.4449605832745291 -19.178083043412244 0 -19.178083043412244 52.01444426800299 0 0 0 0 -7.4932506321430941 -1.9793413187917821 0 -1.9793413187917821 -0.8354026378111854 0 0 0 0 1.0539559357168784 -22.274558621402321 0 -22.274558621402321 80.192259205450682 0 0 0 0 -9.5816864758386373 29.936162756173871 0 29.936162756173871 90.70676800293586 0 0 0 0 48.842012229698298 30.962192509894521 0 30.962192509894521 43.9448047201804 0 0 0 0 -28.998972629920416 0.22525364853572682 0 0.22525364853572682 132.92760169074245 0 0 0 0 -24.23945083075327 -41.223591648589718 0 -41.223591648589718 106.33409449405735 0 0 0 0 -32.368715384846659 -18.056749317324602 0 -18.056749317324602 106.40375758332812 0 0 0 0 -19.761714688991503 0.95649507896268915 0 0.95649507896268915 87.721090806920984 0 0 0 0 0.42039032758041373 -47.62299824507636 0 -47.62299824507636 130.93062367321545 0 0 0 0 2.3639225566236632 -27.85055231383194 0 -27.85055231383194 86.815070965742052 0 0 0 0 -3.9247305077334378 -0.73924423075325052 0 -0.73924423075325052 0.70909869465987185 0 0 0 0 -5.3661842322428583 36.614867287167726 0 36.614867287167726 -78.706762493991846 0 0 0 0 27.088495957254509 -32.349393291991873 0 -32.349393291991873 105.78841577759158 0 0 0 0 -16.15760211686154 -23.70876302971692 0 -23.70876302971692 116.1779987908958 0 0 0 0 456.34863852008857 217.29113052022876 0 217.29113052022876 201.72322503104806 0 0 0 0 5.0145571273788789 -85.42065700802641 0 -85.42065700802641 251.90693127371924 0 0 0 0 24.201614197130993 18.196686656610837 0 18.196686656610837 177.88427184946704 0 0 0 0 77.374798327893131 -28.100954315661511 0 -28.100954315661511 89.175967586468687 0 0 0 0 -404.09936625975683 -74.77681307414241 0 -74.77681307414241 331.04116810112464 0 0 0 0 26.814565559976018 -56.161456893212744 0 -56.161456893212744 134.43919055457081 0 0 0 0 -16.279974948858808 -52.056503314470319 0 -52.056503314470319 142.00101931770769 0 0 0 0 1.8550161213188403 114.27326115102551 0 114.27326115102551 250.00358857040737 0 0 0 0 1.4796597566876288 -1.6051769447219897 0 -1.6051769447219897 1.9558762766582447 0 0 0 0 117.07478299763989 -52.121504330609241 0 -52.121504330609241 -34.527848823861859 0 0 0 0 93.763973923582171 -143.26875267297874 0 -143.26875267297874 -65.737197047536029 0 0 0 0 -26.856563894952231 -124.90937711887705 0 -124.90937711887705 -2.8715979259723099 0 0 0 0 -1.3011596285956024 -0.070105631436135241 0 -0.070105631436135241 0.66090791435370022 0 0 0 0 -26.631235235002919 -45.721215427358402 0 -45.721215427358402 117.28758588249184 0 0 0 0 -25.790207325477922 -64.986381783375691 0 -64.986381783375691 183.11368870363913 0 0 0 0 -26.82416820791525 -41.240476499626311 0 -41.240476499626311 139.17398239795148 0 0 0 0 -10.78144099662768 -44.106100014647382 0 -44.106100014647382 133.71360310975069 0 0 0 0 -13.390538218829306 20.848898673197255 0 20.848898673197255 86.072305279209104 0 0 0 0 -27.290144587667328 -20.900390183891432 0 -20.900390183891432 149.79184774443274 0 0 0 0 -5.8968202887167536 -7.9242082046148425 0 -7.9242082046148425 63.830789020237717 0 0 0 0 -24.883535672770847 -15.221919231248194 0 -15.221919231248194 101.98262888742465 0 0 0 0 -13.443807403552455 -25.521910575476795 0 -25.521910575476795 85.756509865434055 0 0 0 0 -20.796767361336492 -23.451726362758563 0 -23.451726362758563 36.016190293867112 0 0 0 0 6.288247525043289 -10.517512616213935 0 -10.517512616213935 33.265394597645354 0 0 0 0 3.3848227436377152 -4.3890542214489017 0 -4.3890542214489017 5.8388146956859401 0 0 0 0 1.9387527705748653 -15.16944548912943 0 -15.16944548912943 -6.3336082677633385 0 0 0 0 -50.21782668860078 -40.701766544203565 0 -40.701766544203565 33.897791271327151 0 0 0 0 -12.412599735369668 0.082271280169152305 0 0.082271280169152305 13.859401433302992 0 0 0 0 23.900019848609418 -44.45499306768761 0 -44.45499306768761 -32.580294261691961 0 0 0 0 29.587957688120241 -82.101766331630643 0 -82.101766331630643 22.764748806323041 0 0 0 0 -14.292791129655257 -2.9457912020079675 0 -2.9457912020079675 38.25514583650147 0 0 0 0 9.8326737143949003 15.998834684647591 0 15.998834684647591 19.890781442814841 0 0 0 0 -6.4615988639748139 5.0344412988251861 0 5.0344412988251861 19.192576207158709 0 0 0 0 -6.6409481390200824 3.8580587851088239 0 3.8580587851088239 11.557846144074574 0 0 0 0 -28.222824851878954 -14.401903753165925 0 -14.401903753165925 20.582727055014402 0 0 0 0 3.3666206151842757 -6.7493740698962341 0 -6.7493740698962341 9.5864723003422654 0 0 0 0 -4.4421572500436923 -23.26083289368944 0 -23.26083289368944 -5.3144025847284411 0 0 0 0 -25.169743262945758 -0.16769469740393106 0 -0.16769469740393106 22.004141025205172 0 0 0 0 -9.3702991196596486 4.6652952240365266 0 4.6652952240365266 22.068454125776839 0 0 0 0 -16.096319204086512 -11.467556419962875 0 -11.467556419962875 18.341769808095705 0 0 0 0 -0.063063181217330566 26.743960682913894 0 26.743960682913894 20.293772944350621 0 0 0 0 -9.4323726166972577 3.0408131309994104 0 3.0408131309994104 7.1811650727230543 0 0 0 0 -18.93270691717089 -23.336670704073185 0 -23.336670704073185 31.664190590861836 0 0 0 0 29.596556606917147 22.763442291714455 0 22.763442291714455 20.562440396778584 0 0 0 0 34.537869086319233 -32.937611486475362 0 -32.937611486475362 33.387705096753052 0 0 0 0 -19.637549403686421 -10.00824537448716 0 -10.00824537448716 77.093483581797045 0 0 0 0 -19.156194418644944 -6.6745973883535044 0 -6.6745973883535044 46.971980358583096 0 0 0 0 -11.678816937551844 -13.370739514602974 0 -13.370739514602974 43.312876642608899 0 0 0 0 -3.6612824646822446 -6.097596001909551 0 -6.097596001909551 7.623857392143691 0 0 0 0 9.6593414264368676 -34.309356442932767 0 -34.309356442932767 41.647836741431092 0 0 0 0 -0.24620937652818742 -0.70229368955822835 0 -0.70229368955822835 0.78479287284588395 0 0 0 0 30.961631516515467 23.879372782976134 0 23.879372782976134 5.9602707508383901 0 0 0 0 -12.285012102453322 5.1569119258565479 0 5.1569119258565479 4.4037739043706097 0 0 0 0 -7.9671842564672852 4.7746050667192677 0 4.7746050667192677 6.04916012946493 0 0 0 0 -0.9375470630310474 0.87190399687278841 0 0.87190399687278841 12.810248732881519 0 0 0 0 -17.095915206839265 -2.5473891004476172 0 -2.5473891004476172 55.164075922566553 0 0 0 0 -9.1249901865725729 4.3878531339708857 0 4.3878531339708857 6.472921033151863 0 0 0 0 -8.2622811807560765 -0.36230773899114865 0 -0.36230773899114865 36.588281423282751 0 0 0 0 -5.6612060218207034 -6.0246207968939416 0 -6.0246207968939416 23.996134822689783 0 0 0 0 -8.301863567909777 4.9233863811932679 0 4.9233863811932679 33.779936931647171 0 0 0 0 -10.200156946061597 -21.027239471827443 0 -21.027239471827443 68.605206034008006 0 0 0 0 -6.0649955374051485 3.1186687310319456 0 3.1186687310319456 12.323373824255967 0 0 0 0 0.0053897396996313018 0.17210094593247405 0 0.17210094593247405 11.475780637396383 0 0 0 0 7.8656033197983106 -2.6365284960520512 0 -2.6365284960520512 25.48404686199865 0 0 0 0 -7.149387638334133 -4.0355416275924654 0 -4.0355416275924654 16.961262849490595 0 0 0 0 25.194851923166766 -21.934609979066408 0 -21.934609979066408 14.598260754486546 0 0 0 0 17.469853667824964 -22.73913929264927 0 -22.73913929264927 67.950639961753041 0 0 0 0 0.98463567594392742 -6.8890819752624992 0 -6.8890819752624992 16.741076003392067 0 0 0 0 13.423172970178939 -21.477138202382775 0 -21.477138202382775 27.216166608010099 0 0 0 0 -1.3315210867381211 -0.79786543029877066 0 -0.79786543029877066 7.9179737266167649 0 0 0 0 -14.415616059966155 -1.4268042798266833 0 -1.4268042798266833 10.881835229532953 0 0 0 0 78.890005835642228 -40.636407436634727 0 -40.636407436634727 18.102639811440895 0 0 0 0 -0.51060725937534424 -0.65785389772949188 0 -0.65785389772949188 7.2598634127045614 0 0 0 0 9.8818039382533698 -39.841412512141687 0 -39.841412512141687 55.658114400126578 0 0 0 0 59.734599234928055 -36.703335198530112 0 -36.703335198530112 43.399978709465358 0 0 0 0 -0.35952890322616887 -0.98265945894070228 0 -0.98265945894070228 2.7696153251493882 0 0 0 0 6.7225112554190192 -5.2588869962571607 0 -5.2588869962571607 1.580096355486603 0 0 0 0 20.062700719855513 34.868017012999189 0 34.868017012999189 31.678005501034932 0 0 0 0 -14.969533887231023 -41.149251415845356 0 -41.149251415845356 49.113278408374754 0 0 0 0 -43.681295835623132 -32.755646418216202 0 -32.755646418216202 63.752480886818375 0 0 0 0 2.400131330833192 -18.159330700075117 0 -18.159330700075117 43.682263259803577 0 0 0 0 5.2412844338915647 -25.997383663972869 0 -25.997383663972869 22.894319034843647 0 0 0 0 -31.92291911429902 -42.845489718061799 0 -42.845489718061799 45.634652330663812 0 0 0 0 5.0634444250169786 -13.703405190224768 0 -13.703405190224768 40.127870281522533 0 0 0 0 -26.358426638023815 -21.192410732523058 0 -21.192410732523058 49.188282668268585 0 0 0 0 -10.414838873476697 -10.330704171505204 0 -10.330704171505204 40.654825997116859 0 0 0 0 -5.3184373990121827 -11.089124593778251 0 -11.089124593778251 35.499251950335747 0 0 0 0 12.973443843932159 -19.272738192535144 0 -19.272738192535144 17.365107145735237 0 0 0 0 -2.0056441838961518 -25.398955571395163 0 -25.398955571395163 25.299591345283261 0 0 0 0 2.8993372078963549 -11.359662239198965 0 -11.359662239198965 34.917218217528983 0 0 0 0 -6.2590373354718736 -7.7835871488878183 0 -7.7835871488878183 44.671336537870957 0 0 0 0 -2.6384963351227952 -4.3056027030161204 0 -4.3056027030161204 40.323204481044741 0 0 0 0 -3.9972302768970849 -4.6643811095018464 0 -4.6643811095018464 43.368904757102428 0 0 0 0 3.3380936260118688 -0.27931695727602346 0 -0.27931695727602346 36.867536923797161 0 0 0 0 2.8207274927626713 -1.6371498270073062 0 -1.6371498270073062 43.377923590058344 0 0 0 0 -0.68650129454249509 0.59444872883750577 0 0.59444872883750577 45.165249176392535 0 0 0 0 7.637742775966899 -4.1922461127451243 0 -4.1922461127451243 40.425067283536919 0 0 0 0 7.1247798212897351 -2.9323638454216052 0 -2.9323638454216052 49.079347879029228 0 0 0 0 -0.99797958593018699 -13.699281827402826 0 -13.699281827402826 26.903393489904918 0 0 0 0 5.5447459545011952 7.8594627586389834 0 7.8594627586389834 9.9936088212416507 0 0 0 0 -2.6652373034052719 1.108339329412896 0 1.108339329412896 13.858408914216266 0 0 0 0 4.3594023088833751 8.5599659997417348 0 8.5599659997417348 45.588935489118739 0 0 0 0 1.1112513145923799 -9.0241617815931932 0 -9.0241617815931932 45.302757170946279 0 0 0 0 26.323847217808634 7.613866716494158 0 7.613866716494158 47.160733797474677 0 0 0 0 -3.6967360504256703 3.342981274217891 0 3.342981274217891 85.85551712758388 0 0 0 0 -2.6943145460770666 0.55760174003080465 0 0.55760174003080465 52.839740085353696 0 0 0 0 0.096677060605088627 -4.1129147238516452 0 -4.1129147238516452 57.029115903726051 0 0 0 0 -8.6748914782889983 -5.7622690980570042 0 -5.7622690980570042 46.3918552494506 0 0 0 0 -1.0277967176173206 -9.6055044959134648 0 -9.6055044959134648 34.730856167000638 0 0 0 0 3.9218732108956829 -3.0389087218031818 0 -3.0389087218031818 37.048463572283708 0 0 0 0 -5.7549958883975041 -6.2229360567383649 0 -6.2229360567383649 10.011579192839559 0 0 0 0 -3.655107123849402 -14.228252746868222 0 -14.228252746868222 26.799576670008737 0 0 0 0 6.9074489817980691 -50.448594265021683 0 -50.448594265021683 18.339639143312525 0 0 0 0 22.767833846653502 25.772684983216095 0 25.772684983216095 105.94973592108727 0 0 0 0 75.749831182384696 -58.4694680945031 0 -58.4694680945031 80.259841056082223 0 0 0 0 -16.233017170436142 3.4004701912672317 0 3.4004701912672317 39.182861311192937 0 0 0 0 -6.5160550073907189 -2.874574022089746 0 -2.874574022089746 42.24937672618762 0 0 0 0 -22.627879824274771 -43.181059311309468 0 -43.181059311309468 97.859930488488317 0 0 0 0 -3.8552105631943459 -16.189816169933039 0 -16.189816169933039 42.417200537376303 0 0 0 0 40.931760911030779 -16.202932481225616 0 -16.202932481225616 10.140366737289696 0 0 0 0 1.5267096184956586 11.837575394648638 0 11.837575394648638 -5.2435016411818651 0 0 0 0 -15.385437919995868 5.010797159846291 0 5.010797159846291 34.27381639263659 0 0 0 0 -42.435779329717661 -11.699627509951824 0 -11.699627509951824 88.522047594696232 0 0 0 0 12.13891995044014 51.390911532364044 0 51.390911532364044 38.220370594626729 0 0 0 0 -14.251367886901786 6.3123097907136767 0 6.3123097907136767 20.977548520463849 0 0 0 0 -40.952317972903018 -21.548424865510015 0 -21.548424865510015 138.90706739100278 0 0 0 0 -2.1639954565304467 3.785532641049608 0 3.785532641049608 -0.75453305152610994 0 0 0 0 63.310743775249648 -73.214320064048934 0 -73.214320064048934 92.578105524946295 0 0 0 0 4.1448589472902313 24.986923014260356 0 24.986923014260356 -10.94800532708723 0 0 0 0 -69.580221676306337 7.4926868706115783 0 7.4926868706115783 94.819267379751182 0 0 0 0 -7.5877390836788132 -1.8292638696684111 0 -1.8292638696684111 24.756361215495346 0 0 0 0 -17.460134378402472 17.074787361269955 0 17.074787361269955 114.90229567509596 0 0 0 0 49.995755618694147 -111.04982463357646 0 -111.04982463357646 124.25533362427802 0 0 0 0 0.12342223051617118 0.46554879226920676 0 0.46554879226920676 0.34572544440531061 0 0 0 0 -2.7565019505391319 -22.505487223750606 0 -22.505487223750606 58.512601884573996 0 0 0 0 -3.6309305059860435 -19.342510801221579 0 -19.342510801221579 77.34639805349434 0 0 0 0 8.7420144247539611 -23.270730037416797 0 -23.270730037416797 76.398849447650719 0 0 0 0 -0.75796369731870072 -23.033637708253082 0 -23.033637708253082 153.68263203251627 0 0 0 0 -7.1978574500737977 -4.707978030146478 0 -4.707978030146478 22.961478091667232 0 0 0 0 0.67924214296067476 -8.0707642187371675 0 -8.0707642187371675 22.463690567596132 0 0 0 0 20.364949606263508 -37.793285295942951 0 -37.793285295942951 55.720231234987295 0 0 0 0 23.81211843445567 -30.774653179416418 0 -30.774653179416418 49.610898962015199 0 0 0 0 -2.7018402728574293 0.4497245184116494 0 0.4497245184116494 7.952044787951607 0 0 0 0 -3.938018928615592 -0.033147798464653988 0 -0.033147798464653988 9.6984453751896709 0 0 0 0 -1.0006309710438472 -23.053812509455383 0 -23.053812509455383 50.250192182742467 0 0 0 0 -0.040318884012549461 -38.832301337817626 0 -38.832301337817626 63.881585987594008 0 0 0 0 1.0010671698415845 -12.7354281145968 0 -12.7354281145968 27.496475689255874 0 0 0 0 -8.2483313219557708 -17.743804402574959 0 -17.743804402574959 13.580132264259504 0 0 0 0 -8.9992453620930064 -11.475837451536563 0 -11.475837451536563 25.971311225781392 0 0 0 0 -10.001658309033019 -18.863149993529078 0 -18.863149993529078 23.536115383030847 0 0 0 0 -20.021189557041225 -18.780025042738998 0 -18.780025042738998 28.874233077949611 0 0 0 0 -2.8956607603501112 -27.679680532950442 0 -27.679680532950442 20.522518278234202 0 0 0 0 3.0546981231556991 -9.5993715404931379 0 -9.5993715404931379 21.334844641427495 0 0 0 0 -17.726563051428826 -11.599463790857044 0 -11.599463790857044 31.368097967031645 0 0 0 0 -3.7985038270786475 -28.170679294778893 0 -28.170679294778893 34.28676555536731 0 0 0 0 -17.716168125930835 -18.212935935869609 0 -18.212935935869609 5.7430296054953942 0 0 0 0 3.1209204801599686 -12.557775576696052 0 -12.557775576696052 -1.9715391523956072 0 0 0 0 16.251526753243525 -30.876817846983613 0 -30.876817846983613 32.24732513078925 0 0 0 0 -8.3184670562136311 -21.378240290928144 0 -21.378240290928144 34.556976576926346 0 0 0 0 -19.838213136931358 -18.355583988035505 0 -18.355583988035505 29.918599839511444 0 0 0 0 -5.0856358152459489 -33.12970577611901 0 -33.12970577611901 42.326664378565695 0 0 0 0 -4.4679980440416287 -15.49348176517061 0 -15.49348176517061 40.0293350701061 0 0 0 0 -0.33964292294676124 -10.90603141728857 0 -10.90603141728857 21.39870354903357 0 0 0 0 -6.3976547825604939 -7.3723391589646781 0 -7.3723391589646781 22.419780902353523 0 0 0 0 -1.5500355025416637 -12.782102730265096 0 -12.782102730265096 28.654912864421121 0 0 0 0 -7.6574945775855667 -14.494976431375107 0 -14.494976431375107 32.758775768925261 0 0 0 0 -18.51494787130207 -60.795476903053213 0 -60.795476903053213 83.803714372523245 0 0 0 0 46.848289004531125 2.7327888962936413 0 2.7327888962936413 17.22217450361677 0 0 0 0 1.6649392545074289 -4.6025479140901737 0 -4.6025479140901737 12.352531835120161 0 0 0 0 46.067632107725331 -61.853636097912386 0 -61.853636097912386 45.209297051725116 0 0 0 0 -4.4289738480108554 12.144204777399864 0 12.144204777399864 23.967024444935305 0 0 0 0 -3.6476050925025447 -12.940534742152522 0 -12.940534742152522 29.254465513950208 0 0 0 0 -3.5347795556065194 -8.4580089803648661 0 -8.4580089803648661 42.827360030711134 0 0 0 0 -4.7295186900329327 -13.110430356019151 0 -13.110430356019151 35.302962951591326 0 0 0 0 -7.9730330787483581 -13.940869647522049 0 -13.940869647522049 42.200946529197608 0 0 0 0 -2.6336120901928552 -8.88835111393837 0 -8.88835111393837 43.275256893723707 0 0 0 0 -4.3531242146482327 -16.370949095964534 0 -16.370949095964534 43.331631892668156 0 0 0 0 -15.072457616191969 -30.538624352911938 0 -30.538624352911938 -22.456724365569244 0 0 0 0 -3.8391872486117435 -15.834483372141182 0 -15.834483372141182 30.670591980811537 0 0 0 0 78.853764263998528 -23.098532622727362 0 -23.098532622727362 -21.871594266631291 0 0 0 0 -10.733029371042903 -18.844202509746538 0 -18.844202509746538 34.161077325238693 0 0 0 0 -1.9250673865793697 -14.071810442163427 0 -14.071810442163427 27.242658948889073 0 0 0 0 -17.444576597643845 -42.267692661375804 0 -42.267692661375804 15.885394805507531 0 0 0 0 -24.680586701452285 -1.2204182381783539 0 -1.2204182381783539 84.261478612204883 0 0 0 0 22.067450094084052 42.194498673556154 0 42.194498673556154 71.397517555227751 0 0 0 0 -20.62389854405717 -39.345294943343106 0 -39.345294943343106 147.00337532442427 0 0 0 0 -92.242629542211262 -23.161581439451766 0 -23.161581439451766 93.363156078357861 0 0 0 0 -116.50683132765971 102.15846575987962 0 102.15846575987962 102.19567132598604 0 0 0 0 -5.910052049406044 -5.4034144488808611 0 -5.4034144488808611 47.353492110186366 0 0 0 0 -32.832326984416795 -112.70578663327251 0 -112.70578663327251 167.09000219448171 0 0 0 0 253.66823836468939 147.18522622527962 0 147.18522622527962 -230.79552044501179 0 0 0 0 11.527399023152384 -96.197362522423646 0 -96.197362522423646 209.0736812670184 0 0 0 0 -4.6316329465957153 25.030512024831751 0 25.030512024831751 18.666950519524107 0 0 0 0 31.132271938898612 -81.002888339360652 0 -81.002888339360652 217.33517959383607 0 0 0 0 -24.946142224008895 -22.670806328560502 0 -22.670806328560502 31.769244766997872 0 0 0 0 2.3569379456525614 -2.3487259139226957 0 -2.3487259139226957 -1.0355848268282557 0 0 0 0 0.18629331691736772 -0.89844801486245274 0 -0.89844801486245274 3.3511386445651823 0 0 0 0 -4.68686802440837 -8.2805736523785871 0 -8.2805736523785871 43.651236329034234 0 0 0 0 44.005209636033669 106.82466271197336 0 106.82466271197336 31.121159915212047 0 0 0 0 -60.342110854907787 36.893187212793237 0 36.893187212793237 20.818626958571258 0 0 0 0 -74.120755735685748 -73.349202482294459 0 -73.349202482294459 104.79094928733684 0 0 0 0 247.54458185031581 -341.34912867972162 0 -341.34912867972162 262.92181917803828 0 0 0 0 2.9094351423949547 -27.699347422534629 0 -27.699347422534629 52.088886024722797 0 0 0 0 4.6920752173573419 -20.994160996315259 0 -20.994160996315259 61.734384672709893 0 0 0 0 -1.8508908193738307 -2.3990509589651765 0 -2.3990509589651765 61.422353429792651 0 0 0 0 1.4105704873711602 -9.8771441950175358 0 -9.8771441950175358 21.655880283237366 0 0 0 0 29.80055167642513 -34.686447994399714 0 -34.686447994399714 16.493468592095269 0 0 0 0 11.659073416564752 -20.982956557582384 0 -20.982956557582384 35.944798484362764 0 0 0 0 -2.0332792835806686 -19.007909090409157 0 -19.007909090409157 38.75274734170489 0 0 0 0 -13.56381250863379 -1.8062512232499301 0 -1.8062512232499301 21.544266210071694 0 0 0 0 -9.163314761987408 -11.544296872862105 0 -11.544296872862105 37.079417223721748 0 0 0 0 9.9713645382772711 -31.781170562612203 0 -31.781170562612203 46.236691909161891 0 0 0 0 -8.4707957339694531 -20.826931779606639 0 -20.826931779606639 22.787494556902857 0 0 0 0 -17.728558413787596 -10.265611015471222 0 -10.265611015471222 56.525622003304306 0 0 0 0 -6.2830666572899885 -11.50761338987521 0 -11.50761338987521 31.665860781712805 0 0 0 0 -10.423270167298689 -11.792743739915323 0 -11.792743739915323 37.728646495708745 0 0 0 0 5.1770626676897109 -8.4885979544578731 0 -8.4885979544578731 35.561314873217952 0 0 0 0 -4.1940457471584978 -11.64559324451875 0 -11.64559324451875 36.920199038757346 0 0 0 0 -6.3262093907874259 -11.100261456884709 0 -11.100261456884709 47.802798697084654 0 0 0 0 -0.55513353640685636 -4.7098903756432264 0 -4.7098903756432264 46.97927785323941 0 0 0 0 -5.2301636257958535 -9.6165600834792713 0 -9.6165600834792713 47.705045053879076 0 0 0 0 -4.7307293189862776 10.852107709979009 0 10.852107709979009 57.87995827155828 0 0 0 0 0.60933127519203367 -9.0973177273540387 0 -9.0973177273540387 55.793457311973725 0 0 0 0 -0.045143368648769333 -18.447949213185204 0 -18.447949213185204 34.68541442823485 0 0 0 0 12.406530063073831 -0.16241307364089153 0 -0.16241307364089153 52.638330403051441 0 0 0 0 3.9603595517082795 -10.308827717121858 0 -10.308827717121858 52.123655800428423 0 0 0 0 -6.8482736220052383 8.6274801460078994 0 8.6274801460078994 28.113900041974006 0 0 0 0 -1.348638486027312 2.633293083352271 0 2.633293083352271 111.49815570775718 0 0 0 0 -51.917826519417616 171.1641375472035 0 171.1641375472035 -746.43374196452578 0 0 0 0 -26.749115348717396 -219.83174718853206 0 -219.83174718853206 -236.23702406517259 0 0 0 0 -6.0249395491637605 -5.5653640191319189 0 -5.5653640191319189 8.1980791822356984 0 0 0 0 95.249339295592563 -554.17194947178814 0 -554.17194947178814 -66.098907755676919 0 0 0 0 302.24182724158686 -239.36880162994464 0 -239.36880162994464 -778.03804576220818 0 0 0 0 -10.07292712911476 -2.0548546842674114 0 -2.0548546842674114 164.7028398812904 0 0 0 0 119.17571931741529 -41.743181462352055 0 -41.743181462352055 323.28568836020349 0 0 0 0 194.88887670913255 33.977239766639286 0 33.977239766639286 221.01048470419119 0 0 0 0 118.48074920314031 -53.119128666248372 0 -53.119128666248372 169.74903573037773 0 0 0 0 -258.12736727416427 -157.7597790429063 0 -157.7597790429063 156.03169010637384 0 0 0 0 -121.09317372041292 -10.192974452359977 0 -10.192974452359977 102.89018731389569 0 0 0 0 -364.9793322879226 -71.515742039883207 0 -71.515742039883207 99.028629945647481 0 0 0 0 0.92422326137423438 1.0020879150475466 0 1.0020879150475466 -1.8528153162272538 0 0 0 0 -47.334716245588652 258.74016876184896 0 258.74016876184896 280.62192174584379 0 0 0 0 125.66278779912818 255.77479826860053 0 255.77479826860053 64.45521938206366 0 0 0 0 22.518644931587005 128.04946767842375 0 128.04946767842375 245.30196744174066 0 0 0 0 117.61872769014872 90.747999466073452 0 90.747999466073452 248.3482884028017 0 0 0 0 -63.047428213857302 -145.91410906192232 0 -145.91410906192232 372.14420857592813 0 0 0 0 -9.6925450568405722 -8.4507250575361468 0 -8.4507250575361468 82.548352771676036 0 0 0 0 12.127886817122203 -56.68107960606153 0 -56.68107960606153 51.509287879252952 0 0 0 0 -8.1149873813155864 -9.923992709799677 0 -9.923992709799677 55.728004202678108 0 0 0 0 3.2143036654287149 -21.653990155721786 0 -21.653990155721786 35.52921739377603 0 0 0 0 17.309182700089877 111.01366475540453 0 111.01366475540453 166.65435252973793 0 0 0 0 -85.51414129407091 23.418882071280166 0 23.418882071280166 126.4556066609548 0 0 0 0 -13.451738954363549 -35.8695758115133 0 -35.8695758115133 43.416438555141212 0 0 0 0 0.85659223298554288 -21.865009419818577 0 -21.865009419818577 44.353658637851538 0 0 0 0 -75.505222670506555 -40.517045139596121 0 -40.517045139596121 95.411303760847659 0 0 0 0 -25.892340277676794 -8.8072384515817248 0 -8.8072384515817248 88.281884243656805 0 0 0 0 -9.2274799116971753 13.894757937640332 0 13.894757937640332 33.896792528287413 0 0 0 0 -4.9128744359753682 0.69400365110368512 0 0.69400365110368512 48.700740517972918 0 0 0 0 -46.147816915457682 18.952888458378311 0 18.952888458378311 35.339708360990699 0 0 0 0 -3.2879683746251089 72.194253253366696 0 72.194253253366696 144.14992224017624 0 0 0 0 -4.0269608338814802 5.2395686182922923 0 5.2395686182922923 9.0836197097504723 0 0 0 0 2.5750624790164238 -48.131789812151283 0 -48.131789812151283 -67.784453753131857 0 0 0 0 -4.0011950691390652 15.23607130992257 0 15.23607130992257 20.019405277782333 0 0 0 0 -0.55589469988826323 23.576621718377787 0 23.576621718377787 -84.737557418016422 0 0 0 0 7.6502858810743248 -21.151180589243268 0 -21.151180589243268 -8.3917575648297316 0 0 0 0 -2.6291966499824211 -1.2101686242253615 0 -1.2101686242253615 20.4586311549361 0 0 0 0 -2.4870159254786337 -1.8301363298953817 0 -1.8301363298953817 -0.61282693123575882 0 0 0 0 1.161652469402541 -11.046710590840298 0 -11.046710590840298 10.558735694304133 0 0 0 0 -101.08118989211971 50.926001907878799 0 50.926001907878799 199.0963201395989 0 0 0 0 215.48322590661604 37.366335021493342 0 37.366335021493342 -15.580620979114428 0 0 0 0 0.043577646351161015 0.41035139736671411 0 0.41035139736671411 4.0945379656370946 0 0 0 0 23.585530605235874 -4.6432854770508811 0 -4.6432854770508811 23.925627900061954 0 0 0 0 -33.177160238565079 30.462915692777642 0 30.462915692777642 32.296131928679188 0 0 0 0 -27.774300918409949 49.230890898099915 0 49.230890898099915 43.10035052903595 0 0 0 0 35.212248584629947 30.006017133063324 0 30.006017133063324 -8.8918290644141962 0 0 0 0 103.0833476404373 278.76105839502043 0 278.76105839502043 98.47342414986457 0 0 0 0 -70.912732405177849 -93.627355062760671 0 -93.627355062760671 97.194197372460508 0 0 0 0 -4.547993904434767 14.925982324100678 0 14.925982324100678 18.477064431558411 0 0 0 0 -14.756775388509539 19.787198091804157 0 19.787198091804157 14.54887944418806 0 0 0 0 7.4449885075310931 50.188082972632401 0 50.188082972632401 -14.982055479025803 0 0 0 0 0.87654662353886303 5.2240567197930758 0 5.2240567197930758 7.5349052310595042 0 0 0 0 0.96799591890885495 51.443254159861681 0 51.443254159861681 -64.870844816377939 0 0 0 0 -75.148834480527285 75.887992077137369 0 75.887992077137369 -6.2256870515921037 0 0 0 0 -49.684747134083409 -76.595331358703334 0 -76.595331358703334 39.749104208302469 0 0 0 0 -1.407746970392509 32.818989141982456 0 32.818989141982456 170.11428378256824 0 0 0 0 24.445293753744409 -50.262652007276756 0 -50.262652007276756 110.32320318449274 0 0 0 0 13.645627008377687 12.31484681940492 0 12.31484681940492 61.214148482042219 0 0 0 0 -29.851645609255456 42.893995276394662 0 42.893995276394662 -2.8886669105322653 0 0 0 0 16.12386607165547 -11.138519032579438 0 -11.138519032579438 13.098055841461246 0 0 0 0 19.57972718961355 -6.8776864636220125 0 -6.8776864636220125 25.987674941017758 0 0 0 0 -12.596252658311641 -2.2390174259153355 0 -2.2390174259153355 27.212204545368877 0 0 0 0 12.885757175350591 -30.787400062966299 0 -30.787400062966299 32.910936755559305 0 0 0 0 -20.193066710416133 -38.033076487351991 0 -38.033076487351991 31.735985148996406 0 0 0 0 0.59669328028394375 -35.729855197450888 0 -35.729855197450888 75.756641787686021 0 0 0 0 3.463169174059658 -14.51593761361255 0 -14.51593761361255 125.49917264989926 0 0 0 0 27.832717135953317 -18.38537707899377 0 -18.38537707899377 76.204349712469536 0 0 0 0 29.868294474137656 -35.931865753919737 0 -35.931865753919737 65.674441860383922 0 0 0 0 25.749903735214644 16.842762101463691 0 16.842762101463691 219.53519849993609 0 0 0 0 27.626471719365028 -43.815798038830714 0 -43.815798038830714 139.32046639000964 0 0 0 0 13.718257285598156 13.866138379652057 0 13.866138379652057 205.41057317909372 0 0 0 0 46.972081928652187 60.177509018408273 0 60.177509018408273 246.28926795374809 0 0 0 0 47.218416563571736 3.9588157119842435 0 3.9588157119842435 208.16702376500689 0 0 0 0 21.04818538202835 8.2133664081443385 0 8.2133664081443385 266.45772437946562 0 0 0 0 56.360149785117756 89.392105006603288 0 89.392105006603288 343.78767850099302 0 0 0 0 26.603528078683667 58.712578308598495 0 58.712578308598495 344.30276647503206 0 0 0 0 -9.9266306203990098 -25.192358076780692 0 -25.192358076780692 501.10413806059614 0 0 0 0 -23.732811983520151 85.540898224816374 0 85.540898224816374 301.61777722603983 0 0 0 0 6.1209181451174572 -28.648081523513554 0 -28.648081523513554 230.97722413853808 0 0 0 0 20.915739396983554 46.034031104518363 0 46.034031104518363 336.38421131766063 0 0 0 0 28.757879174085247 -17.057969517537458 0 -17.057969517537458 236.72274361253767 0 0 0 0 -37.008248682164776 -83.343334021576538 0 -83.343334021576538 60.997298519275276 0 0 0 0 -34.252241156801574 -81.888983189307055 0 -81.888983189307055 34.490961944127775 0 0 0 0 -51.164791194529244 -86.985313896027947 0 -86.985313896027947 61.081409489705123 0 0 0 0 -45.306539064617027 -77.785480925997035 0 -77.785480925997035 59.560385543323719 0 0 0 0 -20.693868938415108 -70.58241853751224 0 -70.58241853751224 25.992525214245688 0 0 0 0 -23.395718096598102 -66.687394459720053 0 -66.687394459720053 87.818438012276602 0 0 0 0 -10.045602138070535 -71.245679393980936 0 -71.245679393980936 57.682761117401469 0 0 0 0 -14.831597531794614 -66.000720339540749 0 -66.000720339540749 64.938148797522445 0 0 0 0 1.6804503885232407 -41.512280084051781 0 -41.512280084051781 75.545745494886887 0 0 0 0 -5.9601806378004767 -47.096464041461331 0 -47.096464041461331 31.245826393147581 0 0 0 0 -32.69272221607207 -51.27678892293261 0 -51.27678892293261 54.259610081780011 0 0 0 0 -12.97118427424266 -34.012265769983969 0 -34.012265769983969 77.377764834742266 0 0 0 0 2.1514458028595982 -55.734516800054735 0 -55.734516800054735 39.12565858418111 0 0 0 0 16.51882043741989 -49.77765897074778 0 -49.77765897074778 83.730034897862424 0 0 0 0 8.3225212600054874 -17.184153905949643 0 -17.184153905949643 125.08841913104334 0 0 0 0 31.10191679890886 -31.092191270485728 0 -31.092191270485728 132.30439083373494 0 0 0 0 11.756121898895799 -2.1663928550383389 0 -2.1663928550383389 189.60110939403512 0 0 0 0 50.080679921824412 27.130216286559971 0 27.130216286559971 180.2796789052511 0 0 0 0 31.766219542691488 -27.998667944549879 0 -27.998667944549879 120.0530905643991 0 0 0 0 8.4095216206769692 -12.786806171550325 0 -12.786806171550325 157.19225064638704 0 0 0 0 -1.3167017889318231 -32.865091725559978 0 -32.865091725559978 126.31236887573505 0 0 0 0 9.9227095225104733 -55.415050130882904 0 -55.415050130882904 91.621043773129713 0 0 0 0 13.735668330230055 -49.361079075370071 0 -49.361079075370071 82.996662776742596 0 0 0 0 -8.5785834194593917 -50.892560892105394 0 -50.892560892105394 107.83427211032176 0 0 0 0 8.1721901193122903 -48.882505094486532 0 -48.882505094486532 90.202722193764203 0 0 0 0 30.70643508296871 -24.470924765380914 0 -24.470924765380914 99.355900159818702 0 0 0 0 -14.660983728481369 -91.290524842745072 0 -91.290524842745072 14.114499004293975 0 0 0 0 4.1744270553090246 -45.53182841033049 0 -45.53182841033049 87.582473332146037 0 0 0 0 24.951005838935544 -13.125000881106871 0 -13.125000881106871 60.590780878403166 0 0 0 0 -39.591462870163014 -82.309491241850537 0 -82.309491241850537 76.318898626975169 0 0 0 0 2.8938975156675042 -68.473183109159891 0 -68.473183109159891 62.740153931748864 0 0 0 0 -1.4896262344118441 15.680416041601347 0 15.680416041601347 194.53826920824986 0 0 0 0 -2.60063383807028 24.804448391163533 0 24.804448391163533 200.87541113468205 0 0 0 0 0.6244144195025001 17.69216362814268 0 17.69216362814268 215.04241336714131 0 0 0 0 29.570172364603422 27.766384228762945 0 27.766384228762945 199.87589478991686 0 0 0 0 -9.5628064774891754 30.568664095708073 0 30.568664095708073 200.27268431708762 0 0 0 0 25.354797563401007 19.270478018322137 0 19.270478018322137 116.11423786044406 0 0 0 0 19.211071281006298 -11.142347543346659 0 -11.142347543346659 60.700428645156535 0 0 0 0 23.071672729238259 29.512965030324224 0 29.512965030324224 191.20879992370647 0 0 0 0 24.120656686212897 -0.26295339974831222 0 -0.26295339974831222 151.62423920531364 0 0 0 0 37.233310309938958 52.865833793794607 0 52.865833793794607 221.36511005288776 0 0 0 0 37.70503375473163 27.592630946656755 0 27.592630946656755 191.56460764125859 0 0 0 0 23.516829324085847 46.780378917931557 0 46.780378917931557 170.32231646190576 0 0 0 0 22.230104670278251 46.494134391945181 0 46.494134391945181 215.20346454019091 0 0 0 0 62.103863880773133 39.238325954464926 0 39.238325954464926 210.99143815870775 0 0 0 0 46.140989568588338 68.59404020137481 0 68.59404020137481 239.56764561784257 0 0 0 0 56.634023731467096 55.409595916996295 0 55.409595916996295 216.03961897377803 0 0 0 0 56.037529515882852 60.132137192902064 0 60.132137192902064 268.89681396755259 0 0 0 0 50.28729545387796 73.233398914804638 0 73.233398914804638 254.29857359096968 0 0 0 0 74.072115937835406 54.54202568626124 0 54.54202568626124 249.06296915387975 0 0 0 0 70.034069561954311 64.962878249251389 0 64.962878249251389 227.55780001743915 0 0 0 0 38.925217265674291 47.219770383704599 0 47.219770383704599 234.75321546798068 0 0 0 0 45.971538356552628 7.369301734749115 0 7.369301734749115 142.28437840899869 0 0 0 0 23.048138009451577 18.532001010639078 0 18.532001010639078 215.86464066228564 0 0 0 0 50.337856167461723 29.960252515763386 0 29.960252515763386 185.58882360594271 0 0 0 0 62.200914354617453 49.332898418261266 0 49.332898418261266 202.58038110869984 0 0 0 0 40.166591851447265 55.387137959161009 0 55.387137959161009 258.22527611909845 0 0 0 0 63.306340004039612 74.643457600437841 0 74.643457600437841 246.38221537517711 0 0 0 0 57.454860888336952 108.7475035374955 0 108.7475035374955 309.1033622499408 0 0 0 0 95.622454030562949 91.33017462200678 0 91.33017462200678 246.58129932295549 0 0 0 0 -54.720126091589918 149.09613408068083 0 149.09613408068083 -236.01811620780609 0 0 0 0 -339.03853952603822 -173.64374084933002 0 -173.64374084933002 154.03213741246691 0 0 0 0 -9.845157695916896 -17.736606381652791 0 -17.736606381652791 43.425939170434503 0 0 0 0 268.70585540864704 -339.91646921327447 0 -339.91646921327447 235.15522820898877 0 0 0 0 -62.337589186556215 -119.43534475702677 0 -119.43534475702677 323.53705910799545 0 0 0 0 282.63748359716919 -195.75105205137652 0 -195.75105205137652 95.329252381719925 0 0 0 0 193.4959444533597 -350.38922765656662 0 -350.38922765656662 120.6615847610633 0 0 0 0 3.6462408097272956 1.0920966472931788 0 1.0920966472931788 -1.6535876143255752 0 0 0 0 109.559971729268 -196.62741569558602 0 -196.62741569558602 -155.22147682128798 0 0 0 0 -11.89035242040336 9.2785160983039532 0 9.2785160983039532 200.57472242632957 0 0 0 0 307.69811121818566 -466.51834546063583 0 -466.51834546063583 29.843128015130787 0 0 0 0 58.482691253586381 97.469781700092426 0 97.469781700092426 277.91474943346816 0 0 0 0 31.533093237534178 -20.73703874987315 0 -20.73703874987315 12.664022295444269 0 0 0 0 -274.67310240274674 325.93577128562356 0 325.93577128562356 -184.37228688521373 0 0 0 0 100.76155924236446 85.38823071989782 0 85.38823071989782 226.27091944532094 0 0 0 0 42.022916363497643 52.349700011563073 0 52.349700011563073 225.92143914264489 0 0 0 0 89.569854328496149 38.49539596685554 0 38.49539596685554 221.50169789409483 0 0 0 0 45.696775356816943 38.024702933760182 0 38.024702933760182 244.35492247809634 0 0 0 0 -2.6427267154540459 17.280948477398852 0 17.280948477398852 -26.162690751981245 0 0 0 0 -63.652766534869443 40.975638512110891 0 40.975638512110891 -34.663420124454206 0 0 0 0 -127.91408468383452 -1.6469827937312402 0 -1.6469827937312402 18.535631586646559 0 0 0 0 121.83278595289448 -227.0281715541405 0 -227.0281715541405 54.827134246736023 0 0 0 0 -18.952319736723439 -7.4206882977650821 0 -7.4206882977650821 -34.590774251819312 0 0 0 0 36.452675754619122 67.422148917309642 0 67.422148917309642 241.81784095695821 0 0 0 0 -52.686108540874557 -61.832840511707673 0 -61.832840511707673 -4.6610028332779621 0 0 0 0 2.9065963192695676 -5.6342910308847749 0 -5.6342910308847749 2.528921959641222 0 0 0 0 32.246661723500452 -25.141733671972304 0 -25.141733671972304 12.35878889621435 0 0 0 0 55.433098521849388 74.209158238583314 0 74.209158238583314 209.7262081918343 0 0 0 0 37.826288633383228 38.066973923131627 0 38.066973923131627 187.84531932976097 0 0 0 0 33.73435456110019 45.095641405718197 0 45.095641405718197 210.91372390793549 0 0 0 0 29.233482896645 53.173220421440647 0 53.173220421440647 226.28256759897886 0 0 0 0 30.946969891552726 53.4264747006373 0 53.4264747006373 228.6924997341921 0 0 0 0 33.523877008325144 34.427719692446772 0 34.427719692446772 203.38930736993098 0 0 0 0 34.297669156314441 25.92851522164608 0 25.92851522164608 227.35740776531929 0 0 0 0 17.287771960644022 36.238726937006504 0 36.238726937006504 219.5602142364578 0 0 0 0 33.34169044155658 -200.2685999532959 0 -200.2685999532959 -162.65001453676132 0 0 0 0 27.044245854538531 -264.09262017464778 0 -264.09262017464778 -245.65573816213259 0 0 0 0 -34.102190581568721 -115.32644141166793 0 -115.32644141166793 -172.49654383487621 0 0 0 0 -86.603666794526362 -182.1259990172789 0 -182.1259990172789 -55.408014700437434 0 0 0 0 -121.64511631477581 -281.25847477452544 0 -281.25847477452544 -81.435136689984688 0 0 0 0 -63.459254455192422 -217.79010628684955 0 -217.79010628684955 -36.300231040660947 0 0 0 0 -144.39672519916712 19.282370938791246 0 19.282370938791246 16.964506281844933 0 0 0 0 2.6082469174538767 1.7419513930198955 0 1.7419513930198955 3.0479456605449622 0 0 0 0 -428.97721997230474 -69.386366291728109 0 -69.386366291728109 24.25197223273787 0 0 0 0 -118.52659940617923 -181.32038618699951 0 -181.32038618699951 -58.250515534575356 0 0 0 0 -127.30485197362304 -426.02139198140128 0 -426.02139198140128 -412.80630476032866 0 0 0 0 5.271140106849959 -1.8177745345219973 0 -1.8177745345219973 0.66270628431960699 0 0 0 0 -539.35342745663002 -13.467522216699763 0 -13.467522216699763 -547.49553886667127 0 0 0 0 42.562889061156966 191.47398363626007 0 191.47398363626007 584.57748748923973 0 0 0 0 -412.17082853361489 -333.46075315884536 0 -333.46075315884536 -122.25672410942718 0 0 0 0 64.852304713857848 68.607408141587484 0 68.607408141587484 325.67169021760583 0 0 0 0 12.954735345788322 45.489086959773886 0 45.489086959773886 321.69966767184451 0 0 0 0 86.616526646703278 103.48502668057836 0 103.48502668057836 289.31370380786575 0 0 0 0 37.291239619893076 116.2225223841474 0 116.2225223841474 391.87972245769265 0 0 0 0 23.83331405415629 23.059611708867578 0 23.059611708867578 244.21425735659705 0 0 0 0 49.861035476985307 63.573864975475772 0 63.573864975475772 286.23379151472182 0 0 0 0 4.858308179424057 -130.29818603498734 0 -130.29818603498734 -367.47454602774815 0 0 0 0 24.786150130410618 -15.495855782736154 0 -15.495855782736154 8.699462879130639 0 0 0 0 -92.099993543927667 -76.983998882577907 0 -76.983998882577907 -139.38589277129358 0 0 0 0 14.559623248105986 -8.4600261198823627 0 -8.4600261198823627 4.7055140929550214 0 0 0 0 22.840926565817426 -155.16653319757961 0 -155.16653319757961 -275.07918093040416 0 0 0 0 -32.167236377030349 -53.97325220154562 0 -53.97325220154562 -216.14855784587076 0 0 0 0 -34.432317685001181 -109.84609593548976 0 -109.84609593548976 -126.43706833917167 0 0 0 0 -59.297852462101218 -35.494219124384472 0 -35.494219124384472 -66.779167924479225 0 0 0 0 -38.40790635122994 -80.064842823934214 0 -80.064842823934214 -143.002571660184 0 0 0 0 -54.898915637357277 -67.403123807754127 0 -67.403123807754127 -40.119291959290422 0 0 0 0 -82.78932324807829 22.066456974732318 0 22.066456974732318 -37.837886996546331 0 0 0 0 -51.737845197450952 -76.332494983857032 0 -76.332494983857032 12.37284431855187 0 0 0 0 -59.654336019400944 -79.078153347843909 0 -79.078153347843909 43.540875815655454 0 0 0 0 -73.025029236506427 -87.037600960921225 0 -87.037600960921225 152.25600762064096 0 0 0 0 -55.133394602264161 -47.84787563408554 0 -47.84787563408554 70.423577317688796 0 0 0 0 -50.891133410827024 -118.58348078125164 0 -118.58348078125164 223.08138924148807 0 0 0 0 -91.785397800374994 -27.818932770987885 0 -27.818932770987885 46.782930615223449 0 0 0 0 -72.705618310385034 -51.734062896399337 0 -51.734062896399337 114.25232651869555 0 0 0 0 -60.353210343340834 -76.746691634163653 0 -76.746691634163653 58.455483628352795 0 0 0 0 -68.990826326946262 -50.439244519163367 0 -50.439244519163367 73.135374995537859 0 0 0 0 -45.745512005494675 -41.934212498648776 0 -41.934212498648776 38.118549935525152 0 0 0 0 -27.731761328601351 -65.214603491169328 0 -65.214603491169328 54.662384639970696 0 0 0 0 -38.719426617720387 -8.7639090660425154 0 -8.7639090660425154 10.929534186172532 0 0 0 0 -58.469639765535248 -64.938410715455575 0 -64.938410715455575 23.840987077294358 0 0 0 0 -64.899508695591066 -41.440743930653753 0 -41.440743930653753 0.66046313037168147 0 0 0 0 -62.193151125376517 -59.960736067063181 0 -59.960736067063181 -43.823414417397544 0 0 0 0 -68.991698952789193 -149.86220359299705 0 -149.86220359299705 3.5664479533643316 0 0 0 0 34.13824783938162 -51.929033564257224 0 -51.929033564257224 67.581243832410109 0 0 0 0 -2.4156946509547019 -2.0107805731224264 0 -2.0107805731224264 2.298487210234228 0 0 0 0 12.329146529848913 -45.334803771089355 0 -45.334803771089355 80.670565879060632 0 0 0 0 -91.882152255330084 -26.73322105884904 0 -26.73322105884904 5.589445255789542 0 0 0 0 -120.11550582970085 -185.70866013784757 0 -185.70866013784757 133.78965423974751 0 0 0 0 15.841635232717181 -39.983986183588968 0 -39.983986183588968 88.55162677603812 0 0 0 0 -3.0759246038458601 -4.1809969041841217 0 -4.1809969041841217 4.1454130976602386 0 0 0 0 11.740308530577749 -32.247012964862733 0 -32.247012964862733 21.416499067198856 0 0 0 0 26.486975784481729 -51.27817937843065 0 -51.27817937843065 40.711452989646205 0 0 0 0 35.86569224567063 -8.089772168027821 0 -8.089772168027821 10.887081473669241 0 0 0 0 4.6633675139623847 -48.03482099952862 0 -48.03482099952862 63.424425194534706 0 0 0 0 65.357192257422867 -65.485832356012907 0 -65.485832356012907 68.347957345209579 0 0 0 0 3.7378445690992521 -71.230501994861697 0 -71.230501994861697 89.267197015436977 0 0 0 0 100.30308131712991 -71.394660613890665 0 -71.394660613890665 61.222648688533809 0 0 0 0 90.507684822026022 -67.586486085871002 0 -67.586486085871002 60.958917137733806 0 0 0 0 0.010221394743799017 1.6995026357800533 0 1.6995026357800533 2.9350969797657314 0 0 0 0 92.261931444547372 -83.90188093517645 0 -83.90188093517645 70.717595634538156 0 0 0 0 78.205350807109426 -79.373745285867699 0 -79.373745285867699 69.874564993391687 0 0 0 0 88.691330543622641 -88.416950673891336 0 -88.416950673891336 88.28260097954626 0 0 0 0 88.477248169544509 -94.819969861133359 0 -94.819969861133359 88.88250979577424 0 0 0 0 53.283607706403927 -78.109914259528523 0 -78.109914259528523 81.827944427546754 0 0 0 0 8.7494721911589295 -85.404221818595033 0 -85.404221818595033 107.20208931406887 0 0 0 0 55.437910749230014 -85.152316043435803 0 -85.152316043435803 92.181131137152988 0 0 0 0 48.692233078173274 -98.331757279455758 0 -98.331757279455758 108.80363289691741 0 0 0 0 22.274142912212483 -86.414754677069141 0 -86.414754677069141 117.63366426497305 0 0 0 0 73.78273684506803 -96.320749963899289 0 -96.320749963899289 109.64023740780613 0 0 0 0 48.245653091965551 -90.346509834273661 0 -90.346509834273661 108.33218389101967 0 0 0 0 -23.003657312823634 -99.806450671032508 0 -99.806450671032508 117.07487527173271 0 0 0 0 -21.984259597787513 -100.91878234082651 0 -100.91878234082651 108.1372989522024 0 0 0 0 0.66548254092413117 -88.468900054005644 0 -88.468900054005644 111.95476630125813 0 0 0 0 -25.725540977296987 -90.530986568614026 0 -90.530986568614026 107.48866481953155 0 0 0 0 10.988644156378768 -94.716437413621861 0 -94.716437413621861 106.59652845322853 0 0 0 0 -22.351058170520446 -97.90747967126299 0 -97.90747967126299 112.49290761016528 0 0 0 0 -56.15697867455674 -85.835035904279721 0 -85.835035904279721 108.18760918913904 0 0 0 0 -32.334031000547839 -74.023291324738238 0 -74.023291324738238 91.269478760537822 0 0 0 0 11.315204899032324 -84.630616592407478 0 -84.630616592407478 93.78231593597593 0 0 0 0 -36.398283105617338 -49.703631547728037 0 -49.703631547728037 63.57846797298771 0 0 0 0 8.1223334165756569 -64.27362525482431 0 -64.27362525482431 68.309066017118312 0 0 0 0 -61.126435525784473 -66.175227997227012 0 -66.175227997227012 93.79604914871561 0 0 0 0 -28.542597159811976 -81.26575666535814 0 -81.26575666535814 92.544228836110051 0 0 0 0 -57.016958977419563 -97.061729810016914 0 -97.061729810016914 113.4902324598487 0 0 0 0 -53.956528806713322 -124.72303080853453 0 -124.72303080853453 146.96499705724955 0 0 0 0 -59.076569780068894 -87.354670392107437 0 -87.354670392107437 152.34701233534724 0 0 0 0 -59.4797083522717 -100.92368066935978 0 -100.92368066935978 126.18564903315928 0 0 0 0 -20.546440576283203 -115.01752109162408 0 -115.01752109162408 144.0797961600465 0 0 0 0 32.817222957177364 -77.192399242961983 0 -77.192399242961983 134.56143726205846 0 0 0 0 -46.160814509068587 -117.93565789056265 0 -117.93565789056265 196.3072913583419 0 0 0 0 37.355759114347165 -103.79823007696996 0 -103.79823007696996 16.514630665606091 0 0 0 0 -37.167481982847676 -123.13555997978347 0 -123.13555997978347 108.12285995679485 0 0 0 0 -50.899446884475765 -99.147516570994412 0 -99.147516570994412 88.091111555910175 0 0 0 0 -35.98008052543446 -108.57419065835165 0 -108.57419065835165 60.503166013633745 0 0 0 0 -52.331590136188652 -21.983354163181616 0 -21.983354163181616 -7.9451865624723723 0 0 0 0 -49.287574158623102 -107.01206606631058 0 -107.01206606631058 119.57564327827095 0 0 0 0 -47.506217172007382 -107.29908773570969 0 -107.29908773570969 113.38251303396464 0 0 0 0 -53.619053752923719 -113.83855850377768 0 -113.83855850377768 112.30971010643771 0 0 0 0 -53.857734668612466 -115.37864468098815 0 -115.37864468098815 111.18261363858983 0 0 0 0 -36.441416941521311 -99.583144899224862 0 -99.583144899224862 113.84838405872506 0 0 0 0 -38.904966235479151 -108.69345947083048 0 -108.69345947083048 80.439594992771163 0 0 0 0 -45.408030764920113 -75.419013106580678 0 -75.419013106580678 87.385197044639881 0 0 0 0 -55.901841353434065 -94.348474430049464 0 -94.348474430049464 54.999904486776359 0 0 0 0 -16.570397851168309 -42.249964108730637 0 -42.249964108730637 89.061306468924158 0 0 0 0 -30.318686477590745 -91.410478598410918 0 -91.410478598410918 90.410682174810063 0 0 0 0 -88.672149083933618 -46.770607893522538 0 -46.770607893522538 38.064645699789253 0 0 0 0 -79.490552020875839 -54.317407881382678 0 -54.317407881382678 1.7126681160443695 0 0 0 0 -306.10280817050079 40.328187481474743 0 40.328187481474743 69.454476204668026 0 0 0 0 -1.8671930457656636 -2.8495385531315307 0 -2.8495385531315307 0.34367470299788749 0 0 0 0 -143.60044925490456 30.859221334224912 0 30.859221334224912 -26.508287850803754 0 0 0 0 -101.03709006987447 -59.491161573645513 0 -59.491161573645513 44.839136409900675 0 0 0 0 -215.69286238490167 -68.22604659398894 0 -68.22604659398894 63.030707657886524 0 0 0 0 -39.172564541355314 -63.11864025876821 0 -63.11864025876821 72.681189619725046 0 0 0 0 -57.073220473386755 -34.94471786194481 0 -34.94471786194481 44.3356424408762 0 0 0 0 -53.352747478797937 -34.452030215281411 0 -34.452030215281411 56.577998719869356 0 0 0 0 -87.51811875580097 2.9253921594354324 0 2.9253921594354324 24.17012479028017 0 0 0 0 -10.159440470248228 -0.50115261744213058 0 -0.50115261744213058 67.678508407523623 0 0 0 0 -13.321494697811431 -8.9885238028873573 0 -8.9885238028873573 111.0326434116223 0 0 0 0 -17.849522916108526 -4.6711106281345565 0 -4.6711106281345565 130.34903991220926 0 0 0 0 -13.999288703533239 -53.97603547953986 0 -53.97603547953986 128.89552485106651 0 0 0 0 6.9474508767598309 -59.272825952401035 0 -59.272825952401035 143.37358469365245 0 0 0 0 -12.496082112727208 -15.913384639329706 0 -15.913384639329706 166.01353502353595 0 0 0 0 0.51200658357629436 -28.59742876045857 0 -28.59742876045857 178.26528023201502 0 0 0 0 16.138840765570023 -68.710032148860591 0 -68.710032148860591 260.89405060199351 0 0 0 0 4.5273138660909353 -27.516446665001695 0 -27.516446665001695 173.02564331168833 0 0 0 0 4.3444386309884067 -56.930755276402124 0 -56.930755276402124 203.40220960390798 0 0 0 0 50.570354541132474 -95.156762869928571 0 -95.156762869928571 152.48279459928199 0 0 0 0 51.564043306157373 -89.952911521564602 0 -89.952911521564602 179.30591979986639 0 0 0 0 85.604014159116105 -113.66232015104288 0 -113.66232015104288 127.60406924058771 0 0 0 0 119.07155872792191 -124.45138079947355 0 -124.45138079947355 130.98452296364485 0 0 0 0 46.217704198319552 -109.32963526918684 0 -109.32963526918684 138.43488686128694 0 0 0 0 20.029707846440942 -80.646819751418661 0 -80.646819751418661 149.30986391129409 0 0 0 0 7.5124484395391846 -98.74025231178166 0 -98.74025231178166 126.89808645834273 0 0 0 0 19.860456327560314 -78.470134482803587 0 -78.470134482803587 121.78832621047331 0 0 0 0 -12.153249402648726 -72.563155890726193 0 -72.563155890726193 108.85690785134739 0 0 0 0 -19.477180949654212 -103.40791815239572 0 -103.40791815239572 105.18099271086612 0 0 0 0 -4.6887393702018016 -46.671829999948386 0 -46.671829999948386 130.03403909643021 0 0 0 0 -4.5067560446459538 -86.188293155637439 0 -86.188293155637439 132.68064590357244 0 0 0 0 -15.380063510423497 -24.172909358222114 0 -24.172909358222114 44.597941413168883 0 0 0 0 -13.01238891182129 -21.731104768145997 0 -21.731104768145997 29.192864366493268 0 0 0 0 -21.541261940340064 -1.1770053619818555 0 -1.1770053619818555 21.723054960560148 0 0 0 0 -19.749314572216644 -9.7021559482820372 0 -9.7021559482820372 9.1243769282590836 0 0 0 0 -21.634923874862579 -55.673257564059895 0 -55.673257564059895 -3.5346198887352784 0 0 0 0 -25.226937209277821 8.9309465028700288 0 8.9309465028700288 29.038555041341169 0 0 0 0 -72.900716971205838 -17.759187570658469 0 -17.759187570658469 23.124433452733683 0 0 0 0 -26.927274978066293 5.5220984873307088 0 5.5220984873307088 32.927679548345623 0 0 0 0 -17.906246136126356 -1.7006720084018525 0 -1.7006720084018525 25.695833921965459 0 0 0 0 -14.051034408917985 -18.065752291745866 0 -18.065752291745866 40.328164877034396 0 0 0 0 -17.528966337645862 -3.806616548993178 0 -3.806616548993178 11.648523382980123 0 0 0 0 -9.7180439135663619 -3.262315732877596 0 -3.262315732877596 12.482275449885492 0 0 0 0 -8.6554853501002071 -1.7936231412186316 0 -1.7936231412186316 11.335535161417511 0 0 0 0 8.9286521152953355 29.165545243708493 0 29.165545243708493 41.16334571518928 0 0 0 0 1.1866170516150305 32.864341572445483 0 32.864341572445483 31.079950921905038 0 0 0 0 8.8239019817265216 -14.196094141680078 0 -14.196094141680078 44.223270544218394 0 0 0 0 16.665067653343613 -1.3201405104421156 0 -1.3201405104421156 -1.9534456790461263 0 0 0 0 -0.98944966347967167 -1.4888013096995536 0 -1.4888013096995536 3.8093505129052829 0 0 0 0 118.32567882044532 -138.51598004285006 0 -138.51598004285006 113.5564815174248 0 0 0 0 47.506083897932513 -119.60407863087016 0 -119.60407863087016 112.06824036963189 0 0 0 0 2.4094312137387419 -0.77391728534619375 0 -0.77391728534619375 -1.9181036503484989 0 0 0 0 -11.025874288359773 -6.037835586379515 0 -6.037835586379515 9.7315081808792456 0 0 0 0 -2.1565817157328695 -2.3861939502264349 0 -2.3861939502264349 9.7837984879090314 0 0 0 0 24.404863328014471 -64.587991088346826 0 -64.587991088346826 164.20767088369939 0 0 0 0 -1.2472702400898612 -3.6351353134344961 0 -3.6351353134344961 13.086072019234706 0 0 0 0 -10.810987757035036 -2.5684659780836228 0 -2.5684659780836228 12.274179482320505 0 0 0 0 -133.92631539350623 -18.10905037435441 0 -18.10905037435441 31.860012483401078 0 0 0 0 3.0791068675007409 -30.078029539333784 0 -30.078029539333784 23.613763138419017 0 0 0 0 0.30856167544789059 -23.595480436722028 0 -23.595480436722028 33.526608843763825 0 0 0 0 -3.3878388459050299 -5.9435842001461516 0 -5.9435842001461516 -0.86379919668131322 0 0 0 0 -25.704424876195844 -10.411452968513913 0 -10.411452968513913 74.284325976597756 0 0 0 0 -19.722215216157565 7.9174471695530428 0 7.9174471695530428 15.257498440474592 0 0 0 0 117.33104832037861 -116.25884995425258 0 -116.25884995425258 -49.714549383377744 0 0 0 0 33.013323704082723 -27.208886230087955 0 -27.208886230087955 -3.7760939536856313 0 0 0 0 -4.3869767032520031 -6.7090296285605291 0 -6.7090296285605291 47.680387605287251 0 0 0 0 -3.2548775439523681 -4.4981645084383342 0 -4.4981645084383342 8.6563993471245553 0 0 0 0 -19.367063850313571 -36.177365960008501 0 -36.177365960008501 59.525167074416458 0 0 0 0 33.517454157429029 -59.883209458739799 0 -59.883209458739799 -26.92700882612553 0 0 0 0 -19.895545772262267 -60.839456278852595 0 -60.839456278852595 103.18306322053468 0 0 0 0 6.1169266893431171 -21.506390205338818 0 -21.506390205338818 33.871829068508106 0 0 0 0 -3.6646300082104091 -0.75008872986533248 0 -0.75008872986533248 11.548091359174975 0 0 0 0 11.352747101262139 -15.140450599542874 0 -15.140450599542874 53.006397007639862 0 0 0 0 3.7191742127542966 -31.383374276625545 0 -31.383374276625545 49.556720533419139 0 0 0 0 -10.71772025991595 -1.1020866406779533 0 -1.1020866406779533 11.453144543024564 0 0 0 0 -12.947334583050431 -3.2513144741277653 0 -3.2513144741277653 22.06291734009616 0 0 0 0 3.5030689617924509 -25.838878389775346 0 -25.838878389775346 43.146557018056228 0 0 0 0 -13.987754970614333 -26.596342427303171 0 -26.596342427303171 47.911244196647203 0 0 0 0 -13.521136899356861 -30.244665583711139 0 -30.244665583711139 36.179388757100241 0 0 0 0 3.7437894523191062 -26.38601723547572 0 -26.38601723547572 37.034143163335102 0 0 0 0 -0.96630778250560923 -12.360721487730956 0 -12.360721487730956 17.217216301726381 0 0 0 0 5.0012242611413811 -16.172261693317921 0 -16.172261693317921 17.437030186116161 0 0 0 0 -24.829782626497035 -21.031351796638774 0 -21.031351796638774 36.899392010258453 0 0 0 0 -25.131914947924088 -29.285528101006093 0 -29.285528101006093 45.303960663415637 0 0 0 0 -34.169778374245652 -36.312570966486419 0 -36.312570966486419 42.02314240025953 0 0 0 0 -24.42134409317805 -13.657281217844684 0 -13.657281217844684 -4.4415801210416248 0 0 0 0 -23.888714680691919 -15.478574845700678 0 -15.478574845700678 53.773170403703716 0 0 0 0 -15.984581884229556 -17.612921300727521 0 -17.612921300727521 47.434910168040005 0 0 0 0 -5.24459015019238 -18.011054880238476 0 -18.011054880238476 47.158711693937221 0 0 0 0 -13.323169722777948 -24.052781908099291 0 -24.052781908099291 47.500264932323262 0 0 0 0 -16.071963140109801 -22.143639989884832 0 -22.143639989884832 46.525231027896098 0 0 0 0 -7.9587126627029647 -26.156758828210968 0 -26.156758828210968 45.826619110279353 0 0 0 0 -15.50948357092966 -20.560096349475316 0 -20.560096349475316 47.443236671362683 0 0 0 0 -5.7456753415874573 -22.024194772331725 0 -22.024194772331725 4.8389062433816434 0 0 0 0 -20.432654678987092 -13.371298514090086 0 -13.371298514090086 40.267047458019078 0 0 0 0 -7.0933787511557966 -44.087121564549307 0 -44.087121564549307 65.351921885969205 0 0 0 0 -2.3762569091243329 -0.78670264838709869 0 -0.78670264838709869 0.30850889455493302 0 0 0 0 -4.3964612440158817 -30.290587744962977 0 -30.290587744962977 31.318838442231936 0 0 0 0 -2.6390561109328701 -24.106532876950951 0 -24.106532876950951 -2.9751067505658284 0 0 0 0 -3.6629918017390679 -12.717322386688402 0 -12.717322386688402 10.870395504348302 0 0 0 0 -9.3649136642093254 -13.809519685929445 0 -13.809519685929445 -2.3439917366449663 0 0 0 0 43.9590194778757 -78.367624887912825 0 -78.367624887912825 -161.20225009692967 0 0 0 0 -2.3946870346371725 1.3049680675682023 0 1.3049680675682023 7.3495801079221525 0 0 0 0 -7.3263030560134155 -8.2272274616269172 0 -8.2272274616269172 16.525940418246176 0 0 0 0 -3.3520359727226605 -5.7752790786835249 0 -5.7752790786835249 18.615999765288507 0 0 0 0 -31.499062397624584 21.186880069288236 0 21.186880069288236 -2.6109524633611727 0 0 0 0 10.417751276694617 -16.97147934428358 0 -16.97147934428358 29.354288190754687 0 0 0 0 -21.435295874354779 -10.228329306035448 0 -10.228329306035448 30.616568057721452 0 0 0 0 3.1421088267597952 -4.0409229203905852 0 -4.0409229203905852 2.732820785662625 0 0 0 0 -45.869978086506308 -3.6675511802732217 0 -3.6675511802732217 2.7362039131330675 0 0 0 0 -3.8258767191191509 -2.9175809259782 0 -2.9175809259782 -37.225234176235972 0 0 0 0 -26.87779381870314 -10.283246212005906 0 -10.283246212005906 27.745365344766469 0 0 0 0 0.66975541551801143 17.353151570076989 0 17.353151570076989 -50.0000154825957 0 0 0 0 15.754684674349846 -90.245858356047393 0 -90.245858356047393 95.801928691733337 0 0 0 0 -28.870746171764619 8.5604578082244522 0 8.5604578082244522 7.2894359721679773 0 0 0 0 -98.793502633590833 -173.94424974842696 0 -173.94424974842696 272.42926002440799 0 0 0 0 -25.136242746161439 12.206449321219385 0 12.206449321219385 4.7474790617233129 0 0 0 0 -68.540494393510016 -16.556082430968672 0 -16.556082430968672 178.02203972742063 0 0 0 0 44.735967963093572 -39.007337159166127 0 -39.007337159166127 0.33789557848012919 0 0 0 0 -13.326389995188947 -2.9985549799894216 0 -2.9985549799894216 -30.761972537100519 0 0 0 0 -13.539235969812808 34.549843291059915 0 34.549843291059915 -60.285234724797192 0 0 0 0 -19.534328279259853 24.921344082632913 0 24.921344082632913 -12.636391702326364 0 0 0 0 -13.867199028000869 9.2134466835741478 0 9.2134466835741478 70.196050744976674 0 0 0 0 -18.24549966136783 10.961770307863844 0 10.961770307863844 25.88090766233654 0 0 0 0 -2.6576333838584105 -5.9099498226714786 0 -5.9099498226714786 9.542973880412319 0 0 0 0 -26.885585421563519 -5.8183410995188751 0 -5.8183410995188751 45.723177009855135 0 0 0 0 31.041131575519103 -15.941041396781657 0 -15.941041396781657 45.547747781005455 0 0 0 0 188.13659994773843 -7.0576955602191447 0 -7.0576955602191447 51.039785192609997 0 0 0 0 -2.8186010632193046 0.57172654844685411 0 0.57172654844685411 0.78067709547113751 0 0 0 0 -103.51457786937954 9.5726414545497391 0 9.5726414545497391 265.46358321189109 0 0 0 0 -134.89314066769111 -121.93092200947285 0 -121.93092200947285 220.78735542294544 0 0 0 0 -306.33379151457848 -97.086118851286301 0 -97.086118851286301 307.77177160790052 0 0 0 0 -147.13931608110806 -135.17671076760962 0 -135.17671076760962 404.10061270122605 0 0 0 0 26.444949988410372 154.71879051750147 0 154.71879051750147 360.67963773949668 0 0 0 0 20.422537083315547 1.4983154223209567 0 1.4983154223209567 207.95009284059233 0 0 0 0 -15.508173956158316 2.1273557700515084 0 2.1273557700515084 58.81206400314295 0 0 0 0 -7.2082533387553909 -0.96133324284769728 0 -0.96133324284769728 0.50049588703831205 0 0 0 0 -23.367335723105498 -15.153534101944388 0 -15.153534101944388 86.577830623804402 0 0 0 0 -12.475638530939705 -44.583188038639491 0 -44.583188038639491 95.73184620009124 0 0 0 0 9.7765591035822581 -17.381725389528583 0 -17.381725389528583 28.220324123008595 0 0 0 0 8.5146874541715079 -38.09933385190925 0 -38.09933385190925 112.31156209024994 0 0 0 0 -9.8876013384069665 -22.082584549897547 0 -22.082584549897547 226.53387752971321 0 0 0 0 42.049695170264386 83.064920140110189 0 83.064920140110189 240.12946982064386 0 0 0 0 6.79239216708811 24.772031492128008 0 24.772031492128008 147.04516164917368 0 0 0 0 7.4004398971192131 46.384831109728111 0 46.384831109728111 201.34626281117744 0 0 0 0 -0.65578895897124312 -26.947492602044804 0 -26.947492602044804 149.2377025200376 0 0 0 0 -2.6825776109835715 0.73432436762141151 0 0.73432436762141151 117.59501686749718 0 0 0 0 3.3384712121605844 16.887740182577545 0 16.887740182577545 160.65559977825251 0 0 0 0 -13.022835252972072 -5.5985045911147608 0 -5.5985045911147608 97.606610980939877 0 0 0 0 -13.279605924361022 -4.3832665433110378 0 -4.3832665433110378 130.45555908189999 0 0 0 0 -6.0959932373662014 -19.06971940594849 0 -19.06971940594849 94.885023115075455 0 0 0 0 -0.65470188790277462 -27.416875787777826 0 -27.416875787777826 106.96384512995974 0 0 0 0 3.0508939465344156 -31.57893124018301 0 -31.57893124018301 109.34397613891815 0 0 0 0 -3.2528539283694045 -38.366847148805391 0 -38.366847148805391 102.0373697797877 0 0 0 0 -18.069732126223244 -21.248663155584836 0 -21.248663155584836 95.910020344543227 0 0 0 0 -12.133869619466598 -2.3656304653072162 0 -2.3656304653072162 -1.1226791053144112 0 0 0 0 -10.853050186984822 16.356601455246242 0 16.356601455246242 5.6213413712796036 0 0 0 0 -26.581765000250812 27.69740338485326 0 27.69740338485326 -0.89010748986765975 0 0 0 0 8.0846582996923644 35.397636297951976 0 35.397636297951976 -55.792739763904592 0 0 0 0 -33.186854906039116 47.692991651972989 0 47.692991651972989 175.03706017358735 0 0 0 0 -33.043992003277111 16.907775136713617 0 16.907775136713617 244.82215404283852 0 0 0 0 1.5622198685587136 31.112995817151386 0 31.112995817151386 129.68949209017919 0 0 0 0 -7.9684228690257441 45.256345744307509 0 45.256345744307509 120.60684396531724 0 0 0 0 -12.516487679964939 3.351607961634727 0 3.351607961634727 164.55196768925089 0 0 0 0 -97.413350431999788 31.049800263566794 0 31.049800263566794 299.60301019782855 0 0 0 0 -0.8270709738280857 52.174529248877661 0 52.174529248877661 70.914199492646731 0 0 0 0 -94.355381654972007 -55.138142099859579 0 -55.138142099859579 14.412901795094513 0 0 0 0 36.543224660592386 147.62703658780083 0 147.62703658780083 87.10830267988149 0 0 0 0 -45.197026896059469 10.247691117749127 0 10.247691117749127 -11.27164089724829 0 0 0 0 -44.98237373576714 30.527738669870104 0 30.527738669870104 -13.843157929819426 0 0 0 0 -24.247165111899449 25.071041379385861 0 25.071041379385861 -17.350652645200171 0 0 0 0 -13.897090518841651 -0.95942057307911455 0 -0.95942057307911455 -8.4920522740603701 0 0 0 0 -7.2807324200912262 34.653053009622454 0 34.653053009622454 -67.233180989313951 0 0 0 0 -12.890444879055394 3.5048262126802001 0 3.5048262126802001 -31.760982213078023 0 0 0 0 -18.822705712979666 14.267276636259488 0 14.267276636259488 5.6509837979011177 0 0 0 0 -21.3762102892033 19.873661861409346 0 19.873661861409346 17.617494253729092 0 0 0 0 -11.993548974422083 -1.1756015867995302 0 -1.1756015867995302 30.807798489473498 0 0 0 0 -14.798574745047972 16.161143988681488 0 16.161143988681488 41.466383672042866 0 0 0 0 -15.332625978173382 -1.7491247633370222 0 -1.7491247633370222 14.517730484949425 0 0 0 0 -12.935914773130207 -12.284545886985143 0 -12.284545886985143 39.409177546760475 0 0 0 0 -25.417921952204779 8.3706563055093284 0 8.3706563055093284 41.259405406355654 0 0 0 0 439.78577584990489 -161.13114963450971 0 -161.13114963450971 87.672253379711037 0 0 0 0 -22.863062494828227 -21.39641026082063 0 -21.39641026082063 88.864863459965818 0 0 0 0 5.9248564275076205 -19.651645041049051 0 -19.651645041049051 46.842490381879998 0 0 0 0 -0.90486422112860687 1.3368967515047174 0 1.3368967515047174 1.053700129381383 0 0 0 0 -2.5629537826034721 7.6056049542567052 0 7.6056049542567052 43.647148326157549 0 0 0 0 -3.9438150202702218 9.9000912410610908 0 9.9000912410610908 41.87067313065927 0 0 0 0 14.692327075488407 71.816321164379588 0 71.816321164379588 157.79090821477075 0 0 0 0 22.361285717973715 20.859211358245375 0 20.859211358245375 40.869853790201887 0 0 0 0 -9.0738344396813773 40.967557505804507 0 40.967557505804507 46.40669613108912 0 0 0 0 13.805163145201732 9.0361699427248823 0 9.0361699427248823 4.5351765476552828 0 0 0 0 -9.2473343886211978 14.951768489362621 0 14.951768489362621 0.77462157331683557 0 0 0 0 -14.792655174788479 19.681610281219946 0 19.681610281219946 153.60066371364883 0 0 0 0 8.1608012000224335 19.566186650614327 0 19.566186650614327 50.357656903206134 0 0 0 0 -17.032968883890533 28.172314857270976 0 28.172314857270976 97.770022182460252 0 0 0 0 -1.6122446627204567 5.4895058080728631 0 5.4895058080728631 45.799933520647755 0 0 0 0 -15.70192870656453 4.3860724525884507 0 4.3860724525884507 -5.2722019100547186 0 0 0 0 2.3023409439800009 12.109796449088034 0 12.109796449088034 23.051276127277788 0 0 0 0 -45.598769479506473 2.6618965747929906 0 2.6618965747929906 37.755162357116205 0 0 0 0 -29.317418550148659 55.469219685926873 0 55.469219685926873 31.563846657610156 0 0 0 0 -7.055048780945949 52.570647887315715 0 52.570647887315715 27.440150118985912 0 0 0 0 -9.6709220360078234 33.451642729585728 0 33.451642729585728 -13.112325230900751 0 0 0 0 -2.6816356507232015 0.23766749532736853 0 0.23766749532736853 -1.2431624765941507 0 0 0 0 59.171038848492003 44.825550926005235 0 44.825550926005235 0.59629506927240072 0 0 0 0 -3.6937262610715864 18.04540804352774 0 18.04540804352774 9.0585795241221803 0 0 0 0 -32.060662586439321 -213.5555380804617 0 -213.5555380804617 177.0611659535025 0 0 0 0 445.06137107471295 71.15654697386708 0 71.15654697386708 316.66368863337993 0 0 0 0 395.30327909022799 -239.84214734505804 0 -239.84214734505804 638.17579042041689 0 0 0 0 163.80155162842402 -510.62351314871012 0 -510.62351314871012 795.16742977620743 0 0 0 0 115.9726415729283 27.475987559932037 0 27.475987559932037 569.57342771553522 0 0 0 0 -182.06467994676333 223.91551842288754 0 223.91551842288754 355.02271793246473 0 0 0 0 157.03725104747315 -34.116525403336709 0 -34.116525403336709 169.46327115221357 0 0 0 0 29.877573413319624 -4.7018611743860674 0 -4.7018611743860674 404.15888694047317 0 0 0 0 -50.300446526916858 -65.605797823341163 0 -65.605797823341163 442.84778682313845 0 0 0 0 2.7096706366606309 -0.40729852987345794 0 -0.40729852987345794 0.40799496677296432 0 0 0 0 -124.66990672004431 -47.155536735845089 0 -47.155536735845089 999.49583680798514 0 0 0 0 61.826251363146184 -101.6284636398741 0 -101.6284636398741 -129.41127369876449 0 0 0 0 206.30616990863814 -377.01119233120335 0 -377.01119233120335 412.32785035991401 0 0 0 0 -13.638963783372219 91.838305327381022 0 91.838305327381022 232.04234272117537 0 0 0 0 -8.4544283380578378 0.32540043406552854 0 0.32540043406552854 2.795420107485695 0 0 0 0 267.3319273483412 -25.095278679418698 0 -25.095278679418698 -232.23933645110446 0 0 0 0 56.94546285333081 -83.349081588917215 0 -83.349081588917215 52.482871373018497 0 0 0 0 -127.51814648063646 -171.99418943441742 0 -171.99418943441742 356.27490672090607 0 0 0 0 -27.533791876295936 -45.596094224737044 0 -45.596094224737044 -5.1734818667682703 0 0 0 0 -1.8213447023883251 -0.41148205438273777 0 -0.41148205438273777 -0.44236150894456117 0 0 0 0 -5.4010984505239321 -13.691482979880675 0 -13.691482979880675 25.91166080392577 0 0 0 0 2.1371554675558349 6.0627153808060577 0 6.0627153808060577 17.135011645540501 0 0 0 0 -103.7251967349448 28.271413361875602 0 28.271413361875602 48.403119188682467 0 0 0 0 -75.396545098134993 -75.241430944000967 0 -75.241430944000967 118.72191904596286 0 0 0 0 -19.560086463207426 58.460700287649161 0 58.460700287649161 112.13380012725975 0 0 0 0 58.433849048595221 -139.15044242330441 0 -139.15044242330441 70.326455914009784 0 0 0 0 -43.409916791493515 -12.852438810502463 0 -12.852438810502463 202.67011994602944 0 0 0 0 55.469977219303473 -176.87065983991488 0 -176.87065983991488 926.69462154724533 0 0 0 0 60.639129925770249 -194.86688292603139 0 -194.86688292603139 575.34133968942479 0 0 0 0 30.826566991706386 -62.409873695287388 0 -62.409873695287388 234.67690134276563 0 0 0 0 19.832331570667066 -57.4099000788392 0 -57.4099000788392 318.2352018423735 0 0 0 0 152.34701619900807 -192.45668103358366 0 -192.45668103358366 270.84508874258972 0 0 0 0 62.788782228390119 -113.91741356874991 0 -113.91741356874991 215.01932066616064 0 0 0 0 210.16155102828861 -160.90761206792376 0 -160.90761206792376 179.25579215479956 0 0 0 0 0.86323461728934348 -1.1237514744350605 0 -1.1237514744350605 12.322537361526471 0 0 0 0 87.87158635302967 -6.8766853704255482 0 -6.8766853704255482 29.170417957793234 0 0 0 0 -26.538629660693914 -23.903567466883032 0 -23.903567466883032 84.260221929642285 0 0 0 0 127.92519380323358 -188.56596790984395 0 -188.56596790984395 156.07003757466737 0 0 0 0 15.273624741563253 -110.33727925333369 0 -110.33727925333369 102.48245109695563 0 0 0 0 28.398194814755698 -61.764016470051502 0 -61.764016470051502 152.51596019588578 0 0 0 0 -11.497073589799584 8.5349633019759494 0 8.5349633019759494 76.725191028599511 0 0 0 0 26.191707631956419 11.654723025555597 0 11.654723025555597 28.700096479005879 0 0 0 0 -70.74935714581261 -99.555516453794553 0 -99.555516453794553 258.64230122184381 0 0 0 0 10.931091922566338 -222.05130965351054 0 -222.05130965351054 156.92704612233683 0 0 0 0 25.761633545468953 -159.90057432801814 0 -159.90057432801814 241.53897671618688 0 0 0 0 -8.0591562008166875 -31.897042040971428 0 -31.897042040971428 217.28117520380692 0 0 0 0 -20.938382357406226 -141.43336328670921 0 -141.43336328670921 443.81791069567407 0 0 0 0 -31.101267639400248 -77.838915009284392 0 -77.838915009284392 174.27879577675412 0 0 0 0 58.589941926609754 -137.08174808971671 0 -137.08174808971671 377.85519630662384 0 0 0 0 28.334046378843595 133.13972571658087 0 133.13972571658087 297.3880709410405 0 0 0 0 3.0527418664876755 -1.0354051256954433 0 -1.0354051256954433 0.70730080797595463 0 0 0 0 183.82917031515171 -84.944022872819914 0 -84.944022872819914 258.12822742682522 0 0 0 0 7.2020152103220205 -3.1383553470080088 0 -3.1383553470080088 3.3026142801189167 0 0 0 0 1.3289094092842788 -12.852189145791272 0 -12.852189145791272 14.994783946935058 0 0 0 0 33.293398274146057 7.6480291926818609 0 7.6480291926818609 68.320135834936082 0 0 0 0 1.4370571774366212 2.3834821046252017 0 2.3834821046252017 1.0123905437765721 0 0 0 0 -5.2317172087791732 -0.085473476578044938 0 -0.085473476578044938 32.461144351134863 0 0 0 0 -10.346074275979845 5.5413502732244524 0 5.5413502732244524 25.106260725726315 0 0 0 0 -3.3201989090093775 -2.907074053233373 0 -2.907074053233373 36.606668000567879 0 0 0 0 -1.2882753119758821 -2.9456036358020228 0 -2.9456036358020228 6.846631792074561 0 0 0 0 -10.368609501154424 -11.781383780340548 0 -11.781383780340548 39.484419251984491 0 0 0 0 1.2872025589730267 -5.84479736995221 0 -5.84479736995221 24.436313606470677 0 0 0 0 5.5391470965632834 -6.389822423564965 0 -6.389822423564965 24.423723949075793 0 0 0 0 -17.04086675214171 -0.49828966894892801 0 -0.49828966894892801 56.625837174731714 0 0 0 0 -2.9090964199254321 0.10687365426256079 0 0.10687365426256079 50.595226396642303 0 0 0 0 -38.315676710220032 24.271977488149787 0 24.271977488149787 79.188748267755727 0 0 0 0 -23.216676339023252 -2.5608987834166328 0 -2.5608987834166328 56.37141707984847 0 0 0 0 -1.9178191422856603 -3.0019951943082219 0 -3.0019951943082219 14.361896137737407 0 0 0 0 -1.1235624692849342 -1.6026408061534312 0 -1.6026408061534312 56.106036551842408 0 0 0 0 -4.9479774676909116 4.2544196989913701 0 4.2544196989913701 9.2633611711452701 0 0 0 0 -4.8955953147169566 6.2077466416885727 0 6.2077466416885727 48.436707322482107 0 0 0 0 -3.0368967445674571 4.3621504347029258 0 4.3621504347029258 37.14970808891303 0 0 0 0 -1.4281011655652947 4.506187934333866 0 4.506187934333866 37.849568411744258 0 0 0 0 -8.1592979875686069 -0.77334254996458185 0 -0.77334254996458185 38.658169189241562 0 0 0 0 -18.140556629370622 10.401023880614957 0 10.401023880614957 50.529744135552392 0 0 0 0 -20.231736938452968 9.2144803296214377 0 9.2144803296214377 52.632036435621558 0 0 0 0 -1.4192944589781291 1.2595723512640689 0 1.2595723512640689 41.317014742700849 0 0 0 0 -1.6740729893122812 5.2430107081849435 0 5.2430107081849435 40.750173062629472 0 0 0 0 -2.0550972655468573 0.69155729357547102 0 0.69155729357547102 38.59605121323321 0 0 0 0 -13.02878285370798 -7.7666546725213266 0 -7.7666546725213266 64.252695090646739 0 0 0 0 -8.8012060492692399 -2.0544080397248763 0 -2.0544080397248763 35.512454073405479 0 0 0 0 -8.2503230178758713 -1.5405073006113525 0 -1.5405073006113525 33.221878961063339 0 0 0 0 20.804646094985401 -20.179829191822137 0 -20.179829191822137 6.002537361378927 0 0 0 0 -2.9999855298062883 -9.8815234944642896 0 -9.8815234944642896 11.489867273130525 0 0 0 0 -10.056723098456731 -4.244035772484537 0 -4.244035772484537 9.2392373289125658 0 0 0 0 -8.0945291402165367 -32.926848669387255 0 -32.926848669387255 -15.378764035122003 0 0 0 0 -1.1780811853386695 -14.026080124336659 0 -14.026080124336659 38.930907188083438 0 0 0 0 -6.289224827582462 5.1719184580956679 0 5.1719184580956679 14.721880067388412 0 0 0 0 -7.4908505667823952 -0.59864813375846637 0 -0.59864813375846637 18.808651237483389 0 0 0 0 -7.7167538225962744 0.0085868161695543677 0 0.0085868161695543677 19.704055907943257 0 0 0 0 -3.0749769297024825 -1.1835485112799411 0 -1.1835485112799411 20.661089658918144 0 0 0 0 -11.701583901425693 -4.4471006590683828 0 -4.4471006590683828 33.231507599766701 0 0 0 0 80.975791571245509 -54.151271169303982 0 -54.151271169303982 19.969771371845127 0 0 0 0 -0.89350926856448698 -1.8367831286242726 0 -1.8367831286242726 1.1462431438410903 0 0 0 0 -4.3069316711971339 1.8644045571766483 0 1.8644045571766483 6.5770856876305253 0 0 0 0 1.1514227169009246 16.872221098873524 0 16.872221098873524 42.203869977585782 0 0 0 0 -4.0017503918707007 -3.0906944821726938 0 -3.0906944821726938 22.180210881200765 0 0 0 0 -1.4021854767553101 0.59285003486824905 0 0.59285003486824905 9.8859630593975325 0 0 0 0 -0.33865312777106737 0.078127285963091708 0 0.078127285963091708 29.092547328622459 0 0 0 0 -4.9421255730403573 -5.4159913300172775 0 -5.4159913300172775 22.834147465571732 0 0 0 0 -4.7021149358093375 3.424058585826792 0 3.424058585826792 27.399381988061336 0 0 0 0 -7.4352078281572176 -7.6068852934149618 0 -7.6068852934149618 37.835177511340589 0 0 0 0 -3.759116447587985 2.7372784079252597 0 2.7372784079252597 35.140286397203454 0 0 0 0 -10.542950063278113 -8.2302461953659076 0 -8.2302461953659076 38.328103064694005 0 0 0 0 13.510586665778646 14.291115966174402 0 14.291115966174402 43.476425961589484 0 0 0 0 11.050309298935645 25.491511213056128 0 25.491511213056128 61.514091538570938 0 0 0 0 6.9111284183145472 -14.720343798569957 0 -14.720343798569957 79.212467062990982 0 0 0 0 -4.0698720521722862 -6.8510571111510217 0 -6.8510571111510217 48.534626880446012 0 0 0 0 4.698724565874727 -13.864114859781694 0 -13.864114859781694 50.901913410887119 0 0 0 0 4.5827717377694501 -14.016150414790939 0 -14.016150414790939 18.316686674038309 0 0 0 0 4.1282025017853812 6.1846389164093125 0 6.1846389164093125 -10.608527954884494 0 0 0 0 9.0304038690997004 -20.895321791715105 0 -20.895321791715105 27.407884380232645 0 0 0 0 2.8871610638487084 -6.6260455816293913 0 -6.6260455816293913 3.5903321364872842 0 0 0 0 2.712075565215855 -14.51423917381544 0 -14.51423917381544 -7.1356042833140236 0 0 0 0 -0.97050338415375048 -5.6596621832535305 0 -5.6596621832535305 1.4931122396250527 0 0 0 0 -6.391219290492927 2.5921848897123709 0 2.5921848897123709 -31.207296656426024 0 0 0 0 11.517162105794 -13.916036086613076 0 -13.916036086613076 6.9721807079695282 0 0 0 0 111.84674545497461 -80.798952401971292 0 -80.798952401971292 83.584542821408832 0 0 0 0 -2.1879839148859337 1.1510320416166007 0 1.1510320416166007 16.326967788892283 0 0 0 0 -67.76468359358978 15.172235085077773 0 15.172235085077773 58.154713947922573 0 0 0 0 -82.162006658831388 -14.757003231192357 0 -14.757003231192357 158.86764334393229 0 0 0 0 111.04688974557985 -85.267965959411413 0 -85.267965959411413 64.283403272660507 0 0 0 0 17.328944734322704 -11.460583629192115 0 -11.460583629192115 -7.331902563568292 0 0 0 0 -66.706566597714072 -79.03429094927742 0 -79.03429094927742 334.65980460354331 0 0 0 0 124.99597920027588 -67.23594906487142 0 -67.23594906487142 97.47368272064341 0 0 0 0 111.4630825585491 -89.189876112639467 0 -89.189876112639467 100.64954259203296 0 0 0 0 109.54713165786234 -97.594109824003681 0 -97.594109824003681 92.068374040620256 0 0 0 0 3.9914315410463699 -1.0838224754224903 0 -1.0838224754224903 -2.173494220055268 0 0 0 0 13.19148245121778 -2.0643039199021587 0 -2.0643039199021587 -5.0306721230681433 0 0 0 0 6.7845997502963655 22.543561995626078 0 22.543561995626078 91.399154739610822 0 0 0 0 26.323876058173482 -31.847121685670572 0 -31.847121685670572 31.30922659310454 0 0 0 0 12.882934389908769 -14.878390105586732 0 -14.878390105586732 17.536166565303574 0 0 0 0 18.107712407168947 4.0626153107150458 0 4.0626153107150458 0.75531023580697365 0 0 0 0 19.014459664454989 -43.385702046438382 0 -43.385702046438382 111.28069639407204 0 0 0 0 120.71358925719028 -106.96173687917326 0 -106.96173687917326 -117.15272209842078 0 0 0 0 53.449448585142818 38.248341551850899 0 38.248341551850899 -70.373955785406906 0 0 0 0 34.768290688789875 13.772319219489873 0 13.772319219489873 6.3602672963825171 0 0 0 0 366.41493713890668 -170.00825033923138 0 -170.00825033923138 116.50905720735318 0 0 0 0 124.98556399173503 -105.56776697154055 0 -105.56776697154055 119.37722087907605 0 0 0 0 139.97519876867591 -107.76270719727108 0 -107.76270719727108 112.40748154403991 0 0 0 0 153.86705133738525 -60.450608324414134 0 -60.450608324414134 95.377769894141238 0 0 0 0 220.57253065385908 -73.62003030246342 0 -73.62003030246342 96.568371170900718 0 0 0 0 89.122870491550657 -138.0739533101405 0 -138.0739533101405 231.80597309772565 0 0 0 0 192.47595349805988 -143.50124083949595 0 -143.50124083949595 139.7081171728787 0 0 0 0 63.228573929452523 -87.06036798072455 0 -87.06036798072455 193.24259472943595 0 0 0 0 140.24641847103794 -232.32096871810245 0 -232.32096871810245 341.8607774293414 0 0 0 0 84.880994065678692 -280.38414587990701 0 -280.38414587990701 380.04404460902151 0 0 0 0 -50.220588430377234 -96.369394098088378 0 -96.369394098088378 284.95773489058047 0 0 0 0 -2.357021161034254 -23.968974867537327 0 -23.968974867537327 204.95568207519318 0 0 0 0 -24.979949980278889 51.86493639168657 0 51.86493639168657 17.577943815544131 0 0 0 0 -1.2820288439318077 -0.35113960910005204 0 -0.35113960910005204 6.9258329080278855 0 0 0 0 372.19723742922827 -379.50402837749789 0 -379.50402837749789 266.35913174021698 0 0 0 0 52.304723677785887 -294.07860658734171 0 -294.07860658734171 625.85564686659063 0 0 0 0 0.88615490434858657 -34.871900922464192 0 -34.871900922464192 182.32644137614989 0 0 0 0 51.721504653748298 44.383285424916721 0 44.383285424916721 0.38757501094369218 0 0 0 0 63.129904696500489 -258.91151695043482 0 -258.91151695043482 212.06398872080899 0 0 0 0 -25.201583542914705 22.055092513057389 0 22.055092513057389 30.039010210630295 0 0 0 0 5.2306716699940807 29.840065444328502 0 29.840065444328502 2.048289182184817 0 0 0 0 -9.6732678752318861 11.649204438963352 0 11.649204438963352 22.727836497571843 0 0 0 0 -21.668753771005868 -27.714272163804708 0 -27.714272163804708 6.2123236187244402 0 0 0 0 -46.280774890739394 -8.0952023070485666 0 -8.0952023070485666 31.397844533370517 0 0 0 0 -14.470374556264233 1.0980697568911637 0 1.0980697568911637 33.770157100516371 0 0 0 0 -25.629336485157182 -16.098780121616073 0 -16.098780121616073 32.829443084277955 0 0 0 0 -7.384807439107135 -6.8944458280120671 0 -6.8944458280120671 37.400836331500614 0 0 0 0 -8.6209255863789167 0.1120910386732703 0 0.1120910386732703 38.608009992887673 0 0 0 0 -9.8842181743739275 -3.7019665181942401 0 -3.7019665181942401 38.305548538453877 0 0 0 0 13.366912886373939 -1.6284852830540331 0 -1.6284852830540331 29.246489061863713 0 0 0 0 7.9869430503745207 -1.7379536097887467 0 -1.7379536097887467 29.244455327745527 0 0 0 0 -0.2597973498977808 9.3922194075257721 0 9.3922194075257721 21.54818826670089 0 0 0 0 
</DataArray>
<DataArray type="Float64" Name="cross_section_updated" format="ascii">
1 1 1 1 1 1 0.010054209501925229 1 1 1 0.010094520517926893 1 1 1 0.010152439939799938 1 1 1 1 1 1 0.010653585903982125 0.010116298511237578 1 1 1 1 0.01000548777593859 0.010575101152947375 1 0.010411573808552005 0.011571117507278085 1 0.011815451934610928 1 1 1 0.013550976775255784 1 1 0.0099228408016576175 1 1 1 1 1 1 1 0.010040290600703989 1 1 1 1 1 1 1 1 0.0096474521022514009 1 1 0.010156152486291002 1 0.0093991065952861441 1 0.010074556043646717 1 0.011295022640441981 1 1 1 1 1 1 1 1 1 1 1 1 1 1 1 1 0.010721351010357934 1 1 1 1 1 1 1 1 0.0099920197262713482 1 1 0.0099295358808695715 0.0099756193716518601 1 1 1 1 1 1 1 1 1 1 1 1 0.0098270628322018605 1 1 1 1 1 0.011448315229241954 1 1 0.011036235008428982 1 1 1 1 1 1 1 1 1 1 1 1 1 1 1 1 1 1 1 0.011147468656748049 1 1 1 1 1 0.010525695448737155 1 1 1 1 1 1 1 1 1 1 1 1 1 1 1 1 1 1 1 1 1 1 1 1 0.009968109736816274 1 0.013879242008102921 1 1 1 0.011757009391035078 1 1 1 0.011965445057105983 1 1 1 0.010004710168025937 0.014094948902667041 1 1 0.010748449511312888 1 1 1 1 0.01132488627391549 1 1 1 1 1 0.010056306022700974 1 1 1 1 0.010002169743991832 1 0.010355385053399137 1 1 0.011156296202704108 1 1 1 0.0099361480091651379 1 1 0.01118537507200844 1 1 1 1 1 1 1 1 1 1 0.011558379786874299 1 1 0.010004612399266158 1 1 1 1 1 1 1 0.010285289723491889 1 1 1 1 1 1 1 1 1 1 1 1 1 1 1 1 1 1 1 1 1 0.01472030240230582 1 0.015525432305028536 1 1 1 1 1 0.010002893113632257 1 1 1 1 1 1 1 1 0.012097841787505403 1 1 1 0.010969667049747882 1 1 0.012350648216790688 1 1 1 1 0.010888979186782721 1 1 0.010384124998199365 1 1 1 1 1 0.010845455156901643 1 0.0098933067487011906 1 1 1 1 1 1 1 1 1 1 1 1 1 1 1 1 1 1 0.010275414429310932 1 1 1 1 1 0.01230290538047938 0.014087712135963692 1 1 1 1 1 1 1 1 1 1 0.014780792371029056 1 1 1 1 1 1 1 1 1 0.011702570552239369 1 1 0.0094000211091727053 0.010006521080060012 1 1 1 0.0099961254512426264 1 1 0.0087519080664487658 1 1 1 1 1 1 1 1 1 1 1 1 1 1 1 0.012885741848578646 1 1 1 1 1 1 1 1 0.011765255542875774 1 1 0.01002907293725825 1 1 1 1 0.013780741655058637 1 1 1 1 1 1 1 1 1 1 1 1 1 1 0.012058047238830062 0.013820230128718825 1 1 0.011032277945573944 0.011282859595308108 1 0.010031285953245539 1 0.010998702455396686 1 0.012059580880403889 1 1 0.009894400779190746 1 1 1 1 1 1 1 1 1 0.0106306901391395 0.012034211923433352 1 1 0.01020315406802632 1 1 1 1 1 0.01298606920195234 1 1 0.013125897834889795 1 1 1 1 0.013202064745467434 1 1 1 0.010380879011191431 1 1 1 0.010112382610401333 1 0.01307663534927885 1 1 0.010404188155854983 1 1 1 1 1 1 1 1 1 1 1 0.010687439908728787 1 1 1 1 1 1 0.010244514048705199 1 1 1 0.010061903600282937 1 1 1 1 1 1 1 0.011941579706741885 1 1 1 1 1 0.010222655172117696 1 0.0096150130409875002 1 1 1 1 1 0.010458583167890407 0.010957942602082715 1 1 1 0.00999835144729261 0.011376709656819767 1 0.0097358824117483918 1 1 1 1 1 1 1 0.010277738051324242 1 1 1 1 1 1 1 1 1 1 1 1 1 1 0.010234490473580394 1 1 0.010292807030028382 1 0.010512228524904639 1 1 1 1 1 1 1 1 1 1 1 1 1 1 0.010000662869168743 1 1 1 1 1 1 1 1 1 1 1 1 1 1 1 1 0.0099506063394746783 1 1 1 1 1 1 1 1 1 1 1 0.010110325228203248 0.01028552135182186 1 1 1 1 1 1 1 1 1 1 1 1 1 1 1 1 0.01077941106781798 1 1 1 1 1 1 1 0.010310674877379581 1 1 1 1 1 1 1 1 0.012085471397558271 1 1 1 0.0099889359959366587 1 1 1 1 1 1 1 1 1 1 1 1 1 1 1 1 1 1 1 1 1 1 1 1 1 1 1 1 0.010210477922904585 1 0.010427513506243153 1 1 1 1 1 1 1 1 1 1 1 1 1 0.010432390974909977 1 1 1 0.010000307517105409 1 1 1 1 1 1 1 1 1 1 1 1 1 0.0099984617835644062 0.010459634566755222 1 1 1 1 1 1 1 0.01007277345365221 1 1 1 1 1 1 1 1 1 1 1 0.010381877675209353 1 1 1 1 1 1 1 0.010155865972451203 1 1 1 1 1 1 1 1 1 1 1 1 1 1 1 1 1 0.010090078337274874 1 1 1 1 1 1 1 1 1 1 0.010017935976458871 1 1 1 1 1 0.010018065056783673 1 1 1 0.009997705049387743 1 1 1 1 0.011152861333337314 1 1 1 1 1 1 1 0.010145817090173074 1 0.010196732291951283 1 1 0.011112529379960831 1 0.011601364558324145 1 1 1 1 1 1 1 1 1 1 1 1 1 1 1 1 1 1 1 1 1 1 1 1 1 1 1 1 1 1 1 1 1 1 1 0.010006233603415484 1 0.015750820811743442 0.010010811412495406 1 1 1 1 1 1 1 1 1 1 1 0.015406284485938948 1 1 1 1 1 1 1 0.015408174574730597 1 0.010060142841174156 1 0.014902517543751742 1 1 1 1 1 1 0.01027589667733016 1 0.0099975759690629322 0.010767447776996978 1 1 1 1 1 1 1 1 1 1 1 1 1 1 1 1 1 0.0099911288657853047 1 1 1 1 1 1 1 1 1 1 1 1 1 1 0.010069954434558879 1 1 1 1 1 1 1 1 1 1 1 1 1 0.010251954249358033 1 1 1 1 1 1 1 1 1 0.010218203601027324 1 1 1 1 1 0.010732832501952791 0.010036156185707443 1 1 1 1 0.0095001264015054029 0.012328529811350221 1 1 1 1 1 1 1 1 1 1 1 0.014556148446083885 1 1 1 1 0.014318210297016035 1 1 1 1 1 1 0.011338534783710465 1 1 0.013273621451728541 1 0.012725640393260094 1 1 1 0.011231049598877763 1 1 1 1 1 1 1 0.01000092586452403 1 1 1 1 0.015275401197233409 0.01201620928410394 1 1 0.0099920114552525738 1 1 1 0.014149135478120236 0.0088614855994959482 0.012530630785841745 0.010002598454646313 1 1 0.016628108021029889 1 1 1 1 1 1 1 1 0.010463537511356421 0.010353811214197366 1 1 1 1 1 1 0.010281657184676217 1 0.013228518641336187 1 1 1 0.010075778514660037 1 1 1 1 1 1 1 1 1 1 1 1 1 1 1 1 1 1 1 1 1 1 1 1 1 1 1 1 0.010165856851934918 1 1 1 1 1 1 1 1 1 1 1 1 1 1 1 1 1 1 1 1 1 0.009897211740927548 1 1 1 1 1 1 1 1 1 0.010402357035260355 1 1 1 1 1 1 0.010002543080438868 1 1 1 1 1 0.009930933539672275 1 1 1 1 1 0.0099243533823648207 1 1 1 1 1 1 1 1 1 1 0.0098344831137496015 1 1 1 1 0.0093937845772408077 0.012776706538286862 1 1 0.016844291190314529 1 1 1 1 0.0099587472726785139 1 1 0.013652076929522364 1 1 1 1 1 0.00966838854990687 0.010064786353758039 1 1 1 1 1 1 0.010119327991200452 1 1 1 1 1 1 1 0.012881643305680996 0.013417946066043455 1 1 1 0.0098870105874026108 1 1 1 0.0097788465765122103 1 1 0.013757354233825354 1 0.012935606822853978 1 1 1 0.010312936426125394 1 1 0.010025404178394601 0.010017166420232053 1 1 1 1 1 1 0.012821680272350462 1 0.012385965788676062 1 0.0103379295712924 1 1 1 0.010021876299992653 0.0098085252877089801 1 0.011733120849441531 1 1 1 1 1 1 1 1 1 1 1 1 1 1 1 1 0.009831360799877991 1 1 1 1 1 1 1 0.013537089080813195 1 1 1 1 1 0.010053643834581141 1 1 1 0.010400089264102852 1 1 1 1 0.010840114468796369 1 0.010011666287222918 1 0.010766153936808003 1 1 1 1 0.011948585384015147 1 1 0.011173951456264181 1 1 1 1 1 1 1 1 1 1 1 0.0094830723958389054 1 1 1 1 0.0091218598101054649 1 1 1 1 0.011834771188515121 1 1 1 1 1 1 0.010161294655665174 1 1 1 0.0097395822183817121 1 0.010001159481207764 0.0097794237492583903 1 1 1 1 1 1 1 1 1 1 1 1 1 1 1 1 1 1 1 1 1 1 1 1 1 1 1 1 0.010239988021318499 1 1 0.010087750631861878 0.009530173940412074 1 0.0099514380318186761 1 1 1 1 0.011119265922367201 1 1 0.010389227402080467 1 1 1 1 1 1 1 1 1 1 1 1 1 1 1 1 1 1 1 1 1 1 1 1 1 1 1 1 0.010090134675235753 1 1 1 1 1 1 1 1 0.0099664487920123768 1 1 1 1 1 1 1 0.0099063268857706652 1 0.010002509786499358 1 1 1 0.0099917876437887708 1 1 1 1 1 1 1 0.0099654278066950135 1 0.010001648734723444 1 1 1 1 1 0.0099917955305786222 1 1 1 1 1 1 1 1 1 1 1 1 1 1 1 1 1 1 1 1 1 1 1 1 1 1 1 1 1 1 1 1 1 1 1 1 1 1 1 0.0097742544276086633 0.010567146481624103 1 1 0.0099796732967558626 1 1 1 0.010132150670064025 1 1 1 0.010181809341407902 0.0099734772566188387 1 1 0.0098908251238464251 1 1 1 1 1 1 1 1 1 1 1 1 1 1 1 1 1 1 1 1 1 0.0089132506362122194 1 0.009626383518525369 1 1 1 1 1 1 1 1 1 1 1 1 1 1 1 1 1 1 1 1 1 1 1 1 1 1 1 1 1 1 1 1 1 1 1 1 1 1 1 1 1 1 1 1 1 0.010243177303409434 1 0.01207953403887878 1 0.01044789834871522 1 1 0.011378738241274286 1 1 1 1 1 1 1 1 1 1 1 1 1 1 1 1 1 1 1 1 1 1 1 1 1 1 1 0.0099001223401183995 1 1 1 1 1 1 1 1 1 1 1 1 1 1 1 1 1 1 1 1 1 1 1 1 1 1 1 1 1 1 1 1 1 1 1 1 1 1 1 1 1 1 1 1 1 1 1 1 1 0.010004172194163446 1 1 1 1 0.0099520694975564761 1 1 1 1 1 1 1 1 0.010171496022904274 1 1 1 1 1 0.010415727799307864 0.010876244651184051 0.012885241651325673 1 1 1 1 0.010489117899863967 0.010664791266082885 1 1 0.013784466659827212 1 1 1 1 1 1 1 1 1 1 1 1 1 1 0.011039724405554641 0.010001964865908559 1 0.010257424891661411 1 1 1 1 1 1 1 1 1 1 1 1 1 1 1 1 1 1 0.0098057971517124271 1 1 1 1 1 1 0.0093946164399519184 1 1 1 1 1 1 1 1 1 1 1 1 1 1 1 1 1 1 0.010328548422969281 1 1 1 1 1 1 1 1 1 0.010903817302900087 1 1 0.010009023300261046 1 1 1 1 1 1 1 1 1 1 1 1 1 1 1 1 0.0123024252257827 1 0.0099101603372094595 1 1 1 1 0.0095823701118602708 1 0.011102105271340529 1 1 0.010233005628707133 0.013068717539167416 1 1 0.01066298220406733 1 1 1 0.010168456495395968 1 1 1 1 1 1 0.010015110783945954 1 1 1 0.01301713988897482 1 1 1 1 0.011717019226334216 1 1 1 1 1 1 1 0.010546069371116519 1 1 1 1 1 0.01161516346153614 1 1 0.010062244938077992 1 1 1 1 1 1 1 0.010016442430499897 1 1 1 0.014068200227119193 0.009382985991698331 1 1 1 0.015908961183690926 1 1 1 1 1 0.01000166960623552 0.010789108396673783 0.011397733126168865 1 1 1 1 1 1 1 1 1 0.010155152391368659 0.010052521466026461 1 0.0099759107433798483 1 1 1 1 1 0.010055290487825269 1 1 0.010103698073562119 1 0.010031293904753604 1 1 1 0.0099368595762285954 1 1 0.01372735995000026 1 1 1 1 1 1 1 0.012341709490658524 1 1 0.012763409291193011 0.0097593263127900148 1 1 0.012015136044364289 1 0.013244125071498174 1 1 0.0097440099091669116 1 1 0.0131969176676376 1 0.0094470151739962441 1 1 1 0.01030578430907172 1 1 0.012154631396090285 1 0.012842045010053232 1 1 0.013722819038754679 1 0.010068814268033048 1 1 1 1 0.013977481647413833 0.01031190648499496 1 1 1 1 1 1 1 1 1 0.009983260000631709 1 1 1 1 1 1 1 1 1 1 1 1 1 1 1 1 1 1 0.01001104276361996 0.0096967107711433201 1 1 1 0.01382963126723049 1 1 1 1 0.012431516057175187 1 1 0.011285602291180545 1 1 1 0.012157154326656459 1 1 0.01142257856606127 1 1 1 1 0.010000587677955574 1 1 1 1 1 0.010142400771800191 1 1 1 0.0087251099468485856 0.010004312825068876 1 1 0.010107240451759505 1 1 1 1 1 0.015995962840189934 0.0090713716422750369 1 1 1 1 0.009925671024644471 1 1 1 1 0.016220943761251581 1 1 1 1 1 1 1 1 1 1 1 1 1 1 1 1 1 1 1 1 1 1 1 1 1 1 1 1 0.016144335741959882 1 1 1 1 1 1 1 1 1 1 1 0.010808242378897893 1 1 1 1 0.010174292252683062 1 1 1 0.010959999119398597 1 1 0.0099875644797096028 1 1 1 1 1 0.010087355048838538 1 1 1 1 1 1 1 1 1 1 1 1 1 1 1 1 1 1 1 1 0.010535174048934368 1 1 1 1 1 0.010922662601546999 1 1 1 1 1 1 1 0.010134655446678296 1 1 1 1 1 1 1 1 1 1 1 1 1 0.009254512147269172 1 1 1 1 1 0.010364365124404371 0.0087124340992483472 1 1 1 1 0.016153325728974131 1 0.010000786790461723 1 1 1 0.0096212267988210996 0.014008318939259981 1 1 0.011604775419589364 1 1 1 0.01128451976613006 1 1 1 1 0.015887046597891301 1 1 0.009701959559172281 0.0098958668163201362 1 1 1 1 1 1 0.011017730881243765 1 1 0.0097551778991714789 1 1 1 1 0.010490389933181172 1 1 1 1 1 1 1 1 1 1 1 1 1 1 1 1 1 1 1 0.010722052238081882 1 0.0098833890693456484 1 1 1 0.010070671923008562 1 0.010285621416675456 1 0.011514789515210296 1 1 0.011523001848896011 1 1 0.011537047335191626 0.010112239713161554 0.0090679736166771972 1 1 1 0.010502465445396219 1 1 1 1 1 1 0.0093279732827796346 1 1 1 1 1 1 1 0.0084783753243899678 1 0.010186753078718672 1 1 1 1 1 1 1 0.0099309339752676924 1 1 1 1 1 1 1 1 1 1 1 0.0097752048166384695 1 1 0.0097795861038381289 1 1 1 1 1 1 1 1 1 1 1 1 1 1 1 1 0.0099758647329633802 1 1 1 1 1 1 1 1 1 1 1 1 1 1 1 1 1 1 1 1 1 0.009669976663212539 1 1 1 0.0098257058218417619 1 1 1 1 1 1 1 1 1 1 0.0098004196912481068 1 1 1 1 1 1 1 1 1 1 0.0094177906791708677 1 1 1 1 1 1 0.010561605855411882 1 1 1 0.011379673010078363 1 1 1 1 1 1 1 1 1 1 1 1 1 1 1 1 1 1 1 1 1 0.0099961552668227129 1 1 1 1 1 0.011518686875409528 1 1 0.011681754273213173 1 1 1 1 1 1 0.011422336941372489 1 1 1 1 0.010624250106072264 1 1 1 1 1 1 1 1 1 1 1 1 1 1 1 1 1 1 0.010497411359867934 1 1 1 1 1 0.012290556830243191 1 1 1 0.012838906531019319 1 0.01125288115805359 1 1 1 1 1 1 1 0.01214938962448492 1 1 1 0.011783442530038924 0.012246207772616043 1 1 1 1 1 0.0099893921837275936 1 1 1 0.0099796903976980492 1 1 1 1 1 1 1 1 1 1 1 1 1 1 1 0.010392019255203496 1 1 1 1 1 1 0.010149378574133099 1 1 1 1 1 1 1 1 1 1 1 0.0099744511652950247 1 1 1 1 1 1 1 1 1 0.011306978471871891 1 1 1 1 0.014349566853981678 0.010950449112007096 1 1 1 1 1 1 1 1 0.013846240499184176 0.010919294488690327 1 0.013860034183078192 1 1 1 1 1 0.0099751881417442199 1 1 1 1 1 1 0.010403204404668319 1 0.010003829544263624 1 1 1 1 1 1 1 1 1 1 0.010106180184438967 1 1 1 1 1 1 0.011085684864108694 1 1 1 1 1 1 1 1 0.01206050123977089 1 1 1 1 1 0.014586003718483615 1 1 0.015550855493140002 1 1 1 1 1 1 0.010341119480326719 1 1 1 1 1 1 1 1 0.010961215116670616 1 1 1 1 0.01139245219620115 1 1 1 1 1 1 1 1 1 1 0.010887580996750187 1 1 1 1 1 1 1 1 1 0.011507976428293196 1 1 1 1 0.011388935004679501 1 1 1 1 1 1 1 1 0.010440514171146149 1 0.010545050617696918 1 1 1 0.010013276400985498 1 1 1 1 1 1 1 1 0.010117490742684195 1 1 1 0.010557866061967909 1 1 1 0.0098981705017501739 1 1 0.010128729406672369 1 1 1 1 1 1 1 1 1 1 1 1 1 1 1 1 1 1 1 1 1 1 1 1 1 1 1 1 1 1 1 1 1 1 1 1 1 1 1 1 1 1 1 1 1 1 1 1 1 1 1 1 1 0.010158049219249256 1 1 1 0.010240375485887349 1 1 1 1 1 1 0.0098697408277573298 1 0.010331894104413149 1 1 1 1 0.010255945126828496 0.010224857180199267 1 1 1 1 1 1 1 1 1 1 1 1 1 1 1 1 1 1 1 1 1 1 0.011705524977243181 1 1 0.011265308458164565 1 1 1 0.010023083972608688 1 1 1 1 1 1 1 1 1 1 1 1 1 1 0.010133870609908995 1 0.010794539632160574 1 0.010593814575015612 1 1 1 1 1 1 1 1 1 1 1 1 1 1 1 1 1 0.010616773432401867 1 1 1 1 1 1 1 1 1 1 1 1 1 1 1 1 1 1 1 1 1 1 1 1 1 1 1 1 1 1 1 1 1 0.010027085654395963 1 1 1 1 1 1 0.010409758086910904 1 1 0.010373644885888189 1 0.0099863797645940774 1 1 0.010650039060944963 1 1 1 0.010290650311446634 1 1 1 1 1 1 1 1 1 1 1 1 1 1 1 1 1 1 1 1 1 1 1 1 1 0.010025252185015422 1 1 1 1 0.010010806855501757 1 1 0.0099852217973669926 1 1 1 1 1 1 1 1 1 1 1 1 1 1 1 1 1 1 1 1 1 1 1 1 1 1 1 1 1 1 0.010764968301498135 1 1 1 0.010375048945975518 1 1 1 1 0.011789149805681704 1 1 1 1 1 0.012206332290109201 1 1 1 1 0.013408924547734144 1 1 1 1 1 1 1 1 1 1 1 1 1 1 0.010230994826923053 0.010623537263481628 1 0.01311204550164637 1 0.013300181888805565 1 1 1 1 1 1 1 1 1 1 1 1 1 1 1 1 1 1 1 1 1 1 1 1 1 0.0098107457617751474 0.013486732136038265 1 1 0.013948859514508699 1 1 0.012051472688407542 1 1 1 1 1 1 1 1 1 1 1 0.011736543177341879 1 1 0.010737897999077935 1 1 1 1 1 1 1 1 1 1 1 1 1 1 0.013750400402787872 0.010067881180901938 1 0.0099255361086707083 0.011944188077819213 1 1 1 1 0.010016228689374573 1 1 1 0.010991138656212407 0.010944595398929773 1 1 1 1 1 1 1 0.010722312224345923 1 1 1 1 1 1 1 1 1 1 1 1 1 1 1 1 0.011020025442346412 1 1 1 1 0.011250151386489458 1 1 1 1 1 1 1 0.010877272703328387 1 1 1 1 1 1 1 0.010607898220731988 1 1 0.010203036977242673 1 1 1 1 1 1 1 1 1 1 1 1 1 1 1 0.010043524861223741 1 1 1 1 1 1 1 1 0.010673939583597856 1 1 1 1 1 1 1 0.010623407306330381 1 1 1 1 1 0.010269322821105268 1 1 1 1 0.010215844931365754 1 1 1 1 1 1 1 1 1 1 1 1 0.010391816189975506 1 1 1 1 1 1 1 1 1 1 1 1 1 1 0.010062858581048212 1 1 1 1 1 1 1 1 1 1 1 1 1 0.010756081756097626 0.010892510137368437 1 1 0.0097858114812145319 1 1 1 1 0.012931832382316337 1 1 1 0.014544012091622111 1 1 0.011141748400507061 1 1 1 1 0.015308238953949458 1 1 1 1 1 1 1 1 1 1 1 1 1 1 1 1 1 1 1 1 1 1 1 1 1 1 1 1 1 1 1 1 1 1 0.0099798189110770399 1 1 1 0.010375860011115947 1 0.010160015079750189 1 1 1 1 1 1 1 1 1 1 1 1 1 1 0.01006271621659021 1 1 1 1 1 1 1 1 0.010473700550336326 1 1 1 0.010019191355366466 1 1 1 1 1 1 1 0.010824335486283901 1 0.010617576682421047 1 1 1 1 1 1 1 1 1 1 1 1 1 1 0.010085459756409119 1 1 0.010019845748838517 1 1 1 1 1 1 1 0.010808425614701505 1 1 1 1 1 1 1 1 1 1 1 1 1 1 1 1 1 1 1 1 1 1 1 1 1 1 1 0.010183129804083556 1 1 0.011378755497786081 1 1 1 0.010859671368642779 1 1 0.01058496798846763 1 1 1 1 1 1 1 1 1 1 1 1 1 1 1 1 1 1 1 0.010140688755514172 1 1 1 1 1 1 1 1 1 1 1 1 1 0.01007507474794357 1 1 1 1 1 1 1 1 1 1 1 1 1 1 1 1 1 1 1 0.010271277678581211 1 1 1 1 1 1 1 1 1 1 1 1 1 1 1 1 0.0099943730113673367 1 1 0.0099187382614423746 1 1 1 0.010305052018147179 1 1 0.010595505464371942 1 1 1 1 1 1 1 1 1 1 1 1 1 1 0.0107163710968878 1 1 0.010993124524186125 1 1 1 1 1 1 1 1 1 1 1 1 1 1 1 1 1 1 1 1 1 1 1 1 1 1 1 1 1 1 1 1 1 1 1 1 0.01201338607577654 1 1 1 1 0.011452988242024056 1 1 1 1 1 1 1 1 1 1 1 1 1 1 1 0.010950622733202915 1 0.012175562163344172 0.010778824965174079 1 1 0.011465909634666951 1 0.011071123809118113 1 1 1 1 1 1 1 1 0.01002793411081212 1 1 0.010125215168315046 1 1 1 1 0.011215856965125358 0.011935022865516242 1 0.011654867301036658 1 1 1 1 1 1 1 1 1 1 1 1 1 1 1 1 1 1 1 1 1 0.010319855098372742 1 1 1 1 1 1 1 1 1 1 1 1 1 1 1 1 1 1 1 1 1 1 1 1 1 0.010344312828874415 1 1 1 1 1 0.010292073358569525 1 1 1 1 1 1 1 1 1 0.010756550644688468 1 1 1 1 1 1 1 1 1 1 1 1 1 1 1 1 1 0.010401096530614572 0.010275447760476826 1 1 0.010632950324876439 1 1 1 0.010341008154339488 1 1 1 1 1 1 1 1 1 1 0.010245085862002856 1 1 0.01001775234151576 1 0.010252949996241618 1 1 1 1 0.010112849719239673 1 1 1 0.010069158007098776 1 1 1 1 1 1 0.0099929897289309684 1 1 1 1 1 1 0.0099930403629902714 1 1 1 1 1 1 1 1 1 1 1 1 1 1 0.010237400688651647 1 1 0.010622295219256584 1 1 1 0.0097573849035685802 0.0098925228111347956 1 1 1 1 1 1 1 1 1 1 0.0098207862825408186 1 1 1 0.010116278636383801 1 1 1 1 0.0099237931751728521 1 1 1 1 1 1 1 1 0.016750372998879732 1 1 1 1 1 0.016900932616994588 0.0091272998758888651 1 1 1 0.007471264641877428 1 0.01153426927328908 0.010569816718696801 1 1 1 1 1 0.0094806235063452406 1 1 1 1 1 1 0.0098225522539993632 1 1 1 1 1 1 1 0.010852541647040602 1 1 0.010939779749893536 1 1 0.0099576901615655751 1 1 1 1 1 1 1 1 1 1 1 1 1 1 0.010825271315874112 1 1 1 0.010018744942125046 1 1 0.013206570562075215 1 1 1 1 0.010050817052426168 1 1 1 1 1 1 1 1 0.01276309955704721 1 1 1 1 0.0082939607456153797 1 1 1 1 1 1 1 1 0.0081036333696867958 1 1 1 1 1 1 1 1 1 0.010398035713046651 1 1 1 0.011052063441869152 1 1 0.011234469965307583 1 1 0.011551069471009399 1 1 1 1 1 1 1 1 1 0.010698594455585927 1 1 1 1 1 1 1 1 1 1 1 1 1 1 1 1 0.010220522733801168 1 1 1 1 1 1 1 1 1 1 1 1 1 1 1 1 1 1 1 1 1 1 1 1 1 1 0.014477682167649813 1 0.014016637882079717 1 1 1 1 1 1 1 1 1 1 0.014602447779516619 1 1 0.010109579272712761 1 1 1 1 1 1 1 1 1 1 1 1 1 1 1 1 1 1 1 1 1 0.010217295278158133 1 1 1 1 1 1 1 1 1 0.016282730870963866 1 0.010014439385076401 1 1 1 1 1 1 1 0.0094997129705604623 1 0.0097354941680767408 1 1 1 1 1 1 1 1 1 1 1 0.0098454766019676759 1 1 1 1 0.010047096351749895 1 0.012117731530242749 1 1 1 1 1 1 0.0095493888293470778 1 1 0.015815997722534853 1 1 0.015038592286033168 1 1 1 0.011934671604223913 0.013470696900652654 0.012645266375375165 1 1 1 1 1 1 1 1 1 1 1 1 1 0.010266123386658957 1 1 1 1 1 1 1 0.01032887423786872 1 0.010583864885425145 1 0.0097560027004892306 1 1 0.010568284777354357 0.0099994487523286275 1 1 1 1 1 1 0.012736598110785728 1 1 1 1 0.010072926069233767 1 0.0097679083265461812 1 0.01019232702878153 1 0.0098943490519628544 1 1 1 1 0.011642377446228929 1 1 1 1 1 0.010636349639506678 1 1 1 1 1 1 1 1 1 1 1 1 1 1 0.0099360831889670521 1 1 1 1 1 0.010083802989618919 1 1 1 0.010198630075231257 1 1 1 1 1 1 1 1 1 1 1 1 1 1 1 1 1 0.010396408953802949 1 1 1 1 0.010095943186553944 1 1 1 1 1 1 0.0099889705188381979 1 1 1 1 1 1 1 1 1 1 0.010239009319212518 1 1 0.0099906402736080011 1 0.0099970322709992156 1 1 1 1 1 1 1 1 1 1 1 0.010144968327383888 1 1 1 1 1 1 0.0099624633062006286 1 0.010510194836718122 0.0099341733873952471 1 0.010091587877651369 1 1 1 1 1 1 1 0.010182393092237266 1 1 1 1 1 1 1 1 1 1 1 1 1 1 1 1 0.010002751150364433 1 1 1 1 1 1 1 1 1 1 0.010159102500246448 1 1 1 1 1 1 1 1 1 1 0.010339763942855594 1 1 1 1 0.01018086161844731 1 1 1 1 1 0.0099207128247011979 1 1 1 1 0.010053987349967344 1 1 1 1 1 1 1 1 1 1 1 1 1 1 1 1 1 1 0.0095121577279964568 1 1 1 1 1 1 1 1 0.010328935053385639 1 0.009383996165398964 0.010001222338855502 1 1 1 1 1 0.0098602455088472908 1 1 1 1 1 1 1 1 1 1 1 1 1 1 0.010115491399526447 1 1 0.0098471005689773194 1 0.010126827307812104 0.010386763332117807 1 1 1 1 1 1 0.010371800228813892 1 1 1 1 0.010050566566481411 1 0.0098986814647466642 1 1 0.0097863302460823899 1 1 1 1 1 1 0.01001972339224985 0.011050271710828386 1 1 1 1 1 1 1 1 1 1 1 1 1 1 1 0.010114042706307948 1 1 1 1 1 1 1 0.0099503586033636605 1 0.0095501709406885897 1 1 1 0.0098440847412854179 1 0.009277253044236277 1 1 1 1 1 1 1 1 0.010078759695944755 1 1 1 1 1 0.0093353305335367905 1 0.01235298933817159 1 1 1 1 0.011634576913232941 1 1 1 1 1 0.010619382550481064 1 1 1 1 1 1 1 1 1 1 1 1 1 1 1 1 1 1 1 1 1 1 1 1 0.013420876180715488 1 1 1 0.010400533702589166 1 0.012732807752157037 1 1 1 0.010476207056152827 1 1 1 1 1 1 1 1 1 1 1 1 1 1 1 1 1 0.0099346173485666441 0.0099643667742043713 0.0098160283347859534 0.010293019145726817 1 1 1 1 1 1 0.010153674283825454 1 1 1 0.010391373871159647 1 1 1 1 1 1 1 1 1 1 0.0091343444347213153 0.010545494847600177 0.010029782429023455 1 1 0.0079214800821932815 0.0099733458806869485 1 1 1 1 1 1 1 1 1 0.010688852648877159 1 1 1 1 1 1 1 1 0.011508069898465373 0.0097852343682234451 1 1 1 0.010016642955346896 1 1 1 1 1 1 1 1 1 1 1 0.010928489187164128 1 0.010017159065999516 1 1 1 1 1 0.0099990682532780061 0.0086801397326982006 1 1 0.011508149338735632 0.010430169581903877 1 1 1 1 1 1 1 1 1 1 1 1 1 1 1 1 1 1 1 1 1 1 1 1 1 1 1 1 1 1 1 1 1 1 1 1 1 1 1 1 1 1 0.011900736825754744 0.010180054255870423 1 1 1 1 1 1 1 1 1 1 1 1 1 1 1 1 1 1 1 1 0.010411289334484621 1 1 1 1 1 1 1 1 1 1 1 1 1 1 1 1 0.0099620517648510779 1 0.010274628694750368 1 1 1 1 1 1 1 1 0.011254965133842153 1 1 1 1 1 1 1 1 1 1 1 0.0099988057534881568 1 1 0.010011991894114246 1 1 0.010790811932144474 1 1 1 1 0.0093914981850404828 1 1 1 1 0.010001069085524922 1 1 0.010129723420432737 1 0.010515047911003963 1 1 1 1 1 0.01059491581633968 1 1 1 1 1 1 1 0.010222679299500595 1 1 1 1 1 1 1 1 1 1 1 1 1 1 1 1 1 1 1 1 1 1 1 1 0.010525074118394139 1 1 1 0.010039007723044627 1 1 0.010461907806487748 1 1 1 0.010229226024231578 1 1 1 1 0.010214770410740032 1 0.01027122865924808 1 1 1 1 1 1 1 1 0.0099380907162440035 1 1 1 1 1 1 1 1 1 1 0.012211472639998557 1 1 0.010009627592677883 1 1 0.010871653062057085 1 1 0.011783640589129733 0.0097777970653651243 1 1 1 1 1 1 1 0.0099584687060419383 0.010562951125730236 1 1 1 0.010793674890563426 1 1 0.010603198256811244 0.010342497966931591 1 1 1 0.010057358255208391 0.010249337122985442 1 0.011313139304810994 1 1 0.0099999956567052052 1 1 1 1 0.010553278431091528 1 0.010294532961044319 0.010641859811749699 1 1 1 0.010665971478598818 1 0.0098966010218270919 0.010333695017223487 1 0.010311072201217242 0.010648500990659598 0.0099530175496381386 0.010158901311174279 1 0.010349721507962234 1 0.01090324517421826 1 0.010756000843635032 1 1 1 0.0096734938398190251 1 1 0.011171399559444855 1 0.011457387063927647 0.0098498886524944311 1 1 1 1 0.011149212675982893 1 0.010784616967024261 0.010481916957213535 1 1 1 0.010255535855443658 0.010178014932921592 1 1 0.010089836816040913 0.010359091944359277 1 1 1 1 0.01000701846950322 1 1 1 1 0.010011847766007826 1 1 1 1 0.010010895999502507 1 0.010009248288371636 1 0.010085439031725239 1 0.010116140661459003 1 0.010087498827036055 1 0.009999952933734943 1 1 1 1 1 0.010149461603211183 1 1 0.010033835763863616 0.0099886774922806204 0.010176939446312757 1 1 0.010077034701875048 0.010179576799861175 1 0.010066590653364814 1 1 0.01003055125341298 1 1 1 1 1 1 0.010016250632567222 1 1 0.010133214833691267 1 0.010006246392942975 1 1 1 1 0.010006915320407284 1 0.010002999323362238 1 0.0099976800103335432 1 1 1 0.010092965473950286 1 1 0.0099869306948110401 1 0.010171187397284098 1 0.010002060021929444 1 1 1 1 1 0.010105490841264966 1 1 1 1 1 1 1 1 1 1 0.010201764852869591 1 1 1 1 0.010034811474736439 1 1 0.0098419631827940633 1 1 1 1 1 0.010314234130234565 1 1 0.010929031932237232 1 1 1 0.011073604587556251 1 0.010088938257340439 1 1 1 0.011144731343105303 1 1 1 1 0.0097587538326576236 1 1 1 1 0.0095456874794362292 0.010255521215347087 1 1 1 1 1 1 0.010277693028749571 1 1 0.010650903061828868 1 1 1 1 1 1 1 1 1 1 1 1 1 1 1 1 1 1 1 1 1 1 1 1 1 1 1 1 1 1 1 1 1 1 1 1 1 1 1 1 1 1 1 1 1 1 1 1 1 1 1 1 1 1 1 1 1 1 0.01087454596869384 1 1 1 1 1 1 1 1 1 1 1 1 0.011554335825680455 1 1 0.010286947516182116 1 1 1 0.0099992517186992536 1 1 1 1 1 1 1 1 1 1 1 1 1 1 1 0.011145158145929802 1 1 1 1 1 1 1 1 1 1 1 1 1 1 1 1 0.011041293454447534 1 1 1 1 1 1 1 1 1 1 1 1 1 0.011282907848406555 1 1 0.010009888676079323 1 1 0.0099594008340952375 1 0.011233747834210725 1 1 1 1 1 1 1 0.013215654364337599 1 1 1 1 1 1 1 1 1 1 1 1 0.010211934850541834 1 1 1 0.009989100635093312 1 1 1 1 1 1 1 1 1 0.010628421475786987 1 1 1 1 1 1 0.011482699932739456 1 1 1 1 1 1 0.012668584453977257 1 1 1 0.010728403360334416 1 1 1 1 1 1 1 0.012086362627294858 1 1 1 1 1 1 1 1 1 1 0.01020636746163165 1 1 1 1 1 1 1 1 1 1 1 1 1 1 1 1 0.009060589957245473 1 0.0099846741198382962 1 1 1 1 1 1 1 1 1 1 0.013306195996630367 1 0.0122589965242408 1 1 1 1 1 1 1 1 1 1 1 0.0096808336240417139 1 1 1 1 1 1 1 1 1 1 1 0.010179524978621797 1 1 1 1 1 1 1 0.010289508605173149 1 1 1 1 1 1 1 0.010089192532751565 1 1 1 1 1 1 1 1 1 1 1 0.010673233702577195 1 1 1 1 1 1 1 1 0.0091746660614864337 1 0.011715552658721977 1 1 1 1 1 1 1 1 1 1 0.010076302746163574 1 1 1 0.010156270751023311 1 1 1 1 1 1 1 1 1 0.012104613077787724 1 1 1 1 1 1 1 1 1 1 1 1 1 1 1 1 0.0097237842535061597 1 1 1 1 1 1 1 1 1 1 1 1 1 1 1 1 1 1 0.010431858874870293 1 1 0.011096777857612823 1 1 0.010334633491364716 1 1 1 1 1 0.010194882979479314 1 1 1 1 1 1 1 1 1 1 1 1 1 1 1 1 1 1 1 1 1 1 1 1 1 1 1 1 1 1 1 1 1 1 1 1 1 1 1 1 1 1 1 1 1 1 1 1 1 1 1 1 1 1 1 1 1 1 1 0.010219718516745137 1 1 0.010294989376962355 1 1 1 1 1 1 1 1 1 1 1 1 1 1 1 1 1 1 1 1 1 1 1 1 0.010223532366795506 0.01040953104539096 1 1 1 1 1 1 1 1 1 1 1 1 1 1 1 1 0.0098984093265730069 0.010976600900175496 1 1 1 1 1 1 1 0.010863254351370408 1 0.010183595805875946 1 1 0.010492935681458895 0.0099901899974917351 1 1 1 1 1 1 1 1 1 1 1 0.010010912996305171 1 0.0083886662216184106 1 1 1 0.0092815712383825695 1 1 1 0.012126964041319341 1 0.011869036658348944 1 1 1 1 1 0.011908507703820717 0.011582770733630459 1 1 1 1 1 1 1 1 1 1 1 1 1 1 1 1 1 1 1 1 1 1 1 1 1 1 1 1 1 1 1 1 1 1 1 1 1 1 1 1 1 1 1 1 1 1 1 1 1 1 1 1 1 1 1 1 1 1 1 1 1 1 1 1 1 1 1 1 1 1 1 1 1 1 1 1 1 1 1 1 1 1 1 1 1 1 1 1 1 1 1 1 1 1 1 1 1 1 1 1 1 1 1 1 0.010759702518362921 0.0097203041418121167 1 0.012394051898048188 1 0.010352107053484973 1 1 0.010451266234214877 1 1 1 1 0.010077210830665272 1 1 1 1 1 1 1 0.01331975545403024 0.010227867822991659 0.010235143127469988 1 1 1 1 1 0.013551285154581573 0.010655993433389232 1 1 1 1 1 1 1 1 1 1 1 1 1 1 1 1 1 1 1 1 1 1 1 1 1 1 1 1 1 1 1 1 1 1 0.0090196949351327438 1 1 0.0096645711163394106 1 1 1 1 1 1 1 1 1 1 1 0.010076704348553876 1 1 1 1 1 1 1 0.010356414202351977 1 1 1 1 1 1 1 1 1 1 1 1 1 1 1 1 0.012328417919757226 1 1 0.0084294200318276447 1 1 1 1 1 1 1 1 1 1 1 1 1 1 1 1 1 1 1 1 1 1 1 0.010380463581848541 1 1 0.010418137247498075 1 1 0.010221519232186714 1 1 1 1 1 1 1 0.010501229085984816 1 1 1 1 1 1 0.0098731681782770614 1 1 0.0096513944421975362 1 1 1 1 0.0099260165955766984 1 0.010011527503768913 1 1 0.014300910902405135 1 1 1 1 0.0096745930151702422 1 0.014943517836472117 1 1 0.015231824725060123 1 1 1 1 1 1 1 1 1 1 1 1 0.0084347515179932324 1 1 1 0.015134129546616028 1 1 0.014757343515418783 1 1 1 1 0.0099870839971061345 1 1 1 1 1 1 1 1 1 1 0.0099648630404022449 1 1 1 1 1 1 1 1 1 1 0.010352288081409833 1 1 1 1 1 1 1 1 1 1 1 1 0.011024726261315412 1 1 0.010624284514688644 1 1 1 1 1 1 1 1 1 1 0.010822134550050063 1 1 1 1 1 0.010758841019724234 1 0.010308902751404092 0.011018003658856385 1 1 0.010829759141965524 1 1 1 1 1 1 1 1 1 0.0099689437485868879 0.011196045637980429 1 1 1 1 1 1 0.0098994123649084192 1 1 1 1 1 1 1 1 1 1 1 1 1 1 1 1 1 1 1 1 1 1 1 1 1 0.0099802422510819836 1 1 1 1 1 1 1 1 1 1 1 1 1 1 1 1 1 1 1 1 1 1 1 1 1 1 1 1 1 1 1 1 1 1 1 1 1 1 1 1 0.010803838743699945 1 1 1 1 1 1 1 1 1 1 0.0099499875704084206 1 1 1 0.010914750147418748 1 0.010977335178601701 1 1 1 0.0098200680561484968 1 1 1 0.01000153863580731 1 0.011636689283218645 1 0.010955094926469674 1 0.010884744099331926 0.0099074728069836956 1 1 0.010511356240985648 1 1 1 0.010039571354280338 1 1 1 1 1 0.010020781848686967 1 1 1 1 0.010515919232952078 1 1 1 0.010819006568957176 1 1 1 1 0.010800417866266735 1 0.0099861762590836619 1 1 1 1 1 1 1 1 1 1 1 1 1 1 0.0099694824250043806 1 1 1 1 0.012984241484057479 1 1 0.012126713538369548 1 1 0.011280446483373018 0.01001196675417274 1 1 0.011247034081034123 1 0.010768864243408881 1 1 1 0.0097490777207813011 0.010460470814942368 0.011006982282242091 0.0108119771463197 1 1 0.0098074531615639435 1 1 1 1 0.011496477414275031 1 0.0097500505528664346 1 1 0.010819406727699505 0.013419715738739704 0.0099912370574180218 1 0.013508966200799114 1 1 0.010705965266940965 0.012875318951193494 0.013554164456462858 1 1 1 1 1 1 1 1 1 0.011117622652445119 0.010072200468035496 1 1 1 1 0.010298870473112069 0.010608934454189744 1 1 1 0.0098297877593642898 1 0.010958528536066088 1 1 1 1 1 1 1 1 1 1 1 0.0087087045489975101 1 1 1 1 1 1 1 1 1 1 1 1 1 1 1 1 1 1 1 1 1 1 1 0.010053702660783809 1 1 1 1 1 1 1 1 1 1 1 1 1 1 1 1 0.0084919805517852769 1 1 0.010119716862813731 1 1 1 1 1 1 1 1 1 0.013430787413964192 1 1 1 0.010812696065183569 0.013279762107545253 1 1 0.0099994259628084364 1 1 1 1 1 0.014017873290668937 1 0.010017703616135182 1 1 1 0.013733589196262495 1 1 1 1 1 1 1 0.013320275796362208 1 1 0.010050831517418342 1 1 1 1 0.013154401244396798 1 1 1 0.010142415763835554 0.0099938648670336479 1 1 0.013405949271809043 1 1 1 0.01019749543977806 1 1 1 1 1 1 1 0.013572167506247823 1 1 0.0092905351717932141 1 0.012856122003075506 0.0095044566541711839 0.012619574215179835 1 0.013136454896841352 1 0.0091239214851361397 0.0097118144648945456 1 1 1 1 1 1 0.0090462229677480705 1 1 0.0096144932632298095 1 1 1 1 1 1 1 1 1 1 1 1 1 1 1 1 1 1 1 1 1 1 1 1 1 1 1 1 1 1 1 1 1 1 1 0.010019009584028769 0.0088812900158850641 1 1 1 1 1 1 1 1 0.011534915518702789 0.011910006027652737 0.0081015705351074468 0.0087827760973924231 1 1 0.014089231647333543 1 1 1 1 1 1 1 1 0.014082471334717827 1 1 0.0099118669941110783 1 1 1 0.010813686162526231 1 1 1 1 0.011311766727747575 1 1 1 1 1 1 1 1 1 1 1 1 1 1 0.014978841251761413 1 1 1 1 1 0.0082395615342599846 1 1 1 1 1 1 1 1 0.010923656034130666 1 1 1 0.012569498937848683 0.0089856430724559264 1 1 0.0098024894184972865 0.012374836277646592 1 1 1 1 1 0.010318089416445912 1 1 1 1 1 1 0.010169046342523616 1 0.0079525744526934145 1 1 1 1 1 1 1 1 0.012380249521309979 0.011566884614251031 1 0.0081699345360611159 0.010179006952310683 0.0085571168448887406 1 0.010765436716767909 1 1 1 1 1 1 0.011172597722494721 1 1 1 1 1 1 1 0.011563128463272456 1 1 1 1 1 1 1 1 1 1 1 1 1 1 1 1 1 1 1 1 1 1 1 1 1 1 1 1 1 1 1 1 1 1 1 1 1 1 1 1 1 1 1 1 1 1 1 1 1 1 1 1 1 1 1 1 1 0.010040005257038753 1 1 1 1 1 1 1 0.010108349496477927 1 1 0.0098595382655639503 1 1 1 0.014360379654063707 1 0.0099982209744515303 1 1 0.010010635089719597 1 1 1 1 1 1 1 0.012142856112968855 1 1 1 0.010947164872992847 1 1 1 1 1 1 1 0.011067169307092393 1 0.01014037207909183 1 1 1 1 1 1 1 1 1 1 1 1 1 1 1 1 1 1 1 1 1 1 1 1 1 0.0099862303349966333 0.0097612262553157525 1 0.0095821853022210399 1 1 1 1 1 1 1 0.011704280192349788 1 0.011069094611442551 1 0.0098826079286759641 0.011641506088814021 0.0087364064451009166 1 1 0.0092159128722446061 1 1 0.010256868864994903 1 1 1 0.010080600724060154 1 1 1 1 1 1 1 0.011930763746921678 0.010411355232193361 1 1 0.012125000920115831 1 1 1 0.0098389183365109583 1 1 1 1 0.011659910585754364 1 0.0099833952903114441 1 1 1 1 1 1 0.010004101655130711 1 0.0099984630071827847 1 1 1 1 1 0.010004124288140131 1 1 0.010001726670555185 1 1 1 1 1 1 1 1 1 1 1 1 1 1 1 1 0.010017555843193951 1 1 0.010185996486083022 0.0099959587928896733 1 0.0099931995354388924 1 1 1 1 1 1 1 1 0.010064156855247378 1 1 1 1 1 1 1 1 1 1 1 1 1 1 1 1 0.009613921250049319 1 1 1 0.010002400427353704 1 1 0.009363254585850609 1 1 1 1 1 1 0.0092090135377650845 1 1 1 1 1 1 1 1 1 1 1 1 1 1 1 1 1 1 1 0.011538790105639157 0.0099904975761234312 1 1 1 1 1 1 1 0.0126295583219055 1 1 1 0.0099816216197565304 1 1 0.011601442648591094 1 0.011040022506862486 1 1 0.010844689480481118 1 0.012785575598105531 0.009753714193971863 1 0.010820418906889711 1 0.010206969914101371 1 0.010428541073470446 1 1 1 1 1 1 1 1 1 1 1 1 1 1 1 0.010245549220640041 0.010240426572733373 1 1 1 1 1 1 1 0.011908981697601453 1 1 1 1 1 1 1 1 1 1 1 1 1 1 1 0.010820484346197524 1 0.010044913135312316 1 1 1 1 1 1 0.011006960520367296 1 1 1 0.012176803663355985 1 1 1 0.010068462211446666 1 1 1 1 1 1 1 1 1 1 1 1 1 1 1 1 1 1 1 1 1 0.0099438984433710444 1 1 1 1 0.0098756020644899644 1 1 1 1 1 0.0093166981491135184 1 1 1 0.0095488655753679808 1 1 1 1 1 1 1 1 1 1 1 1 0.0099497006801529866 1 1 1 1 0.0097853427321950778 1 1 1 1 1 1 1 1 0.0099392285276396174 1 1 1 1 1 1 1 0.010269708952824752 1 1 1 1 0.0099819791494449913 1 1 1 1 1 1 1 1 0.0099574904849870291 1 1 1 1 1 1 1 1 1 0.010355623192681289 1 1 1 1 1 1 1 1 1 1 1 1 1 1 1 1 1 1 1 1 1 1 1 1 1 1 1 1 0.010186937332458131 1 1 1 1 1 1 1 0.010468978881467639 1 1 1 1 1 1 1 1 1 1 1 1 1 1 1 1 1 1 1 1 1 1 1 1 1 1 1 1 1 0.010023549076134345 1 1 1 1 1 1 1 1 1 1 1 1 1 1 1 1 1 1 1 1 1 1 1 1 1 1 1 1 1 1 1 1 0.010094319496370328 1 1 0.010043487978951989 1 1 1 1 0.0096721741238843389 1 1 0.009383021931403385 1 1 1 1 0.0096689851480725522 1 1 1 0.0096787827908927822 1 1 1 0.0099745948637767774 1 1 1 1 1 1 1 1 1 1 0.00992633686414017 1 1 0.011869764508862882 1 1 1 1 1 1 0.010044636155045633 1 1 1 1 1 0.01204084718356413 1 1 1 1 0.012199797837452321 1 1 1 1 1 1 1 1 1 1 0.012306904211196569 1 1 1 1 1 1 1 1 1 0.010042798769781688 1 1 1 1 1 1 1 1 1 1 1 1 1 0.01017083552647869 1 1 1 1 1 1 1 0.010070475092905542 1 1 1 1 1 0.0099962166134018871 1 1 1 1 1 1 1 1 1 1 1 1 1 1 0.010021999673577964 1 1 1 1 1 1 1 1 0.010091274189109269 1 1 1 1 1 1 1 1 1 1 1 1 1 1 1 1 1 1 1 1 1 1 1 1 1 1 1 1 1 1 1 1 1 0.01023653658075294 1 1 1 1 0.009999752671168597 0.010576300466608535 1 1 0.0099776237152736074 1 1 0.0099624218833550375 1 1 0.010290391994909017 1 1 1 1 1 1 1 1 1 1 1 1 1 1 1 1 1 1 1 0.010325796453949954 1 1 1 1 0.010279960108907412 1 1 1 1 1 1 1 1 1 1 1 1 1 1 1 1 1 1 1 1 1 1 1 1 1 1 1 1 1 1 1 1 1 1 1 1 1 1 1 1 1 1 1 1 1 1 1 1 1 1 1 1 1 1 1 1 1 1 1 1 1 1 1 1 1 1 1 1 1 1 1 0.0098120104910852657 1 1 1 1 0.011758474251381889 1 0.011256026554571181 1 1 0.009641059395873449 1 1 1 1 0.011015228037963898 1 1 0.010032534777463423 1 1 1 1 1 1 1 1 1 1 1 1 1 1 1 1 1 1 1 1 1 1 1 1 1 1 1 1 1 1 1 1 1 1 1 1 1 1 1 1 1 1 1 1 1 1 1 1 1 1 1 1 1 1 1 1 1 1 1 1 0.010129311641721223 1 1 1 1 1 1 1 1 1 0.0099883881977917942 1 1 1 1 1 1 1 0.0099997340212586543 1 1 1 1 1 1 1 1 1 1 1 1 1 1 1 1 1 1 1 0.0098130212959356734 0.010902229646226424 1 1 0.009985460264564823 1 0.010324907287545013 1 1 1 1 1 1 1 1 1 1 1 1 1 1 1 1 1 1 1 1 1 1 1 1 1 1 1 1 1 1 1 1 1 1 1 1 1 1 1 1 1 1 1 1 1 1 1 1 1 1 1 1 1 1 1 0.0097387131480466075 0.0099342973683532836 1 1 1 1 1 1 1 1 1 1 1 1 1 1 1 1 1 1 1 1 0.011547376238647031 1 1 1 1 1 1 1 1 1 1 0.010482272156130755 1 1 1 0.018414388517941995 1 1 1 1 1 1 0.010366911959383742 1 1 1 1 1 1 1 1 1 1 1 1 1 0.017948945784792371 1 1 1 1 1 1 0.013776492657306934 0.0098757101744162967 1 0.011170375400835569 1 1 0.0099565635527146795 1 1 1 0.010625666319319469 1 1 1 0.010061613967460293 1 1 1 1 1 0.0099444208728814501 1 0.01376370745289646 1 1 1 1 0.0091559693544850957 1 1 1 1 0.012781236083983379 1 0.0121445797870494 1 1 0.0097799232434619601 0.0099260354424581428 1 1 1 1 1 0.010450601564579267 1 1 1 1 1 0.011079165053393153 0.01086151041654829 0.010513290267463598 1 0.010100334293787767 1 0.010748682892911136 1 1 1 1 1 0.010760177353526204 1 1 1 1 1 1 1 1 0.010084616717610998 0.0099638599498312521 1 1 0.010350178348871496 1 1 1 1 0.0098487140513070209 1 1 0.011202509533652991 1 1 0.011222158140677937 1 1 1 1 1 1 1 1 1 0.010710633306956541 1 1 1 1 1 1 1 1 0.011920148953221663 1 1 1 1 1 1 1 1 1 0.0098825143877950584 0.01081030209477875 1 1 1 1 1 1 1 1 1 1 1 1 1 1 1 1 1 1 1 1 1 1 1 1 1 1 1 1 1 1 1 1 1 1 1 0.013976563560039694 1 1 1 1 0.010226679172056274 1 1 1 1 1 1 1 1 1 1 1 1 1 1 1 1 0.011725026593202952 0.0088754978768928218 1 1 1 1 1 1 1 1 1 0.0094363095701760508 1 1 1 1 0.0098489750607569388 1 1 0.0099399206353757395 1 1 1 1 1 1 1 1 1 1 1 1 1 0.01088857670755632 1 1 1 1 1 1 1 1 1 1 1 1 1 1 1 1 1 1 1 1 1 1 1 1 1 0.0098030323233447431 1 1 1 1 1 0.010204431619933646 1 1 1 0.0093123534997100119 1 1 1 0.01319808016297116 0.012282935405997715 1 1 1 1 1 1 1 1 1 1 1 1 1 1 0.0099443796881182461 1 1 1 0.0093552503839374156 1 1 1 1 0.0097777108745905408 0.0099442925025265728 1 1 1 1 1 1 1 1 1 1 1 1 1 1 1 1 1 1 1 1 1 1 1 0.0098377495624777465 1 1 1 1 1 1 1 1 1 0.012226585572289665 1 1 1 1 0.0099395429772936306 1 0.011586853292455889 1 1 1 1 0.0099718649902282505 1 1 1 1 1 1 1 1 1 1 1 1 1 1 1 0.010382123654168926 1 1 0.011095163818249029 1 1 1 1 1 1 1 1 1 1 0.012967511764962827 0.013179984633406135 1 1 1 1 0.009673859075750529 1 1 1 0.0092846933023788616 1 1 1 1 0.0097951359677597768 0.0099299839543802552 1 0.012774938715524979 1 0.015836985312952089 1 0.011619349570303163 1 1 0.010209866122505322 1 1 0.011033531386782721 1 1 0.011311165813113555 1 1 1 0.013456555987801072 1 1 0.0099996078595207712 1 0.016741307024459598 1 0.0089027133778480441 1 1 0.015922649579149871 1 1 1 1 1 1 1 1 1 1 1 1 1 0.010272763773300596 1 1 1 1 1 1 1 1 1 1 1 1 1 1 1 1 0.012869195859926984 0.013457300081951281 1 1 1 1 1 0.0098173160080658739 1 1 1 1 0.0097503527288492209 1 1 0.013876307726192583 1 1 1 1 0.0099348524016268439 1 1 1 1 1 1 1 1 1 1 1 1 1 1 1 1 1 1 1 1 1 1 1 1 1 1 1 1 1 1 1 1 1 1 1 1 1 1 0.010094452070296057 1 1 1 1 1 1 1 1 1 1 1 1 1 0.01421843152151058 1 0.012699236514547199 1 1 1 1 0.012554359691958446 1 1 1 1 1 1 1 1 1 1 1 1 1 1 1 1 1 1 0.011509001325294055 1 0.010492182173694409 1 1 0.016431996543800866 1 1 1 0.018061508400845583 1 1 1 1 1 1 1 1 1 1 1 1 1 1 1 1 1 1 1 1 1 1 1 1 1 1 1 0.010090363799927612 1 1 0.010135833352993978 1 1 1 1 1 1 1 1 1 1 1 1 1 1 1 1 1 1 1 1 1 1 1 1 1 1 1 1 1 1 1 1 1 1 1 0.010041381282697921 1 0.010185869048125917 1 1 1 1 1 1 1 1 1 1 1 1 1 1 1 1 1 0.010094137375390411 0.010314287265143036 1 1 1 1 1 0.010533358950396518 1 1 1 1 0.011219630103609388 1 1 1 1 0.010004706152212878 1 1 1 1 1 1 1 1 1 1 1 1 1 1 1 1 1 1 0.01022014988975262 1 1 1 1 1 1 0.0099389763445570795 1 1 0.0096513492502924032 1 1 1 1 1 1 1 1 1 1 1 1 0.010133032121128392 1 1 0.010043358779315512 1 1 1 1 1 1 1 1 0.01009437949402575 1 1 1 1 1 1 0.010620880438334802 1 1 0.01130715159154767 1 1 1 1 1 1 1 1 1 1 1 1 1 1 1 1 1 1 1 1 1 1 1 1 1 1 1 1 1 1 1 1 1 1 1 1 0.010285233612188759 1 1 1 0.010469919523686099 1 1 0.0098708452579928888 1 1 1 1 1 1 0.011470092485577305 1 1 1 1 1 0.01053745261124469 1 1 1 1 1 1 0.011508825967822408 1 1 1 1 0.0089721599871414766 1 0.0091308403565284624 1 1 0.0095748670970165553 1 1 1 0.010184685911497342 1 1 1 1 1 1 1 1 1 1 1 1 1 0.011110155790484527 1 1 1 1 1 1 1 1 1 1 1 1 1 1 1 1 1 1 1 1 1 1 1 1 0.010207039460383342 1 0.010024537203714823 1 0.01393949676298719 1 0.014658039889834678 1 1 1 1 0.010434673607975706 1 1 1 1 0.010118824502887496 1 1 1 1 1 1 1 1 1 1 1 1 1 1 0.010288663121252869 1 1 1 0.010265038713274041 1 1 1 0.010129861460261385 1 1 0.010426639122752603 1 1 1 0.009998330505758983 1 1 1 1 0.010939959634667651 1 1 1 1 0.010722179631549139 1 1 1 1 1 1 1 1 1 1 0.0089541638099223143 1 1 1 1 1 0.0088386323647993859 1 0.010004623074320953 1 1 1 1 1 0.010214860802018999 0.009285891011799205 1 1 0.010160808684650741 1 0.010003094321313039 1 1 0.0099228586198419726 1 1 1 1 1 1 1 1 1 1 1 1 1 0.014780953632428375 1 1 1 1 1 0.0090903599170148886 1 1 1 1 1 1 1 1 1 1 0.013230406681882174 1 0.01512210019557377 1 1 0.0090297167683685304 1 1 0.010136820051574406 1 0.0099055880795918937 1 0.012889093421201743 1 1 1 1 1 0.013203735186519027 0.013091237591789017 1 1 1 1 1 1 1 1 1 1 1 0.010200064865610597 1 1 1 1 1 0.010005120277328708 1 1 1 0.0095182568324171605 1 0.0099487144044637342 1 1 1 1 1 1 1 1 1 1 1 1 1 1 1 0.010050282636501652 1 1 1 1 0.01010119478772459 1 1 1 1 1 1 1 1 1 1 1 1 1 1 1 1 1 1 1 1 1 1 1 0.010050912151222939 1 1 0.0094842263627098536 1 1 1 1 1 1 1 0.0096742659095585288 1 1 0.0088798541831871022 1 0.0072187643659638572 1 1 1 1 1 1 1 1 1 0.0098539407804568279 1 1 0.0098599339999208696 1 1 1 0.010349491703887742 1 1 1 1 1 1 1 0.010245607564075518 1 1 1 1 0.009900942837194629 0.010172792029976589 1 1 1 1 1 1 1 1 1 0.010421486150594444 1 1 1 1 1 1 1 1 1 1 1 1 1 1 1 1 0.0099051202087134752 1 0.0099280276946114021 1 1 1 0.0095397186695046834 1 1 1 1 1 1 1 1 1 1 1 1 1 0.0098269742284750293 1 1 1 1 1 0.010032042830158659 1 1 1 0.0097990508244036999 0.0099969126548868983 1 1 1 0.0084731072719463688 1 1 0.0098455270222239395 1 1 1 1 0.0082191041124661628 0.010009585597375024 1 1 1 0.011127746004070108 1 1 0.0098857079326872387 1 1 1 1 0.013039996528496241 1 0.012558029974743062 1 1 1 0.012658128104921239 1 1 1 1 1 1 1 1 1 1 1 1 1 1 1 1 1 1 1 1 1 0.010695540439125021 1 1 1 1 1 1 1 1 1 0.010253136795245187 1 1 1 0.010819404919287498 1 0.010732347561627833 1 1 1 1 1 1 1 1 1 1 1 0.011210664867815513 1 1 1 1 1 0.01284889581337046 1 1 1 1 1 0.011019819165992206 1 1 1 1 1 1 1 1 1 1 1 1 1 1 1 1 0.010650897355305201 1 1 1 1 1 1 1 1 1 0.011362981364810482 1 1 1 1 1 1 1 1 1 1 1 1 1 1 1 0.010059893249717929 1 1 1 1 1 1 1 1 1 1 1 1 1 1 1 1 1 1 1 1 1 1 1 1 1 1 1 1 1 0.0097819190069817485 1 1 1 1 0.0091275825807415802 1 0.010170699624341429 0.010019532304836839 1 1 1 1 1 1 0.0098775685204587887 1 0.011112783520680805 1 1 1 0.0099961743628140982 1 1 0.010283464447600204 1 1 1 1 1 1 0.0099534237188711461 1 1 1 1 1 1 1 0.010291640809958971 1 1 1 1 0.010757063686424616 1 1 1 1 1 1 0.010049786838657964 1 1 1 1 1 1 1 1 1 1 1 1 0.010076826222749113 1 0.010051456332898983 1 1 1 1 1 1 1 0.010153890561585485 0.010002116491241853 1 1 1 1 1 1 1 1 0.010003243068056181 1 1 1 0.010046003813708283 1 1 0.010039628832022009 1 1 1 1 1 1 1 1 1 1 1 1 1 1 1 1 1 1 1 1 1 1 1 1 1 0.011286127202374633 1 1 0.011479915873740866 1 1 1 1 1 0.0099822459144726858 1 1 0.0099267610919686645 1 0.010384349215196563 1 1 1 0.010022852586772817 1 1 1 1 0.0098409049640344679 1 1 0.012111630276452748 0.010155048539097397 1 1 1 1 1 0.010004861607223034 1 1 0.011294142776545665 1 1 1 1 1 0.010574083355943778 1 1 1 1 1 1 1 1 1 0.010586841224334615 1 1 1 1 0.0097545980303734136 1 1 1 1 1 1 0.0085818506651926078 1 0.0080443663488155709 1 1 1 0.012912852645847246 1 0.013589934473536406 1 1 0.0093017985540462637 1 0.010129784026611539 1 1 1 0.010768181316013675 1 1 1 1 1 1 1 1 1 1 1 1 1 0.0114254111772535 1 1 1 1 0.011922360910505317 1 1 1 1 1 1 0.0099537504234466102 1 1 1 1 1 1 1 0.010212373429105777 1 1 1 1 1 1 0.010532901880248685 1 1 1 1 1 1 1 0.010745248148035264 1 1 0.014740140355210664 1 1 1 1 1 1 1 1 1 0.010170090954884196 0.014391621756504437 1 1 1 1 1 1 1 1 1 1 1 1 0.0099771248366093655 1 1 1 1 1 1 1 0.01057413577247095 1 1 1 0.010366202055949712 1 0.010985438336548799 1 1 0.010788516537855211 1 1 1 1 1 0.013701643232065443 1 1 1 0.0099552731899384024 1 1 1 1 0.0098466363417363638 1 1 1 0.0099538231859540287 1 1 1 1 1 1 1 0.011684977119048486 1 1 0.010731849349311599 1 1 1 0.0096499652622316461 1 1 1 0.0099000540340494075 1 1 1 1 0.01150346233125391 1 1 1 0.011382266541655424 1 1 1 1 1 1 1 1 1 0.010191615188875036 1 1 1 1 1 1 1 1 1 0.010520747923226815 1 1 1 1 0.010321908333792693 1 1 0.010526620341690277 1 1 1 1 1 1 1 1 1 1 1 1 1 1 1 1 1 1 1 1 1 1 1 1 1 1 0.010296967475872951 1 1 1 1 1 1 1 1 1 1 1 0.01085993230167627 1 1 1 0.011266759600464311 1 1 1 1 1 1 0.01055526301881193 1 1 1 1 1 1 1 1 1 1 1 1 1 1 1 1 1 1 1 1 1 1 1 1 1 1 0.010044643418146497 1 0.010563767892899983 1 1 0.0099865857913042644 0.010307536250270317 1 1 1 1 1 1 1 1 1 1 1 1 1 1 1 1 1 0.010060661551502805 1 1 1 1 1 1 1 1 1 1 1 1 1 1 1 1 1 1 1 1 1 1 1 1 1 1 1 1 1 1 1 1 1 1 1 1 1 1 1 1 1 1 1 1 1 1 1 1 1 1 1 1 1 1 1 1 1 1 1 1 1 0.010189450211448436 1 1 0.010439265237535182 1 1 1 1 0.010525760995611992 1 1 1 1 1 1 1 1 1 1 0.010000724533235607 1 0.012714289452846729 1 1 1 0.012065316427889085 1 1 1 0.009992718852443315 1 0.0099191287198141086 1 1 1 0.010120723938746063 1 0.0099394301865449192 1 0.010097907022160816 1 1 1 0.011174190736213667 1 1 1 1 0.0099623053499355574 1 0.010031320747809575 1 1 1 1 1 0.015785007762666219 1 0.010028437886723821 0.0092164704228313299 1 1 1 1 1 1 0.013450458523325231 1 1 1 0.010019277155047808 1 1 1 1 1 1 1 1 1 1 1 1 1 1 1 1 1 1 1 0.01002749023640973 1 1 1 0.012761998555530585 0.009905933078171553 1 1 1 1 1 0.009644858018333393 1 1 1 1 1 1 1 1 1 1 1 1 1 1 0.010353711597124116 1 1 0.012826570473068181 1 0.010287204124060291 1 1 1 0.0092033385904296532 1 0.0098801242221098935 1 1 0.012639576990314877 1 1 1 1 1 1 1 1 1 1 1 0.012140830496394131 1 1 1 1 1 1 1 1 1 1 0.012884081968303417 0.01001178630706588 1 1 1 1 1 1 1 0.011222036818384478 1 1 1 1 1 1 1 1 1 1 1 1 1 1 0.010393702112105859 1 1 1 1 1 1 1 1 1 1 0.010440533427209573 1 1 1 0.011006690789437489 1 0.011088353534553397 0.01135377224007569 1 1 1 1 1 1 1 1 0.010977564996009463 1 1 1 1 1 1 1 1 1 0.011427584501588145 1 0.011120084408808786 1 0.0096561390318786466 1 1 1 1 1 1 1 1 0.011432690402285249 1 0.011885303839889722 1 1 1 1 1 1 0.0096437692991516947 1 1 0.013649621918044808 1 0.014490837158082023 1 1 1 1 1 1 1 1 1 1 1 1 1 1 0.010474168990728049 1 1 1 1 1 1 1 1 1 1 0.010186278545523439 1 1 1 1 1 1 0.0099530565529405771 1 1 1 1 1 1 1 1 1 1 1 1 1 1 1 1 1 1 1 1 1 1 1 1 1 0.010022667288935729 1 1 1 1 1 0.010034256421630999 1 1 1 1 1 1 1 1 1 1 1 0.010017892515729271 1 1 1 1 0.010353574509224157 1 1 1 1 1 0.010139513163262896 1 1 1 1 1 0.009828843226049688 1 1 0.0094327447026371549 1 1 1 1 1 1 1 1 1 1 1 1 1 1 1 1 1 1 1 1 1 1 1 1 1 1 0.010021812885732347 1 1 0.010021767905882406 1 1 1 1 1 1 1 1 1 1 1 1 1 1 1 0.0099589536704504152 1 1 1 1 1 1 1 1 1 0.0099120102233910025 1 1 1 1 1 1 1 0.0099989022965392242 1 1 1 1 1 0.010033980335948748 1 1 1 1 1 1 0.010485795528878229 1 1 1 1 0.010448436777273553 1 1 1 1 1 1 1 0.010016087820219476 1 1 0.0099557923113821195 1 1 0.009943289267863753 1 1 1 1 0.010260661705000531 1 1 1 1 1 1 1 1 0.010082474392577669 1 1 0.010111916512547088 1 1 1 1 1 1 1 1 1 0.010055111881535793 1 1 1 1 1 0.010002419765140019 1 1 1 1 0.010051825527111641 1 1 1 0.0099748095383271791 1 1 1 1 1 1 1 1 1 1 1 0.01000632620729352 0.010005644142915788 1 1 1 1 1 1 1 1 1 1 1 0.010104105532714038 1 1 1 1 1 0.010225179657551701 1 0.01056203070457983 0.010117623669083571 1 0.010016953625776896 0.010184741659751135 1 1 0.010004803843979592 1 1 1 1 1 1 0.010898106611640437 1 0.0099890305573239278 0.0099939671857759531 1 1 1 1 1 0.0099899540754495655 1 1 1 1 1 1 1 1 0.010644650310744011 1 1 1 1 0.010126436538965458 1 1 1 1 1 0.0099767211321038964 1 1 0.010760764633350586 1 1 1 1 1 1 1 0.010386711067251558 1 0.01010159766890714 1 1 1 1 1 1 1 0.010398371010121 0.010070284008676688 1 1 1 1 1 1 1 0.010033569727006492 1 1 1 1 1 1 0.010124958441434316 1 1 1 1 1 1 1 1 1 1 1 1 1 1 0.0097756792896767468 1 1 0.0099258148598396594 1 1 1 1 0.010003176365317435 1 1 1 1 0.011213081555927953 1 1 1 1 1 1 0.010857212614543872 1 1 1 1 1 1 1 0.0099959713402800379 1 1 1 0.0097782930341515258 1 1 1 1 0.010499838288111473 1 1 0.0095946335781535771 1 1 1 1 1 1 1 0.0096140764226071065 1 1 1 1 0.0094783581971561379 1 0.0099876082094812989 1 1 1 1 1 1 1 1 1 1 1 1 1 1 0.010232700851015127 1 1 1 1 1 1 1 0.010327564100173643 1 1 0.010513709519516573 1 1 0.0099943558774856431 1 1 1 1 1 1 1 1 1 0.0087199574891555325 1 1 1 0.0092501913803587285 1 1 1 1 1 1 1 1 1 0.0096632007255254941 1 1 1 1 1 1 1 1 1 1 1 0.010331423516241681 1 1 1 0.0099147702136237713 1 1 1 1 1 1 1 1 1 1 1 0.010916229928296928 1 1 1 1 1 1 1 1 1 1 0.011386754667000154 1 1 1 1 1 0.0096206456130886811 1 1 1 1 1 1 1 1 0.010057174350487537 1 1 0.0098539014231085187 1 1 0.0097382672016763719 1 1 1 1 0.0099980697078032275 0.011108258815987763 1 1 1 1 0.0098595726162586418 1 1 1 1 0.010668936033906885 1 1 0.010225800212357973 1 1 1 1 0.015051636527784708 1 1 0.014475135377940351 1 1 1 1 1 0.013834741414999062 1 1 1 1 1 1 1 1 0.012522366917959092 1 0.0099934770813266093 1 1 1 1 1 1 1 1 1 0.0092087374027009852 0.012424492551162715 1 1 1 1 1 1 0.013313327536747631 1 1 0.010192838258222713 1 1 0.010045078399400316 1 0.010076922466898343 1 1 1 0.012249522430600991 1 1 0.010070078285993614 1 1 1 1 1 1 1 1 0.010046403306527807 0.0099655869903010584 1 1 0.013262443424426619 0.0081844536718823115 1 1 1 1 0.012543072068671651 1 1 1 0.0088001824973788952 1 0.012360464714992716 1 0.0085634016914485599 0.013137820288356229 0.012049786668951542 1 0.012189550251677081 1 1 1 0.01024384175546289 1 1 1 1 1 1 1 1 1 0.01277666694472138 1 1 0.012547437017972217 1 1 1 1 1 1 0.014262636027372421 1 1 1 1 1 1 0.010103951626387709 0.010087980359334042 0.013794393986531227 1 1 1 1 1 1 1 1 1 1 1 0.010289105129460477 1 1 1 1 0.012258793896780487 1 1 1 1 1 1 1 1 0.013398349243468019 1 1 0.011995600384656035 1 1 1 0.0095811563583305757 1 1 1 1 1 1 1 1 1 0.0098751988859684219 1 1 1 1 1 1 1 1 0.013934381286567392 1 1 1 0.014224101310810767 1 1 0.011418124519951046 1 1 1 0.0096369397511452334 1 0.011561515631735108 1 1 0.010838906933400451 1 0.011608228071088376 1 1 0.010383172935874027 1 1 1 1 1 1 0.011453732550245625 1 1 0.011020121607724375 1 1 1 1 1 1 1 1 1 1 1 1 1 1 1 1 1 1 1 1 1 1 1 1 1 1 1 1 1 1 1 1 1 1 1 1 1 1 1 1 1 1 1 1 1 1 1 1 1 1 1 1 1 1 1 1 1 1 1 1 1 1 1 1 1 1 1 1 1 1 1 1 1 1 1 1 1 1 1 1 1 1 1 1 1 1 1 1 1 1 1 1 1 1 1 1 0.010201994911486205 1 1 1 1 0.014372772269661646 1 1 1 1 1 1 1 1 1 1 1 1 0.010694627361081972 0.014751115852185609 1 1 1 1 1 1 1 1 1 1 1 1 1 1 1 0.010107299990462369 1 1 1 0.010586603151270736 1 1 1 1 1 1 1 1 1 1 0.013357986105794511 1 0.011918864809565641 1 1 1 1 1 1 1 1 1 1 1 1 1 1 1 1 1 1 1 1 1 1 1 1 0.0099935467069756853 1 1 1 1 0.0099686812856481476 1 1 1 1 1 1 1 1 0.010008234781120867 1 1 1 1 1 1 1 1 1 1 1 1 1 1 1 1 1 1 1 1 1 1 1 1 1 1 1 1 1 1 1 1 1 1 1 1 1 1 1 1 1 1 1 1 1 1 1 1 1 0.0098577575132698016 1 1 1 1 1 1 1 1 1 1 1 1 1 1 1 1 1 1 1 1 1 1 1 1 1 1 1 1 1 1 1 1 0.008632921863120353 1 1 1 1 1 1 0.009458662231316051 1 1 1 1 1 1 0.010258070350641923 1 1 0.01005614212636562 1 0.010745783481036681 1 0.011094140670584332 1 1 1 1 0.0095627710911729523 1 1 1 1 1 0.0098758999604344616 1 1 1 0.014388143273085473 0.010014701654980113 1 1 1 0.010290112245583875 1 1 1 1 0.011293453132581236 0.012832033603875916 1 1 1 1 1 1 1 1 1 1 1 1 1 1 0.010001037256010805 1 1 0.010976066474767683 1 1 0.0098309294405413278 0.0090626249763187533 1 1 1 1 1 1 1 1 1 1 0.0074969060888215883 1 0.0079731287765950534 1 1 1 1 1 1 1 1 1 1 1 0.0097792975846097713 1 1 1 1 1 1 1 0.0092898784394117289 1 1 1 1 1 1 1 1 1 1 1 1 1 1 1 1 1 1 0.0087472897146118021 0.0095008687280275263 1 1 1 1 1 1 1 1 1 1 1 1 1 1 1 1 1 0.0086573517125888878 1 1 1 1 1 1 1 1 1 0.0099992394275899218 1 1 1 1 1 1 1 1 1 1 1 1 0.012859909189006072 1 1 1 1 0.0098663683338898415 1 0.010262120481745672 1 1 1 1 1 1 1 1 1 0.010277620632927613 1 1 1 1 0.0091968368888690685 1 1 1 1 0.0098081467698749158 1 0.011900934315534977 1 1 1 1 1 1 1 1 1 1 1 1 0.010076470939770764 1 1 1 1 1 1 1 1 1 1 1 1 1 1 1 0.010131233294702642 1 0.010830177068811814 1 1 0.010045814628150299 1 1 1 0.0099999453819109262 1 0.012582785817041047 1 1 0.014816971310930623 1 1 0.0099983206995293387 1 0.0093939888039171488 1 1 1 1 1 1 1 0.014099194227126487 0.01370093858844413 1 1 1 1 0.0096594337850278711 0.0089774725171819884 1 1 0.010980635540514157 0.010558931365768756 1 0.011988346500960822 1 1 0.010187470533062395 0.0095775529876567615 1 1 0.0098627438703261325 1 1 0.011541511310277384 1 1 1 1 1 1 1 1 0.012484897691779299 1 1 0.010261121675691088 1 0.009879460764137071 1 1 1 0.011394127824318923 1 1 1 1 1 1 1 1 0.010224436811193578 1 1 1 1 1 1 1 1 1 1 1 1 1 1 1 1 1 1 1 1 1 1 0.010521182335077324 1 1 1 1 1 1 1 1 1 1 1 1 1 1 1 1 1 1 
</DataArray>
</CellData>
</Piece>
</UnstructuredGrid>
</VTKFile>
