<?xml version="1.0"?>
<VTKFile type="UnstructuredGrid" version="0.1" byte_order="LittleEndian">
<UnstructuredGrid>
<Piece NumberOfPoints="30578" NumberOfCells="10723">
<Points>
<DataArray type="Float64" NumberOfComponents="3" format="ascii">
-0.5 -0.5 0 -0.47439485679867832 -0.48072581506667478 0 -0.5 -0.44765434486020428 0 -0.5 -0.5 0 -0.47439485679867832 -0.48072581506667478 0 -0.43702443379937372 -0.49999999999999922 0 -0.47439485679867832 -0.48072581506667478 0 -0.45530669598391149 -0.47718009944797551 0 -0.43702443379937372 -0.49999999999999922 0 -0.47439485679867832 -0.48072581506667478 0 -0.45530669598391149 -0.47718009944797551 0 -0.4597353119515426 -0.45943449384344293 0 -0.45530669598391149 -0.47718009944797551 0 -0.44381084376742141 -0.47114793899167112 0 -0.4597353119515426 -0.45943449384344293 0 -0.45530669598391149 -0.47718009944797551 0 -0.44381084376742141 -0.47114793899167112 0 -0.43702443379937372 -0.49999999999999922 0 -0.44381084376742141 -0.47114793899167112 0 -0.43702443379937372 -0.49999999999999922 0 -0.45059725373546922 -0.44229587798334291 0 -0.4339166039271336 -0.43498117536117131 0 -0.43309128002320102 -0.45351235807576151 0 -0.44381084376742141 -0.47114793899167112 0 -0.45059725373546922 -0.44229587798334291 0 -0.4597353119515426 -0.45943449384344293 0 -0.44381084376742141 -0.47114793899167112 0 -0.45059725373546922 -0.44229587798334291 0 -0.43309128002320102 -0.45351235807576151 0 -0.44381084376742141 -0.47114793899167112 0 -0.45059725373546922 -0.44229587798334291 0 -0.4597353119515426 -0.45943449384344293 0 -0.47505511338101108 -0.44868394208069429 0 -0.46517432262153441 -0.43649963461163338 0 -0.45059725373546922 -0.44229587798334291 0 -0.4597353119515426 -0.45943449384344293 0 -0.46517432262153441 -0.43649963461163338 0 -0.47505511338101108 -0.44868394208069429 0 -0.47820614292347569 -0.42776699273468149 0 -0.46517432262153441 -0.43649963461163338 0 -0.47505511338101108 -0.44868394208069429 0 -0.47820614292347569 -0.42776699273468149 0 -0.47439485679867832 -0.48072581506667478 0 -0.47505511338101108 -0.44868394208069429 0 -0.5 -0.44765434486020428 0 -0.47439485679867832 -0.48072581506667478 0 -0.4597353119515426 -0.45943449384344293 0 -0.47505511338101108 -0.44868394208069429 0 -0.47505511338101108 -0.44868394208069429 0 -0.5 -0.44765434486020428 0 -0.47820614292347569 -0.42776699273468149 0 -0.5 -0.44765434486020428 0 -0.49656450065014057 -0.42151023988558672 0 -0.47820614292347569 -0.42776699273468149 0 -0.5 -0.44765434486020428 0 -0.49656450065014057 -0.42151023988558672 0 -0.50000000000000089 -0.37904661106745707 0 -0.49656450065014057 -0.42151023988558672 0 -0.48135717246594062 -0.40685004338866881 0 -0.47820614292347569 -0.42776699273468149 0 -0.49656450065014057 -0.42151023988558672 0 -0.48135717246594062 -0.40685004338866881 0 -0.48135717246594062 -0.40685004338866881 0 -0.47820614292347569 -0.42776699273468149 0 -0.48135717246594062 -0.40685004338866881 0 -0.47820614292347569 -0.42776699273468149 0 -0.45738366370351707 -0.41344381697501481 0 -0.49656450065014057 -0.42151023988558672 0 -0.48135717246594062 -0.40685004338866881 0 -0.50000000000000089 -0.37904661106745707 0 -0.50000000000000089 -0.37904661106745707 0 -0.48466894952205442 -0.38486603086372417 0 -0.48717439863114548 -0.36823452950912272 0 -0.48135717246594062 -0.40685004338866881 0 -0.50000000000000089 -0.37904661106745707 0 -0.48466894952205442 -0.38486603086372417 0 -0.48466894952205442 -0.38486603086372417 0 -0.48717439863114548 -0.36823452950912272 0 -0.50000000000000089 -0.37904661106745707 0 -0.48466894952205442 -0.38486603086372417 0 -0.48135717246594062 -0.40685004338866881 0 -0.48466894952205442 -0.38486603086372417 0 -0.46593083509403682 -0.39197871725165279 0 -0.48135717246594062 -0.40685004338866881 0 -0.48466894952205442 -0.38486603086372417 0 -0.48135717246594062 -0.40685004338866881 0 -0.46593083509403682 -0.39197871725165279 0 -0.48466894952205442 -0.38486603086372417 0 -0.47195833844942919 -0.37959069520904498 0 -0.46593083509403682 -0.39197871725165279 0 -0.48466894952205442 -0.38486603086372417 0 -0.46593083509403682 -0.39197871725165279 0 -0.48466894952205442 -0.38486603086372417 0 -0.47195833844942919 -0.37959069520904498 0 -0.48717439863114548 -0.36823452950912272 0 -0.46593083509403682 -0.39197871725165279 0 -0.44890944387521442 -0.39029302340116001 0 -0.45132291774153199 -0.37789636588759368 0 -0.47195833844942919 -0.37959069520904498 0 -0.46593083509403682 -0.39197871725165279 0 -0.45132291774153199 -0.37789636588759368 0 -0.46593083509403682 -0.39197871725165279 0 -0.45132291774153199 -0.37789636588759368 0 -0.48135717246594062 -0.40685004338866881 0 -0.46593083509403682 -0.39197871725165279 0 -0.45738366370351707 -0.41344381697501481 0 -0.46593083509403682 -0.39197871725165279 0 -0.44275815558040038 -0.40077469311046232 0 -0.45738366370351707 -0.41344381697501481 0 -0.46593083509403682 -0.39197871725165279 0 -0.44275815558040038 -0.40077469311046232 0 -0.46593083509403682 -0.39197871725165279 0 -0.44275815558040038 -0.40077469311046232 0 -0.44890944387521442 -0.39029302340116001 0 -0.44275815558040038 -0.40077469311046232 0 -0.44064580868350911 -0.39542861624611658 0 -0.44890944387521442 -0.39029302340116001 0 -0.44225344557501872 -0.38376649822575309 0 -0.45132291774153199 -0.37789636588759368 0 -0.43671500038902772 -0.36381401452353412 0 -0.44890944387521442 -0.39029302340116001 0 -0.44225344557501872 -0.38376649822575309 0 -0.45132291774153199 -0.37789636588759368 0 -0.44064580868350911 -0.39542861624611658 0 -0.44225344557501872 -0.38376649822575309 0 -0.43040194378266172 -0.3881600185019185 0 -0.44064580868350911 -0.39542861624611658 0 -0.44890944387521442 -0.39029302340116001 0 -0.44225344557501872 -0.38376649822575309 0 -0.47820614292347569 -0.42776699273468149 0 -0.46517432262153441 -0.43649963461163338 0 -0.45738366370351707 -0.41344381697501481 0 -0.45059725373546922 -0.44229587798334291 0 -0.45738366370351707 -0.41344381697501481 0 -0.45059725373546922 -0.44229587798334291 0 -0.46517432262153441 -0.43649963461163338 0 -0.45738366370351707 -0.41344381697501481 0 -0.44275815558040038 -0.40077469311046232 0 -0.45738366370351707 -0.41344381697501481 0 -0.44164244492799948 -0.42121090558557039 0 -0.45059725373546922 -0.44229587798334291 0 -0.45738366370351707 -0.41344381697501481 0 -0.44164244492799948 -0.42121090558557039 0 -0.45059725373546922 -0.44229587798334291 0 -0.44164244492799948 -0.42121090558557039 0 -0.4339166039271336 -0.43498117536117131 0 -0.4339166039271336 -0.43498117536117131 0 -0.42355654769347711 -0.414558964497861 0 -0.41671115160429401 -0.44095791049380378 0 -0.44164244492799948 -0.42121090558557039 0 -0.4339166039271336 -0.43498117536117131 0 -0.42355654769347711 -0.414558964497861 0 -0.44275815558040038 -0.40077469311046232 0 -0.44164244492799948 -0.42121090558557039 0 -0.42355654769347711 -0.414558964497861 0 -0.42355654769347711 -0.414558964497861 0 -0.41056920252370888 -0.3963363404412637 0 -0.40050668374064252 -0.41734442193795029 0 -0.42355654769347711 -0.414558964497861 0 -0.41671115160429401 -0.44095791049380378 0 -0.42355654769347711 -0.414558964497861 0 -0.40050668374064252 -0.41734442193795029 0 -0.41671115160429401 -0.44095791049380378 0 -0.44225344557501872 -0.38376649822575309 0 -0.43040194378266172 -0.3881600185019185 0 -0.43671500038902772 -0.36381401452353412 0 -0.43040194378266172 -0.3881600185019185 0 -0.43671500038902772 -0.36381401452353412 0 -0.44064580868350911 -0.39542861624611658 0 -0.42355654769347711 -0.414558964497861 0 -0.43040194378266172 -0.3881600185019185 0 -0.42355654769347711 -0.414558964497861 0 -0.43040194378266172 -0.3881600185019185 0 -0.44275815558040038 -0.40077469311046232 0 -0.44064580868350911 -0.39542861624611658 0 -0.42355654769347711 -0.414558964497861 0 -0.44064580868350911 -0.39542861624611658 0 -0.43040194378266172 -0.3881600185019185 0 -0.42355654769347711 -0.414558964497861 0 -0.43040194378266172 -0.3881600185019185 0 -0.41056920252370888 -0.3963363404412637 0 -0.43040194378266172 -0.3881600185019185 0 -0.4079689369259607 -0.37224253963894771 0 -0.43040194378266172 -0.3881600185019185 0 -0.41056920252370888 -0.3963363404412637 0 -0.4079689369259607 -0.37224253963894771 0 -0.41056920252370888 -0.3963363404412637 0 -0.39195929229331972 -0.37982250283040359 0 -0.4079689369259607 -0.37224253963894771 0 -0.41056920252370888 -0.3963363404412637 0 -0.39195929229331972 -0.37982250283040359 0 -0.39357845321732049 -0.39746174547711199 0 -0.41056920252370888 -0.3963363404412637 0 -0.39357845321732049 -0.39746174547711199 0 -0.40050668374064252 -0.41734442193795029 0 -0.39357845321732049 -0.39746174547711199 0 -0.38114412328536468 -0.40833987260765031 0 -0.36544727141479139 -0.39026932065168712 0 -0.39195929229331972 -0.37982250283040359 0 -0.37549160074202448 -0.3732971907138336 0 -0.36544727141479139 -0.39026932065168712 0 -0.39195929229331972 -0.37982250283040359 0 -0.39357845321732049 -0.39746174547711199 0 -0.36544727141479139 -0.39026932065168712 0 -0.40050668374064252 -0.41734442193795029 0 -0.3944977858259317 -0.43926335073686201 0 -0.41671115160429401 -0.44095791049380378 0 -0.40050668374064252 -0.41734442193795029 0 -0.38028594703985957 -0.42392304976487449 0 -0.3944977858259317 -0.43926335073686201 0 -0.39357845321732049 -0.39746174547711199 0 -0.40050668374064252 -0.41734442193795029 0 -0.38114412328536468 -0.40833987260765031 0 -0.40050668374064252 -0.41734442193795029 0 -0.38114412328536468 -0.40833987260765031 0 -0.38028594703985957 -0.42392304976487449 0 -0.38114412328536468 -0.40833987260765031 0 -0.38028594703985957 -0.42392304976487449 0 -0.36590226101420908 -0.41270082520662749 0 -0.38028594703985957 -0.42392304976487449 0 -0.3944977858259317 -0.43926335073686201 0 -0.3723601590800425 -0.44005613486137668 0 -0.3944977858259317 -0.43926335073686201 0 -0.38265619596279349 -0.45813348326120767 0 -0.3723601590800425 -0.44005613486137668 0 -0.40093272222703252 -0.45142790024540502 0 -0.3944977858259317 -0.43926335073686201 0 -0.38265619596279349 -0.45813348326120767 0 -0.40093272222703252 -0.45142790024540502 0 -0.3944977858259317 -0.43926335073686201 0 -0.41671115160429401 -0.44095791049380378 0 -0.38265619596279349 -0.45813348326120767 0 -0.40986575551511062 -0.46735685648974662 0 -0.38265619596279349 -0.45813348326120767 0 -0.39389470715733632 -0.47355095168427308 0 -0.40986575551511062 -0.46735685648974662 0 -0.40093272222703252 -0.45142790024540502 0 -0.38265619596279349 -0.45813348326120767 0 -0.40986575551511062 -0.46735685648974662 0 -0.38265619596279349 -0.45813348326120767 0 -0.38272382101637098 -0.47243968377412587 0 -0.39389470715733632 -0.47355095168427308 0 -0.38272382101637098 -0.47243968377412587 0 -0.38859428369766791 -0.48614630665141417 0 -0.36652141413456929 -0.48474993749143802 0 -0.38272382101637098 -0.47243968377412587 0 -0.38859428369766791 -0.48614630665141417 0 -0.39389470715733632 -0.47355095168427308 0 -0.37500484199342449 -0.5 0 -0.38859428369766791 -0.48614630665141417 0 -0.40140120367436599 -0.49999999999999611 0 -0.37500484199342449 -0.5 0 -0.38859428369766791 -0.48614630665141417 0 -0.36652141413456929 -0.48474993749143802 0 -0.38859428369766791 -0.48614630665141417 0 -0.40140120367436599 -0.49999999999999611 0 -0.40563347959473789 -0.48367842824487117 0 -0.40140120367436599 -0.49999999999999611 0 -0.40563347959473789 -0.48367842824487117 0 -0.40563347959473789 -0.48367842824487117 0 -0.39389470715733632 -0.47355095168427308 0 -0.40986575551511062 -0.46735685648974662 0 -0.38859428369766791 -0.48614630665141417 0 -0.40563347959473789 -0.48367842824487117 0 -0.39389470715733632 -0.47355095168427308 0 -0.40563347959473789 -0.48367842824487117 0 -0.40986575551511062 -0.46735685648974662 0 -0.42809744812538553 -0.47353695305504512 0 -0.40986575551511062 -0.46735685648974662 0 -0.4199949121527507 -0.4855396040697898 0 -0.42809744812538553 -0.47353695305504512 0 -0.40986575551511062 -0.46735685648974662 0 -0.40563347959473789 -0.48367842824487117 0 -0.4199949121527507 -0.4855396040697898 0 -0.40986575551511062 -0.46735685648974662 0 -0.40563347959473789 -0.48367842824487117 0 -0.4199949121527507 -0.4855396040697898 0 -0.41921281873686977 -0.5 0 -0.40140120367436599 -0.49999999999999611 0 -0.40563347959473789 -0.48367842824487117 0 -0.41921281873686977 -0.5 0 -0.4199949121527507 -0.4855396040697898 0 -0.41921281873686977 -0.5 0 -0.43702443379937372 -0.49999999999999922 0 -0.4199949121527507 -0.4855396040697898 0 -0.43702443379937372 -0.49999999999999922 0 -0.42809744812538553 -0.47353695305504512 0 -0.44381084376742141 -0.47114793899167112 0 -0.43702443379937372 -0.49999999999999922 0 -0.42809744812538553 -0.47353695305504512 0 -0.42809744812538553 -0.47353695305504512 0 -0.42194140881699782 -0.45884101952858919 0 -0.43309128002320102 -0.45351235807576151 0 -0.44381084376742141 -0.47114793899167112 0 -0.42809744812538553 -0.47353695305504512 0 -0.43309128002320102 -0.45351235807576151 0 -0.4339166039271336 -0.43498117536117131 0 -0.43309128002320102 -0.45351235807576151 0 -0.41671115160429401 -0.44095791049380378 0 -0.42194140881699782 -0.45884101952858919 0 -0.43309128002320102 -0.45351235807576151 0 -0.41671115160429401 -0.44095791049380378 0 -0.42194140881699782 -0.45884101952858919 0 -0.41671115160429401 -0.44095791049380378 0 -0.40986575551511062 -0.46735685648974662 0 -0.41671115160429401 -0.44095791049380378 0 -0.40986575551511062 -0.46735685648974662 0 -0.40093272222703252 -0.45142790024540502 0 -0.41671115160429401 -0.44095791049380378 0 -0.40986575551511062 -0.46735685648974662 0 -0.42809744812538553 -0.47353695305504512 0 -0.42194140881699782 -0.45884101952858919 0 -0.40986575551511062 -0.46735685648974662 0 -0.45828666285701658 -0.26028432573271792 0 -0.43487007995442373 -0.25384069753834382 0 -0.45658005330295048 -0.2439827770756183 0 -0.43864273500925549 -0.2751587481676856 0 -0.45828666285701658 -0.26028432573271792 0 -0.43487007995442373 -0.25384069753834382 0 -0.43864273500925549 -0.2751587481676856 0 -0.45645423860141388 -0.27827293425430932 0 -0.45828666285701658 -0.26028432573271792 0 -0.43864273500925549 -0.2751587481676856 0 -0.45828666285701658 -0.26028432573271792 0 -0.45645423860141388 -0.27827293425430932 0 -0.47869064668718631 -0.2683854874950159 0 -0.47091363495918082 -0.28947603344621109 0 -0.45645423860141388 -0.27827293425430932 0 -0.45828666285701658 -0.26028432573271792 0 -0.47869064668718631 -0.2683854874950159 0 -0.45828666285701658 -0.26028432573271792 0 -0.47793059070477772 -0.24540990329775009 0 -0.45828666285701658 -0.26028432573271792 0 -0.47869064668718631 -0.2683854874950159 0 -0.47793059070477772 -0.24540990329775009 0 -0.4872249908214738 -0.25598993182963242 0 -0.47869064668718631 -0.2683854874950159 0 -0.47793059070477772 -0.24540990329775009 0 -0.4872249908214738 -0.25598993182963242 0 -0.5 -0.25006354863638108 0 -0.5 -0.27586016112259643 0 -0.4872249908214738 -0.25598993182963242 0 -0.5 -0.25006354863638108 0 -0.49068252501969761 -0.24549971615663649 0 -0.4872249908214738 -0.25598993182963242 0 -0.5 -0.27586016112259643 0 -0.47869064668718631 -0.2683854874950159 0 -0.5 -0.27586016112259643 0 -0.47869064668718631 -0.2683854874950159 0 -0.48721788021035761 -0.2882082846164955 0 -0.47869064668718631 -0.2683854874950159 0 -0.47091363495918082 -0.28947603344621109 0 -0.48721788021035761 -0.2882082846164955 0 -0.47091363495918082 -0.28947603344621109 0 -0.48721788021035761 -0.2882082846164955 0 -0.48161809245015419 -0.30465866835107641 0 -0.5 -0.27586016112259643 0 -0.48721788021035761 -0.2882082846164955 0 -0.5 -0.3016567736088116 0 -0.48721788021035761 -0.2882082846164955 0 -0.5 -0.3016567736088116 0 -0.48161809245015419 -0.30465866835107641 0 -0.5 -0.3016567736088116 0 -0.48161809245015419 -0.30465866835107641 0 -0.5 -0.32745338609502678 0 -0.47091363495918082 -0.28947603344621109 0 -0.48161809245015419 -0.30465866835107641 0 -0.45879166701778518 -0.3036258058313378 0 -0.48161809245015419 -0.30465866835107641 0 -0.45879166701778518 -0.3036258058313378 0 -0.47638885418803739 -0.32253493654140952 0 -0.45645423860141388 -0.27827293425430932 0 -0.47091363495918082 -0.28947603344621109 0 -0.45879166701778518 -0.3036258058313378 0 -0.45645423860141388 -0.27827293425430932 0 -0.45879166701778518 -0.3036258058313378 0 -0.43905227881958647 -0.29505920944709452 0 -0.43864273500925549 -0.2751587481676856 0 -0.45645423860141388 -0.27827293425430932 0 -0.43905227881958647 -0.29505920944709452 0 -0.45879166701778518 -0.3036258058313378 0 -0.43905227881958647 -0.29505920944709452 0 -0.4399695753826649 -0.31139282438396382 0 -0.4399695753826649 -0.31139282438396382 0 -0.45223868162566522 -0.32343332413938758 0 -0.42808850906329299 -0.32433171173736591 0 -0.45879166701778518 -0.3036258058313378 0 -0.4399695753826649 -0.31139282438396382 0 -0.45223868162566522 -0.32343332413938758 0 -0.45223868162566522 -0.32343332413938758 0 -0.42808850906329299 -0.32433171173736591 0 -0.45223868162566522 -0.32343332413938758 0 -0.44207286924452832 -0.33783824796895978 0 -0.46140244920768408 -0.33754740415941759 0 -0.44207286924452832 -0.33783824796895978 0 -0.46140244920768408 -0.33754740415941759 0 -0.45117994904742642 -0.3486532256997657 0 -0.45223868162566522 -0.32343332413938758 0 -0.44207286924452832 -0.33783824796895978 0 -0.42808850906329299 -0.32433171173736591 0 -0.45879166701778518 -0.3036258058313378 0 -0.45223868162566522 -0.32343332413938758 0 -0.47638885418803739 -0.32253493654140952 0 -0.45223868162566522 -0.32343332413938758 0 -0.46140244920768408 -0.33754740415941759 0 -0.47638885418803739 -0.32253493654140952 0 -0.45223868162566522 -0.32343332413938758 0 -0.47638885418803739 -0.32253493654140952 0 -0.48161809245015419 -0.30465866835107641 0 -0.47638885418803739 -0.32253493654140952 0 -0.5 -0.32745338609502678 0 -0.47638885418803739 -0.32253493654140952 0 -0.5 -0.32745338609502678 0 -0.48104103145021149 -0.34129537751375599 0 -0.5 -0.32745338609502678 0 -0.48104103145021149 -0.34129537751375599 0 -0.5 -0.35324999858124201 0 -0.46140244920768408 -0.33754740415941759 0 -0.48104103145021149 -0.34129537751375599 0 -0.46549330969023639 -0.35152931309322771 0 -0.46140244920768408 -0.33754740415941759 0 -0.47638885418803739 -0.32253493654140952 0 -0.48104103145021149 -0.34129537751375599 0 -0.48104103145021149 -0.34129537751375599 0 -0.48025743214923627 -0.35616585996071459 0 -0.46549330969023639 -0.35152931309322771 0 -0.48025743214923627 -0.35616585996071459 0 -0.46757842097458802 -0.36652008110622503 0 -0.46549330969023639 -0.35152931309322771 0 -0.48025743214923627 -0.35616585996071459 0 -0.5 -0.35324999858124201 0 -0.48717439863114548 -0.36823452950912272 0 -0.48104103145021149 -0.34129537751375599 0 -0.48025743214923627 -0.35616585996071459 0 -0.5 -0.35324999858124201 0 -0.50000000000000089 -0.37904661106745707 0 -0.5 -0.35324999858124201 0 -0.48717439863114548 -0.36823452950912272 0 -0.47195833844942919 -0.37959069520904498 0 -0.48717439863114548 -0.36823452950912272 0 -0.46757842097458802 -0.36652008110622503 0 -0.48025743214923627 -0.35616585996071459 0 -0.48717439863114548 -0.36823452950912272 0 -0.46757842097458802 -0.36652008110622503 0 -0.45132291774153199 -0.37789636588759368 0 -0.46757842097458802 -0.36652008110622503 0 -0.45216690816074923 -0.36231126303824313 0 -0.47195833844942919 -0.37959069520904498 0 -0.45132291774153199 -0.37789636588759368 0 -0.46757842097458802 -0.36652008110622503 0 -0.46757842097458802 -0.36652008110622503 0 -0.46549330969023639 -0.35152931309322771 0 -0.45216690816074923 -0.36231126303824313 0 -0.46140244920768408 -0.33754740415941759 0 -0.46549330969023639 -0.35152931309322771 0 -0.45117994904742642 -0.3486532256997657 0 -0.46549330969023639 -0.35152931309322771 0 -0.45117994904742642 -0.3486532256997657 0 -0.45216690816074923 -0.36231126303824313 0 -0.44599028472907742 -0.35554349803526408 0 -0.45117994904742642 -0.3486532256997657 0 -0.45216690816074923 -0.36231126303824313 0 -0.44599028472907742 -0.35554349803526408 0 -0.45117994904742642 -0.3486532256997657 0 -0.44228407783080631 -0.34851364977492799 0 -0.44207286924452832 -0.33783824796895978 0 -0.44228407783080631 -0.34851364977492799 0 -0.43394442261003058 -0.34546672586134508 0 -0.44228407783080631 -0.34851364977492799 0 -0.43858436747801349 -0.35660488883003821 0 -0.43394442261003058 -0.34546672586134508 0 -0.44207286924452832 -0.33783824796895978 0 -0.45117994904742642 -0.3486532256997657 0 -0.44228407783080631 -0.34851364977492799 0 -0.44599028472907742 -0.35554349803526408 0 -0.44228407783080631 -0.34851364977492799 0 -0.43858436747801349 -0.35660488883003821 0 -0.44599028472907742 -0.35554349803526408 0 -0.43858436747801349 -0.35660488883003821 0 -0.43671500038902772 -0.36381401452353412 0 -0.43858436747801349 -0.35660488883003821 0 -0.43671500038902772 -0.36381401452353412 0 -0.44599028472907742 -0.35554349803526408 0 -0.45216690816074923 -0.36231126303824313 0 -0.43671500038902772 -0.36381401452353412 0 -0.45132291774153199 -0.37789636588759368 0 -0.43671500038902772 -0.36381401452353412 0 -0.45132291774153199 -0.37789636588759368 0 -0.45216690816074923 -0.36231126303824313 0 -0.43671500038902772 -0.36381401452353412 0 -0.43040194378266172 -0.3881600185019185 0 -0.43671500038902772 -0.36381401452353412 0 -0.4079689369259607 -0.37224253963894771 0 -0.43858436747801349 -0.35660488883003821 0 -0.43671500038902772 -0.36381401452353412 0 -0.41901032175007979 -0.34674631764622038 0 -0.43671500038902772 -0.36381401452353412 0 -0.41901032175007979 -0.34674631764622038 0 -0.43858436747801349 -0.35660488883003821 0 -0.43394442261003058 -0.34546672586134508 0 -0.41901032175007979 -0.34674631764622038 0 -0.41901032175007979 -0.34674631764622038 0 -0.4079689369259607 -0.37224253963894771 0 -0.40160491304204049 -0.35527610236370899 0 -0.43671500038902772 -0.36381401452353412 0 -0.41901032175007979 -0.34674631764622038 0 -0.4079689369259607 -0.37224253963894771 0 -0.4079689369259607 -0.37224253963894771 0 -0.38553593006925752 -0.3563250607759802 0 -0.4079689369259607 -0.37224253963894771 0 -0.38553593006925752 -0.3563250607759802 0 -0.40160491304204049 -0.35527610236370899 0 -0.39195929229331972 -0.37982250283040359 0 -0.4079689369259607 -0.37224253963894771 0 -0.38553593006925752 -0.3563250607759802 0 -0.39195929229331972 -0.37982250283040359 0 -0.37549160074202448 -0.3732971907138336 0 -0.38553593006925752 -0.3563250607759802 0 -0.37549160074202448 -0.3732971907138336 0 -0.38553593006925752 -0.3563250607759802 0 -0.38553593006925752 -0.3563250607759802 0 -0.36666079927166728 -0.34293209489202431 0 -0.38553593006925752 -0.3563250607759802 0 -0.39342078659019603 -0.34300184077244372 0 -0.38006824781918919 -0.33243312042550199 0 -0.38553593006925752 -0.3563250607759802 0 -0.38006824781918919 -0.33243312042550199 0 -0.36666079927166728 -0.34293209489202431 0 -0.38553593006925752 -0.3563250607759802 0 -0.39342078659019603 -0.34300184077244372 0 -0.41901032175007979 -0.34674631764622038 0 -0.40160491304204049 -0.35527610236370899 0 -0.39342078659019603 -0.34300184077244372 0 -0.38553593006925752 -0.3563250607759802 0 -0.40160491304204049 -0.35527610236370899 0 -0.39342078659019603 -0.34300184077244372 0 -0.41901032175007979 -0.34674631764622038 0 -0.40130564311113259 -0.32967862076890581 0 -0.39342078659019603 -0.34300184077244372 0 -0.40130564311113259 -0.32967862076890581 0 -0.39064670272592411 -0.32967160323888278 0 -0.39342078659019603 -0.34300184077244372 0 -0.40130564311113259 -0.32967862076890581 0 -0.39342078659019603 -0.34300184077244372 0 -0.39064670272592411 -0.32967160323888278 0 -0.39342078659019603 -0.34300184077244372 0 -0.38006824781918919 -0.33243312042550199 0 -0.38006824781918919 -0.33243312042550199 0 -0.38935907146989862 -0.31816186479418052 0 -0.37140736883531977 -0.32183989730859341 0 -0.38935907146989862 -0.31816186479418052 0 -0.38351210912712752 -0.30253866195360818 0 -0.37140736883531977 -0.32183989730859341 0 -0.39064670272592411 -0.32967160323888278 0 -0.38006824781918919 -0.33243312042550199 0 -0.38935907146989862 -0.31816186479418052 0 -0.38935907146989862 -0.31816186479418052 0 -0.401514660155255 -0.31819685637317691 0 -0.39554973675391708 -0.30949047449279188 0 -0.40130564311113259 -0.32967862076890581 0 -0.38935907146989862 -0.31816186479418052 0 -0.40130564311113259 -0.32967862076890581 0 -0.38935907146989862 -0.31816186479418052 0 -0.39962023335203928 -0.32539073298322901 0 -0.38935907146989862 -0.31816186479418052 0 -0.39962023335203928 -0.32539073298322901 0 -0.401514660155255 -0.31819685637317691 0 -0.40130564311113259 -0.32967862076890581 0 -0.39064670272592411 -0.32967160323888278 0 -0.38935907146989862 -0.31816186479418052 0 -0.40130564311113259 -0.32967862076890581 0 -0.39962023335203928 -0.32539073298322901 0 -0.4039383365009207 -0.3252300993353433 0 -0.39962023335203928 -0.32539073298322901 0 -0.4039383365009207 -0.3252300993353433 0 -0.39962023335203928 -0.32539073298322901 0 -0.4039383365009207 -0.3252300993353433 0 -0.401514660155255 -0.31819685637317691 0 -0.40130564311113259 -0.32967862076890581 0 -0.4039383365009207 -0.3252300993353433 0 -0.401514660155255 -0.31819685637317691 0 -0.4088463285069534 -0.31693695448250642 0 -0.4053668684804122 -0.3086126184714344 0 -0.4039383365009207 -0.3252300993353433 0 -0.401514660155255 -0.31819685637317691 0 -0.4088463285069534 -0.31693695448250642 0 -0.4039383365009207 -0.3252300993353433 0 -0.42808850906329299 -0.32433171173736591 0 -0.4088463285069534 -0.31693695448250642 0 -0.42808850906329299 -0.32433171173736591 0 -0.41503252140001728 -0.31110728079830707 0 -0.4039383365009207 -0.3252300993353433 0 -0.4088463285069534 -0.31693695448250642 0 -0.42808850906329299 -0.32433171173736591 0 -0.4039383365009207 -0.3252300993353433 0 -0.41609663568284688 -0.33258428014908531 0 -0.42808850906329299 -0.32433171173736591 0 -0.4039383365009207 -0.3252300993353433 0 -0.4088463285069534 -0.31693695448250642 0 -0.40130564311113259 -0.32967862076890581 0 -0.4039383365009207 -0.3252300993353433 0 -0.41609663568284688 -0.33258428014908531 0 -0.41901032175007979 -0.34674631764622038 0 -0.40130564311113259 -0.32967862076890581 0 -0.41609663568284688 -0.33258428014908531 0 -0.41901032175007979 -0.34674631764622038 0 -0.40130564311113259 -0.32967862076890581 0 -0.41901032175007979 -0.34674631764622038 0 -0.41609663568284688 -0.33258428014908531 0 -0.42777047674672519 -0.33763052508657909 0 -0.41609663568284688 -0.33258428014908531 0 -0.42777047674672519 -0.33763052508657909 0 -0.42808850906329299 -0.32433171173736591 0 -0.43394442261003058 -0.34546672586134508 0 -0.41901032175007979 -0.34674631764622038 0 -0.42777047674672519 -0.33763052508657909 0 -0.44207286924452832 -0.33783824796895978 0 -0.43394442261003058 -0.34546672586134508 0 -0.42777047674672519 -0.33763052508657909 0 -0.44207286924452832 -0.33783824796895978 0 -0.42777047674672519 -0.33763052508657909 0 -0.42808850906329299 -0.32433171173736591 0 -0.4399695753826649 -0.31139282438396382 0 -0.42808850906329299 -0.32433171173736591 0 -0.42349591428063971 -0.31031667424466408 0 -0.42808850906329299 -0.32433171173736591 0 -0.42349591428063971 -0.31031667424466408 0 -0.41503252140001728 -0.31110728079830707 0 -0.43905227881958647 -0.29505920944709452 0 -0.42349591428063971 -0.31031667424466408 0 -0.41899880716149451 -0.29003317060265321 0 -0.43905227881958647 -0.29505920944709452 0 -0.4399695753826649 -0.31139282438396382 0 -0.42349591428063971 -0.31031667424466408 0 -0.43864273500925549 -0.2751587481676856 0 -0.43905227881958647 -0.29505920944709452 0 -0.41899880716149451 -0.29003317060265321 0 -0.43864273500925549 -0.2751587481676856 0 -0.41899880716149451 -0.29003317060265321 0 -0.41649742047364408 -0.2919272257303569 0 -0.41502826726935188 -0.28951283527362931 0 -0.41151645216318689 -0.29124877083691719 0 -0.41899880716149451 -0.29003317060265321 0 -0.41649742047364408 -0.2919272257303569 0 -0.41502826726935188 -0.28951283527362931 0 -0.41899880716149451 -0.29003317060265321 0 -0.41649742047364408 -0.2919272257303569 0 -0.41899880716149451 -0.29003317060265321 0 -0.41502826726935188 -0.28951283527362931 0 -0.41310038927908221 -0.28484217392458988 0 -0.41310038927908221 -0.28484217392458988 0 -0.40629814920556201 -0.2872410904076857 0 -0.40433064532645308 -0.27892106023783952 0 -0.41502826726935188 -0.28951283527362931 0 -0.41310038927908221 -0.28484217392458988 0 -0.41151645216318689 -0.29124877083691719 0 -0.41310038927908221 -0.28484217392458988 0 -0.40629814920556201 -0.2872410904076857 0 -0.41151645216318689 -0.29124877083691719 0 -0.41649742047364408 -0.2919272257303569 0 -0.41151645216318689 -0.29124877083691719 0 -0.41283916949633909 -0.29890888486812428 0 -0.40629814920556201 -0.2872410904076857 0 -0.41151645216318689 -0.29124877083691719 0 -0.4052488046064433 -0.29379102377099447 0 -0.41151645216318689 -0.29124877083691719 0 -0.41283916949633909 -0.29890888486812428 0 -0.4052488046064433 -0.29379102377099447 0 -0.42349591428063971 -0.31031667424466408 0 -0.41899880716149451 -0.29003317060265321 0 -0.42349591428063971 -0.31031667424466408 0 -0.41649742047364408 -0.2919272257303569 0 -0.41283916949633909 -0.29890888486812428 0 -0.42349591428063971 -0.31031667424466408 0 -0.41899880716149451 -0.29003317060265321 0 -0.41649742047364408 -0.2919272257303569 0 -0.40711072979061191 -0.30081998795009107 0 -0.41283916949633909 -0.29890888486812428 0 -0.4052488046064433 -0.29379102377099447 0 -0.40711072979061191 -0.30081998795009107 0 -0.41283916949633909 -0.29890888486812428 0 -0.41256685577174013 -0.30556786269479153 0 -0.42349591428063971 -0.31031667424466408 0 -0.41283916949633909 -0.29890888486812428 0 -0.41256685577174013 -0.30556786269479153 0 -0.42349591428063971 -0.31031667424466408 0 -0.41503252140001728 -0.31110728079830707 0 -0.41256685577174013 -0.30556786269479153 0 -0.4088463285069534 -0.31693695448250642 0 -0.41503252140001728 -0.31110728079830707 0 -0.4053668684804122 -0.3086126184714344 0 -0.41503252140001728 -0.31110728079830707 0 -0.41256685577174013 -0.30556786269479153 0 -0.4053668684804122 -0.3086126184714344 0 -0.40711072979061191 -0.30081998795009107 0 -0.41256685577174013 -0.30556786269479153 0 -0.4053668684804122 -0.3086126184714344 0 -0.401514660155255 -0.31819685637317691 0 -0.4053668684804122 -0.3086126184714344 0 -0.39554973675391708 -0.30949047449279188 0 -0.4053668684804122 -0.3086126184714344 0 -0.39799597453689262 -0.29994237087155962 0 -0.39554973675391708 -0.30949047449279188 0 -0.40711072979061191 -0.30081998795009107 0 -0.4053668684804122 -0.3086126184714344 0 -0.39799597453689262 -0.29994237087155962 0 -0.40711072979061191 -0.30081998795009107 0 -0.39799597453689262 -0.29994237087155962 0 -0.4052488046064433 -0.29379102377099447 0 -0.39799597453689262 -0.29994237087155962 0 -0.39554973675391708 -0.30949047449279188 0 -0.38351210912712752 -0.30253866195360818 0 -0.38935907146989862 -0.31816186479418052 0 -0.39554973675391708 -0.30949047449279188 0 -0.38351210912712752 -0.30253866195360818 0 -0.38351210912712752 -0.30253866195360818 0 -0.3950660262777419 -0.28803976586637831 0 -0.37433096522584453 -0.28132989654828328 0 -0.39799597453689262 -0.29994237087155962 0 -0.38351210912712752 -0.30253866195360818 0 -0.3950660262777419 -0.28803976586637831 0 -0.39799597453689262 -0.29994237087155962 0 -0.3950660262777419 -0.28803976586637831 0 -0.4052488046064433 -0.29379102377099447 0 -0.40629814920556201 -0.2872410904076857 0 -0.3950660262777419 -0.28803976586637831 0 -0.4052488046064433 -0.29379102377099447 0 -0.40629814920556201 -0.2872410904076857 0 -0.3950660262777419 -0.28803976586637831 0 -0.40433064532645308 -0.27892106023783952 0 -0.40433064532645308 -0.27892106023783952 0 -0.39374553591587069 -0.27251425727467649 0 -0.41316010660589619 -0.2636986180010682 0 -0.39374553591587069 -0.27251425727467649 0 -0.41316010660589619 -0.2636986180010682 0 -0.3950660262777419 -0.28803976586637831 0 -0.40433064532645308 -0.27892106023783952 0 -0.39374553591587069 -0.27251425727467649 0 -0.39374553591587069 -0.27251425727467649 0 -0.37433096522584453 -0.28132989654828328 0 -0.3950660262777419 -0.28803976586637831 0 -0.39374553591587069 -0.27251425727467649 0 -0.37433096522584453 -0.28132989654828328 0 -0.39374553591587069 -0.27251425727467649 0 -0.37648826808451968 -0.27741199289956509 0 -0.37433096522584453 -0.28132989654828328 0 -0.39374553591587069 -0.27251425727467649 0 -0.37598097480723441 -0.26745556380373348 0 -0.38363075469537122 -0.26088114511686322 0 -0.39374553591587069 -0.27251425727467649 0 -0.37598097480723441 -0.26745556380373348 0 -0.37648826808451968 -0.27741199289956509 0 -0.37598097480723441 -0.26745556380373348 0 -0.37648826808451968 -0.27741199289956509 0 -0.37277902062147272 -0.27405557492128901 0 -0.37648826808451968 -0.27741199289956509 0 -0.37433096522584453 -0.28132989654828328 0 -0.38363075469537122 -0.26088114511686322 0 -0.37393540655460039 -0.25504906339868932 0 -0.38258347849844832 -0.24967798674395081 0 -0.37598097480723441 -0.26745556380373348 0 -0.38363075469537122 -0.26088114511686322 0 -0.37393540655460039 -0.25504906339868932 0 -0.38363075469537122 -0.26088114511686322 0 -0.3945867816951415 -0.25828321704239809 0 -0.38258347849844832 -0.24967798674395081 0 -0.3945867816951415 -0.25828321704239809 0 -0.3933004523496676 -0.24484402304582939 0 -0.38258347849844832 -0.24967798674395081 0 -0.39374553591587069 -0.27251425727467649 0 -0.3945867816951415 -0.25828321704239809 0 -0.41316010660589619 -0.2636986180010682 0 -0.3945867816951415 -0.25828321704239809 0 -0.41316010660589619 -0.2636986180010682 0 -0.40847937369743209 -0.24258689873782929 0 -0.39374553591587069 -0.27251425727467649 0 -0.38363075469537122 -0.26088114511686322 0 -0.3945867816951415 -0.25828321704239809 0 -0.41316010660589619 -0.2636986180010682 0 -0.42931567121415071 -0.25028064732030619 0 -0.40847937369743209 -0.24258689873782929 0 -0.41316010660589619 -0.2636986180010682 0 -0.40847937369743209 -0.24258689873782929 0 -0.41899880716149451 -0.29003317060265321 0 -0.41310038927908221 -0.28484217392458988 0 -0.41316010660589619 -0.2636986180010682 0 -0.41310038927908221 -0.28484217392458988 0 -0.40433064532645308 -0.27892106023783952 0 -0.41316010660589619 -0.2636986180010682 0 -0.41899880716149451 -0.29003317060265321 0 -0.41316010660589619 -0.2636986180010682 0 -0.42551969657153998 -0.27199364899169498 0 -0.41899880716149451 -0.29003317060265321 0 -0.41316010660589619 -0.2636986180010682 0 -0.43864273500925549 -0.2751587481676856 0 -0.42551969657153998 -0.27199364899169498 0 -0.43487007995442373 -0.25384069753834382 0 -0.43864273500925549 -0.2751587481676856 0 -0.41899880716149451 -0.29003317060265321 0 -0.42551969657153998 -0.27199364899169498 0 -0.41316010660589619 -0.2636986180010682 0 -0.43487007995442373 -0.25384069753834382 0 -0.41316010660589619 -0.2636986180010682 0 -0.42551969657153998 -0.27199364899169498 0 -0.43487007995442373 -0.25384069753834382 0 -0.41316010660589619 -0.2636986180010682 0 -0.43487007995442373 -0.25384069753834382 0 -0.42931567121415071 -0.25028064732030619 0 -0.32316489217708799 -0.25890650528201359 0 -0.32888695585781391 -0.26910619260742191 0 -0.31032083431566337 -0.26180085087236171 0 -0.32316489217708799 -0.25890650528201359 0 -0.32888695585781391 -0.26910619260742191 0 -0.33131030172746923 -0.25321851497678438 0 -0.32888695585781391 -0.26910619260742191 0 -0.31032083431566337 -0.26180085087236171 0 -0.32316489217708799 -0.25890650528201359 0 -0.33131030172746923 -0.25321851497678438 0 -0.32202724095639168 -0.2495658441092535 0 -0.32316489217708799 -0.25890650528201359 0 -0.31032083431566337 -0.26180085087236171 0 -0.32202724095639168 -0.2495658441092535 0 -0.31032083431566337 -0.26180085087236171 0 -0.32202724095639168 -0.2495658441092535 0 -0.31283906540333922 -0.25031215033235238 0 -0.31032083431566337 -0.26180085087236171 0 -0.32202724095639168 -0.2495658441092535 0 -0.31480478096024378 -0.27564718726691712 0 -0.32888695585781391 -0.26910619260742191 0 -0.31032083431566337 -0.26180085087236171 0 -0.31480478096024378 -0.27564718726691712 0 -0.32888695585781391 -0.26910619260742191 0 -0.32507396769595592 -0.29410449247197662 0 -0.32888695585781391 -0.26910619260742191 0 -0.3381311227387106 -0.26238754928509761 0 -0.34453036853746388 -0.27526151563856671 0 -0.32888695585781391 -0.26910619260742191 0 -0.34453036853746388 -0.27526151563856671 0 -0.33279411355556121 -0.28213246275860349 0 -0.32888695585781391 -0.26910619260742191 0 -0.34453036853746388 -0.27526151563856671 0 -0.34453036853746388 -0.27526151563856671 0 -0.34450588037081892 -0.28462367662190302 0 -0.33279411355556121 -0.28213246275860349 0 -0.32888695585781391 -0.26910619260742191 0 -0.33131030172746923 -0.25321851497678438 0 -0.32888695585781391 -0.26910619260742191 0 -0.3381311227387106 -0.26238754928509761 0 -0.33131030172746923 -0.25321851497678438 0 -0.3381311227387106 -0.26238754928509761 0 -0.34897267059429732 -0.25990550268967838 0 -0.3420777495351906 -0.24844208584564559 0 -0.3381311227387106 -0.26238754928509761 0 -0.33131030172746923 -0.25321851497678438 0 -0.3420777495351906 -0.24844208584564559 0 -0.34897267059429732 -0.25990550268967838 0 -0.35255150303394622 -0.24812522560144931 0 -0.3420777495351906 -0.24844208584564559 0 -0.34897267059429732 -0.25990550268967838 0 -0.35751050643918753 -0.2560897164936603 0 -0.35722060467742811 -0.26762499714769428 0 -0.34897267059429732 -0.25990550268967838 0 -0.35751050643918753 -0.2560897164936603 0 -0.35255150303394622 -0.24812522560144931 0 -0.35751050643918753 -0.2560897164936603 0 -0.363557814049559 -0.2486896754833777 0 -0.35255150303394622 -0.24812522560144931 0 -0.35751050643918753 -0.2560897164936603 0 -0.36561260290989678 -0.26128521942254013 0 -0.363557814049559 -0.2486896754833777 0 -0.35751050643918753 -0.2560897164936603 0 -0.36561260290989678 -0.26128521942254013 0 -0.35722060467742811 -0.26762499714769428 0 -0.37598097480723441 -0.26745556380373348 0 -0.36561260290989678 -0.26128521942254013 0 -0.37393540655460039 -0.25504906339868932 0 -0.36561260290989678 -0.26128521942254013 0 -0.37393540655460039 -0.25504906339868932 0 -0.363557814049559 -0.2486896754833777 0 -0.37277902062147272 -0.27405557492128901 0 -0.36654922363893422 -0.27215591673696138 0 -0.37433096522584453 -0.28132989654828328 0 -0.37648826808451968 -0.27741199289956509 0 -0.37277902062147272 -0.27405557492128901 0 -0.37433096522584453 -0.28132989654828328 0 -0.37598097480723441 -0.26745556380373348 0 -0.37277902062147272 -0.27405557492128901 0 -0.36654922363893422 -0.27215591673696138 0 -0.37598097480723441 -0.26745556380373348 0 -0.36561260290989678 -0.26128521942254013 0 -0.36654922363893422 -0.27215591673696138 0 -0.36561260290989678 -0.26128521942254013 0 -0.36654922363893422 -0.27215591673696138 0 -0.35722060467742811 -0.26762499714769428 0 -0.36654922363893422 -0.27215591673696138 0 -0.35722060467742811 -0.26762499714769428 0 -0.36017378121711419 -0.28141683866971062 0 -0.36654922363893422 -0.27215591673696138 0 -0.36017378121711419 -0.28141683866971062 0 -0.37433096522584453 -0.28132989654828328 0 -0.34453036853746388 -0.27526151563856671 0 -0.36017378121711419 -0.28141683866971062 0 -0.35722060467742811 -0.26762499714769428 0 -0.34453036853746388 -0.27526151563856671 0 -0.36017378121711419 -0.28141683866971062 0 -0.34453036853746388 -0.27526151563856671 0 -0.34450588037081892 -0.28462367662190302 0 -0.36017378121711419 -0.28141683866971062 0 -0.34897267059429732 -0.25990550268967838 0 -0.35722060467742811 -0.26762499714769428 0 -0.34453036853746388 -0.27526151563856671 0 -0.3381311227387106 -0.26238754928509761 0 -0.34897267059429732 -0.25990550268967838 0 -0.34453036853746388 -0.27526151563856671 0 -0.34450588037081892 -0.28462367662190302 0 -0.34891652205724832 -0.29286991805537971 0 -0.36017378121711419 -0.28141683866971062 0 -0.37433096522584453 -0.28132989654828328 0 -0.36105831684996031 -0.30543451277817618 0 -0.34891652205724832 -0.29286991805537971 0 -0.37433096522584453 -0.28132989654828328 0 -0.34891652205724832 -0.29286991805537971 0 -0.36017378121711419 -0.28141683866971062 0 -0.37433096522584453 -0.28132989654828328 0 -0.38351210912712752 -0.30253866195360818 0 -0.37433096522584453 -0.28132989654828328 0 -0.36105831684996031 -0.30543451277817618 0 -0.34891652205724832 -0.29286991805537971 0 -0.37433096522584453 -0.28132989654828328 0 -0.36105831684996031 -0.30543451277817618 0 -0.38351210912712752 -0.30253866195360818 0 -0.36105831684996031 -0.30543451277817618 0 -0.37140736883531977 -0.32183989730859341 0 -0.36105831684996031 -0.30543451277817618 0 -0.3496688877197569 -0.30429177800002122 0 -0.34586440994984541 -0.3145735322147622 0 -0.34891652205724832 -0.29286991805537971 0 -0.36105831684996031 -0.30543451277817618 0 -0.3496688877197569 -0.30429177800002122 0 -0.34891652205724832 -0.29286991805537971 0 -0.3496688877197569 -0.30429177800002122 0 -0.33956299038192078 -0.30735077663143923 0 -0.3496688877197569 -0.30429177800002122 0 -0.33956299038192078 -0.30735077663143923 0 -0.34586440994984541 -0.3145735322147622 0 -0.34891652205724832 -0.29286991805537971 0 -0.33956299038192078 -0.30735077663143923 0 -0.32350207888865212 -0.30440993956247547 0 -0.33956299038192078 -0.30735077663143923 0 -0.3301339810941622 -0.31110503031331638 0 -0.32350207888865212 -0.30440993956247547 0 -0.34891652205724832 -0.29286991805537971 0 -0.32350207888865212 -0.30440993956247547 0 -0.33956299038192078 -0.30735077663143923 0 -0.3301339810941622 -0.31110503031331638 0 -0.33675509785737662 -0.31655799101612769 0 -0.34891652205724832 -0.29286991805537971 0 -0.33611461648670682 -0.29143764798725502 0 -0.32350207888865212 -0.30440993956247547 0 -0.32888695585781391 -0.26910619260742191 0 -0.33279411355556121 -0.28213246275860349 0 -0.32507396769595592 -0.29410449247197662 0 -0.34450588037081892 -0.28462367662190302 0 -0.34891652205724832 -0.29286991805537971 0 -0.33611461648670682 -0.29143764798725502 0 -0.34450588037081892 -0.28462367662190302 0 -0.33611461648670682 -0.29143764798725502 0 -0.33279411355556121 -0.28213246275860349 0 -0.33279411355556121 -0.28213246275860349 0 -0.33070524953878982 -0.29012978506972142 0 -0.32507396769595592 -0.29410449247197662 0 -0.33611461648670682 -0.29143764798725502 0 -0.33279411355556121 -0.28213246275860349 0 -0.33070524953878982 -0.29012978506972142 0 -0.33611461648670682 -0.29143764798725502 0 -0.32742439802278828 -0.29462709162158601 0 -0.32350207888865212 -0.30440993956247547 0 -0.33611461648670682 -0.29143764798725502 0 -0.33070524953878982 -0.29012978506972142 0 -0.32742439802278828 -0.29462709162158601 0 -0.32507396769595592 -0.29410449247197662 0 -0.30234930147786221 -0.28905184696057518 0 -0.32507396769595592 -0.29410449247197662 0 -0.32350207888865212 -0.30440993956247547 0 -0.30234930147786221 -0.28905184696057518 0 -0.31480478096024378 -0.27564718726691712 0 -0.32507396769595592 -0.29410449247197662 0 -0.30234930147786221 -0.28905184696057518 0 -0.32888695585781391 -0.26910619260742191 0 -0.32507396769595592 -0.29410449247197662 0 -0.32507396769595592 -0.29410449247197662 0 -0.32742439802278828 -0.29462709162158601 0 -0.33070524953878982 -0.29012978506972142 0 -0.32507396769595592 -0.29410449247197662 0 -0.32742439802278828 -0.29462709162158601 0 -0.32302725724223008 -0.30752291379569302 0 -0.32350207888865212 -0.30440993956247547 0 -0.2999756881373381 -0.31509264677165549 0 -0.3301339810941622 -0.31110503031331638 0 -0.32302725724223008 -0.30752291379569302 0 -0.32422013968378288 -0.31561436227230438 0 -0.32302725724223008 -0.30752291379569302 0 -0.32350207888865212 -0.30440993956247547 0 -0.3301339810941622 -0.31110503031331638 0 -0.32302725724223008 -0.30752291379569302 0 -0.32350207888865212 -0.30440993956247547 0 -0.32507396769595592 -0.29410449247197662 0 -0.32742439802278828 -0.29462709162158601 0 -0.32350207888865212 -0.30440993956247547 0 -0.32507396769595592 -0.29410449247197662 0 -0.32350207888865212 -0.30440993956247547 0 -0.32302725724223008 -0.30752291379569302 0 -0.31656029902357641 -0.31849097864348519 0 -0.2999756881373381 -0.31509264677165549 0 -0.32265466046617669 -0.32198754646013139 0 -0.33127214989488979 -0.33008610863815152 0 -0.32872450059276898 -0.31896534214889599 0 -0.32265466046617669 -0.32198754646013139 0 -0.31892782856615448 -0.32825501756413727 0 -0.33127214989488979 -0.33008610863815152 0 -0.32265466046617669 -0.32198754646013139 0 -0.32422013968378288 -0.31561436227230438 0 -0.32872450059276898 -0.31896534214889599 0 -0.32302725724223008 -0.30752291379569302 0 -0.32422013968378288 -0.31561436227230438 0 -0.31656029902357641 -0.31849097864348519 0 -0.3301339810941622 -0.31110503031331638 0 -0.32422013968378288 -0.31561436227230438 0 -0.32872450059276898 -0.31896534214889599 0 -0.32265466046617669 -0.32198754646013139 0 -0.32422013968378288 -0.31561436227230438 0 -0.31656029902357641 -0.31849097864348519 0 -0.32265466046617669 -0.32198754646013139 0 -0.31656029902357641 -0.31849097864348519 0 -0.31892782856615448 -0.32825501756413727 0 -0.31656029902357641 -0.31849097864348519 0 -0.31892782856615448 -0.32825501756413727 0 -0.30936258926988919 -0.3261434941065412 0 -0.31892782856615448 -0.32825501756413727 0 -0.31208723605418232 -0.33616024018399832 0 -0.30936258926988919 -0.3261434941065412 0 -0.31892782856615448 -0.32825501756413727 0 -0.32183099473442811 -0.33958013728355868 0 -0.31208723605418232 -0.33616024018399832 0 -0.32183099473442811 -0.33958013728355868 0 -0.31234840654553953 -0.34764506024843322 0 -0.31208723605418232 -0.33616024018399832 0 -0.31892782856615448 -0.32825501756413727 0 -0.32183099473442811 -0.33958013728355868 0 -0.33127214989488979 -0.33008610863815152 0 -0.33127214989488979 -0.33008610863815152 0 -0.34778566847407638 -0.32953912900806931 0 -0.33412452318830171 -0.35434929914508079 0 -0.32183099473442811 -0.33958013728355868 0 -0.33127214989488979 -0.33008610863815152 0 -0.33412452318830171 -0.35434929914508079 0 -0.34778566847407638 -0.32953912900806931 0 -0.33412452318830171 -0.35434929914508079 0 -0.33127214989488979 -0.33008610863815152 0 -0.34035549841598117 -0.32426700585474 0 -0.34778566847407638 -0.32953912900806931 0 -0.34035549841598117 -0.32426700585474 0 -0.33427681169025408 -0.32246911191447869 0 -0.33675509785737662 -0.31655799101612769 0 -0.33127214989488979 -0.33008610863815152 0 -0.34035549841598117 -0.32426700585474 0 -0.33427681169025408 -0.32246911191447869 0 -0.33127214989488979 -0.33008610863815152 0 -0.33427681169025408 -0.32246911191447869 0 -0.32872450059276898 -0.31896534214889599 0 -0.33427681169025408 -0.32246911191447869 0 -0.32872450059276898 -0.31896534214889599 0 -0.33675509785737662 -0.31655799101612769 0 -0.3301339810941622 -0.31110503031331638 0 -0.32872450059276898 -0.31896534214889599 0 -0.33675509785737662 -0.31655799101612769 0 -0.33956299038192078 -0.30735077663143923 0 -0.33675509785737662 -0.31655799101612769 0 -0.34586440994984541 -0.3145735322147622 0 -0.34035549841598117 -0.32426700585474 0 -0.33675509785737662 -0.31655799101612769 0 -0.34586440994984541 -0.3145735322147622 0 -0.36105831684996031 -0.30543451277817618 0 -0.34778566847407638 -0.32953912900806931 0 -0.36105831684996031 -0.30543451277817618 0 -0.34586440994984541 -0.3145735322147622 0 -0.34778566847407638 -0.32953912900806931 0 -0.34035549841598117 -0.32426700585474 0 -0.34586440994984541 -0.3145735322147622 0 -0.34778566847407638 -0.32953912900806931 0 -0.34035549841598117 -0.32426700585474 0 -0.34778566847407638 -0.32953912900806931 0 -0.36105831684996031 -0.30543451277817618 0 -0.37140736883531977 -0.32183989730859341 0 -0.34778566847407638 -0.32953912900806931 0 -0.38006824781918919 -0.33243312042550199 0 -0.37140736883531977 -0.32183989730859341 0 -0.36666079927166728 -0.34293209489202431 0 -0.37140736883531977 -0.32183989730859341 0 -0.36666079927166728 -0.34293209489202431 0 -0.34778566847407638 -0.32953912900806931 0 -0.34778566847407638 -0.32953912900806931 0 -0.35170181166344461 -0.34709871950800919 0 -0.33412452318830171 -0.35434929914508079 0 -0.36666079927166728 -0.34293209489202431 0 -0.34778566847407638 -0.32953912900806931 0 -0.36666079927166728 -0.34293209489202431 0 -0.34778566847407638 -0.32953912900806931 0 -0.35170181166344461 -0.34709871950800919 0 -0.36666079927166728 -0.34293209489202431 0 -0.35170181166344461 -0.34709871950800919 0 -0.35823625571973289 -0.36157435498686258 0 -0.35170181166344461 -0.34709871950800919 0 -0.35823625571973289 -0.36157435498686258 0 -0.33412452318830171 -0.35434929914508079 0 -0.38553593006925752 -0.3563250607759802 0 -0.36666079927166728 -0.34293209489202431 0 -0.35823625571973289 -0.36157435498686258 0 -0.37549160074202448 -0.3732971907138336 0 -0.38553593006925752 -0.3563250607759802 0 -0.35823625571973289 -0.36157435498686258 0 -0.37549160074202448 -0.3732971907138336 0 -0.35823625571973289 -0.36157435498686258 0 -0.35302350150803719 -0.38208755235937009 0 -0.35823625571973289 -0.36157435498686258 0 -0.34413293857164062 -0.37054757780120701 0 -0.35302350150803719 -0.38208755235937009 0 -0.35823625571973289 -0.36157435498686258 0 -0.34413293857164062 -0.37054757780120701 0 -0.33412452318830171 -0.35434929914508079 0 -0.34413293857164062 -0.37054757780120701 0 -0.33412452318830171 -0.35434929914508079 0 -0.33519042443293379 -0.3802220457599616 0 -0.33412452318830171 -0.35434929914508079 0 -0.33519042443293379 -0.3802220457599616 0 -0.32046337790252549 -0.37915946928209171 0 -0.32183099473442811 -0.33958013728355868 0 -0.33412452318830171 -0.35434929914508079 0 -0.31234840654553953 -0.34764506024843322 0 -0.33412452318830171 -0.35434929914508079 0 -0.316806384823896 -0.36257585725837499 0 -0.31234840654553953 -0.34764506024843322 0 -0.316806384823896 -0.36257585725837499 0 -0.3002892316592175 -0.36914960035789463 0 -0.32046337790252549 -0.37915946928209171 0 -0.33412452318830171 -0.35434929914508079 0 -0.316806384823896 -0.36257585725837499 0 -0.32046337790252549 -0.37915946928209171 0 -0.33412452318830171 -0.35434929914508079 0 -0.32046337790252549 -0.37915946928209171 0 -0.3002892316592175 -0.36914960035789463 0 -0.32046337790252549 -0.37915946928209171 0 -0.3002892316592175 -0.36914960035789463 0 -0.31234840654553953 -0.34764506024843322 0 -0.29527517448125451 -0.36666176000398298 0 -0.316806384823896 -0.36257585725837499 0 -0.3002892316592175 -0.36914960035789463 0 -0.31234840654553953 -0.34764506024843322 0 -0.3002892316592175 -0.36914960035789463 0 -0.29527517448125451 -0.36666176000398298 0 -0.3002892316592175 -0.36914960035789463 0 -0.29403121103535113 -0.38030922419454549 0 -0.31234840654553953 -0.34764506024843322 0 -0.29527517448125451 -0.36666176000398298 0 -0.2976254313092957 -0.34087720338781918 0 -0.3002892316592175 -0.36914960035789463 0 -0.31234840654553953 -0.34764506024843322 0 -0.29527517448125451 -0.36666176000398298 0 -0.26926364122666091 -0.35375553660024128 0 -0.28048823453243299 -0.34080574413418752 0 -0.29527517448125451 -0.36666176000398298 0 -0.2976254313092957 -0.34087720338781918 0 -0.29527517448125451 -0.36666176000398298 0 -0.28048823453243299 -0.34080574413418752 0 -0.2976254313092957 -0.34087720338781918 0 -0.29527517448125451 -0.36666176000398298 0 -0.26926364122666091 -0.35375553660024128 0 -0.29527517448125451 -0.36666176000398298 0 -0.27994264201103719 -0.36323993691456841 0 -0.26926364122666091 -0.35375553660024128 0 -0.29527517448125451 -0.36666176000398298 0 -0.28588261091775702 -0.37268605543787447 0 -0.29403121103535113 -0.38030922419454549 0 -0.29527517448125451 -0.36666176000398298 0 -0.29403121103535113 -0.38030922419454549 0 -0.3002892316592175 -0.36914960035789463 0 -0.29527517448125451 -0.36666176000398298 0 -0.29403121103535113 -0.38030922419454549 0 -0.29527517448125451 -0.36666176000398298 0 -0.28588261091775702 -0.37268605543787447 0 -0.27994264201103719 -0.36323993691456841 0 -0.28588261091775702 -0.37268605543787447 0 -0.27994264201103719 -0.36323993691456841 0 -0.2742629371717063 -0.37916463673385931 0 -0.27994264201103719 -0.36323993691456841 0 -0.26568404082974961 -0.36651666061706623 0 -0.2742629371717063 -0.37916463673385931 0 -0.27994264201103719 -0.36323993691456841 0 -0.26568404082974961 -0.36651666061706623 0 -0.26017799311385281 -0.35268912854855933 0 -0.26568404082974961 -0.36651666061706623 0 -0.25909124390184018 -0.37475905286733341 0 -0.2742629371717063 -0.37916463673385931 0 -0.26568404082974961 -0.36651666061706623 0 -0.25909124390184018 -0.37475905286733341 0 -0.25494538795031141 -0.36273054802101118 0 -0.26568404082974961 -0.36651666061706623 0 -0.25494538795031141 -0.36273054802101118 0 -0.26017799311385281 -0.35268912854855933 0 -0.25909124390184018 -0.37475905286733341 0 -0.25494538795031141 -0.36273054802101118 0 -0.24748772700216881 -0.3717564301773445 0 -0.26017799311385281 -0.35268912854855933 0 -0.2404133442166683 -0.34213832018255058 0 -0.26926364122666091 -0.35375553660024128 0 -0.24325210797206609 -0.34084931319650169 0 -0.26017799311385281 -0.35268912854855933 0 -0.26926364122666091 -0.35375553660024128 0 -0.24325210797206609 -0.34084931319650169 0 -0.25494538795031141 -0.36273054802101118 0 -0.26017799311385281 -0.35268912854855933 0 -0.24808760514302669 -0.3536558827211943 0 -0.27994264201103719 -0.36323993691456841 0 -0.26017799311385281 -0.35268912854855933 0 -0.27994264201103719 -0.36323993691456841 0 -0.26017799311385281 -0.35268912854855933 0 -0.26926364122666091 -0.35375553660024128 0 -0.28048823453243299 -0.34080574413418752 0 -0.2621599680271573 -0.33226375772155409 0 -0.28106782808224812 -0.3236782022466056 0 -0.26926364122666091 -0.35375553660024128 0 -0.28048823453243299 -0.34080574413418752 0 -0.2621599680271573 -0.33226375772155409 0 -0.2621599680271573 -0.33226375772155409 0 -0.24518994726652291 -0.33234415230164399 0 -0.24308922262768951 -0.32099342612622928 0 -0.2621599680271573 -0.33226375772155409 0 -0.24325210797206609 -0.34084931319650169 0 -0.24518994726652291 -0.33234415230164399 0 -0.2621599680271573 -0.33226375772155409 0 -0.24325210797206609 -0.34084931319650169 0 -0.26926364122666091 -0.35375553660024128 0 -0.2621599680271573 -0.33226375772155409 0 -0.24325210797206609 -0.34084931319650169 0 -0.2621599680271573 -0.33226375772155409 0 -0.25915672867891859 -0.31415112243359272 0 -0.24308922262768951 -0.32099342612622928 0 -0.2621599680271573 -0.33226375772155409 0 -0.28106782808224812 -0.3236782022466056 0 -0.25915672867891859 -0.31415112243359272 0 -0.28106782808224812 -0.3236782022466056 0 -0.2709678639136075 -0.30238435136382452 0 -0.2621599680271573 -0.33226375772155409 0 -0.25915672867891859 -0.31415112243359272 0 -0.28106782808224812 -0.3236782022466056 0 -0.28106782808224812 -0.3236782022466056 0 -0.2999756881373381 -0.31509264677165549 0 -0.28453315598845252 -0.30841843357299598 0 -0.28106782808224812 -0.3236782022466056 0 -0.2976254313092957 -0.34087720338781918 0 -0.2999756881373381 -0.31509264677165549 0 -0.28106782808224812 -0.3236782022466056 0 -0.2999756881373381 -0.31509264677165549 0 -0.28048823453243299 -0.34080574413418752 0 -0.28106782808224812 -0.3236782022466056 0 -0.2976254313092957 -0.34087720338781918 0 -0.31234840654553953 -0.34764506024843322 0 -0.2976254313092957 -0.34087720338781918 0 -0.31208723605418232 -0.33616024018399832 0 -0.2976254313092957 -0.34087720338781918 0 -0.31208723605418232 -0.33616024018399832 0 -0.30936258926988919 -0.3261434941065412 0 -0.2976254313092957 -0.34087720338781918 0 -0.2999756881373381 -0.31509264677165549 0 -0.2976254313092957 -0.34087720338781918 0 -0.30936258926988919 -0.3261434941065412 0 -0.2999756881373381 -0.31509264677165549 0 -0.31656029902357641 -0.31849097864348519 0 -0.30936258926988919 -0.3261434941065412 0 -0.2999756881373381 -0.31509264677165549 0 -0.32350207888865212 -0.30440993956247547 0 -0.2999756881373381 -0.31509264677165549 0 -0.30234930147786221 -0.28905184696057518 0 -0.2999756881373381 -0.31509264677165549 0 -0.30234930147786221 -0.28905184696057518 0 -0.2999756881373381 -0.31509264677165549 0 -0.30234930147786221 -0.28905184696057518 0 -0.29239547880504652 -0.30127313523009702 0 -0.32350207888865212 -0.30440993956247547 0 -0.2999756881373381 -0.31509264677165549 0 -0.30234930147786221 -0.28905184696057518 0 -0.29006270545698909 -0.29189763306700739 0 -0.29239547880504652 -0.30127313523009702 0 -0.30234930147786221 -0.28905184696057518 0 -0.29006270545698909 -0.29189763306700739 0 -0.28742262680475061 -0.28573302172180548 0 -0.30234930147786221 -0.28905184696057518 0 -0.28742262680475061 -0.28573302172180548 0 -0.29006270545698909 -0.29189763306700739 0 -0.28742262680475061 -0.28573302172180548 0 -0.28158089536532038 -0.29680102193740848 0 -0.29006270545698909 -0.29189763306700739 0 -0.28158089536532038 -0.29680102193740848 0 -0.29239547880504652 -0.30127313523009702 0 -0.28158089536532038 -0.29680102193740848 0 -0.29239547880504652 -0.30127313523009702 0 -0.28453315598845252 -0.30841843357299598 0 -0.2999756881373381 -0.31509264677165549 0 -0.29239547880504652 -0.30127313523009702 0 -0.28453315598845252 -0.30841843357299598 0 -0.28106782808224812 -0.3236782022466056 0 -0.28453315598845252 -0.30841843357299598 0 -0.2709678639136075 -0.30238435136382452 0 -0.28158089536532038 -0.29680102193740848 0 -0.28453315598845252 -0.30841843357299598 0 -0.2709678639136075 -0.30238435136382452 0 -0.25915672867891859 -0.31415112243359272 0 -0.25718459078837252 -0.29759752524363881 0 -0.24047089863443691 -0.30798947189970438 0 -0.25915672867891859 -0.31415112243359272 0 -0.2709678639136075 -0.30238435136382452 0 -0.25718459078837252 -0.29759752524363881 0 -0.25718459078837252 -0.29759752524363881 0 -0.25108388684634803 -0.28956965662021522 0 -0.26792751193251091 -0.28139844079955562 0 -0.25108388684634803 -0.28956965662021522 0 -0.26792751193251091 -0.28139844079955562 0 -0.2484323970602714 -0.27706385987730509 0 -0.2709678639136075 -0.30238435136382452 0 -0.25718459078837252 -0.29759752524363881 0 -0.26792751193251091 -0.28139844079955562 0 -0.28742262680475061 -0.28573302172180548 0 -0.26792751193251091 -0.28139844079955562 0 -0.28158089536532038 -0.29680102193740848 0 -0.2709678639136075 -0.30238435136382452 0 -0.26792751193251091 -0.28139844079955562 0 -0.28742262680475061 -0.28573302172180548 0 -0.28158089536532038 -0.29680102193740848 0 -0.26792751193251091 -0.28139844079955562 0 -0.26792751193251091 -0.28139844079955562 0 -0.27965676560653041 -0.27550351800418249 0 -0.27506057922854799 -0.26523935036500679 0 -0.28742262680475061 -0.28573302172180548 0 -0.26792751193251091 -0.28139844079955562 0 -0.27965676560653041 -0.27550351800418249 0 -0.26792751193251091 -0.28139844079955562 0 -0.26170023695288303 -0.26848976391570201 0 -0.27506057922854799 -0.26523935036500679 0 -0.27965676560653041 -0.27550351800418249 0 -0.27506057922854799 -0.26523935036500679 0 -0.28821634446031208 -0.2696432591303618 0 -0.26792751193251091 -0.28139844079955562 0 -0.2484323970602714 -0.27706385987730509 0 -0.26792751193251091 -0.28139844079955562 0 -0.26170023695288303 -0.26848976391570201 0 -0.2484323970602714 -0.27706385987730509 0 -0.26170023695288303 -0.26848976391570201 0 -0.25309751137434572 -0.26289123234143091 0 -0.2484323970602714 -0.27706385987730509 0 -0.2565674865322034 -0.25340195958415102 0 -0.26524553468775469 -0.25886506807255583 0 -0.27383001930629169 -0.24744255459442921 0 -0.2565674865322034 -0.25340195958415102 0 -0.27383001930629169 -0.24744255459442921 0 -0.2565674865322034 -0.25340195958415102 0 -0.25309751137434572 -0.26289123234143091 0 -0.24233717299785959 -0.25960849866204011 0 -0.2565674865322034 -0.25340195958415102 0 -0.25309751137434572 -0.26289123234143091 0 -0.26524553468775469 -0.25886506807255583 0 -0.26170023695288303 -0.26848976391570201 0 -0.25309751137434572 -0.26289123234143091 0 -0.26524553468775469 -0.25886506807255583 0 -0.27506057922854799 -0.26523935036500679 0 -0.28942662192718172 -0.25357945894426132 0 -0.27383001930629169 -0.24744255459442921 0 -0.26524553468775469 -0.25886506807255583 0 -0.27506057922854799 -0.26523935036500679 0 -0.27383001930629169 -0.24744255459442921 0 -0.26170023695288303 -0.26848976391570201 0 -0.26524553468775469 -0.25886506807255583 0 -0.27506057922854799 -0.26523935036500679 0 -0.28942662192718172 -0.25357945894426132 0 -0.29569431645386429 -0.26311293363000732 0 -0.28821634446031208 -0.2696432591303618 0 -0.28942662192718172 -0.25357945894426132 0 -0.27383001930629169 -0.24744255459442921 0 -0.27506057922854799 -0.26523935036500679 0 -0.28942662192718172 -0.25357945894426132 0 -0.28821634446031208 -0.2696432591303618 0 -0.28942662192718172 -0.25357945894426132 0 -0.29569431645386429 -0.26311293363000732 0 -0.30502322454807101 -0.25971636329409542 0 -0.29569431645386429 -0.26311293363000732 0 -0.28821634446031208 -0.2696432591303618 0 -0.30425539613548452 -0.26814017253042433 0 -0.28742262680475061 -0.28573302172180548 0 -0.27965676560653041 -0.27550351800418249 0 -0.28821634446031208 -0.2696432591303618 0 -0.28742262680475061 -0.28573302172180548 0 -0.28821634446031208 -0.2696432591303618 0 -0.30425539613548452 -0.26814017253042433 0 -0.28742262680475061 -0.28573302172180548 0 -0.30425539613548452 -0.26814017253042433 0 -0.31480478096024378 -0.27564718726691712 0 -0.30234930147786221 -0.28905184696057518 0 -0.30425539613548452 -0.26814017253042433 0 -0.30234930147786221 -0.28905184696057518 0 -0.30425539613548452 -0.26814017253042433 0 -0.30234930147786221 -0.28905184696057518 0 -0.28742262680475061 -0.28573302172180548 0 -0.30425539613548452 -0.26814017253042433 0 -0.31480478096024378 -0.27564718726691712 0 -0.30425539613548452 -0.26814017253042433 0 -0.31032083431566337 -0.26180085087236171 0 -0.30425539613548452 -0.26814017253042433 0 -0.31032083431566337 -0.26180085087236171 0 -0.30502322454807101 -0.25971636329409542 0 -0.28942662192718172 -0.25357945894426132 0 -0.30538593138510828 -0.25573712372202267 0 -0.29948497002523827 -0.2483657822867901 0 -0.28942662192718172 -0.25357945894426132 0 -0.30502322454807101 -0.25971636329409542 0 -0.30538593138510828 -0.25573712372202267 0 -0.30425539613548452 -0.26814017253042433 0 -0.31032083431566337 -0.26180085087236171 0 -0.31032083431566337 -0.26180085087236171 0 -0.30502322454807101 -0.25971636329409542 0 -0.31032083431566337 -0.26180085087236171 0 -0.30502322454807101 -0.25971636329409542 0 -0.30538593138510828 -0.25573712372202267 0 -0.31283906540333922 -0.25031215033235238 0 -0.31032083431566337 -0.26180085087236171 0 -0.30538593138510828 -0.25573712372202267 0 -0.31283906540333922 -0.25031215033235238 0 -0.30538593138510828 -0.25573712372202267 0 -0.30623861516307299 -0.24935013043731349 0 -0.30502322454807101 -0.25971636329409542 0 -0.30538593138510828 -0.25573712372202267 0 -0.28942662192718172 -0.25357945894426132 0 -0.30502322454807101 -0.25971636329409542 0 -0.30538593138510828 -0.25573712372202267 0 -0.29948497002523827 -0.2483657822867901 0 -0.30623861516307299 -0.24935013043731349 0 -0.30425539613548452 -0.26814017253042433 0 -0.30502322454807101 -0.25971636329409542 0 -0.29569431645386429 -0.26311293363000732 0 -0.30425539613548452 -0.26814017253042433 0 -0.30502322454807101 -0.25971636329409542 0 -0.33143192801526428 -0.45396038638140679 0 -0.33152258580119082 -0.46633970128806979 0 -0.34296165509457921 -0.45730971557378147 0 -0.34069406563311189 -0.44566521365826578 0 -0.32492704317595772 -0.44077768091168912 0 -0.33812272201467081 -0.43047089330918592 0 -0.33143192801526428 -0.45396038638140679 0 -0.34069406563311189 -0.44566521365826578 0 -0.32492704317595772 -0.44077768091168912 0 -0.33143192801526428 -0.45396038638140679 0 -0.34296165509457921 -0.45730971557378147 0 -0.34069406563311189 -0.44566521365826578 0 -0.33143192801526428 -0.45396038638140679 0 -0.32492704317595772 -0.44077768091168912 0 -0.31987457796333868 -0.4551426725204325 0 -0.32492704317595772 -0.44077768091168912 0 -0.31987457796333868 -0.4551426725204325 0 -0.31015853372433788 -0.44544301337781073 0 -0.33152258580119082 -0.46633970128806979 0 -0.30592196819360068 -0.46328971004504182 0 -0.33152258580119082 -0.46633970128806979 0 -0.31987457796333868 -0.4551426725204325 0 -0.30592196819360068 -0.46328971004504182 0 -0.33152258580119082 -0.46633970128806979 0 -0.32094261384274558 -0.46854088973335889 0 -0.30592196819360068 -0.46328971004504182 0 -0.33143192801526428 -0.45396038638140679 0 -0.33152258580119082 -0.46633970128806979 0 -0.31987457796333868 -0.4551426725204325 0 -0.33152258580119082 -0.46633970128806979 0 -0.32094261384274558 -0.46854088973335889 0 -0.32966732857214198 -0.4835879285261328 0 -0.32094261384274558 -0.46854088973335889 0 -0.32966732857214198 -0.4835879285261328 0 -0.31208929727375578 -0.48491526738579699 0 -0.32221211863154181 -0.5 0 -0.32966732857214198 -0.4835879285261328 0 -0.31208929727375578 -0.48491526738579699 0 -0.32221211863154181 -0.5 0 -0.32966732857214198 -0.4835879285261328 0 -0.34860848031248309 -0.5 0 -0.32966732857214198 -0.4835879285261328 0 -0.34707385437868848 -0.48052394199199022 0 -0.34860848031248309 -0.5 0 -0.33152258580119082 -0.46633970128806979 0 -0.32966732857214198 -0.4835879285261328 0 -0.34707385437868848 -0.48052394199199022 0 -0.33152258580119082 -0.46633970128806979 0 -0.3571232034087809 -0.46938969253109791 0 -0.34707385437868848 -0.48052394199199022 0 -0.3571232034087809 -0.46938969253109791 0 -0.34707385437868848 -0.48052394199199022 0 -0.36652141413456929 -0.48474993749143802 0 -0.34707385437868848 -0.48052394199199022 0 -0.34860848031248309 -0.5 0 -0.36652141413456929 -0.48474993749143802 0 -0.37500484199342449 -0.5 0 -0.34860848031248309 -0.5 0 -0.36652141413456929 -0.48474993749143802 0 -0.38272382101637098 -0.47243968377412587 0 -0.3571232034087809 -0.46938969253109791 0 -0.36652141413456929 -0.48474993749143802 0 -0.38272382101637098 -0.47243968377412587 0 -0.3571232034087809 -0.46938969253109791 0 -0.38265619596279349 -0.45813348326120767 0 -0.38272382101637098 -0.47243968377412587 0 -0.3571232034087809 -0.46938969253109791 0 -0.38265619596279349 -0.45813348326120767 0 -0.3571232034087809 -0.46938969253109791 0 -0.35544663641047641 -0.4489101100326689 0 -0.38265619596279349 -0.45813348326120767 0 -0.35544663641047641 -0.4489101100326689 0 -0.34296165509457921 -0.45730971557378147 0 -0.3571232034087809 -0.46938969253109791 0 -0.35544663641047641 -0.4489101100326689 0 -0.33152258580119082 -0.46633970128806979 0 -0.3571232034087809 -0.46938969253109791 0 -0.33152258580119082 -0.46633970128806979 0 -0.34296165509457921 -0.45730971557378147 0 -0.3571232034087809 -0.46938969253109791 0 -0.34069406563311189 -0.44566521365826578 0 -0.35544663641047641 -0.4489101100326689 0 -0.35372302635176472 -0.43532257313283612 0 -0.34296165509457921 -0.45730971557378147 0 -0.34069406563311189 -0.44566521365826578 0 -0.35544663641047641 -0.4489101100326689 0 -0.35544663641047641 -0.4489101100326689 0 -0.3723601590800425 -0.44005613486137668 0 -0.35372302635176472 -0.43532257313283612 0 -0.38265619596279349 -0.45813348326120767 0 -0.35544663641047641 -0.4489101100326689 0 -0.3723601590800425 -0.44005613486137668 0 -0.38028594703985957 -0.42392304976487449 0 -0.3723601590800425 -0.44005613486137668 0 -0.36423780173753523 -0.4264797532188066 0 -0.3723601590800425 -0.44005613486137668 0 -0.36423780173753523 -0.4264797532188066 0 -0.35372302635176472 -0.43532257313283612 0 -0.38028594703985957 -0.42392304976487449 0 -0.36423780173753523 -0.4264797532188066 0 -0.36590226101420908 -0.41270082520662749 0 -0.36423780173753523 -0.4264797532188066 0 -0.36590226101420908 -0.41270082520662749 0 -0.35147677323475168 -0.42035333371671318 0 -0.36590226101420908 -0.41270082520662749 0 -0.35147677323475168 -0.42035333371671318 0 -0.35184044830027089 -0.40346733636007898 0 -0.35147677323475168 -0.42035333371671318 0 -0.35184044830027089 -0.40346733636007898 0 -0.33675831632547681 -0.41105613646481343 0 -0.35147677323475168 -0.42035333371671318 0 -0.35372302635176472 -0.43532257313283612 0 -0.33812272201467081 -0.43047089330918592 0 -0.34069406563311189 -0.44566521365826578 0 -0.35372302635176472 -0.43532257313283612 0 -0.33812272201467081 -0.43047089330918592 0 -0.36423780173753523 -0.4264797532188066 0 -0.35147677323475168 -0.42035333371671318 0 -0.35372302635176472 -0.43532257313283612 0 -0.37549160074202448 -0.3732971907138336 0 -0.36544727141479139 -0.39026932065168712 0 -0.37549160074202448 -0.3732971907138336 0 -0.36544727141479139 -0.39026932065168712 0 -0.35302350150803719 -0.38208755235937009 0 -0.36590226101420908 -0.41270082520662749 0 -0.36544727141479139 -0.39026932065168712 0 -0.35184044830027089 -0.40346733636007898 0 -0.38114412328536468 -0.40833987260765031 0 -0.36590226101420908 -0.41270082520662749 0 -0.36544727141479139 -0.39026932065168712 0 -0.35184044830027089 -0.40346733636007898 0 -0.35302350150803719 -0.38208755235937009 0 -0.34082557137486691 -0.39523504024196021 0 -0.36544727141479139 -0.39026932065168712 0 -0.35184044830027089 -0.40346733636007898 0 -0.35302350150803719 -0.38208755235937009 0 -0.34413293857164062 -0.37054757780120701 0 -0.35302350150803719 -0.38208755235937009 0 -0.33519042443293379 -0.3802220457599616 0 -0.35302350150803719 -0.38208755235937009 0 -0.33519042443293379 -0.3802220457599616 0 -0.34082557137486691 -0.39523504024196021 0 -0.33519042443293379 -0.3802220457599616 0 -0.32808226850220168 -0.39240284671641351 0 -0.3247168406287716 -0.38559411673624039 0 -0.33519042443293379 -0.3802220457599616 0 -0.34082557137486691 -0.39523504024196021 0 -0.32808226850220168 -0.39240284671641351 0 -0.34082557137486691 -0.39523504024196021 0 -0.32808226850220168 -0.39240284671641351 0 -0.33675831632547681 -0.41105613646481343 0 -0.32808226850220168 -0.39240284671641351 0 -0.33675831632547681 -0.41105613646481343 0 -0.3206477944579052 -0.41019310838576051 0 -0.35184044830027089 -0.40346733636007898 0 -0.34082557137486691 -0.39523504024196021 0 -0.33675831632547681 -0.41105613646481343 0 -0.32808226850220168 -0.39240284671641351 0 -0.31437491003333667 -0.39021680895226152 0 -0.3206477944579052 -0.41019310838576051 0 -0.32808226850220168 -0.39240284671641351 0 -0.3247168406287716 -0.38559411673624039 0 -0.31437491003333667 -0.39021680895226152 0 -0.31437491003333667 -0.39021680895226152 0 -0.32046337790252549 -0.37915946928209171 0 -0.30588070030683939 -0.38181824174751872 0 -0.3247168406287716 -0.38559411673624039 0 -0.31437491003333667 -0.39021680895226152 0 -0.32046337790252549 -0.37915946928209171 0 -0.31437491003333667 -0.39021680895226152 0 -0.32046337790252549 -0.37915946928209171 0 -0.33519042443293379 -0.3802220457599616 0 -0.3247168406287716 -0.38559411673624039 0 -0.32046337790252549 -0.37915946928209171 0 -0.32492704317595772 -0.44077768091168912 0 -0.33812272201467081 -0.43047089330918592 0 -0.32670905357880831 -0.42305010768611329 0 -0.35147677323475168 -0.42035333371671318 0 -0.33812272201467081 -0.43047089330918592 0 -0.33675831632547681 -0.41105613646481343 0 -0.33812272201467081 -0.43047089330918592 0 -0.33675831632547681 -0.41105613646481343 0 -0.32670905357880831 -0.42305010768611329 0 -0.33675831632547681 -0.41105613646481343 0 -0.3206477944579052 -0.41019310838576051 0 -0.32670905357880831 -0.42305010768611329 0 -0.3206477944579052 -0.41019310838576051 0 -0.31307232924124478 -0.42559811140412351 0 -0.32670905357880831 -0.42305010768611329 0 -0.32492704317595772 -0.44077768091168912 0 -0.31307232924124478 -0.42559811140412351 0 -0.31015853372433788 -0.44544301337781073 0 -0.32492704317595772 -0.44077768091168912 0 -0.31307232924124478 -0.42559811140412351 0 -0.32670905357880831 -0.42305010768611329 0 -0.31307232924124478 -0.42559811140412351 0 -0.29907098912325059 -0.43374406761790368 0 -0.29851577765410048 -0.41098608612968202 0 -0.31307232924124478 -0.42559811140412351 0 -0.29907098912325059 -0.43374406761790368 0 -0.31015853372433788 -0.44544301337781073 0 -0.3206477944579052 -0.41019310838576051 0 -0.31307232924124478 -0.42559811140412351 0 -0.29851577765410048 -0.41098608612968202 0 -0.3206477944579052 -0.41019310838576051 0 -0.29851577765410048 -0.41098608612968202 0 -0.29851577765410048 -0.41098608612968202 0 -0.27638376085029581 -0.41177906387360241 0 -0.29851577765410048 -0.41098608612968202 0 -0.28520748594282241 -0.3960441440340734 0 -0.27638376085029581 -0.41177906387360241 0 -0.29851577765410048 -0.41098608612968202 0 -0.28540276919059199 -0.42535658303670731 0 -0.27638376085029581 -0.41177906387360241 0 -0.29907098912325059 -0.43374406761790368 0 -0.29851577765410048 -0.41098608612968202 0 -0.28540276919059199 -0.42535658303670731 0 -0.28540276919059199 -0.42535658303670731 0 -0.27848929033898201 -0.43669604725877897 0 -0.28902284908971709 -0.44016681433255572 0 -0.29907098912325059 -0.43374406761790368 0 -0.28540276919059199 -0.42535658303670731 0 -0.28902284908971709 -0.44016681433255572 0 -0.3002892316592175 -0.36914960035789463 0 -0.32046337790252549 -0.37915946928209171 0 -0.30588070030683939 -0.38181824174751872 0 -0.3002892316592175 -0.36914960035789463 0 -0.29819443980788141 -0.38001079285233907 0 -0.30588070030683939 -0.38181824174751872 0 -0.3002892316592175 -0.36914960035789463 0 -0.29819443980788141 -0.38001079285233907 0 -0.29403121103535113 -0.38030922419454549 0 -0.31437491003333667 -0.39021680895226152 0 -0.30588070030683939 -0.38181824174751872 0 -0.30232780815510779 -0.39560758766926629 0 -0.29819443980788141 -0.38001079285233907 0 -0.30588070030683939 -0.38181824174751872 0 -0.29681739610749358 -0.387616864260033 0 -0.30588070030683939 -0.38181824174751872 0 -0.30232780815510779 -0.39560758766926629 0 -0.29681739610749358 -0.387616864260033 0 -0.31437491003333667 -0.39021680895226152 0 -0.3206477944579052 -0.41019310838576051 0 -0.30232780815510779 -0.39560758766926629 0 -0.3206477944579052 -0.41019310838576051 0 -0.29851577765410048 -0.41098608612968202 0 -0.30232780815510779 -0.39560758766926629 0 -0.30232780815510779 -0.39560758766926629 0 -0.28520748594282241 -0.3960441440340734 0 -0.29681739610749358 -0.387616864260033 0 -0.29851577765410048 -0.41098608612968202 0 -0.30232780815510779 -0.39560758766926629 0 -0.28520748594282241 -0.3960441440340734 0 -0.28520748594282241 -0.3960441440340734 0 -0.28484606126690931 -0.38205101510008821 0 -0.29403121103535113 -0.38030922419454549 0 -0.28520748594282241 -0.3960441440340734 0 -0.29403121103535113 -0.38030922419454549 0 -0.28520748594282241 -0.3960441440340734 0 -0.29681739610749358 -0.387616864260033 0 -0.29403121103535113 -0.38030922419454549 0 -0.28520748594282241 -0.3960441440340734 0 -0.28484606126690931 -0.38205101510008821 0 -0.2742629371717063 -0.37916463673385931 0 -0.28588261091775702 -0.37268605543787447 0 -0.28484606126690931 -0.38205101510008821 0 -0.2742629371717063 -0.37916463673385931 0 -0.28588261091775702 -0.37268605543787447 0 -0.28484606126690931 -0.38205101510008821 0 -0.29403121103535113 -0.38030922419454549 0 -0.29819443980788141 -0.38001079285233907 0 -0.29681739610749358 -0.387616864260033 0 -0.29403121103535113 -0.38030922419454549 0 -0.28520748594282241 -0.3960441440340734 0 -0.2742629371717063 -0.37916463673385931 0 -0.26755910350718881 -0.39582792531461569 0 -0.2742629371717063 -0.37916463673385931 0 -0.26755910350718881 -0.39582792531461569 0 -0.26281209396899169 -0.38517470131063508 0 -0.28520748594282241 -0.3960441440340734 0 -0.27638376085029581 -0.41177906387360241 0 -0.28520748594282241 -0.3960441440340734 0 -0.26755910350718881 -0.39582792531461569 0 -0.27638376085029581 -0.41177906387360241 0 -0.26755910350718881 -0.39582792531461569 0 -0.25033509129523179 -0.39094719032673231 0 -0.25487024651921952 -0.41254988102096568 0 -0.26755910350718881 -0.39582792531461569 0 -0.25033509129523179 -0.39094719032673231 0 -0.26281209396899169 -0.38517470131063508 0 -0.25909124390184018 -0.37475905286733341 0 -0.25033509129523179 -0.39094719032673231 0 -0.26281209396899169 -0.38517470131063508 0 -0.25909124390184018 -0.37475905286733341 0 -0.25033509129523179 -0.39094719032673231 0 -0.24748772700216881 -0.3717564301773445 0 -0.25909124390184018 -0.37475905286733341 0 -0.2742629371717063 -0.37916463673385931 0 -0.26281209396899169 -0.38517470131063508 0 -0.26911429951178012 -0.42474234074800371 0 -0.27848929033898201 -0.43669604725877897 0 -0.26690007516498948 -0.44242471351124879 0 -0.28540276919059199 -0.42535658303670731 0 -0.26911429951178012 -0.42474234074800371 0 -0.27848929033898201 -0.43669604725877897 0 -0.27638376085029581 -0.41177906387360241 0 -0.25487024651921952 -0.41254988102096568 0 -0.28540276919059199 -0.42535658303670731 0 -0.26911429951178012 -0.42474234074800371 0 -0.27638376085029581 -0.41177906387360241 0 -0.26911429951178012 -0.42474234074800371 0 -0.27638376085029581 -0.41177906387360241 0 -0.25487024651921952 -0.41254988102096568 0 -0.26755910350718881 -0.39582792531461569 0 -0.27638376085029581 -0.41177906387360241 0 -0.25487024651921952 -0.41254988102096568 0 -0.26911429951178012 -0.42474234074800371 0 -0.27638376085029581 -0.41177906387360241 0 -0.26911429951178012 -0.42474234074800371 0 -0.25908880606166329 -0.43064529781943001 0 -0.26690007516498948 -0.44242471351124879 0 -0.25487024651921952 -0.41254988102096568 0 -0.25908880606166329 -0.43064529781943001 0 -0.2468605885266735 -0.43014712497011809 0 -0.26911429951178012 -0.42474234074800371 0 -0.25487024651921952 -0.41254988102096568 0 -0.25908880606166329 -0.43064529781943001 0 -0.25908880606166329 -0.43064529781943001 0 -0.25479397652280911 -0.44050862113911837 0 -0.2468605885266735 -0.43014712497011809 0 -0.25479397652280911 -0.44050862113911837 0 -0.2546108597688766 -0.45375703833677078 0 -0.2450571310604201 -0.44414202720417628 0 -0.25479397652280911 -0.44050862113911837 0 -0.2546108597688766 -0.45375703833677078 0 -0.26690007516498948 -0.44242471351124879 0 -0.2546108597688766 -0.45375703833677078 0 -0.26838297633475061 -0.45652413347846638 0 -0.26690007516498948 -0.44242471351124879 0 -0.25908880606166329 -0.43064529781943001 0 -0.25479397652280911 -0.44050862113911837 0 -0.26690007516498948 -0.44242471351124879 0 -0.25109629719050858 -0.46406488014867903 0 -0.2546108597688766 -0.45375703833677078 0 -0.26079873433517492 -0.46936342421069649 0 -0.2546108597688766 -0.45375703833677078 0 -0.26838297633475061 -0.45652413347846638 0 -0.26079873433517492 -0.46936342421069649 0 -0.27799569035848881 -0.46687050799545499 0 -0.26838297633475061 -0.45652413347846638 0 -0.26079873433517492 -0.46936342421069649 0 -0.27799569035848881 -0.46687050799545499 0 -0.26838297633475061 -0.45652413347846638 0 -0.28160952204622303 -0.450204983338161 0 -0.26838297633475061 -0.45652413347846638 0 -0.26690007516498948 -0.44242471351124879 0 -0.28160952204622303 -0.450204983338161 0 -0.27848929033898201 -0.43669604725877897 0 -0.26690007516498948 -0.44242471351124879 0 -0.28160952204622303 -0.450204983338161 0 -0.29907098912325059 -0.43374406761790368 0 -0.28902284908971709 -0.44016681433255572 0 -0.29708038679871529 -0.44973292283788502 0 -0.27848929033898201 -0.43669604725877897 0 -0.28902284908971709 -0.44016681433255572 0 -0.28160952204622303 -0.450204983338161 0 -0.28902284908971709 -0.44016681433255572 0 -0.28160952204622303 -0.450204983338161 0 -0.29708038679871529 -0.44973292283788502 0 -0.27799569035848881 -0.46687050799545499 0 -0.29150619976335518 -0.46129715127825488 0 -0.29492343141974797 -0.47638763217473168 0 -0.27799569035848881 -0.46687050799545499 0 -0.28160952204622303 -0.450204983338161 0 -0.29150619976335518 -0.46129715127825488 0 -0.28160952204622303 -0.450204983338161 0 -0.29150619976335518 -0.46129715127825488 0 -0.29708038679871529 -0.44973292283788502 0 -0.29150619976335518 -0.46129715127825488 0 -0.30592196819360068 -0.46328971004504182 0 -0.29708038679871529 -0.44973292283788502 0 -0.31987457796333868 -0.4551426725204325 0 -0.30592196819360068 -0.46328971004504182 0 -0.31015853372433788 -0.44544301337781073 0 -0.29150619976335518 -0.46129715127825488 0 -0.30592196819360068 -0.46328971004504182 0 -0.29492343141974797 -0.47638763217473168 0 -0.29907098912325059 -0.43374406761790368 0 -0.31015853372433788 -0.44544301337781073 0 -0.29708038679871529 -0.44973292283788502 0 -0.30592196819360068 -0.46328971004504182 0 -0.31015853372433788 -0.44544301337781073 0 -0.29708038679871529 -0.44973292283788502 0 -0.31208929727375578 -0.48491526738579699 0 -0.29492343141974797 -0.47638763217473168 0 -0.29581575695060047 -0.5 0 -0.32221211863154181 -0.5 0 -0.31208929727375578 -0.48491526738579699 0 -0.29581575695060047 -0.5 0 -0.32094261384274558 -0.46854088973335889 0 -0.30592196819360068 -0.46328971004504182 0 -0.29492343141974797 -0.47638763217473168 0 -0.32094261384274558 -0.46854088973335889 0 -0.29492343141974797 -0.47638763217473168 0 -0.32094261384274558 -0.46854088973335889 0 -0.31208929727375578 -0.48491526738579699 0 -0.29492343141974797 -0.47638763217473168 0 -0.29492343141974797 -0.47638763217473168 0 -0.26890424899675031 -0.48423437461610452 0 -0.29492343141974797 -0.47638763217473168 0 -0.28441593737837417 -0.48860776134254891 0 -0.26890424899675031 -0.48423437461610452 0 -0.29492343141974797 -0.47638763217473168 0 -0.28441593737837417 -0.48860776134254891 0 -0.29581575695060047 -0.5 0 -0.28441593737837417 -0.48860776134254891 0 -0.29581575695060047 -0.5 0 -0.26941939526965919 -0.5 0 -0.28441593737837417 -0.48860776134254891 0 -0.26941939526965919 -0.5 0 -0.26890424899675031 -0.48423437461610452 0 -0.27799569035848881 -0.46687050799545499 0 -0.29492343141974797 -0.47638763217473168 0 -0.26890424899675031 -0.48423437461610452 0 -0.27799569035848881 -0.46687050799545499 0 -0.26890424899675031 -0.48423437461610452 0 -0.26079873433517492 -0.46936342421069649 0 -0.26890424899675031 -0.48423437461610452 0 -0.26079873433517492 -0.46936342421069649 0 -0.25379328426056558 -0.48205965705463422 0 -0.26079873433517492 -0.46936342421069649 0 -0.25379328426056558 -0.48205965705463422 0 -0.250874604213362 -0.47391739130808008 0 -0.25109629719050858 -0.46406488014867903 0 -0.26079873433517492 -0.46936342421069649 0 -0.250874604213362 -0.47391739130808008 0 -0.26941939526965919 -0.5 0 -0.26890424899675031 -0.48423437461610452 0 -0.2544134183364497 -0.49413622749019132 0 -0.26941939526965919 -0.5 0 -0.2544134183364497 -0.49413622749019132 0 -0.2430230335887178 -0.5 0 -0.26890424899675031 -0.48423437461610452 0 -0.2544134183364497 -0.49413622749019132 0 -0.24288506657375261 -0.49208111705747781 0 -0.26890424899675031 -0.48423437461610452 0 -0.25379328426056558 -0.48205965705463422 0 -0.24288506657375261 -0.49208111705747781 0 -0.26890424899675031 -0.48423437461610452 0 -0.24288506657375261 -0.49208111705747781 0 -0.2544134183364497 -0.49413622749019132 0 -0.2430230335887178 -0.5 0 -0.24783534725336881 -0.49436564577737419 0 -0.2544134183364497 -0.49413622749019132 0 -0.24783534725336881 -0.49436564577737419 0 -0.24288506657375261 -0.49208111705747781 0 -0.2430230335887178 -0.5 0 -0.24783534725336881 -0.49436564577737419 0 -0.24288506657375261 -0.49208111705747781 0 -0.24783534725336881 -0.49436564577737419 0 -0.24288506657375261 -0.49208111705747781 0 -0.24288506657375261 -0.49208111705747781 0 -0.24429345028001889 -0.4821559175287794 0 -0.23457410743521059 -0.47899140825596259 0 -0.25379328426056558 -0.48205965705463422 0 -0.24288506657375261 -0.49208111705747781 0 -0.24429345028001889 -0.4821559175287794 0 -0.25379328426056558 -0.48205965705463422 0 -0.250874604213362 -0.47391739130808008 0 -0.24429345028001889 -0.4821559175287794 0 -0.24429345028001889 -0.4821559175287794 0 -0.2443912550005416 -0.47194307759761112 0 -0.2395637252682277 -0.47605318874815389 0 -0.25109629719050858 -0.46406488014867903 0 -0.250874604213362 -0.47391739130808008 0 -0.2443912550005416 -0.47194307759761112 0 -0.250874604213362 -0.47391739130808008 0 -0.24429345028001889 -0.4821559175287794 0 -0.2443912550005416 -0.47194307759761112 0 -0.2443912550005416 -0.47194307759761112 0 -0.2395637252682277 -0.47605318874815389 0 -0.23499608835713959 -0.47112235161026261 0 -0.2395637252682277 -0.47605318874815389 0 -0.23499608835713959 -0.47112235161026261 0 -0.23457410743521059 -0.47899140825596259 0 -0.24429345028001889 -0.4821559175287794 0 -0.2395637252682277 -0.47605318874815389 0 -0.23457410743521059 -0.47899140825596259 0 -0.23457410743521059 -0.47899140825596259 0 -0.2250369990674011 -0.47003999804886298 0 -0.2204246459600448 -0.48171575006642248 0 -0.24288506657375261 -0.49208111705747781 0 -0.23457410743521059 -0.47899140825596259 0 -0.2204246459600448 -0.48171575006642248 0 -0.23499608835713959 -0.47112235161026261 0 -0.23457410743521059 -0.47899140825596259 0 -0.2250369990674011 -0.47003999804886298 0 -0.2430230335887178 -0.5 0 -0.24288506657375261 -0.49208111705747781 0 -0.21662667190777651 -0.49999999999999939 0 -0.24288506657375261 -0.49208111705747781 0 -0.21662667190777651 -0.49999999999999939 0 -0.24288506657375261 -0.49208111705747781 0 -0.2204246459600448 -0.48171575006642248 0 -0.24288506657375261 -0.49208111705747781 0 -0.2204246459600448 -0.48171575006642248 0 -0.21662667190777651 -0.49999999999999939 0 -0.2450571310604201 -0.44414202720417628 0 -0.23716380350122879 -0.45645441389937441 0 -0.23280677558438309 -0.43386548686292281 0 -0.2546108597688766 -0.45375703833677078 0 -0.2450571310604201 -0.44414202720417628 0 -0.23716380350122879 -0.45645441389937441 0 -0.25479397652280911 -0.44050862113911837 0 -0.2450571310604201 -0.44414202720417628 0 -0.2468605885266735 -0.43014712497011809 0 -0.25109629719050858 -0.46406488014867903 0 -0.2546108597688766 -0.45375703833677078 0 -0.23716380350122879 -0.45645441389937441 0 -0.25109629719050858 -0.46406488014867903 0 -0.2443912550005416 -0.47194307759761112 0 -0.23716380350122879 -0.45645441389937441 0 -0.2443912550005416 -0.47194307759761112 0 -0.23499608835713959 -0.47112235161026261 0 -0.23716380350122879 -0.45645441389937441 0 -0.2250369990674011 -0.47003999804886298 0 -0.21844010846223411 -0.44206575668227449 0 -0.2250369990674011 -0.47003999804886298 0 -0.23716380350122879 -0.45645441389937441 0 -0.21844010846223411 -0.44206575668227449 0 -0.23499608835713959 -0.47112235161026261 0 -0.2250369990674011 -0.47003999804886298 0 -0.23716380350122879 -0.45645441389937441 0 -0.23716380350122879 -0.45645441389937441 0 -0.21844010846223411 -0.44206575668227449 0 -0.23280677558438309 -0.43386548686292281 0 -0.21844010846223411 -0.44206575668227449 0 -0.21054881561508179 -0.46151962797655111 0 -0.19087809923939161 -0.44242625200982799 0 -0.2250369990674011 -0.47003999804886298 0 -0.21844010846223411 -0.44206575668227449 0 -0.21054881561508179 -0.46151962797655111 0 -0.21054881561508179 -0.46151962797655111 0 -0.19087809923939161 -0.44242625200982799 0 -0.1979642253463372 -0.47135038307536692 0 -0.19087809923939161 -0.44242625200982799 0 -0.1979642253463372 -0.47135038307536692 0 -0.17550380473262961 -0.46098501608431119 0 -0.2039060436575347 -0.48788306012054039 0 -0.21662667190777651 -0.49999999999999939 0 -0.191185415407293 -0.5 0 -0.2204246459600448 -0.48171575006642248 0 -0.2039060436575347 -0.48788306012054039 0 -0.21662667190777651 -0.49999999999999939 0 -0.2250369990674011 -0.47003999804886298 0 -0.2204246459600448 -0.48171575006642248 0 -0.21054881561508179 -0.46151962797655111 0 -0.2204246459600448 -0.48171575006642248 0 -0.2039060436575347 -0.48788306012054039 0 -0.1979642253463372 -0.47135038307536692 0 -0.2204246459600448 -0.48171575006642248 0 -0.1979642253463372 -0.47135038307536692 0 -0.2204246459600448 -0.48171575006642248 0 -0.21054881561508179 -0.46151962797655111 0 -0.1979642253463372 -0.47135038307536692 0 -0.2039060436575347 -0.48788306012054039 0 -0.1979642253463372 -0.47135038307536692 0 -0.18170511770794731 -0.48283447360099019 0 -0.2039060436575347 -0.48788306012054039 0 -0.191185415407293 -0.5 0 -0.18170511770794731 -0.48283447360099019 0 -0.191185415407293 -0.5 0 -0.16574415890680941 -0.5 0 -0.18170511770794731 -0.48283447360099019 0 -0.16574415890680941 -0.5 0 -0.18170511770794731 -0.48283447360099019 0 -0.1559270581970803 -0.47678838232572268 0 -0.18170511770794731 -0.48283447360099019 0 -0.17550380473262961 -0.46098501608431119 0 -0.1559270581970803 -0.47678838232572268 0 -0.1979642253463372 -0.47135038307536692 0 -0.18170511770794731 -0.48283447360099019 0 -0.17550380473262961 -0.46098501608431119 0 -0.1979642253463372 -0.47135038307536692 0 -0.17550380473262961 -0.46098501608431119 0 -0.19087809923939161 -0.44242625200982799 0 -0.17550380473262961 -0.46098501608431119 0 -0.16487953686040341 -0.43668708651363358 0 -0.17550380473262961 -0.46098501608431119 0 -0.15866236735209521 -0.45377864165300308 0 -0.16487953686040341 -0.43668708651363358 0 -0.17550380473262961 -0.46098501608431119 0 -0.15866236735209521 -0.45377864165300308 0 -0.1559270581970803 -0.47678838232572268 0 -0.15866236735209521 -0.45377864165300308 0 -0.14280129841846509 -0.46103953978105727 0 -0.1559270581970803 -0.47678838232572268 0 -0.15866236735209521 -0.45377864165300308 0 -0.14280129841846509 -0.46103953978105727 0 -0.1438484805828521 -0.43705968193712769 0 -0.15866236735209521 -0.45377864165300308 0 -0.1438484805828521 -0.43705968193712769 0 -0.16487953686040341 -0.43668708651363358 0 -0.14280129841846509 -0.46103953978105727 0 -0.13093011984253891 -0.44972195681556543 0 -0.1438484805828521 -0.43705968193712769 0 -0.13093011984253891 -0.44972195681556543 0 -0.1438484805828521 -0.43705968193712769 0 -0.123519809913229 -0.43733662075251151 0 -0.14280129841846509 -0.46103953978105727 0 -0.13093011984253891 -0.44972195681556543 0 -0.12704973474613379 -0.46277216333596533 0 -0.14280129841846509 -0.46103953978105727 0 -0.12704973474613379 -0.46277216333596533 0 -0.13010403334985379 -0.48000251283874379 0 -0.13010403334985379 -0.48000251283874379 0 -0.1403029024063259 -0.5 0 -0.1148616459058424 -0.5 0 -0.16574415890680941 -0.5 0 -0.1403029024063259 -0.5 0 -0.1559270581970803 -0.47678838232572268 0 -0.13010403334985379 -0.48000251283874379 0 -0.1403029024063259 -0.5 0 -0.1559270581970803 -0.47678838232572268 0 -0.14280129841846509 -0.46103953978105727 0 -0.13010403334985379 -0.48000251283874379 0 -0.1559270581970803 -0.47678838232572268 0 -0.13724659116883831 -0.38156720383825199 0 -0.13696324729183901 -0.40051159333262831 0 -0.1562511533772393 -0.40085091578326698 0 -0.13696324729183901 -0.40051159333262831 0 -0.14428023194946249 -0.41611080081516499 0 -0.1562511533772393 -0.40085091578326698 0 -0.13724659116883831 -0.38156720383825199 0 -0.1562511533772393 -0.40085091578326698 0 -0.1663441030446621 -0.37717300760659073 0 -0.13724659116883831 -0.38156720383825199 0 -0.11827115974421661 -0.40327967795429231 0 -0.13724659116883831 -0.38156720383825199 0 -0.13696324729183901 -0.40051159333262831 0 -0.11827115974421661 -0.40327967795429231 0 -0.13696324729183901 -0.40051159333262831 0 -0.12597911368703019 -0.41952469120143437 0 -0.14428023194946249 -0.41611080081516499 0 -0.13696324729183901 -0.40051159333262831 0 -0.12597911368703019 -0.41952469120143437 0 -0.11827115974421661 -0.40327967795429231 0 -0.12597911368703019 -0.41952469120143437 0 -0.1438484805828521 -0.43705968193712769 0 -0.123519809913229 -0.43733662075251151 0 -0.12597911368703019 -0.41952469120143437 0 -0.1438484805828521 -0.43705968193712769 0 -0.14428023194946249 -0.41611080081516499 0 -0.1438484805828521 -0.43705968193712769 0 -0.16487953686040341 -0.43668708651363358 0 -0.1579375607246061 -0.42228606781690858 0 -0.1438484805828521 -0.43705968193712769 0 -0.14428023194946249 -0.41611080081516499 0 -0.1579375607246061 -0.42228606781690858 0 -0.14428023194946249 -0.41611080081516499 0 -0.1579375607246061 -0.42228606781690858 0 -0.1562511533772393 -0.40085091578326698 0 -0.1717517290487513 -0.41486076781395709 0 -0.1579375607246061 -0.42228606781690858 0 -0.1562511533772393 -0.40085091578326698 0 -0.1717517290487513 -0.41486076781395709 0 -0.16487953686040341 -0.43668708651363358 0 -0.1579375607246061 -0.42228606781690858 0 -0.1717517290487513 -0.41486076781395709 0 -0.16487953686040341 -0.43668708651363358 0 -0.19087809923939161 -0.44242625200982799 0 -0.16487953686040341 -0.43668708651363358 0 -0.18049207608238291 -0.42812424827546058 0 -0.1717517290487513 -0.41486076781395709 0 -0.16487953686040341 -0.43668708651363358 0 -0.18049207608238291 -0.42812424827546058 0 -0.1717517290487513 -0.41486076781395709 0 -0.18680736564207029 -0.41498853585306777 0 -0.17862392123709919 -0.39303444911428059 0 -0.1717517290487513 -0.41486076781395709 0 -0.18049207608238291 -0.42812424827546058 0 -0.18680736564207029 -0.41498853585306777 0 -0.18680736564207029 -0.41498853585306777 0 -0.17862392123709919 -0.39303444911428059 0 -0.19656737959219739 -0.40219111980173922 0 -0.1717517290487513 -0.41486076781395709 0 -0.17862392123709919 -0.39303444911428059 0 -0.1717517290487513 -0.41486076781395709 0 -0.17862392123709919 -0.39303444911428059 0 -0.1562511533772393 -0.40085091578326698 0 -0.17862392123709919 -0.39303444911428059 0 -0.1562511533772393 -0.40085091578326698 0 -0.1663441030446621 -0.37717300760659073 0 -0.17862392123709919 -0.39303444911428059 0 -0.1663441030446621 -0.37717300760659073 0 -0.1854961134254472 -0.37120813041460421 0 -0.17862392123709919 -0.39303444911428059 0 -0.1854961134254472 -0.37120813041460421 0 -0.17862392123709919 -0.39303444911428059 0 -0.20527564977482679 -0.38624161667098289 0 -0.1854961134254472 -0.37120813041460421 0 -0.17862392123709919 -0.39303444911428059 0 -0.19656737959219739 -0.40219111980173922 0 -0.20527564977482679 -0.38624161667098289 0 -0.20527564977482679 -0.38624161667098289 0 -0.2118432178570665 -0.41409151531568628 0 -0.2281799985799623 -0.39436158075255778 0 -0.19656737959219739 -0.40219111980173922 0 -0.20527564977482679 -0.38624161667098289 0 -0.2118432178570665 -0.41409151531568628 0 -0.20527564977482679 -0.38624161667098289 0 -0.2118432178570665 -0.41409151531568628 0 -0.20527564977482679 -0.38624161667098289 0 -0.22195794658956111 -0.37463091785279867 0 -0.21168543115216709 -0.36681117402183649 0 -0.20527564977482679 -0.38624161667098289 0 -0.2281799985799623 -0.39436158075255778 0 -0.22195794658956111 -0.37463091785279867 0 -0.18049207608238291 -0.42812424827546058 0 -0.18680736564207029 -0.41498853585306777 0 -0.19899408631087909 -0.4269358685541359 0 -0.19087809923939161 -0.44242625200982799 0 -0.18049207608238291 -0.42812424827546058 0 -0.19899408631087909 -0.4269358685541359 0 -0.21844010846223411 -0.44206575668227449 0 -0.19087809923939161 -0.44242625200982799 0 -0.19899408631087909 -0.4269358685541359 0 -0.18680736564207029 -0.41498853585306777 0 -0.19656737959219739 -0.40219111980173922 0 -0.2118432178570665 -0.41409151531568628 0 -0.18680736564207029 -0.41498853585306777 0 -0.19899408631087909 -0.4269358685541359 0 -0.2118432178570665 -0.41409151531568628 0 -0.18680736564207029 -0.41498853585306777 0 -0.2118432178570665 -0.41409151531568628 0 -0.21844010846223411 -0.44206575668227449 0 -0.19899408631087909 -0.4269358685541359 0 -0.2118432178570665 -0.41409151531568628 0 -0.21844010846223411 -0.44206575668227449 0 -0.2118432178570665 -0.41409151531568628 0 -0.21844010846223411 -0.44206575668227449 0 -0.2118432178570665 -0.41409151531568628 0 -0.23280677558438309 -0.43386548686292281 0 -0.2118432178570665 -0.41409151531568628 0 -0.23335673218814301 -0.41332069816832789 0 -0.2281799985799623 -0.39436158075255778 0 -0.2118432178570665 -0.41409151531568628 0 -0.23335673218814301 -0.41332069816832789 0 -0.2118432178570665 -0.41409151531568628 0 -0.23280677558438309 -0.43386548686292281 0 -0.23335673218814301 -0.41332069816832789 0 -0.25487024651921952 -0.41254988102096568 0 -0.23335673218814301 -0.41332069816832789 0 -0.25487024651921952 -0.41254988102096568 0 -0.23335673218814301 -0.41332069816832789 0 -0.24168551714563921 -0.4027948375671459 0 -0.25487024651921952 -0.41254988102096568 0 -0.23335673218814301 -0.41332069816832789 0 -0.2468605885266735 -0.43014712497011809 0 -0.23280677558438309 -0.43386548686292281 0 -0.23335673218814301 -0.41332069816832789 0 -0.2468605885266735 -0.43014712497011809 0 -0.2450571310604201 -0.44414202720417628 0 -0.23280677558438309 -0.43386548686292281 0 -0.2468605885266735 -0.43014712497011809 0 -0.2281799985799623 -0.39436158075255778 0 -0.2359431282162788 -0.37698905115118858 0 -0.22195794658956111 -0.37463091785279867 0 -0.25033509129523179 -0.39094719032673231 0 -0.2281799985799623 -0.39436158075255778 0 -0.24168551714563921 -0.4027948375671459 0 -0.25033509129523179 -0.39094719032673231 0 -0.25487024651921952 -0.41254988102096568 0 -0.24168551714563921 -0.4027948375671459 0 -0.23335673218814301 -0.41332069816832789 0 -0.2281799985799623 -0.39436158075255778 0 -0.24168551714563921 -0.4027948375671459 0 -0.25033509129523179 -0.39094719032673231 0 -0.2359431282162788 -0.37698905115118858 0 -0.24748772700216881 -0.3717564301773445 0 -0.25033509129523179 -0.39094719032673231 0 -0.2281799985799623 -0.39436158075255778 0 -0.2359431282162788 -0.37698905115118858 0 -0.25494538795031141 -0.36273054802101118 0 -0.24748772700216881 -0.3717564301773445 0 -0.24521251836493849 -0.35951647641646678 0 -0.24748772700216881 -0.3717564301773445 0 -0.24521251836493849 -0.35951647641646678 0 -0.23939899228441261 -0.3655962622813349 0 -0.23939899228441261 -0.3655962622813349 0 -0.23024759562621139 -0.36380396142485888 0 -0.23761117654761921 -0.35850429625613017 0 -0.24521251836493849 -0.35951647641646678 0 -0.23939899228441261 -0.3655962622813349 0 -0.23761117654761921 -0.35850429625613017 0 -0.2359431282162788 -0.37698905115118858 0 -0.23939899228441261 -0.3655962622813349 0 -0.23024759562621139 -0.36380396142485888 0 -0.2359431282162788 -0.37698905115118858 0 -0.24748772700216881 -0.3717564301773445 0 -0.23939899228441261 -0.3655962622813349 0 -0.2359431282162788 -0.37698905115118858 0 -0.23024759562621139 -0.36380396142485888 0 -0.22195794658956111 -0.37463091785279867 0 -0.23024759562621139 -0.36380396142485888 0 -0.22135664398937441 -0.36020929429952131 0 -0.2310785660723691 -0.35440187846705151 0 -0.23024759562621139 -0.36380396142485888 0 -0.22135664398937441 -0.36020929429952131 0 -0.22195794658956111 -0.37463091785279867 0 -0.22135664398937441 -0.36020929429952131 0 -0.22331676928072861 -0.34527245129667988 0 -0.2310785660723691 -0.35440187846705151 0 -0.23024759562621139 -0.36380396142485888 0 -0.2310785660723691 -0.35440187846705151 0 -0.23761117654761921 -0.35850429625613017 0 -0.22331676928072861 -0.34527245129667988 0 -0.2337118992122327 -0.34903918396608452 0 -0.23708401688859529 -0.34365007901650441 0 -0.22331676928072861 -0.34527245129667988 0 -0.2310785660723691 -0.35440187846705151 0 -0.2337118992122327 -0.34903918396608452 0 -0.26017799311385281 -0.35268912854855933 0 -0.24808760514302669 -0.3536558827211943 0 -0.2404133442166683 -0.34213832018255058 0 -0.2310785660723691 -0.35440187846705151 0 -0.2337118992122327 -0.34903918396608452 0 -0.2396887820693627 -0.35120494043738398 0 -0.26017799311385281 -0.35268912854855933 0 -0.24325210797206609 -0.34084931319650169 0 -0.2404133442166683 -0.34213832018255058 0 -0.2396887820693627 -0.35120494043738398 0 -0.23708401688859529 -0.34365007901650441 0 -0.2404133442166683 -0.34213832018255058 0 -0.2337118992122327 -0.34903918396608452 0 -0.2396887820693627 -0.35120494043738398 0 -0.23708401688859529 -0.34365007901650441 0 -0.2310785660723691 -0.35440187846705151 0 -0.2396887820693627 -0.35120494043738398 0 -0.23761117654761921 -0.35850429625613017 0 -0.24521251836493849 -0.35951647641646678 0 -0.2396887820693627 -0.35120494043738398 0 -0.23761117654761921 -0.35850429625613017 0 -0.24521251836493849 -0.35951647641646678 0 -0.2396887820693627 -0.35120494043738398 0 -0.24808760514302669 -0.3536558827211943 0 -0.25494538795031141 -0.36273054802101118 0 -0.24521251836493849 -0.35951647641646678 0 -0.24808760514302669 -0.3536558827211943 0 -0.2396887820693627 -0.35120494043738398 0 -0.24808760514302669 -0.3536558827211943 0 -0.2404133442166683 -0.34213832018255058 0 -0.24325210797206609 -0.34084931319650169 0 -0.24518994726652291 -0.33234415230164399 0 -0.23958942898634211 -0.33903199036576709 0 -0.24518994726652291 -0.33234415230164399 0 -0.23560348244150561 -0.32909319502054812 0 -0.23958942898634211 -0.33903199036576709 0 -0.23708401688859529 -0.34365007901650441 0 -0.2404133442166683 -0.34213832018255058 0 -0.24325210797206609 -0.34084931319650169 0 -0.2404133442166683 -0.34213832018255058 0 -0.23958942898634211 -0.33903199036576709 0 -0.24325210797206609 -0.34084931319650169 0 -0.2404133442166683 -0.34213832018255058 0 -0.24325210797206609 -0.34084931319650169 0 -0.23958942898634211 -0.33903199036576709 0 -0.25915672867891859 -0.31415112243359272 0 -0.24308922262768951 -0.32099342612622928 0 -0.24047089863443691 -0.30798947189970438 0 -0.24518994726652291 -0.33234415230164399 0 -0.23560348244150561 -0.32909319502054812 0 -0.24308922262768951 -0.32099342612622928 0 -0.23560348244150561 -0.32909319502054812 0 -0.24308922262768951 -0.32099342612622928 0 -0.22938765682563561 -0.32144886021699343 0 -0.24308922262768951 -0.32099342612622928 0 -0.22938765682563561 -0.32144886021699343 0 -0.23158309368585001 -0.31181085789310747 0 -0.24308922262768951 -0.32099342612622928 0 -0.24047089863443691 -0.30798947189970438 0 -0.23158309368585001 -0.31181085789310747 0 -0.22938765682563561 -0.32144886021699343 0 -0.23158309368585001 -0.31181085789310747 0 -0.22249387381410951 -0.31123320620709588 0 -0.23560348244150561 -0.32909319502054812 0 -0.22938765682563561 -0.32144886021699343 0 -0.22076115650133771 -0.33164754609210678 0 -0.22938765682563561 -0.32144886021699343 0 -0.22076115650133771 -0.33164754609210678 0 -0.2180259411870723 -0.31620608063285149 0 -0.22938765682563561 -0.32144886021699343 0 -0.2180259411870723 -0.31620608063285149 0 -0.22249387381410951 -0.31123320620709588 0 -0.22331676928072861 -0.34527245129667988 0 -0.23708401688859529 -0.34365007901650441 0 -0.22076115650133771 -0.33164754609210678 0 -0.23560348244150561 -0.32909319502054812 0 -0.23958942898634211 -0.33903199036576709 0 -0.22076115650133771 -0.33164754609210678 0 -0.2404133442166683 -0.34213832018255058 0 -0.22076115650133771 -0.33164754609210678 0 -0.2404133442166683 -0.34213832018255058 0 -0.23958942898634211 -0.33903199036576709 0 -0.22076115650133771 -0.33164754609210678 0 -0.23708401688859529 -0.34365007901650441 0 -0.2404133442166683 -0.34213832018255058 0 -0.22076115650133771 -0.33164754609210678 0 -0.22331676928072861 -0.34527245129667988 0 -0.22076115650133771 -0.33164754609210678 0 -0.20784983644103361 -0.34097302903627591 0 -0.22076115650133771 -0.33164754609210678 0 -0.20348412114368319 -0.33156666209817831 0 -0.20784983644103361 -0.34097302903627591 0 -0.2180259411870723 -0.31620608063285149 0 -0.19974136112887431 -0.31343603927203523 0 -0.20110896878600679 -0.32115677200166343 0 -0.22076115650133771 -0.33164754609210678 0 -0.2180259411870723 -0.31620608063285149 0 -0.20110896878600679 -0.32115677200166343 0 -0.22076115650133771 -0.33164754609210678 0 -0.20348412114368319 -0.33156666209817831 0 -0.20110896878600679 -0.32115677200166343 0 -0.22076115650133771 -0.33164754609210678 0 -0.20110896878600679 -0.32115677200166343 0 -0.2180259411870723 -0.31620608063285149 0 -0.19974136112887431 -0.31343603927203523 0 -0.20904493575850211 -0.30938578927939081 0 -0.2180259411870723 -0.31620608063285149 0 -0.19974136112887431 -0.31343603927203523 0 -0.19974136112887431 -0.31343603927203523 0 -0.20110896878600679 -0.32115677200166343 0 -0.1814567810706762 -0.3106659979112194 0 -0.20110896878600679 -0.32115677200166343 0 -0.1814567810706762 -0.3106659979112194 0 -0.20110896878600679 -0.32115677200166343 0 -0.19214051361034601 -0.33054181938157612 0 -0.1814567810706762 -0.3106659979112194 0 -0.20348412114368319 -0.33156666209817831 0 -0.20110896878600679 -0.32115677200166343 0 -0.19214051361034601 -0.33054181938157612 0 -0.20348412114368319 -0.33156666209817831 0 -0.20784983644103361 -0.34097302903627591 0 -0.19214051361034601 -0.33054181938157612 0 -0.20784983644103361 -0.34097302903627591 0 -0.19214051361034601 -0.33054181938157612 0 -0.20232946575910341 -0.34593351830387509 0 -0.19214051361034601 -0.33054181938157612 0 -0.19236830561379509 -0.34938181171492771 0 -0.18622265824693729 -0.34003474470360739 0 -0.19214051361034601 -0.33054181938157612 0 -0.19236830561379509 -0.34938181171492771 0 -0.19870808169258641 -0.35839171802627962 0 -0.19214051361034601 -0.33054181938157612 0 -0.19870808169258641 -0.35839171802627962 0 -0.19214051361034601 -0.33054181938157612 0 -0.20232946575910341 -0.34593351830387509 0 -0.19870808169258641 -0.35839171802627962 0 -0.19236830561379509 -0.34938181171492771 0 -0.1854961134254472 -0.37120813041460421 0 -0.20527564977482679 -0.38624161667098289 0 -0.19870808169258641 -0.35839171802627962 0 -0.20527564977482679 -0.38624161667098289 0 -0.19870808169258641 -0.35839171802627962 0 -0.1854961134254472 -0.37120813041460421 0 -0.19236830561379509 -0.34938181171492771 0 -0.19870808169258641 -0.35839171802627962 0 -0.1854961134254472 -0.37120813041460421 0 -0.20527564977482679 -0.38624161667098289 0 -0.19870808169258641 -0.35839171802627962 0 -0.21168543115216709 -0.36681117402183649 0 -0.19870808169258641 -0.35839171802627962 0 -0.21168543115216709 -0.36681117402183649 0 -0.21061943129244759 -0.3538275067713687 0 -0.22135664398937441 -0.36020929429952131 0 -0.22195794658956111 -0.37463091785279867 0 -0.21168543115216709 -0.36681117402183649 0 -0.22135664398937441 -0.36020929429952131 0 -0.21168543115216709 -0.36681117402183649 0 -0.21061943129244759 -0.3538275067713687 0 -0.22135664398937441 -0.36020929429952131 0 -0.22331676928072861 -0.34527245129667988 0 -0.21061943129244759 -0.3538275067713687 0 -0.22331676928072861 -0.34527245129667988 0 -0.20784983644103361 -0.34097302903627591 0 -0.21061943129244759 -0.3538275067713687 0 -0.20784983644103361 -0.34097302903627591 0 -0.20232946575910341 -0.34593351830387509 0 -0.21061943129244759 -0.3538275067713687 0 -0.20232946575910341 -0.34593351830387509 0 -0.19870808169258641 -0.35839171802627962 0 -0.21061943129244759 -0.3538275067713687 0 -0.22866545068461799 -0.25948943059043711 0 -0.21759888839251429 -0.26212753750200368 0 -0.22025275826160279 -0.2471257797298928 0 -0.22866545068461799 -0.25948943059043711 0 -0.22398633244919169 -0.27132847136955079 0 -0.21759888839251429 -0.26212753750200368 0 -0.22866545068461799 -0.25948943059043711 0 -0.23442911476228809 -0.24683612341654529 0 -0.22025275826160279 -0.2471257797298928 0 -0.22866545068461799 -0.25948943059043711 0 -0.24233717299785959 -0.25960849866204011 0 -0.23442911476228809 -0.24683612341654529 0 -0.2565674865322034 -0.25340195958415102 0 -0.24233717299785959 -0.25960849866204011 0 -0.25018128361314113 -0.24746468840205441 0 -0.22866545068461799 -0.25948943059043711 0 -0.24233717299785959 -0.25960849866204011 0 -0.2333815926018066 -0.27110706845475141 0 -0.24233717299785959 -0.25960849866204011 0 -0.2333815926018066 -0.27110706845475141 0 -0.24140403581614819 -0.28379898528087227 0 -0.24233717299785959 -0.25960849866204011 0 -0.24140403581614819 -0.28379898528087227 0 -0.24233717299785959 -0.25960849866204011 0 -0.2484323970602714 -0.27706385987730509 0 -0.24140403581614819 -0.28379898528087227 0 -0.25309751137434572 -0.26289123234143091 0 -0.24233717299785959 -0.25960849866204011 0 -0.2484323970602714 -0.27706385987730509 0 -0.2333815926018066 -0.27110706845475141 0 -0.2300547693907766 -0.28178467995593781 0 -0.24140403581614819 -0.28379898528087227 0 -0.2333815926018066 -0.27110706845475141 0 -0.22398633244919169 -0.27132847136955079 0 -0.2300547693907766 -0.28178467995593781 0 -0.22866545068461799 -0.25948943059043711 0 -0.2333815926018066 -0.27110706845475141 0 -0.22398633244919169 -0.27132847136955079 0 -0.22398633244919169 -0.27132847136955079 0 -0.21947311754018139 -0.28174823216008099 0 -0.2300547693907766 -0.28178467995593781 0 -0.21947311754018139 -0.28174823216008099 0 -0.22569627159534009 -0.29064390563822362 0 -0.2300547693907766 -0.28178467995593781 0 -0.21947311754018139 -0.28174823216008099 0 -0.22569627159534009 -0.29064390563822362 0 -0.21595054291829549 -0.29285447433738648 0 -0.22569627159534009 -0.29064390563822362 0 -0.22453607640027501 -0.29842387346705762 0 -0.21595054291829549 -0.29285447433738648 0 -0.22569627159534009 -0.29064390563822362 0 -0.2341156104824163 -0.28973116501788848 0 -0.23104294706112549 -0.29817392722980551 0 -0.22569627159534009 -0.29064390563822362 0 -0.23104294706112549 -0.29817392722980551 0 -0.22453607640027501 -0.29842387346705762 0 -0.22569627159534009 -0.29064390563822362 0 -0.2341156104824163 -0.28973116501788848 0 -0.2300547693907766 -0.28178467995593781 0 -0.25108388684634803 -0.28956965662021522 0 -0.24140403581614819 -0.28379898528087227 0 -0.24047089863443691 -0.30798947189970438 0 -0.2341156104824163 -0.28973116501788848 0 -0.24140403581614819 -0.28379898528087227 0 -0.24047089863443691 -0.30798947189970438 0 -0.24140403581614819 -0.28379898528087227 0 -0.24047089863443691 -0.30798947189970438 0 -0.2341156104824163 -0.28973116501788848 0 -0.2300547693907766 -0.28178467995593781 0 -0.24140403581614819 -0.28379898528087227 0 -0.25108388684634803 -0.28956965662021522 0 -0.2484323970602714 -0.27706385987730509 0 -0.24140403581614819 -0.28379898528087227 0 -0.25718459078837252 -0.29759752524363881 0 -0.25108388684634803 -0.28956965662021522 0 -0.24047089863443691 -0.30798947189970438 0 -0.2341156104824163 -0.28973116501788848 0 -0.24047089863443691 -0.30798947189970438 0 -0.23104294706112549 -0.29817392722980551 0 -0.24047089863443691 -0.30798947189970438 0 -0.23158309368585001 -0.31181085789310747 0 -0.2303958781931594 -0.30408122012615352 0 -0.23158309368585001 -0.31181085789310747 0 -0.2303958781931594 -0.30408122012615352 0 -0.2249978911063876 -0.30539226771637512 0 -0.24047089863443691 -0.30798947189970438 0 -0.23104294706112549 -0.29817392722980551 0 -0.2303958781931594 -0.30408122012615352 0 -0.23104294706112549 -0.29817392722980551 0 -0.2303958781931594 -0.30408122012615352 0 -0.22453607640027501 -0.29842387346705762 0 -0.2303958781931594 -0.30408122012615352 0 -0.22453607640027501 -0.29842387346705762 0 -0.2249978911063876 -0.30539226771637512 0 -0.22453607640027501 -0.29842387346705762 0 -0.2249978911063876 -0.30539226771637512 0 -0.21872282414136721 -0.30136563651957121 0 -0.22453607640027501 -0.29842387346705762 0 -0.21872282414136721 -0.30136563651957121 0 -0.21595054291829549 -0.29285447433738648 0 -0.22249387381410951 -0.31123320620709588 0 -0.2249978911063876 -0.30539226771637512 0 -0.21872282414136721 -0.30136563651957121 0 -0.23158309368585001 -0.31181085789310747 0 -0.22249387381410951 -0.31123320620709588 0 -0.2249978911063876 -0.30539226771637512 0 -0.22249387381410951 -0.31123320620709588 0 -0.20819654573008861 -0.30010144335043992 0 -0.2180259411870723 -0.31620608063285149 0 -0.2144403241224431 -0.30923162986744451 0 -0.20904493575850211 -0.30938578927939081 0 -0.22249387381410951 -0.31123320620709588 0 -0.2144403241224431 -0.30923162986744451 0 -0.20819654573008861 -0.30010144335043992 0 -0.2180259411870723 -0.31620608063285149 0 -0.22249387381410951 -0.31123320620709588 0 -0.2144403241224431 -0.30923162986744451 0 -0.21872282414136721 -0.30136563651957121 0 -0.20819654573008861 -0.30010144335043992 0 -0.21595054291829549 -0.29285447433738648 0 -0.22249387381410951 -0.31123320620709588 0 -0.21872282414136721 -0.30136563651957121 0 -0.20819654573008861 -0.30010144335043992 0 -0.20819654573008861 -0.30010144335043992 0 -0.20288915614788011 -0.30684576889979082 0 -0.200327377448308 -0.30070497350852549 0 -0.19974136112887431 -0.31343603927203523 0 -0.20904493575850211 -0.30938578927939081 0 -0.20288915614788011 -0.30684576889979082 0 -0.2144403241224431 -0.30923162986744451 0 -0.20819654573008861 -0.30010144335043992 0 -0.20904493575850211 -0.30938578927939081 0 -0.20819654573008861 -0.30010144335043992 0 -0.20904493575850211 -0.30938578927939081 0 -0.20288915614788011 -0.30684576889979082 0 -0.19974136112887431 -0.31343603927203523 0 -0.1814567810706762 -0.3106659979112194 0 -0.19974136112887431 -0.31343603927203523 0 -0.20288915614788011 -0.30684576889979082 0 -0.19308950921137841 -0.30535425612401718 0 -0.19974136112887431 -0.31343603927203523 0 -0.19308950921137841 -0.30535425612401718 0 -0.1814567810706762 -0.3106659979112194 0 -0.19308950921137841 -0.30535425612401718 0 -0.1899902243989981 -0.29832565749187118 0 -0.1817779539512053 -0.30255714357571323 0 -0.19308950921137841 -0.30535425612401718 0 -0.1899902243989981 -0.29832565749187118 0 -0.200327377448308 -0.30070497350852549 0 -0.20288915614788011 -0.30684576889979082 0 -0.19308950921137841 -0.30535425612401718 0 -0.200327377448308 -0.30070497350852549 0 -0.20819654573008861 -0.30010144335043992 0 -0.19389921764606771 -0.28896968049378402 0 -0.200327377448308 -0.30070497350852549 0 -0.19389921764606771 -0.28896968049378402 0 -0.20819654573008861 -0.30010144335043992 0 -0.200327377448308 -0.30070497350852549 0 -0.19389921764606771 -0.28896968049378402 0 -0.20819654573008861 -0.30010144335043992 0 -0.19389921764606771 -0.28896968049378402 0 -0.2049502680629153 -0.28953974020436019 0 -0.1899902243989981 -0.29832565749187118 0 -0.19389921764606771 -0.28896968049378402 0 -0.18066470514172869 -0.29420676669921531 0 -0.1899902243989981 -0.29832565749187118 0 -0.200327377448308 -0.30070497350852549 0 -0.19389921764606771 -0.28896968049378402 0 -0.19389921764606771 -0.28896968049378402 0 -0.18643891475010321 -0.2753500999052107 0 -0.19389921764606771 -0.28896968049378402 0 -0.1815972113741586 -0.27939145610981342 0 -0.19389921764606771 -0.28896968049378402 0 -0.2049502680629153 -0.28953974020436019 0 -0.20163083764207049 -0.27816255368004889 0 -0.2099333729274668 -0.28317129254800538 0 -0.2049502680629153 -0.28953974020436019 0 -0.20163083764207049 -0.27816255368004889 0 -0.2099333729274668 -0.28317129254800538 0 -0.2049502680629153 -0.28953974020436019 0 -0.21595054291829549 -0.29285447433738648 0 -0.20819654573008861 -0.30010144335043992 0 -0.2049502680629153 -0.28953974020436019 0 -0.21595054291829549 -0.29285447433738648 0 -0.21947311754018139 -0.28174823216008099 0 -0.2099333729274668 -0.28317129254800538 0 -0.21595054291829549 -0.29285447433738648 0 -0.2117440640613063 -0.2714560660025862 0 -0.20163083764207049 -0.27816255368004889 0 -0.20334583650585281 -0.26123793981755161 0 -0.22398633244919169 -0.27132847136955079 0 -0.21947311754018139 -0.28174823216008099 0 -0.2117440640613063 -0.2714560660025862 0 -0.21947311754018139 -0.28174823216008099 0 -0.2099333729274668 -0.28317129254800538 0 -0.2117440640613063 -0.2714560660025862 0 -0.22398633244919169 -0.27132847136955079 0 -0.2117440640613063 -0.2714560660025862 0 -0.21759888839251429 -0.26212753750200368 0 -0.2099333729274668 -0.28317129254800538 0 -0.2117440640613063 -0.2714560660025862 0 -0.20163083764207049 -0.27816255368004889 0 -0.20163083764207049 -0.27816255368004889 0 -0.20334583650585281 -0.26123793981755161 0 -0.18643891475010321 -0.2753500999052107 0 -0.20334583650585281 -0.26123793981755161 0 -0.18643891475010321 -0.2753500999052107 0 -0.1892261620383611 -0.26071341320317981 0 -0.20334583650585281 -0.26123793981755161 0 -0.18643891475010321 -0.2753500999052107 0 -0.19389921764606771 -0.28896968049378402 0 -0.20163083764207049 -0.27816255368004889 0 -0.18643891475010321 -0.2753500999052107 0 -0.1892261620383611 -0.26071341320317981 0 -0.20334583650585281 -0.26123793981755161 0 -0.1971211098569064 -0.2485562144643311 0 -0.20334583650585281 -0.26123793981755161 0 -0.21759888839251429 -0.26212753750200368 0 -0.22025275826160279 -0.2471257797298928 0 -0.20334583650585281 -0.26123793981755161 0 -0.22025275826160279 -0.2471257797298928 0 -0.20334583650585281 -0.26123793981755161 0 -0.1971211098569064 -0.2485562144643311 0 -0.22025275826160279 -0.2471257797298928 0 -0.2117440640613063 -0.2714560660025862 0 -0.20334583650585281 -0.26123793981755161 0 -0.21759888839251429 -0.26212753750200368 0 -0.15821309250511281 -0.26118480488572993 0 -0.17536452169406261 -0.25513261131262932 0 -0.1815972113741586 -0.27939145610981342 0 -0.15821309250511281 -0.26118480488572993 0 -0.17536452169406261 -0.25513261131262932 0 -0.15566934165753701 -0.24482136105764621 0 -0.1892261620383611 -0.26071341320317981 0 -0.17536452169406261 -0.25513261131262932 0 -0.1971211098569064 -0.2485562144643311 0 -0.1892261620383611 -0.26071341320317981 0 -0.17536452169406261 -0.25513261131262932 0 -0.18643891475010321 -0.2753500999052107 0 -0.17536452169406261 -0.25513261131262932 0 -0.18643891475010321 -0.2753500999052107 0 -0.17536452169406261 -0.25513261131262932 0 -0.18643891475010321 -0.2753500999052107 0 -0.1815972113741586 -0.27939145610981342 0 -0.19389921764606771 -0.28896968049378402 0 -0.18643891475010321 -0.2753500999052107 0 -0.1815972113741586 -0.27939145610981342 0 -0.18643891475010321 -0.2753500999052107 0 -0.1815972113741586 -0.27939145610981342 0 -0.15821309250511281 -0.26118480488572993 0 -0.1815972113741586 -0.27939145610981342 0 -0.1605334253196628 -0.27705414769848019 0 -0.15821309250511281 -0.26118480488572993 0 -0.1815972113741586 -0.27939145610981342 0 -0.1605334253196628 -0.27705414769848019 0 -0.16662117086531369 -0.29189191504570172 0 -0.1460397447830028 -0.28392096720827609 0 -0.1815972113741586 -0.27939145610981342 0 -0.1605334253196628 -0.27705414769848019 0 -0.16662117086531369 -0.29189191504570172 0 -0.16662117086531369 -0.29189191504570172 0 -0.18066470514172869 -0.29420676669921531 0 -0.16807172941449361 -0.30108874618849107 0 -0.1815972113741586 -0.27939145610981342 0 -0.16662117086531369 -0.29189191504570172 0 -0.1815972113741586 -0.27939145610981342 0 -0.16662117086531369 -0.29189191504570172 0 -0.18066470514172869 -0.29420676669921531 0 -0.19389921764606771 -0.28896968049378402 0 -0.1815972113741586 -0.27939145610981342 0 -0.18066470514172869 -0.29420676669921531 0 -0.18066470514172869 -0.29420676669921531 0 -0.1817779539512053 -0.30255714357571323 0 -0.16807172941449361 -0.30108874618849107 0 -0.1817779539512053 -0.30255714357571323 0 -0.17538193411824851 -0.30742310974349601 0 -0.16807172941449361 -0.30108874618849107 0 -0.1899902243989981 -0.29832565749187118 0 -0.18066470514172869 -0.29420676669921531 0 -0.1817779539512053 -0.30255714357571323 0 -0.19308950921137841 -0.30535425612401718 0 -0.1817779539512053 -0.30255714357571323 0 -0.1814567810706762 -0.3106659979112194 0 -0.1817779539512053 -0.30255714357571323 0 -0.1814567810706762 -0.3106659979112194 0 -0.17538193411824851 -0.30742310974349601 0 -0.1814567810706762 -0.3106659979112194 0 -0.17538193411824851 -0.30742310974349601 0 -0.1814567810706762 -0.3106659979112194 0 -0.17538193411824851 -0.30742310974349601 0 -0.1521471234576928 -0.30622570102712859 0 -0.16662117086531369 -0.29189191504570172 0 -0.16807172941449361 -0.30108874618849107 0 -0.15164513035647001 -0.30439237398159158 0 -0.17538193411824851 -0.30742310974349601 0 -0.16807172941449361 -0.30108874618849107 0 -0.1521471234576928 -0.30622570102712859 0 -0.16807172941449361 -0.30108874618849107 0 -0.1521471234576928 -0.30622570102712859 0 -0.15164513035647001 -0.30439237398159158 0 -0.1814567810706762 -0.3106659979112194 0 -0.1521471234576928 -0.30622570102712859 0 -0.16662117086531369 -0.29189191504570172 0 -0.15164513035647001 -0.30439237398159158 0 -0.14986325126998301 -0.30587970344869631 0 -0.1472482395654931 -0.30806244637126978 0 -0.13137693926794269 -0.30307910049847142 0 -0.14986325126998301 -0.30587970344869631 0 -0.13137693926794269 -0.30307910049847142 0 -0.14191197011226919 -0.29595195204747682 0 -0.1521471234576928 -0.30622570102712859 0 -0.15536928910057479 -0.31799335959440589 0 -0.1521471234576928 -0.30622570102712859 0 -0.1472482395654931 -0.30806244637126978 0 -0.1481744133336001 -0.31559103279323952 0 -0.1521471234576928 -0.30622570102712859 0 -0.14986325126998301 -0.30587970344869631 0 -0.1472482395654931 -0.30806244637126978 0 -0.1521471234576928 -0.30622570102712859 0 -0.14986325126998301 -0.30587970344869631 0 -0.15164513035647001 -0.30439237398159158 0 -0.1521471234576928 -0.30622570102712859 0 -0.14986325126998301 -0.30587970344869631 0 -0.1521471234576928 -0.30622570102712859 0 -0.15164513035647001 -0.30439237398159158 0 -0.14986325126998301 -0.30587970344869631 0 -0.15164513035647001 -0.30439237398159158 0 -0.14986325126998301 -0.30587970344869631 0 -0.1472482395654931 -0.30806244637126978 0 -0.14986325126998301 -0.30587970344869631 0 -0.15164513035647001 -0.30439237398159158 0 -0.14191197011226919 -0.29595195204747682 0 -0.1472482395654931 -0.30806244637126978 0 -0.13676428411235661 -0.311985534419285 0 -0.1481744133336001 -0.31559103279323952 0 -0.14986325126998301 -0.30587970344869631 0 -0.13137693926794269 -0.30307910049847142 0 -0.1472482395654931 -0.30806244637126978 0 -0.13676428411235661 -0.311985534419285 0 -0.13137693926794269 -0.30307910049847142 0 -0.13137693926794269 -0.30307910049847142 0 -0.14191197011226919 -0.29595195204747682 0 -0.12354370332633501 -0.29237215235494779 0 -0.13676428411235661 -0.311985534419285 0 -0.13137693926794269 -0.30307910049847142 0 -0.12202825811921469 -0.30947938976295097 0 -0.1460397447830028 -0.28392096720827609 0 -0.14191197011226919 -0.29595195204747682 0 -0.13317406737037779 -0.2802173890703723 0 -0.14191197011226919 -0.29595195204747682 0 -0.13317406737037779 -0.2802173890703723 0 -0.12354370332633501 -0.29237215235494779 0 -0.13317406737037779 -0.2802173890703723 0 -0.121176560474238 -0.27855216134530347 0 -0.12354370332633501 -0.29237215235494779 0 -0.16662117086531369 -0.29189191504570172 0 -0.15164513035647001 -0.30439237398159158 0 -0.1460397447830028 -0.28392096720827609 0 -0.15164513035647001 -0.30439237398159158 0 -0.1460397447830028 -0.28392096720827609 0 -0.14191197011226919 -0.29595195204747682 0 -0.15164513035647001 -0.30439237398159158 0 -0.1460397447830028 -0.28392096720827609 0 -0.1460397447830028 -0.28392096720827609 0 -0.14043435920953651 -0.26344956043496021 0 -0.1605334253196628 -0.27705414769848019 0 -0.1460397447830028 -0.28392096720827609 0 -0.14043435920953651 -0.26344956043496021 0 -0.15821309250511281 -0.26118480488572993 0 -0.1605334253196628 -0.27705414769848019 0 -0.14043435920953651 -0.26344956043496021 0 -0.13317406737037779 -0.2802173890703723 0 -0.1259380663168852 -0.26705754103126977 0 -0.14043435920953651 -0.26344956043496021 0 -0.1460397447830028 -0.28392096720827609 0 -0.13317406737037779 -0.2802173890703723 0 -0.14043435920953651 -0.26344956043496021 0 -0.13317406737037779 -0.2802173890703723 0 -0.1259380663168852 -0.26705754103126977 0 -0.121176560474238 -0.27855216134530347 0 -0.14043435920953651 -0.26344956043496021 0 -0.1283361407779757 -0.25159171728621699 0 -0.13482897363606841 -0.24297815366164491 0 -0.14043435920953651 -0.26344956043496021 0 -0.13482897363606841 -0.24297815366164491 0 -0.1259380663168852 -0.26705754103126977 0 -0.14043435920953651 -0.26344956043496021 0 -0.1283361407779757 -0.25159171728621699 0 -0.15821309250511281 -0.26118480488572993 0 -0.13482897363606841 -0.24297815366164491 0 -0.15821309250511281 -0.26118480488572993 0 -0.14043435920953651 -0.26344956043496021 0 -0.13482897363606841 -0.24297815366164491 0 -0.17697510949039719 -0.35596577996135209 0 -0.17519745401808179 -0.33814225560617162 0 -0.1562220225934601 -0.35985472972221177 0 -0.17519745401808179 -0.33814225560617162 0 -0.1532624182972378 -0.33871633494107939 0 -0.1562220225934601 -0.35985472972221177 0 -0.17519745401808179 -0.33814225560617162 0 -0.1562220225934601 -0.35985472972221177 0 -0.1663441030446621 -0.37717300760659073 0 -0.17697510949039719 -0.35596577996135209 0 -0.1562220225934601 -0.35985472972221177 0 -0.1663441030446621 -0.37717300760659073 0 -0.1854961134254472 -0.37120813041460421 0 -0.17697510949039719 -0.35596577996135209 0 -0.19236830561379509 -0.34938181171492771 0 -0.1854961134254472 -0.37120813041460421 0 -0.17697510949039719 -0.35596577996135209 0 -0.17697510949039719 -0.35596577996135209 0 -0.17519745401808179 -0.33814225560617162 0 -0.18622265824693729 -0.34003474470360739 0 -0.19236830561379509 -0.34938181171492771 0 -0.17697510949039719 -0.35596577996135209 0 -0.18622265824693729 -0.34003474470360739 0 -0.19214051361034601 -0.33054181938157612 0 -0.17519745401808179 -0.33814225560617162 0 -0.18622265824693729 -0.34003474470360739 0 -0.19214051361034601 -0.33054181938157612 0 -0.17519745401808179 -0.33814225560617162 0 -0.17075841890319021 -0.32267991232295651 0 -0.19214051361034601 -0.33054181938157612 0 -0.1814567810706762 -0.3106659979112194 0 -0.17075841890319021 -0.32267991232295651 0 -0.1814567810706762 -0.3106659979112194 0 -0.1521471234576928 -0.30622570102712859 0 -0.17075841890319021 -0.32267991232295651 0 -0.1521471234576928 -0.30622570102712859 0 -0.17075841890319021 -0.32267991232295651 0 -0.15536928910057479 -0.31799335959440589 0 -0.17075841890319021 -0.32267991232295651 0 -0.15536928910057479 -0.31799335959440589 0 -0.15041885550205389 -0.32708722206771829 0 -0.17519745401808179 -0.33814225560617162 0 -0.17075841890319021 -0.32267991232295651 0 -0.1532624182972378 -0.33871633494107939 0 -0.17075841890319021 -0.32267991232295651 0 -0.1532624182972378 -0.33871633494107939 0 -0.15041885550205389 -0.32708722206771829 0 -0.1532624182972378 -0.33871633494107939 0 -0.15041885550205389 -0.32708722206771829 0 -0.13403844172661231 -0.33095488736429202 0 -0.15041885550205389 -0.32708722206771829 0 -0.14028103823900179 -0.32077908792264309 0 -0.13403844172661231 -0.33095488736429202 0 -0.15536928910057479 -0.31799335959440589 0 -0.15041885550205389 -0.32708722206771829 0 -0.1481744133336001 -0.31559103279323952 0 -0.1521471234576928 -0.30622570102712859 0 -0.15536928910057479 -0.31799335959440589 0 -0.1481744133336001 -0.31559103279323952 0 -0.15041885550205389 -0.32708722206771829 0 -0.1481744133336001 -0.31559103279323952 0 -0.14028103823900179 -0.32077908792264309 0 -0.13676428411235661 -0.311985534419285 0 -0.1481744133336001 -0.31559103279323952 0 -0.14028103823900179 -0.32077908792264309 0 -0.13676428411235661 -0.311985534419285 0 -0.14028103823900179 -0.32077908792264309 0 -0.12839564496088529 -0.32005881249807028 0 -0.14028103823900179 -0.32077908792264309 0 -0.12839564496088529 -0.32005881249807028 0 -0.13403844172661231 -0.33095488736429202 0 -0.12839564496088529 -0.32005881249807028 0 -0.13403844172661231 -0.33095488736429202 0 -0.1231279148664025 -0.32697127933959502 0 -0.13676428411235661 -0.311985534419285 0 -0.12839564496088529 -0.32005881249807028 0 -0.12202825811921469 -0.30947938976295097 0 -0.13403844172661231 -0.33095488736429202 0 -0.13290241802702499 -0.35265178330474523 0 -0.1166361947753133 -0.33638206822001748 0 -0.1532624182972378 -0.33871633494107939 0 -0.13403844172661231 -0.33095488736429202 0 -0.13290241802702499 -0.35265178330474523 0 -0.1532624182972378 -0.33871633494107939 0 -0.13290241802702499 -0.35265178330474523 0 -0.1562220225934601 -0.35985472972221177 0 -0.13724659116883831 -0.38156720383825199 0 -0.13290241802702499 -0.35265178330474523 0 -0.1562220225934601 -0.35985472972221177 0 -0.13724659116883831 -0.38156720383825199 0 -0.1663441030446621 -0.37717300760659073 0 -0.1562220225934601 -0.35985472972221177 0 -0.13724659116883831 -0.38156720383825199 0 -0.1562220225934601 -0.35985472972221177 0 -0.13724659116883831 -0.38156720383825199 0 -0.13290241802702499 -0.35265178330474523 0 -0.1192781490478088 -0.36668410834504778 0 -0.1192781490478088 -0.36668410834504778 0 -0.1016352808315869 -0.36700177770792092 0 -0.11220573075163159 -0.38220411347121069 0 -0.1192781490478088 -0.36668410834504778 0 -0.1016352808315869 -0.36700177770792092 0 -0.1099844304083452 -0.35257743562026572 0 -0.1016352808315869 -0.36700177770792092 0 -0.091783481537845241 -0.36974840743822202 0 -0.093334558199797538 -0.36412034719781128 0 -0.1016352808315869 -0.36700177770792092 0 -0.094364811557621053 -0.35389299716276579 0 -0.093334558199797538 -0.36412034719781128 0 -0.1016352808315869 -0.36700177770792092 0 -0.091783481537845241 -0.36974840743822202 0 -0.093814789784828018 -0.38091150164421111 0 -0.094364811557621053 -0.35389299716276579 0 -0.1099844304083452 -0.35257743562026572 0 -0.096042697554356071 -0.3397062417384924 0 -0.1016352808315869 -0.36700177770792092 0 -0.094364811557621053 -0.35389299716276579 0 -0.1099844304083452 -0.35257743562026572 0 -0.13290241802702499 -0.35265178330474523 0 -0.1099844304083452 -0.35257743562026572 0 -0.1166361947753133 -0.33638206822001748 0 -0.13290241802702499 -0.35265178330474523 0 -0.1192781490478088 -0.36668410834504778 0 -0.1099844304083452 -0.35257743562026572 0 -0.13403844172661231 -0.33095488736429202 0 -0.1166361947753133 -0.33638206822001748 0 -0.1231279148664025 -0.32697127933959502 0 -0.1166361947753133 -0.33638206822001748 0 -0.1152881905332649 -0.31967160768574748 0 -0.098893476597157901 -0.32632392269665411 0 -0.1166361947753133 -0.33638206822001748 0 -0.1231279148664025 -0.32697127933959502 0 -0.1152881905332649 -0.31967160768574748 0 -0.12839564496088529 -0.32005881249807028 0 -0.1152881905332649 -0.31967160768574748 0 -0.12202825811921469 -0.30947938976295097 0 -0.12839564496088529 -0.32005881249807028 0 -0.1231279148664025 -0.32697127933959502 0 -0.1152881905332649 -0.31967160768574748 0 -0.1152881905332649 -0.31967160768574748 0 -0.11397155121489801 -0.30848478901155318 0 -0.10823649018657309 -0.3106210867482716 0 -0.1152881905332649 -0.31967160768574748 0 -0.12202825811921469 -0.30947938976295097 0 -0.11397155121489801 -0.30848478901155318 0 -0.1152881905332649 -0.31967160768574748 0 -0.098893476597157901 -0.32632392269665411 0 -0.10823649018657309 -0.3106210867482716 0 -0.1166361947753133 -0.33638206822001748 0 -0.098893476597157901 -0.32632392269665411 0 -0.096042697554356071 -0.3397062417384924 0 -0.1099844304083452 -0.35257743562026572 0 -0.1166361947753133 -0.33638206822001748 0 -0.096042697554356071 -0.3397062417384924 0 -0.081273045807338212 -0.32012122354728773 0 -0.072383893537199012 -0.33396092306611819 0 -0.082523744249277803 -0.34494336359321798 0 -0.081273045807338212 -0.32012122354728773 0 -0.082523744249277803 -0.34494336359321798 0 -0.096042697554356071 -0.3397062417384924 0 -0.081273045807338212 -0.32012122354728773 0 -0.082523744249277803 -0.34494336359321798 0 -0.098893476597157901 -0.32632392269665411 0 -0.096042697554356071 -0.3397062417384924 0 -0.081273045807338212 -0.32012122354728773 0 -0.098893476597157901 -0.32632392269665411 0 -0.081273045807338212 -0.32012122354728773 0 -0.088490963390462057 -0.3073149594937738 0 -0.081273045807338212 -0.32012122354728773 0 -0.06349485352407537 -0.31994243130957151 0 -0.072383893537199012 -0.33396092306611819 0 -0.081273045807338212 -0.32012122354728773 0 -0.06349485352407537 -0.31994243130957151 0 -0.071882199735688629 -0.30989172464331072 0 -0.06349485352407537 -0.31994243130957151 0 -0.072383893537199012 -0.33396092306611819 0 -0.062587044379988993 -0.33886333000968721 0 -0.072383893537199012 -0.33396092306611819 0 -0.072040779725314613 -0.34593426687082662 0 -0.082523744249277803 -0.34494336359321798 0 -0.072383893537199012 -0.33396092306611819 0 -0.062587044379988993 -0.33886333000968721 0 -0.072040779725314613 -0.34593426687082662 0 -0.062587044379988993 -0.33886333000968721 0 -0.072040779725314613 -0.34593426687082662 0 -0.05778126825204781 -0.35817517109810632 0 -0.081484465201393491 -0.35485127927681481 0 -0.05778126825204781 -0.35817517109810632 0 -0.072289445743601369 -0.36429171085611578 0 -0.081484465201393491 -0.35485127927681481 0 -0.05778126825204781 -0.35817517109810632 0 -0.072040779725314613 -0.34593426687082662 0 -0.081484465201393491 -0.35485127927681481 0 -0.05778126825204781 -0.35817517109810632 0 -0.066117606829746781 -0.37437488941039382 0 -0.072289445743601369 -0.36429171085611578 0 -0.05778126825204781 -0.35817517109810632 0 -0.066117606829746781 -0.37437488941039382 0 -0.072289445743601369 -0.36429171085611578 0 -0.083774442691217046 -0.36976550363914829 0 -0.072289445743601369 -0.36429171085611578 0 -0.083774442691217046 -0.36976550363914829 0 -0.081484465201393491 -0.35485127927681481 0 -0.085554658872136979 -0.36583820648233678 0 -0.083774442691217046 -0.36976550363914829 0 -0.082523744249277803 -0.34494336359321798 0 -0.085554658872136979 -0.36583820648233678 0 -0.083774442691217046 -0.36976550363914829 0 -0.083774442691217046 -0.36976550363914829 0 -0.091783481537845241 -0.36974840743822202 0 -0.093814789784828018 -0.38091150164421111 0 -0.085554658872136979 -0.36583820648233678 0 -0.083774442691217046 -0.36976550363914829 0 -0.091783481537845241 -0.36974840743822202 0 -0.094364811557621053 -0.35389299716276579 0 -0.085554658872136979 -0.36583820648233678 0 -0.093334558199797538 -0.36412034719781128 0 -0.085554658872136979 -0.36583820648233678 0 -0.091783481537845241 -0.36974840743822202 0 -0.093334558199797538 -0.36412034719781128 0 -0.094364811557621053 -0.35389299716276579 0 -0.085554658872136979 -0.36583820648233678 0 -0.082523744249277803 -0.34494336359321798 0 -0.083774442691217046 -0.36976550363914829 0 -0.082523744249277803 -0.34494336359321798 0 -0.083774442691217046 -0.36976550363914829 0 -0.082523744249277803 -0.34494336359321798 0 -0.081484465201393491 -0.35485127927681481 0 -0.094364811557621053 -0.35389299716276579 0 -0.096042697554356071 -0.3397062417384924 0 -0.082523744249277803 -0.34494336359321798 0 -0.072040779725314613 -0.34593426687082662 0 -0.082523744249277803 -0.34494336359321798 0 -0.081484465201393491 -0.35485127927681481 0 -0.101475907254733 -0.26829823342826459 0 -0.093680051977193257 -0.25300014610948141 0 -0.1025516661405015 -0.24412656761791199 0 -0.1097432552782682 -0.2572086698476283 0 -0.101475907254733 -0.26829823342826459 0 -0.1025516661405015 -0.24412656761791199 0 -0.101475907254733 -0.26829823342826459 0 -0.1025516661405015 -0.24412656761791199 0 -0.101475907254733 -0.26829823342826459 0 -0.092490388530258719 -0.26367462890309928 0 -0.093680051977193257 -0.25300014610948141 0 -0.1097432552782682 -0.2572086698476283 0 -0.11415052326640381 -0.26847741843797612 0 -0.101475907254733 -0.26829823342826459 0 -0.1097432552782682 -0.2572086698476283 0 -0.1183855941197941 -0.25651062511641259 0 -0.1121525856099083 -0.24863050463757599 0 -0.1283361407779757 -0.25159171728621699 0 -0.1183855941197941 -0.25651062511641259 0 -0.11992695639240671 -0.24305274461581289 0 -0.1259380663168852 -0.26705754103126977 0 -0.1183855941197941 -0.25651062511641259 0 -0.11415052326640381 -0.26847741843797612 0 -0.1259380663168852 -0.26705754103126977 0 -0.1283361407779757 -0.25159171728621699 0 -0.1183855941197941 -0.25651062511641259 0 -0.1097432552782682 -0.2572086698476283 0 -0.1183855941197941 -0.25651062511641259 0 -0.11415052326640381 -0.26847741843797612 0 -0.1259380663168852 -0.26705754103126977 0 -0.11415052326640381 -0.26847741843797612 0 -0.121176560474238 -0.27855216134530347 0 -0.11415052326640381 -0.26847741843797612 0 -0.121176560474238 -0.27855216134530347 0 -0.112272911659429 -0.28340806039222649 0 -0.101475907254733 -0.26829823342826459 0 -0.1004001483689636 -0.29246989923861699 0 -0.089806853404465051 -0.2713401455271785 0 -0.101475907254733 -0.26829823342826459 0 -0.1004001483689636 -0.29246989923861699 0 -0.11415052326640381 -0.26847741843797612 0 -0.101475907254733 -0.26829823342826459 0 -0.112272911659429 -0.28340806039222649 0 -0.101475907254733 -0.26829823342826459 0 -0.089806853404465051 -0.2713401455271785 0 -0.092490388530258719 -0.26367462890309928 0 -0.1004001483689636 -0.29246989923861699 0 -0.112272911659429 -0.28340806039222649 0 -0.11289062726590229 -0.30027849754824781 0 -0.101475907254733 -0.26829823342826459 0 -0.1004001483689636 -0.29246989923861699 0 -0.112272911659429 -0.28340806039222649 0 -0.1004001483689636 -0.29246989923861699 0 -0.10013860532164209 -0.29834661679915908 0 -0.1004001483689636 -0.29246989923861699 0 -0.11289062726590229 -0.30027849754824781 0 -0.112272911659429 -0.28340806039222649 0 -0.12354370332633501 -0.29237215235494779 0 -0.11289062726590229 -0.30027849754824781 0 -0.121176560474238 -0.27855216134530347 0 -0.112272911659429 -0.28340806039222649 0 -0.12354370332633501 -0.29237215235494779 0 -0.13137693926794269 -0.30307910049847142 0 -0.11289062726590229 -0.30027849754824781 0 -0.13137693926794269 -0.30307910049847142 0 -0.11289062726590229 -0.30027849754824781 0 -0.12202825811921469 -0.30947938976295097 0 -0.13137693926794269 -0.30307910049847142 0 -0.12354370332633501 -0.29237215235494779 0 -0.11289062726590229 -0.30027849754824781 0 -0.11289062726590229 -0.30027849754824781 0 -0.11397155121489801 -0.30848478901155318 0 -0.10823649018657309 -0.3106210867482716 0 -0.11289062726590229 -0.30027849754824781 0 -0.12202825811921469 -0.30947938976295097 0 -0.11397155121489801 -0.30848478901155318 0 -0.098893476597157901 -0.32632392269665411 0 -0.10013860532164209 -0.29834661679915908 0 -0.098893476597157901 -0.32632392269665411 0 -0.10013860532164209 -0.29834661679915908 0 -0.088490963390462057 -0.3073149594937738 0 -0.098893476597157901 -0.32632392269665411 0 -0.10823649018657309 -0.3106210867482716 0 -0.10013860532164209 -0.29834661679915908 0 -0.11289062726590229 -0.30027849754824781 0 -0.10013860532164209 -0.29834661679915908 0 -0.1004001483689636 -0.29246989923861699 0 -0.11289062726590229 -0.30027849754824781 0 -0.10013860532164209 -0.29834661679915908 0 -0.11289062726590229 -0.30027849754824781 0 -0.10823649018657309 -0.3106210867482716 0 -0.10013860532164209 -0.29834661679915908 0 -0.081273045807338212 -0.32012122354728773 0 -0.075730545320634307 -0.30237183499028841 0 -0.080022347365398816 -0.29529908350135742 0 -0.081273045807338212 -0.32012122354728773 0 -0.088490963390462057 -0.3073149594937738 0 -0.080022347365398816 -0.29529908350135742 0 -0.10013860532164209 -0.29834661679915908 0 -0.088490963390462057 -0.3073149594937738 0 -0.080022347365398816 -0.29529908350135742 0 -0.081273045807338212 -0.32012122354728773 0 -0.080022347365398816 -0.29529908350135742 0 -0.06349485352407537 -0.31994243130957151 0 -0.067929239438661637 -0.29744245220773302 0 -0.06349485352407537 -0.31994243130957151 0 -0.067929239438661637 -0.29744245220773302 0 -0.05709164511789562 -0.30596989755068921 0 -0.081273045807338212 -0.32012122354728773 0 -0.071882199735688629 -0.30989172464331072 0 -0.075730545320634307 -0.30237183499028841 0 -0.06349485352407537 -0.31994243130957151 0 -0.071882199735688629 -0.30989172464331072 0 -0.067929239438661637 -0.29744245220773302 0 -0.067929239438661637 -0.29744245220773302 0 -0.075730545320634307 -0.30237183499028841 0 -0.074800211398343183 -0.29676828128919502 0 -0.071882199735688629 -0.30989172464331072 0 -0.067929239438661637 -0.29744245220773302 0 -0.075730545320634307 -0.30237183499028841 0 -0.075730545320634307 -0.30237183499028841 0 -0.074800211398343183 -0.29676828128919502 0 -0.080022347365398816 -0.29529908350135742 0 -0.067929239438661637 -0.29744245220773302 0 -0.072363625353247057 -0.27494247310589431 0 -0.074800211398343183 -0.29676828128919502 0 -0.075988861669628593 -0.29203098004520328 0 -0.080022347365398816 -0.29529908350135742 0 -0.067929239438661637 -0.29744245220773302 0 -0.063481929201992804 -0.28659419931659808 0 -0.072363625353247057 -0.27494247310589431 0 -0.067929239438661637 -0.29744245220773302 0 -0.075162920182542767 -0.28731555611229459 0 -0.072363625353247057 -0.27494247310589431 0 -0.075988861669628593 -0.29203098004520328 0 -0.075162920182542767 -0.28731555611229459 0 -0.080022347365398816 -0.29529908350135742 0 -0.067929239438661637 -0.29744245220773302 0 -0.075988861669628593 -0.29203098004520328 0 -0.075162920182542767 -0.28731555611229459 0 -0.067929239438661637 -0.29744245220773302 0 -0.074800211398343183 -0.29676828128919502 0 -0.075988861669628593 -0.29203098004520328 0 -0.067929239438661637 -0.29744245220773302 0 -0.063481929201992804 -0.28659419931659808 0 -0.057157199652218327 -0.29433345841048941 0 -0.1004001483689636 -0.29246989923861699 0 -0.079212385277153408 -0.27922407156230239 0 -0.10013860532164209 -0.29834661679915908 0 -0.080022347365398816 -0.29529908350135742 0 -0.075162920182542767 -0.28731555611229459 0 -0.080022347365398816 -0.29529908350135742 0 -0.079212385277153408 -0.27922407156230239 0 -0.1004001483689636 -0.29246989923861699 0 -0.080022347365398816 -0.29529908350135742 0 -0.079212385277153408 -0.27922407156230239 0 -0.1004001483689636 -0.29246989923861699 0 -0.10013860532164209 -0.29834661679915908 0 -0.080022347365398816 -0.29529908350135742 0 -0.080022347365398816 -0.29529908350135742 0 -0.079212385277153408 -0.27922407156230239 0 -0.1004001483689636 -0.29246989923861699 0 -0.089806853404465051 -0.2713401455271785 0 -0.079212385277153408 -0.27922407156230239 0 -0.089806853404465051 -0.2713401455271785 0 -0.084998741484643592 -0.26205999054747281 0 -0.092490388530258719 -0.26367462890309928 0 -0.089806853404465051 -0.2713401455271785 0 -0.078429256909339093 -0.26368161834739218 0 -0.084998741484643592 -0.26205999054747281 0 -0.079212385277153408 -0.27922407156230239 0 -0.078429256909339093 -0.26368161834739218 0 -0.089806853404465051 -0.2713401455271785 0 -0.079212385277153408 -0.27922407156230239 0 -0.078429256909339093 -0.26368161834739218 0 -0.075162920182542767 -0.28731555611229459 0 -0.079212385277153408 -0.27922407156230239 0 -0.072363625353247057 -0.27494247310589431 0 -0.072363625353247057 -0.27494247310589431 0 -0.052651973256824323 -0.26261945695013877 0 -0.072363625353247057 -0.27494247310589431 0 -0.065594040539757301 -0.27326720108960889 0 -0.052651973256824323 -0.26261945695013877 0 -0.079212385277153408 -0.27922407156230239 0 -0.072363625353247057 -0.27494247310589431 0 -0.072363625353247057 -0.27494247310589431 0 -0.065594040539757301 -0.27326720108960889 0 -0.061663959528748452 -0.27997783588547598 0 -0.063481929201992804 -0.28659419931659808 0 -0.072363625353247057 -0.27494247310589431 0 -0.061663959528748452 -0.27997783588547598 0 -0.079212385277153408 -0.27922407156230239 0 -0.072363625353247057 -0.27494247310589431 0 -0.078429256909339093 -0.26368161834739218 0 -0.072363625353247057 -0.27494247310589431 0 -0.077646128541525 -0.24813916513248199 0 -0.072363625353247057 -0.27494247310589431 0 -0.078429256909339093 -0.26368161834739218 0 -0.077646128541525 -0.24813916513248199 0 -0.072363625353247057 -0.27494247310589431 0 -0.052651973256824323 -0.26261945695013877 0 -0.077646128541525 -0.24813916513248199 0 -0.078429256909339093 -0.26368161834739218 0 -0.077646128541525 -0.24813916513248199 0 -0.084998741484643592 -0.26205999054747281 0 -0.088104632666654803 -0.24175912157342011 0 -0.084998741484643592 -0.26205999054747281 0 -0.093680051977193257 -0.25300014610948141 0 -0.088104632666654803 -0.24175912157342011 0 -0.084998741484643592 -0.26205999054747281 0 -0.088104632666654803 -0.24175912157342011 0 -0.077646128541525 -0.24813916513248199 0 -0.078429256909339093 -0.26368161834739218 0 -0.084998741484643592 -0.26205999054747281 0 -0.077646128541525 -0.24813916513248199 0 -0.084998741484643592 -0.26205999054747281 0 -0.092490388530258719 -0.26367462890309928 0 -0.093680051977193257 -0.25300014610948141 0 -0.032940321160402269 -0.25029644079438251 0 -0.052651973256824323 -0.26261945695013877 0 -0.050902643065861071 -0.24349095896983161 0 -0.032940321160402269 -0.25029644079438251 0 -0.052651973256824323 -0.26261945695013877 0 -0.030801127425925001 -0.25680016795848581 0 -0.032940321160402269 -0.25029644079438251 0 -0.052651973256824323 -0.26261945695013877 0 -0.052651973256824323 -0.26261945695013877 0 -0.048838748996681343 -0.27669498093657302 0 -0.030801127425925001 -0.25680016795848581 0 -0.032940321160402269 -0.25029644079438251 0 -0.030801127425925001 -0.25680016795848581 0 -0.052651973256824323 -0.26261945695013877 0 -0.050902643065861071 -0.24349095896983161 0 -0.077646128541525 -0.24813916513248199 0 -0.065594040539757301 -0.27326720108960889 0 -0.048838748996681343 -0.27669498093657302 0 -0.065594040539757301 -0.27326720108960889 0 -0.052651973256824323 -0.26261945695013877 0 -0.048838748996681343 -0.27669498093657302 0 -0.065594040539757301 -0.27326720108960889 0 -0.061663959528748452 -0.27997783588547598 0 -0.048838748996681343 -0.27669498093657302 0 -0.061663959528748452 -0.27997783588547598 0 -0.048838748996681343 -0.27669498093657302 0 -0.054451087829631463 -0.28288517796522222 0 -0.048838748996681343 -0.27669498093657302 0 -0.054451087829631463 -0.28288517796522222 0 -0.048838748996681343 -0.27669498093657302 0 -0.030801127425925001 -0.25680016795848581 0 -0.048838748996681343 -0.27669498093657302 0 -0.02248395618448398 -0.28208661661419232 0 -0.030801127425925001 -0.25680016795848581 0 -0.048838748996681343 -0.27669498093657302 0 -0.02248395618448398 -0.28208661661419232 0 -0.048838748996681343 -0.27669498093657302 0 -0.041077846387481028 -0.28937070966441081 0 -0.02248395618448398 -0.28208661661419232 0 -0.041077846387481028 -0.28937070966441081 0 -0.037109865356421391 -0.29952186761000271 0 -0.029468436869721851 -0.29252598106650862 0 -0.041077846387481028 -0.28937070966441081 0 -0.04975385330497957 -0.2890306135367654 0 -0.047244383658885593 -0.30186874070713182 0 -0.048838748996681343 -0.27669498093657302 0 -0.041077846387481028 -0.28937070966441081 0 -0.04975385330497957 -0.2890306135367654 0 -0.048838748996681343 -0.27669498093657302 0 -0.04975385330497957 -0.2890306135367654 0 -0.054451087829631463 -0.28288517796522222 0 -0.04975385330497957 -0.2890306135367654 0 -0.054451087829631463 -0.28288517796522222 0 -0.057157199652218327 -0.29433345841048941 0 -0.063481929201992804 -0.28659419931659808 0 -0.054451087829631463 -0.28288517796522222 0 -0.057157199652218327 -0.29433345841048941 0 -0.063481929201992804 -0.28659419931659808 0 -0.061663959528748452 -0.27997783588547598 0 -0.054451087829631463 -0.28288517796522222 0 -0.04975385330497957 -0.2890306135367654 0 -0.057157199652218327 -0.29433345841048941 0 -0.047244383658885593 -0.30186874070713182 0 -0.057157199652218327 -0.29433345841048941 0 -0.047244383658885593 -0.30186874070713182 0 -0.05709164511789562 -0.30596989755068921 0 -0.067929239438661637 -0.29744245220773302 0 -0.057157199652218327 -0.29433345841048941 0 -0.05709164511789562 -0.30596989755068921 0 -0.047244383658885593 -0.30186874070713182 0 -0.05709164511789562 -0.30596989755068921 0 -0.049632549315637188 -0.31626240511852 0 -0.047244383658885593 -0.30186874070713182 0 -0.049632549315637188 -0.31626240511852 0 -0.036505516356473318 -0.31400569198040618 0 -0.047244383658885593 -0.30186874070713182 0 -0.037109865356421391 -0.29952186761000271 0 -0.036505516356473318 -0.31400569198040618 0 -0.041077846387481028 -0.28937070966441081 0 -0.047244383658885593 -0.30186874070713182 0 -0.037109865356421391 -0.29952186761000271 0 -0.037109865356421391 -0.29952186761000271 0 -0.02678144107749017 -0.30078470409936309 0 -0.036505516356473318 -0.31400569198040618 0 -0.02678144107749017 -0.30078470409936309 0 -0.021312585502779081 -0.32213078764647213 0 -0.02678144107749017 -0.30078470409936309 0 -0.036505516356473318 -0.31400569198040618 0 -0.021312585502779081 -0.32213078764647213 0 -0.02678144107749017 -0.30078470409936309 0 -0.01630762940426286 -0.3038502133106713 0 -0.021312585502779081 -0.32213078764647213 0 -0.037109865356421391 -0.29952186761000271 0 -0.02678144107749017 -0.30078470409936309 0 -0.029468436869721851 -0.29252598106650862 0 -0.02678144107749017 -0.30078470409936309 0 -0.01630762940426286 -0.3038502133106713 0 -0.01957434403417008 -0.29093262400193609 0 -0.0063780240591087903 -0.31078717533589839 0 -0.0074917523477661804 -0.29461577546968681 0 0.013051880611257029 -0.30817184754300292 0 -0.01630762940426286 -0.3038502133106713 0 -0.0063780240591087903 -0.31078717533589839 0 -0.021312585502779081 -0.32213078764647213 0 -0.01630762940426286 -0.3038502133106713 0 -0.0063780240591087903 -0.31078717533589839 0 -0.0074917523477661804 -0.29461577546968681 0 -0.02248395618448398 -0.28208661661419232 0 0.0027723556212477219 -0.28725352620772771 0 -0.01075429771457371 -0.28163518560512563 0 -0.02248395618448398 -0.28208661661419232 0 0.0027723556212477219 -0.28725352620772771 0 -0.0074917523477661804 -0.29461577546968681 0 -0.02248395618448398 -0.28208661661419232 0 0.0027723556212477219 -0.28725352620772771 0 -0.01630762940426286 -0.3038502133106713 0 -0.0074917523477661804 -0.29461577546968681 0 -0.01957434403417008 -0.29093262400193609 0 -0.01075429771457371 -0.28163518560512563 0 -0.0017476628817073611 -0.27805551369469472 0 0.0027723556212477219 -0.28725352620772771 0 -0.041077846387481028 -0.28937070966441081 0 -0.02248395618448398 -0.28208661661419232 0 -0.029468436869721851 -0.29252598106650862 0 -0.02248395618448398 -0.28208661661419232 0 -0.01957434403417008 -0.29093262400193609 0 -0.0074917523477661804 -0.29461577546968681 0 -0.02248395618448398 -0.28208661661419232 0 -0.01957434403417008 -0.29093262400193609 0 -0.02678144107749017 -0.30078470409936309 0 -0.01957434403417008 -0.29093262400193609 0 -0.029468436869721851 -0.29252598106650862 0 -0.02248395618448398 -0.28208661661419232 0 -0.01957434403417008 -0.29093262400193609 0 -0.029468436869721851 -0.29252598106650862 0 -0.02248395618448398 -0.28208661661419232 0 -0.030801127425925001 -0.25680016795848581 0 -0.02248395618448398 -0.28208661661419232 0 -0.01520552987642871 -0.27187005660595642 0 -0.030801127425925001 -0.25680016795848581 0 -0.01075429771457371 -0.28163518560512563 0 -0.02248395618448398 -0.28208661661419232 0 -0.01520552987642871 -0.27187005660595642 0 -0.0017476628817073611 -0.27805551369469472 0 -0.01024060517545407 -0.26077279915728391 0 0.0057386521092319797 -0.26220041049146298 0 -0.0017476628817073611 -0.27805551369469472 0 -0.01520552987642871 -0.27187005660595642 0 -0.01024060517545407 -0.26077279915728391 0 -0.0017476628817073611 -0.27805551369469472 0 -0.01024060517545407 -0.26077279915728391 0 -0.01075429771457371 -0.28163518560512563 0 -0.0017476628817073611 -0.27805551369469472 0 -0.01520552987642871 -0.27187005660595642 0 -0.01075429771457371 -0.28163518560512563 0 -0.0017476628817073611 -0.27805551369469472 0 -0.01024060517545407 -0.26077279915728391 0 0.0057386521092319797 -0.26220041049146298 0 0.0025328853753160741 -0.24958102673793139 0 -0.01024060517545407 -0.26077279915728391 0 -0.018733547469201091 -0.24349008461987329 0 -0.01024060517545407 -0.26077279915728391 0 -0.018733547469201091 -0.24349008461987329 0 0.0025328853753160741 -0.24958102673793139 0 -0.01024060517545407 -0.26077279915728391 0 -0.030801127425925001 -0.25680016795848581 0 -0.018733547469201091 -0.24349008461987329 0 -0.01520552987642871 -0.27187005660595642 0 -0.01024060517545407 -0.26077279915728391 0 -0.030801127425925001 -0.25680016795848581 0 -0.032940321160402269 -0.25029644079438251 0 -0.030801127425925001 -0.25680016795848581 0 -0.026871719323301121 -0.24650256912316601 0 -0.030801127425925001 -0.25680016795848581 0 -0.018733547469201091 -0.24349008461987329 0 -0.034078071302702163 -0.36149906291939787 0 -0.05778126825204781 -0.35817517109810632 0 -0.044598414929564491 -0.33459332569111688 0 -0.034078071302702163 -0.36149906291939787 0 -0.044598414929564491 -0.33459332569111688 0 -0.02963630761074966 -0.34409655343526241 0 -0.034078071302702163 -0.36149906291939787 0 -0.05778126825204781 -0.35817517109810632 0 -0.034078071302702163 -0.36149906291939787 0 -0.031733352269984409 -0.37630872523495079 0 -0.04671422923235316 -0.37926911911211442 0 -0.034078071302702163 -0.36149906291939787 0 -0.05778126825204781 -0.35817517109810632 0 -0.04671422923235316 -0.37926911911211442 0 -0.066117606829746781 -0.37437488941039382 0 -0.05778126825204781 -0.35817517109810632 0 -0.04671422923235316 -0.37926911911211442 0 -0.062587044379988993 -0.33886333000968721 0 -0.05778126825204781 -0.35817517109810632 0 -0.044598414929564491 -0.33459332569111688 0 -0.06349485352407537 -0.31994243130957151 0 -0.062587044379988993 -0.33886333000968721 0 -0.044598414929564491 -0.33459332569111688 0 -0.06349485352407537 -0.31994243130957151 0 -0.049632549315637188 -0.31626240511852 0 -0.044598414929564491 -0.33459332569111688 0 -0.06349485352407537 -0.31994243130957151 0 -0.05709164511789562 -0.30596989755068921 0 -0.049632549315637188 -0.31626240511852 0 -0.049632549315637188 -0.31626240511852 0 -0.036505516356473318 -0.31400569198040618 0 -0.044598414929564491 -0.33459332569111688 0 -0.036505516356473318 -0.31400569198040618 0 -0.044598414929564491 -0.33459332569111688 0 -0.021312585502779081 -0.32213078764647213 0 -0.044598414929564491 -0.33459332569111688 0 -0.021312585502779081 -0.32213078764647213 0 -0.02963630761074966 -0.34409655343526241 0 -0.015843729928067991 -0.34347687119358122 0 -0.021312585502779081 -0.32213078764647213 0 -0.02963630761074966 -0.34409655343526241 0 -0.015843729928067991 -0.34347687119358122 0 -0.021312585502779081 -0.32213078764647213 0 -0.0063780240591087903 -0.31078717533589839 0 -0.021312585502779081 -0.32213078764647213 0 3.5896068887442723e-05 -0.32803491845883598 0 -0.015843729928067991 -0.34347687119358122 0 -0.00014080085946228561 -0.35082738964002957 0 3.5896068887442723e-05 -0.32803491845883598 0 -0.015843729928067991 -0.34347687119358122 0 -0.021312585502779081 -0.32213078764647213 0 3.5896068887442723e-05 -0.32803491845883598 0 -0.015843729928067991 -0.34347687119358122 0 -0.00014080085946228561 -0.35082738964002957 0 -0.01037487435335663 -0.3648229547406901 0 -0.015843729928067991 -0.34347687119358122 0 -0.01037487435335663 -0.3648229547406901 0 -0.015843729928067991 -0.34347687119358122 0 -0.02275820373048933 -0.35362182208710219 0 -0.02963630761074966 -0.34409655343526241 0 -0.015843729928067991 -0.34347687119358122 0 -0.02275820373048933 -0.35362182208710219 0 -0.01037487435335663 -0.3648229547406901 0 -0.034078071302702163 -0.36149906291939787 0 -0.02275820373048933 -0.35362182208710219 0 -0.02963630761074966 -0.34409655343526241 0 -0.034078071302702163 -0.36149906291939787 0 -0.02215424893162643 -0.37111505202744122 0 -0.01037487435335663 -0.3648229547406901 0 -0.034078071302702163 -0.36149906291939787 0 -0.01037487435335663 -0.3648229547406901 0 -0.034078071302702163 -0.36149906291939787 0 -0.02275820373048933 -0.35362182208710219 0 -0.01037487435335663 -0.3648229547406901 0 -0.034078071302702163 -0.36149906291939787 0 -0.02215424893162643 -0.37111505202744122 0 -0.031733352269984409 -0.37630872523495079 0 -0.02215424893162643 -0.37111505202744122 0 -0.016772253886492949 -0.37410089839641808 0 -0.01404568160319189 -0.3712617873641948 0 -0.01404568160319189 -0.3712617873641948 0 -0.0094265442937821464 -0.37378457166277412 0 -0.01319259440905524 -0.37623554315916408 0 -0.0078283346885702904 -0.37476262999778609 0 -0.0094265442937821464 -0.37378457166277412 0 -0.01037487435335663 -0.3648229547406901 0 -0.02215424893162643 -0.37111505202744122 0 -0.01404568160319189 -0.3712617873641948 0 -0.01037487435335663 -0.3648229547406901 0 -0.01037487435335663 -0.3648229547406901 0 0.0058490520874761691 -0.36709803082098191 0 -0.016772253886492949 -0.37410089839641808 0 -0.01404568160319189 -0.3712617873641948 0 -0.01319259440905524 -0.37623554315916408 0 -0.00014080085946228561 -0.35082738964002957 0 -0.01037487435335663 -0.3648229547406901 0 0.0058490520874761691 -0.36709803082098191 0 -0.0078283346885702904 -0.37476262999778609 0 -0.01037487435335663 -0.3648229547406901 0 0.0058490520874761691 -0.36709803082098191 0 -0.0078283346885702904 -0.37476262999778609 0 -0.01037487435335663 -0.3648229547406901 0 -0.01404568160319189 -0.3712617873641948 0 -0.0094265442937821464 -0.37378457166277412 0 -0.01037487435335663 -0.3648229547406901 0 -0.0078283346885702904 -0.37476262999778609 0 -0.0094265442937821464 -0.37378457166277412 0 -0.0078283346885702904 -0.37476262999778609 0 -0.0023576536845698339 -0.39611583857600319 0 -0.0078283346885702904 -0.37476262999778609 0 -0.011142097151610131 -0.38172381805447092 0 -0.0023576536845698339 -0.39611583857600319 0 -0.011142097151610131 -0.38172381805447092 0 -0.0023576536845698339 -0.39611583857600319 0 -0.01587325479487519 -0.38723674351337972 0 -0.011142097151610131 -0.38172381805447092 0 -0.01610234460482865 -0.37998891207167063 0 -0.01587325479487519 -0.38723674351337972 0 -0.01319259440905524 -0.37623554315916408 0 -0.011142097151610131 -0.38172381805447092 0 -0.01610234460482865 -0.37998891207167063 0 -0.016772253886492949 -0.37410089839641808 0 -0.01319259440905524 -0.37623554315916408 0 -0.01610234460482865 -0.37998891207167063 0 -0.01319259440905524 -0.37623554315916408 0 -0.010397392635754449 -0.37662664071854879 0 -0.011142097151610131 -0.38172381805447092 0 -0.0078283346885702904 -0.37476262999778609 0 -0.010397392635754449 -0.37662664071854879 0 -0.011142097151610131 -0.38172381805447092 0 -0.0094265442937821464 -0.37378457166277412 0 -0.01319259440905524 -0.37623554315916408 0 -0.010397392635754449 -0.37662664071854879 0 -0.0078283346885702904 -0.37476262999778609 0 -0.0094265442937821464 -0.37378457166277412 0 -0.010397392635754449 -0.37662664071854879 0 -0.0023576536845698339 -0.39611583857600319 0 -0.016854849126784088 -0.39742738565483049 0 -0.01587325479487519 -0.38723674351337972 0 -0.0023576536845698339 -0.39611583857600319 0 -0.016854849126784088 -0.39742738565483049 0 -0.0081630895937607941 -0.41129335178386173 0 -0.016854849126784088 -0.39742738565483049 0 -0.023392714889338931 -0.39064901327928331 0 -0.029305467632274609 -0.40049385546170407 0 -0.016854849126784088 -0.39742738565483049 0 -0.023392714889338931 -0.39064901327928331 0 -0.01587325479487519 -0.38723674351337972 0 -0.023392714889338931 -0.39064901327928331 0 -0.029305467632274609 -0.40049385546170407 0 -0.032188689101130562 -0.38901283488088068 0 -0.02215424893162643 -0.37111505202744122 0 -0.016772253886492949 -0.37410089839641808 0 -0.02353152278210973 -0.38064755723492022 0 -0.016772253886492949 -0.37410089839641808 0 -0.01610234460482865 -0.37998891207167063 0 -0.02353152278210973 -0.38064755723492022 0 -0.01610234460482865 -0.37998891207167063 0 -0.01587325479487519 -0.38723674351337972 0 -0.02353152278210973 -0.38064755723492022 0 -0.023392714889338931 -0.39064901327928331 0 -0.01587325479487519 -0.38723674351337972 0 -0.02353152278210973 -0.38064755723492022 0 -0.023392714889338931 -0.39064901327928331 0 -0.02353152278210973 -0.38064755723492022 0 -0.032188689101130562 -0.38901283488088068 0 -0.02353152278210973 -0.38064755723492022 0 -0.031733352269984409 -0.37630872523495079 0 -0.032188689101130562 -0.38901283488088068 0 -0.02215424893162643 -0.37111505202744122 0 -0.02353152278210973 -0.38064755723492022 0 -0.031733352269984409 -0.37630872523495079 0 -0.031733352269984409 -0.37630872523495079 0 -0.04671422923235316 -0.37926911911211442 0 -0.032188689101130562 -0.38901283488088068 0 -0.04671422923235316 -0.37926911911211442 0 -0.032188689101130562 -0.38901283488088068 0 -0.044289202763444772 -0.39135289085216762 0 -0.032188689101130562 -0.38901283488088068 0 -0.041257957344308177 -0.40487627914437913 0 -0.044289202763444772 -0.39135289085216762 0 -0.029305467632274609 -0.40049385546170407 0 -0.032188689101130562 -0.38901283488088068 0 -0.041257957344308177 -0.40487627914437913 0 -0.056230819367541693 -0.39440183914975269 0 -0.051493530029743613 -0.41277891791385168 0 -0.065747409502729032 -0.40953455918739179 0 -0.041257957344308177 -0.40487627914437913 0 -0.056230819367541693 -0.39440183914975269 0 -0.051493530029743613 -0.41277891791385168 0 -0.041257957344308177 -0.40487627914437913 0 -0.044289202763444772 -0.39135289085216762 0 -0.056230819367541693 -0.39440183914975269 0 -0.056230819367541693 -0.39440183914975269 0 -0.065747409502729032 -0.40953455918739179 0 -0.066117606829746781 -0.37437488941039382 0 -0.04671422923235316 -0.37926911911211442 0 -0.056230819367541693 -0.39440183914975269 0 -0.04671422923235316 -0.37926911911211442 0 -0.044289202763444772 -0.39135289085216762 0 -0.056230819367541693 -0.39440183914975269 0 -0.04671422923235316 -0.37926911911211442 0 -0.056230819367541693 -0.39440183914975269 0 -0.057674512383022389 -0.42734400629007657 0 -0.049601615263317987 -0.44515345339276252 0 -0.057674512383022389 -0.42734400629007657 0 -0.051493530029743613 -0.41277891791385168 0 -0.065747409502729032 -0.40953455918739179 0 -0.057674512383022389 -0.42734400629007657 0 -0.065747409502729032 -0.40953455918739179 0 -0.057674512383022389 -0.42734400629007657 0 -0.051493530029743613 -0.41277891791385168 0 -0.03322823219505102 -0.42129041952379648 0 -0.029305467632274609 -0.40049385546170407 0 -0.041257957344308177 -0.40487627914437913 0 -0.03322823219505102 -0.42129041952379648 0 -0.041257957344308177 -0.40487627914437913 0 -0.051493530029743613 -0.41277891791385168 0 -0.03322823219505102 -0.42129041952379648 0 -0.03322823219505102 -0.42129041952379648 0 -0.02439234541253921 -0.43490569650885758 0 -0.049601615263317987 -0.44515345339276252 0 -0.03322823219505102 -0.42129041952379648 0 -0.049601615263317987 -0.44515345339276252 0 -0.057674512383022389 -0.42734400629007657 0 -0.03322823219505102 -0.42129041952379648 0 -0.049601615263317987 -0.44515345339276252 0 -0.03322823219505102 -0.42129041952379648 0 -0.02439234541253921 -0.43490569650885758 0 -0.010818991714530671 -0.42579448288144173 0 -0.016854849126784088 -0.39742738565483049 0 -0.03322823219505102 -0.42129041952379648 0 -0.03322823219505102 -0.42129041952379648 0 -0.0081630895937607941 -0.41129335178386173 0 -0.010818991714530671 -0.42579448288144173 0 -0.016854849126784088 -0.39742738565483049 0 -0.029305467632274609 -0.40049385546170407 0 -0.03322823219505102 -0.42129041952379648 0 -0.016854849126784088 -0.39742738565483049 0 -0.03322823219505102 -0.42129041952379648 0 -0.0081630895937607941 -0.41129335178386173 0 -0.0081630895937607941 -0.41129335178386173 0 -0.010818991714530671 -0.42579448288144173 0 0.0026957591361241309 -0.41958824334712869 0 -0.02439234541253921 -0.43490569650885758 0 -0.010818991714530671 -0.42579448288144173 0 -0.01027783979290609 -0.4450418277695869 0 -0.010818991714530671 -0.42579448288144173 0 -0.01027783979290609 -0.4450418277695869 0 0.003851027954898749 -0.43172418954792041 0 -0.010818991714530671 -0.42579448288144173 0 0.0026957591361241309 -0.41958824334712869 0 0.003851027954898749 -0.43172418954792041 0 -0.01027783979290609 -0.4450418277695869 0 -0.011038280792740629 -0.46258843223684681 0 0.0031349746952128348 -0.45732154608844711 0 -0.01027783979290609 -0.4450418277695869 0 -0.011038280792740629 -0.46258843223684681 0 -0.02289260566061898 -0.45897742689034388 0 -0.011038280792740629 -0.46258843223684681 0 -0.00094907817261298132 -0.47112804672216879 0 0.0031349746952128348 -0.45732154608844711 0 -0.02289260566061898 -0.45897742689034388 0 -0.029356635895327849 -0.44930438287917762 0 -0.040413005672661102 -0.46542425011239508 0 -0.02289260566061898 -0.45897742689034388 0 -0.023377266149459251 -0.47252824145371342 0 -0.040413005672661102 -0.46542425011239508 0 -0.011038280792740629 -0.46258843223684681 0 -0.02289260566061898 -0.45897742689034388 0 -0.023377266149459251 -0.47252824145371342 0 -0.02439234541253921 -0.43490569650885758 0 -0.01027783979290609 -0.4450418277695869 0 -0.029356635895327849 -0.44930438287917762 0 -0.01027783979290609 -0.4450418277695869 0 -0.02289260566061898 -0.45897742689034388 0 -0.029356635895327849 -0.44930438287917762 0 -0.0023310323066341181 -0.5 0 -0.0043793089323552817 -0.49170101865338262 0 -0.02815109917196898 -0.49861636840837392 0 -0.0043793089323552817 -0.49170101865338262 0 -0.0043176495648967151 -0.48070428616945038 0 0.0053352152350804568 -0.4807791696356124 0 -0.0043793089323552817 -0.49170101865338262 0 -0.0106231170010091 -0.48419136288379427 0 -0.0043176495648967151 -0.48070428616945038 0 -0.0043793089323552817 -0.49170101865338262 0 -0.0106231170010091 -0.48419136288379427 0 -0.017950876149337221 -0.4893641285520216 0 -0.0106231170010091 -0.48419136288379427 0 -0.01097195895358667 -0.47572183295229409 0 -0.019957514846631629 -0.48311391022826639 0 -0.0106231170010091 -0.48419136288379427 0 -0.0043176495648967151 -0.48070428616945038 0 -0.01097195895358667 -0.47572183295229409 0 -0.011038280792740629 -0.46258843223684681 0 -0.00094907817261298132 -0.47112804672216879 0 -0.01097195895358667 -0.47572183295229409 0 -0.0043176495648967151 -0.48070428616945038 0 -0.00094907817261298132 -0.47112804672216879 0 -0.01097195895358667 -0.47572183295229409 0 -0.011038280792740629 -0.46258843223684681 0 -0.01097195895358667 -0.47572183295229409 0 -0.023377266149459251 -0.47252824145371342 0 -0.023377266149459251 -0.47252824145371342 0 -0.019957514846631629 -0.48311391022826639 0 -0.031224396082004221 -0.48569504683202769 0 -0.01097195895358667 -0.47572183295229409 0 -0.023377266149459251 -0.47252824145371342 0 -0.019957514846631629 -0.48311391022826639 0 -0.0023310323066341181 -0.5 0 -0.02815109917196898 -0.49861636840837392 0 -0.031360818006208928 -0.5 0 -0.0043793089323552817 -0.49170101865338262 0 -0.017950876149337221 -0.4893641285520216 0 -0.02815109917196898 -0.49861636840837392 0 -0.0043793089323552817 -0.49170101865338262 0 -0.02815109917196898 -0.49861636840837392 0 -0.0106231170010091 -0.48419136288379427 0 -0.019957514846631629 -0.48311391022826639 0 -0.017950876149337221 -0.4893641285520216 0 -0.019957514846631629 -0.48311391022826639 0 -0.017950876149337221 -0.4893641285520216 0 -0.025597474744393309 -0.49118284869574791 0 -0.019957514846631629 -0.48311391022826639 0 -0.031224396082004221 -0.48569504683202769 0 -0.025597474744393309 -0.49118284869574791 0 -0.025597474744393309 -0.49118284869574791 0 -0.02815109917196898 -0.49861636840837392 0 -0.031360818006208928 -0.5 0 -0.031224396082004221 -0.48569504683202769 0 -0.025597474744393309 -0.49118284869574791 0 -0.031360818006208928 -0.5 0 -0.017950876149337221 -0.4893641285520216 0 -0.025597474744393309 -0.49118284869574791 0 -0.02815109917196898 -0.49861636840837392 0 -0.031360818006208928 -0.5 0 -0.048343055904351132 -0.4819359294639956 0 -0.060390603705783863 -0.5 0 -0.031224396082004221 -0.48569504683202769 0 -0.031360818006208928 -0.5 0 -0.048343055904351132 -0.4819359294639956 0 -0.031224396082004221 -0.48569504683202769 0 -0.040413005672661102 -0.46542425011239508 0 -0.031224396082004221 -0.48569504683202769 0 -0.048343055904351132 -0.4819359294639956 0 -0.040413005672661102 -0.46542425011239508 0 -0.023377266149459251 -0.47252824145371342 0 -0.031224396082004221 -0.48569504683202769 0 -0.040413005672661102 -0.46542425011239508 0 -0.048343055904351132 -0.4819359294639956 0 -0.040413005672661102 -0.46542425011239508 0 -0.061868527913120197 -0.46303160055449383 0 -0.048343055904351132 -0.4819359294639956 0 -0.061868527913120197 -0.46303160055449383 0 -0.067715258758524743 -0.48343239441089819 0 -0.048343055904351132 -0.4819359294639956 0 -0.060390603705783863 -0.5 0 -0.067715258758524743 -0.48343239441089819 0 -0.02439234541253921 -0.43490569650885758 0 -0.029356635895327849 -0.44930438287917762 0 -0.049601615263317987 -0.44515345339276252 0 -0.029356635895327849 -0.44930438287917762 0 -0.040413005672661102 -0.46542425011239508 0 -0.049601615263317987 -0.44515345339276252 0 -0.040413005672661102 -0.46542425011239508 0 -0.049601615263317987 -0.44515345339276252 0 -0.040413005672661102 -0.46542425011239508 0 -0.061868527913120197 -0.46303160055449383 0 -0.049601615263317987 -0.44515345339276252 0 -0.061868527913120197 -0.46303160055449383 0 -0.049601615263317987 -0.44515345339276252 0 -0.057674512383022389 -0.42734400629007657 0 -0.049601615263317987 -0.44515345339276252 0 -0.067687044322660692 -0.44438888407200389 0 -0.061868527913120197 -0.46303160055449383 0 -0.049601615263317987 -0.44515345339276252 0 -0.067687044322660692 -0.44438888407200389 0 -0.067687044322660692 -0.44438888407200389 0 -0.087522951364224152 -0.44416074083195012 0 -0.076635180433477057 -0.42684765000967062 0 -0.067687044322660692 -0.44438888407200389 0 -0.078553716864009776 -0.47219444203600192 0 -0.067687044322660692 -0.44438888407200389 0 -0.080483752515153384 -0.45444307226959779 0 -0.078553716864009776 -0.47219444203600192 0 -0.061868527913120197 -0.46303160055449383 0 -0.067687044322660692 -0.44438888407200389 0 -0.078553716864009776 -0.47219444203600192 0 -0.088171297509719124 -0.45702822213843508 0 -0.078553716864009776 -0.47219444203600192 0 -0.094850460920166413 -0.46755552228499719 0 -0.080483752515153384 -0.45444307226959779 0 -0.088171297509719124 -0.45702822213843508 0 -0.078553716864009776 -0.47219444203600192 0 -0.088171297509719124 -0.45702822213843508 0 -0.092026296169145899 -0.451321693988255 0 -0.09646742034415963 -0.45806785732742278 0 -0.088171297509719124 -0.45702822213843508 0 -0.09646742034415963 -0.45806785732742278 0 -0.094850460920166413 -0.46755552228499719 0 -0.067687044322660692 -0.44438888407200389 0 -0.080483752515153384 -0.45444307226959779 0 -0.087522951364224152 -0.44416074083195012 0 -0.088171297509719124 -0.45702822213843508 0 -0.087522951364224152 -0.44416074083195012 0 -0.088171297509719124 -0.45702822213843508 0 -0.092026296169145899 -0.451321693988255 0 -0.087522951364224152 -0.44416074083195012 0 -0.092026296169145899 -0.451321693988255 0 -0.087522951364224152 -0.44416074083195012 0 -0.080483752515153384 -0.45444307226959779 0 -0.088171297509719124 -0.45702822213843508 0 -0.087522951364224152 -0.44416074083195012 0 -0.060390603705783863 -0.5 0 -0.067715258758524743 -0.48343239441089819 0 -0.089420389405358791 -0.49999999999999978 0 -0.061868527913120197 -0.46303160055449383 0 -0.067715258758524743 -0.48343239441089819 0 -0.078553716864009776 -0.47219444203600192 0 -0.078553716864009776 -0.47219444203600192 0 -0.098208235557426499 -0.48290520710575457 0 -0.094850460920166413 -0.46755552228499719 0 -0.067715258758524743 -0.48343239441089819 0 -0.078553716864009776 -0.47219444203600192 0 -0.089420389405358791 -0.49999999999999978 0 -0.078553716864009776 -0.47219444203600192 0 -0.089420389405358791 -0.49999999999999978 0 -0.078553716864009776 -0.47219444203600192 0 -0.089420389405358791 -0.49999999999999978 0 -0.098208235557426499 -0.48290520710575457 0 -0.098208235557426499 -0.48290520710575457 0 -0.1125398430852395 -0.48112820013538338 0 -0.1148616459058424 -0.5 0 -0.089420389405358791 -0.49999999999999978 0 -0.098208235557426499 -0.48290520710575457 0 -0.1148616459058424 -0.5 0 -0.098208235557426499 -0.48290520710575457 0 -0.1051850434628086 -0.47275710198064308 0 -0.1125398430852395 -0.48112820013538338 0 -0.098208235557426499 -0.48290520710575457 0 -0.1051850434628086 -0.47275710198064308 0 -0.094850460920166413 -0.46755552228499719 0 -0.12704973474613379 -0.46277216333596533 0 -0.13010403334985379 -0.48000251283874379 0 -0.1157083509407465 -0.46985326695645979 0 -0.13010403334985379 -0.48000251283874379 0 -0.1157083509407465 -0.46985326695645979 0 -0.1125398430852395 -0.48112820013538338 0 -0.1051850434628086 -0.47275710198064308 0 -0.1157083509407465 -0.46985326695645979 0 -0.1125398430852395 -0.48112820013538338 0 -0.13010403334985379 -0.48000251283874379 0 -0.1125398430852395 -0.48112820013538338 0 -0.1148616459058424 -0.5 0 -0.10267072031130239 -0.4520905348048061 0 -0.102335674083258 -0.43919792399196639 0 -0.11570487117906469 -0.45324354028800051 0 -0.092026296169145899 -0.451321693988255 0 -0.087522951364224152 -0.44416074083195012 0 -0.102335674083258 -0.43919792399196639 0 -0.092026296169145899 -0.451321693988255 0 -0.10267072031130239 -0.4520905348048061 0 -0.102335674083258 -0.43919792399196639 0 -0.10267072031130239 -0.4520905348048061 0 -0.09646742034415963 -0.45806785732742278 0 -0.1046183268104643 -0.46234331342062063 0 -0.092026296169145899 -0.451321693988255 0 -0.10267072031130239 -0.4520905348048061 0 -0.09646742034415963 -0.45806785732742278 0 -0.1051850434628086 -0.47275710198064308 0 -0.094850460920166413 -0.46755552228499719 0 -0.1046183268104643 -0.46234331342062063 0 -0.09646742034415963 -0.45806785732742278 0 -0.094850460920166413 -0.46755552228499719 0 -0.1046183268104643 -0.46234331342062063 0 -0.1051850434628086 -0.47275710198064308 0 -0.1157083509407465 -0.46985326695645979 0 -0.1046183268104643 -0.46234331342062063 0 -0.10267072031130239 -0.4520905348048061 0 -0.1046183268104643 -0.46234331342062063 0 -0.11570487117906469 -0.45324354028800051 0 -0.12704973474613379 -0.46277216333596533 0 -0.1157083509407465 -0.46985326695645979 0 -0.11570487117906469 -0.45324354028800051 0 -0.1157083509407465 -0.46985326695645979 0 -0.1046183268104643 -0.46234331342062063 0 -0.11570487117906469 -0.45324354028800051 0 -0.13093011984253891 -0.44972195681556543 0 -0.12704973474613379 -0.46277216333596533 0 -0.11570487117906469 -0.45324354028800051 0 -0.13093011984253891 -0.44972195681556543 0 -0.11570487117906469 -0.45324354028800051 0 -0.123519809913229 -0.43733662075251151 0 -0.102335674083258 -0.43919792399196639 0 -0.11570487117906469 -0.45324354028800051 0 -0.123519809913229 -0.43733662075251151 0 -0.102335674083258 -0.43919792399196639 0 -0.123519809913229 -0.43733662075251151 0 -0.1073839645685936 -0.41867419567875119 0 -0.12597911368703019 -0.41952469120143437 0 -0.123519809913229 -0.43733662075251151 0 -0.1073839645685936 -0.41867419567875119 0 -0.102335674083258 -0.43919792399196639 0 -0.1073839645685936 -0.41867419567875119 0 -0.086273448473222103 -0.4193623284343494 0 -0.1073839645685936 -0.41867419567875119 0 -0.1004955064841186 -0.39983262220326049 0 -0.086273448473222103 -0.4193623284343494 0 -0.1073839645685936 -0.41867419567875119 0 -0.11827115974421661 -0.40327967795429231 0 -0.1004955064841186 -0.39983262220326049 0 -0.12597911368703019 -0.41952469120143437 0 -0.1073839645685936 -0.41867419567875119 0 -0.11827115974421661 -0.40327967795429231 0 -0.11827115974421661 -0.40327967795429231 0 -0.11220573075163159 -0.38220411347121069 0 -0.1004955064841186 -0.39983262220326049 0 -0.13724659116883831 -0.38156720383825199 0 -0.1192781490478088 -0.36668410834504778 0 -0.11220573075163159 -0.38220411347121069 0 -0.13724659116883831 -0.38156720383825199 0 -0.11827115974421661 -0.40327967795429231 0 -0.11220573075163159 -0.38220411347121069 0 -0.11220573075163159 -0.38220411347121069 0 -0.093814789784828018 -0.38091150164421111 0 -0.1004955064841186 -0.39983262220326049 0 -0.1016352808315869 -0.36700177770792092 0 -0.11220573075163159 -0.38220411347121069 0 -0.093814789784828018 -0.38091150164421111 0 -0.093814789784828018 -0.38091150164421111 0 -0.1004955064841186 -0.39983262220326049 0 -0.085023945582219762 -0.39456391603674879 0 -0.085023945582219762 -0.39456391603674879 0 -0.074760926096971728 -0.38965003141326948 0 -0.077688182017724178 -0.40799169701628579 0 -0.1004955064841186 -0.39983262220326049 0 -0.085023945582219762 -0.39456391603674879 0 -0.086273448473222103 -0.4193623284343494 0 -0.083774442691217046 -0.36976550363914829 0 -0.093814789784828018 -0.38091150164421111 0 -0.085023945582219762 -0.39456391603674879 0 -0.083774442691217046 -0.36976550363914829 0 -0.085023945582219762 -0.39456391603674879 0 -0.074760926096971728 -0.38965003141326948 0 -0.083774442691217046 -0.36976550363914829 0 -0.085023945582219762 -0.39456391603674879 0 -0.083774442691217046 -0.36976550363914829 0 -0.074760926096971728 -0.38965003141326948 0 -0.066117606829746781 -0.37437488941039382 0 -0.083774442691217046 -0.36976550363914829 0 -0.074760926096971728 -0.38965003141326948 0 -0.066117606829746781 -0.37437488941039382 0 -0.056230819367541693 -0.39440183914975269 0 -0.074760926096971728 -0.38965003141326948 0 -0.074760926096971728 -0.38965003141326948 0 -0.065747409502729032 -0.40953455918739179 0 -0.056230819367541693 -0.39440183914975269 0 -0.074760926096971728 -0.38965003141326948 0 -0.065747409502729032 -0.40953455918739179 0 -0.074760926096971728 -0.38965003141326948 0 -0.077688182017724178 -0.40799169701628579 0 -0.065747409502729032 -0.40953455918739179 0 -0.057674512383022389 -0.42734400629007657 0 -0.065747409502729032 -0.40953455918739179 0 -0.076635180433477057 -0.42684765000967062 0 -0.065747409502729032 -0.40953455918739179 0 -0.076635180433477057 -0.42684765000967062 0 -0.077688182017724178 -0.40799169701628579 0 -0.065747409502729032 -0.40953455918739179 0 -0.076635180433477057 -0.42684765000967062 0 -0.057674512383022389 -0.42734400629007657 0 -0.067687044322660692 -0.44438888407200389 0 -0.076635180433477057 -0.42684765000967062 0 -0.087522951364224152 -0.44416074083195012 0 -0.102335674083258 -0.43919792399196639 0 -0.086273448473222103 -0.4193623284343494 0 -0.087522951364224152 -0.44416074083195012 0 -0.076635180433477057 -0.42684765000967062 0 -0.087522951364224152 -0.44416074083195012 0 -0.086273448473222103 -0.4193623284343494 0 -0.087522951364224152 -0.44416074083195012 0 -0.076635180433477057 -0.42684765000967062 0 -0.086273448473222103 -0.4193623284343494 0 -0.077688182017724178 -0.40799169701628579 0 -0.076635180433477057 -0.42684765000967062 0 -0.086273448473222103 -0.4193623284343494 0 -0.085023945582219762 -0.39456391603674879 0 -0.086273448473222103 -0.4193623284343494 0 -0.085023945582219762 -0.39456391603674879 0 -0.077688182017724178 -0.40799169701628579 0 -0.086273448473222103 -0.4193623284343494 0 -0.088492877882569029 -0.082108210476901852 0 -0.076927128592812144 -0.088910799915979499 0 -0.09750588448509391 -0.094492999713411269 0 -0.088492877882569029 -0.082108210476901852 0 -0.079577064860946206 -0.073577453582062496 0 -0.076927128592812144 -0.088910799915979499 0 -0.079577064860946206 -0.073577453582062496 0 -0.0985919344824224 -0.072778756797164931 0 -0.087769009107716192 -0.046193724725750278 0 -0.088492877882569029 -0.082108210476901852 0 -0.079577064860946206 -0.073577453582062496 0 -0.0985919344824224 -0.072778756797164931 0 -0.079577064860946206 -0.073577453582062496 0 -0.068797467898171552 -0.064113028811232264 0 -0.064240921843242857 -0.078969573753286809 0 -0.068797467898171552 -0.064113028811232264 0 -0.064240921843242857 -0.078969573753286809 0 -0.05461803829180413 -0.069755112608578862 0 -0.064240921843242857 -0.078969573753286809 0 -0.065719917437320752 -0.085301382988547655 0 -0.071622236241637716 -0.082994103557465768 0 -0.079577064860946206 -0.073577453582062496 0 -0.064240921843242857 -0.078969573753286809 0 -0.071622236241637716 -0.082994103557465768 0 -0.079577064860946206 -0.073577453582062496 0 -0.071622236241637716 -0.082994103557465768 0 -0.076927128592812144 -0.088910799915979499 0 -0.076927128592812144 -0.088910799915979499 0 -0.070013937980536456 -0.090181036700446429 0 -0.073360588416105155 -0.101926594449817 0 -0.071622236241637716 -0.082994103557465768 0 -0.076927128592812144 -0.088910799915979499 0 -0.070013937980536456 -0.090181036700446429 0 -0.065719917437320752 -0.085301382988547655 0 -0.070013937980536456 -0.090181036700446429 0 -0.057002573683865979 -0.089060817942991616 0 -0.065719917437320752 -0.085301382988547655 0 -0.071622236241637716 -0.082994103557465768 0 -0.070013937980536456 -0.090181036700446429 0 -0.073360588416105155 -0.101926594449817 0 -0.064648045787775776 -0.1114736180136202 0 -0.083029262804162729 -0.11173362360677321 0 -0.076927128592812144 -0.088910799915979499 0 -0.073360588416105155 -0.101926594449817 0 -0.083029262804162729 -0.11173362360677321 0 -0.070013937980536456 -0.090181036700446429 0 -0.064167586873575405 -0.098824988458513688 0 -0.073360588416105155 -0.101926594449817 0 -0.064167586873575405 -0.098824988458513688 0 -0.073360588416105155 -0.101926594449817 0 -0.064648045787775776 -0.1114736180136202 0 -0.064648045787775776 -0.1114736180136202 0 -0.083029262804162729 -0.11173362360677321 0 -0.072915517223638954 -0.12670463451369329 0 -0.064648045787775776 -0.1114736180136202 0 -0.060928146748241367 -0.123537549367131 0 -0.072915517223638954 -0.12670463451369329 0 -0.083029262804162729 -0.11173362360677321 0 -0.089131397015513494 -0.13455644729756691 0 -0.072915517223638954 -0.12670463451369329 0 -0.083029262804162729 -0.11173362360677321 0 -0.089131397015513494 -0.13455644729756691 0 -0.083029262804162729 -0.11173362360677321 0 -0.099989791654964619 -0.11261170107408 0 -0.089131397015513494 -0.13455644729756691 0 -0.076927128592812144 -0.088910799915979499 0 -0.083029262804162729 -0.11173362360677321 0 -0.076927128592812144 -0.088910799915979499 0 -0.083029262804162729 -0.11173362360677321 0 -0.09750588448509391 -0.094492999713411269 0 -0.083029262804162729 -0.11173362360677321 0 -0.09750588448509391 -0.094492999713411269 0 -0.099989791654964619 -0.11261170107408 0 -0.09750588448509391 -0.094492999713411269 0 -0.099989791654964619 -0.11261170107408 0 -0.11605893441195141 -0.10185107539240761 0 -0.099989791654964619 -0.11261170107408 0 -0.11422347955810171 -0.1204243593602408 0 -0.089131397015513494 -0.13455644729756691 0 -0.11422347955810171 -0.1204243593602408 0 -0.11605893441195141 -0.10185107539240761 0 -0.13931556210068971 -0.10629227142291391 0 -0.099989791654964619 -0.11261170107408 0 -0.11422347955810171 -0.1204243593602408 0 -0.11605893441195141 -0.10185107539240761 0 -0.09750588448509391 -0.094492999713411269 0 -0.11605893441195141 -0.10185107539240761 0 -0.121811479392537 -0.084095963505499416 0 -0.09750588448509391 -0.094492999713411269 0 -0.121811479392537 -0.084095963505499416 0 -0.0985919344824224 -0.072778756797164931 0 -0.088492877882569029 -0.082108210476901852 0 -0.09750588448509391 -0.094492999713411269 0 -0.0985919344824224 -0.072778756797164931 0 -0.121811479392537 -0.084095963505499416 0 -0.0985919344824224 -0.072778756797164931 0 -0.12197003300458489 -0.067133964797042034 0 -0.0985919344824224 -0.072778756797164931 0 -0.12197003300458489 -0.067133964797042034 0 -0.11173313641422659 -0.051099137712197359 0 -0.12197003300458489 -0.067133964797042034 0 -0.11173313641422659 -0.051099137712197359 0 -0.13241258759658719 -0.044529255409706578 0 -0.11719553878173181 -0.037741673539740471 0 -0.12411398995058071 -0.026208981462584841 0 -0.13241258759658719 -0.044529255409706578 0 -0.11173313641422659 -0.051099137712197359 0 -0.11719553878173181 -0.037741673539740471 0 -0.13241258759658719 -0.044529255409706578 0 -0.11719553878173181 -0.037741673539740471 0 -0.1033935341420949 -0.036608907929656417 0 -0.1118019010511415 -0.027957019938586129 0 -0.11173313641422659 -0.051099137712197359 0 -0.11719553878173181 -0.037741673539740471 0 -0.1033935341420949 -0.036608907929656417 0 -0.11173313641422659 -0.051099137712197359 0 -0.1033935341420949 -0.036608907929656417 0 -0.087769009107716192 -0.046193724725750278 0 -0.1033935341420949 -0.036608907929656417 0 -0.091700817231413184 -0.028161456197506499 0 -0.087769009107716192 -0.046193724725750278 0 -0.0985919344824224 -0.072778756797164931 0 -0.11173313641422659 -0.051099137712197359 0 -0.087769009107716192 -0.046193724725750278 0 -0.1152652699767374 -0.0044733142422073097 0 -0.1278640484455188 -0.012334690821253821 0 -0.1273771369441013 0.0023450629401116992 0 -0.1152652699767374 -0.0044733142422073097 0 -0.11303603589243651 -0.016818202060669259 0 -0.1278640484455188 -0.012334690821253821 0 -0.1152652699767374 -0.0044733142422073097 0 -0.11303603589243651 -0.016818202060669259 0 -0.1012139958851531 -0.0082010901258140791 0 -0.11303603589243651 -0.016818202060669259 0 -0.12411398995058071 -0.026208981462584841 0 -0.1278640484455188 -0.012334690821253821 0 -0.11719553878173181 -0.037741673539740471 0 -0.12411398995058071 -0.026208981462584841 0 -0.1118019010511415 -0.027957019938586129 0 -0.11303603589243651 -0.016818202060669259 0 -0.12411398995058071 -0.026208981462584841 0 -0.1118019010511415 -0.027957019938586129 0 -0.1033935341420949 -0.036608907929656417 0 -0.1118019010511415 -0.027957019938586129 0 -0.10074487633177411 -0.021927112774035699 0 -0.1033935341420949 -0.036608907929656417 0 -0.10074487633177411 -0.021927112774035699 0 -0.091700817231413184 -0.028161456197506499 0 -0.10074487633177411 -0.021927112774035699 0 -0.089359217900845153 -0.01537750648633354 0 -0.091700817231413184 -0.028161456197506499 0 -0.11303603589243651 -0.016818202060669259 0 -0.10074487633177411 -0.021927112774035699 0 -0.1012139958851531 -0.0082010901258140791 0 -0.11303603589243651 -0.016818202060669259 0 -0.1118019010511415 -0.027957019938586129 0 -0.10074487633177411 -0.021927112774035699 0 -0.10074487633177411 -0.021927112774035699 0 -0.1012139958851531 -0.0082010901258140791 0 -0.089359217900845153 -0.01537750648633354 0 -0.1012139958851531 -0.0082010901258140791 0 -0.089124004628701792 -0.0040277377021705899 0 -0.097507665945787692 0.0040820149966005574 0 -0.1012139958851531 -0.0082010901258140791 0 -0.097507665945787692 0.0040820149966005574 0 -0.1058521268010089 0.00073384547527136773 0 -0.1152652699767374 -0.0044733142422073097 0 -0.1012139958851531 -0.0082010901258140791 0 -0.1058521268010089 0.00073384547527136773 0 -0.079764572027605563 -0.001208843295517239 0 -0.089124004628701792 -0.0040277377021705899 0 -0.080379206648835008 -0.009775819102595687 0 -0.089124004628701792 -0.0040277377021705899 0 -0.089359217900845153 -0.01537750648633354 0 -0.080379206648835008 -0.009775819102595687 0 -0.1012139958851531 -0.0082010901258140791 0 -0.089124004628701792 -0.0040277377021705899 0 -0.089359217900845153 -0.01537750648633354 0 -0.089359217900845153 -0.01537750648633354 0 -0.080379206648835008 -0.009775819102595687 0 -0.076946083733010012 -0.019608692654335649 0 -0.089359217900845153 -0.01537750648633354 0 -0.091700817231413184 -0.028161456197506499 0 -0.076946083733010012 -0.019608692654335649 0 -0.066439508831189667 -0.02875513821822643 0 -0.076946083733010012 -0.019608692654335649 0 -0.073396792324475907 -0.036549185213838799 0 -0.066439508831189667 -0.02875513821822643 0 -0.068530762808199294 -0.019938962024248611 0 -0.056338296441182101 -0.027044179732367449 0 -0.066439508831189667 -0.02875513821822643 0 -0.068530762808199294 -0.019938962024248611 0 -0.076946083733010012 -0.019608692654335649 0 -0.080379206648835008 -0.009775819102595687 0 -0.076946083733010012 -0.019608692654335649 0 -0.066123158358303874 0.0069763394170788487 0 -0.079764572027605563 -0.001208843295517239 0 -0.080379206648835008 -0.009775819102595687 0 -0.066123158358303874 0.0069763394170788487 0 -0.076946083733010012 -0.019608692654335649 0 -0.059664616745900671 -0.0040500510012267867 0 -0.066123158358303874 0.0069763394170788487 0 -0.068530762808199294 -0.019938962024248611 0 -0.059664616745900671 -0.0040500510012267867 0 -0.068530762808199294 -0.019938962024248611 0 -0.076946083733010012 -0.019608692654335649 0 -0.059664616745900671 -0.0040500510012267867 0 -0.076946083733010012 -0.019608692654335649 0 -0.066123158358303874 0.0069763394170788487 0 -0.079577064860946206 -0.073577453582062496 0 -0.068797467898171552 -0.064113028811232264 0 -0.087769009107716192 -0.046193724725750278 0 -0.0985919344824224 -0.072778756797164931 0 -0.087769009107716192 -0.046193724725750278 0 -0.076946083733010012 -0.019608692654335649 0 -0.087769009107716192 -0.046193724725750278 0 -0.073396792324475907 -0.036549185213838799 0 -0.091700817231413184 -0.028161456197506499 0 -0.076946083733010012 -0.019608692654335649 0 -0.087769009107716192 -0.046193724725750278 0 -0.076946083733010012 -0.019608692654335649 0 -0.087769009107716192 -0.046193724725750278 0 -0.073396792324475907 -0.036549185213838799 0 -0.062271996897588083 -0.052791321925605532 0 -0.056985608849081007 -0.04063467146634165 0 -0.087769009107716192 -0.046193724725750278 0 -0.073396792324475907 -0.036549185213838799 0 -0.062271996897588083 -0.052791321925605532 0 -0.066439508831189667 -0.02875513821822643 0 -0.073396792324475907 -0.036549185213838799 0 -0.056985608849081007 -0.04063467146634165 0 -0.068797467898171552 -0.064113028811232264 0 -0.087769009107716192 -0.046193724725750278 0 -0.062271996897588083 -0.052791321925605532 0 -0.050876123791686781 -0.0557005837010279 0 -0.062271996897588083 -0.052791321925605532 0 -0.05461803829180413 -0.069755112608578862 0 -0.068797467898171552 -0.064113028811232264 0 -0.062271996897588083 -0.052791321925605532 0 -0.05461803829180413 -0.069755112608578862 0 -0.050876123791686781 -0.0557005837010279 0 -0.04125611079489349 -0.061033813963863537 0 -0.05461803829180413 -0.069755112608578862 0 -0.050876123791686781 -0.0557005837010279 0 -0.056985608849081007 -0.04063467146634165 0 -0.043217803893324663 -0.046983348469378128 0 -0.050876123791686781 -0.0557005837010279 0 -0.062271996897588083 -0.052791321925605532 0 -0.056985608849081007 -0.04063467146634165 0 -0.066439508831189667 -0.02875513821822643 0 -0.056985608849081007 -0.04063467146634165 0 -0.056338296441182101 -0.027044179732367449 0 -0.056985608849081007 -0.04063467146634165 0 -0.048013312662868769 -0.034084565957593307 0 -0.056338296441182101 -0.027044179732367449 0 -0.056985608849081007 -0.04063467146634165 0 -0.048013312662868769 -0.034084565957593307 0 -0.043217803893324663 -0.046983348469378128 0 -0.034747022969916552 -0.036023397885302497 0 -0.03178279228815796 -0.053256275703554248 0 -0.043217803893324663 -0.046983348469378128 0 -0.048013312662868769 -0.034084565957593307 0 -0.034747022969916552 -0.036023397885302497 0 -0.043217803893324663 -0.046983348469378128 0 -0.03178279228815796 -0.053256275703554248 0 -0.04125611079489349 -0.061033813963863537 0 -0.027189616291661511 -0.068956488044421491 0 -0.03178279228815796 -0.053256275703554248 0 -0.04125611079489349 -0.061033813963863537 0 -0.043217803893324663 -0.046983348469378128 0 -0.050876123791686781 -0.0557005837010279 0 -0.04125611079489349 -0.061033813963863537 0 -0.043217803893324663 -0.046983348469378128 0 -0.068530762808199294 -0.019938962024248611 0 -0.059664616745900671 -0.0040500510012267867 0 -0.057625718948113309 -0.01560592069947127 0 -0.047617207273071643 -0.0035118018543059538 0 -0.059664616745900671 -0.0040500510012267867 0 -0.057625718948113309 -0.01560592069947127 0 -0.047617207273071643 -0.0035118018543059538 0 -0.057625718948113309 -0.01560592069947127 0 -0.044435943862541481 -0.018862463730406901 0 -0.057625718948113309 -0.01560592069947127 0 -0.056338296441182101 -0.027044179732367449 0 -0.044435943862541481 -0.018862463730406901 0 -0.068530762808199294 -0.019938962024248611 0 -0.057625718948113309 -0.01560592069947127 0 -0.056338296441182101 -0.027044179732367449 0 -0.048013312662868769 -0.034084565957593307 0 -0.056338296441182101 -0.027044179732367449 0 -0.044435943862541481 -0.018862463730406901 0 -0.048013312662868769 -0.034084565957593307 0 -0.034747022969916552 -0.036023397885302497 0 -0.044435943862541481 -0.018862463730406901 0 -0.034747022969916552 -0.036023397885302497 0 -0.044435943862541481 -0.018862463730406901 0 -0.029096019340949839 -0.020089153358083849 0 -0.044435943862541481 -0.018862463730406901 0 -0.037331614038931003 -0.0090830911405071785 0 -0.029096019340949839 -0.020089153358083849 0 -0.047617207273071643 -0.0035118018543059538 0 -0.044435943862541481 -0.018862463730406901 0 -0.037331614038931003 -0.0090830911405071785 0 -0.047617207273071643 -0.0035118018543059538 0 -0.044435943862541481 -0.018862463730406901 0 -0.037331614038931003 -0.0090830911405071785 0 -0.025670282478897081 -0.0054027298625421993 0 -0.03671052455766443 0.0037031618858211421 0 -0.047617207273071643 -0.0035118018543059538 0 -0.037331614038931003 -0.0090830911405071785 0 -0.03671052455766443 0.0037031618858211421 0 -0.025670282478897081 -0.0054027298625421993 0 -0.029096019340949839 -0.020089153358083849 0 -0.01201491237982177 -0.012697106039732861 0 -0.025670282478897081 -0.0054027298625421993 0 -0.01201491237982177 -0.012697106039732861 0 -0.010105069976996849 0.0023765649732562961 0 -0.037331614038931003 -0.0090830911405071785 0 -0.025670282478897081 -0.0054027298625421993 0 -0.029096019340949839 -0.020089153358083849 0 -0.034747022969916552 -0.036023397885302497 0 -0.029096019340949839 -0.020089153358083849 0 -0.01621539074153976 -0.030149579770640821 0 -0.029096019340949839 -0.020089153358083849 0 -0.01621539074153976 -0.030149579770640821 0 -0.01201491237982177 -0.012697106039732861 0 -0.01621539074153976 -0.030149579770640821 0 0.0026421611525163911 -0.019923693291100199 0 0.001114662024295677 -0.034644724797188199 0 -0.01621539074153976 -0.030149579770640821 0 -0.01201491237982177 -0.012697106039732861 0 0.0026421611525163911 -0.019923693291100199 0 -0.01201491237982177 -0.012697106039732861 0 0.0047038114401232534 -0.001040937293712483 0 0.0026421611525163911 -0.019923693291100199 0 -0.01201491237982177 -0.012697106039732861 0 -0.010105069976996849 0.0023765649732562961 0 0.0047038114401232534 -0.001040937293712483 0 -0.03178279228815796 -0.053256275703554248 0 -0.015718878272565229 -0.058792224196781109 0 -0.02130541942185268 -0.044498810144407437 0 -0.03178279228815796 -0.053256275703554248 0 -0.015718878272565229 -0.058792224196781109 0 -0.027189616291661511 -0.068956488044421491 0 -0.034747022969916552 -0.036023397885302497 0 -0.01621539074153976 -0.030149579770640821 0 -0.02130541942185268 -0.044498810144407437 0 -0.034747022969916552 -0.036023397885302497 0 -0.03178279228815796 -0.053256275703554248 0 -0.02130541942185268 -0.044498810144407437 0 -0.01621539074153976 -0.030149579770640821 0 -0.0092606153764647689 -0.044492254616565037 0 0.001114662024295677 -0.034644724797188199 0 -0.0092606153764647689 -0.044492254616565037 0 0.001114662024295677 -0.034644724797188199 0 0.003426744450576454 -0.054815297075420773 0 -0.01621539074153976 -0.030149579770640821 0 -0.02130541942185268 -0.044498810144407437 0 -0.0092606153764647689 -0.044492254616565037 0 -0.015718878272565229 -0.058792224196781109 0 -0.0092606153764647689 -0.044492254616565037 0 0.003426744450576454 -0.054815297075420773 0 -0.015718878272565229 -0.058792224196781109 0 -0.0072319765520409062 -0.068818796064575097 0 0.003426744450576454 -0.054815297075420773 0 -0.015718878272565229 -0.058792224196781109 0 -0.02130541942185268 -0.044498810144407437 0 -0.0092606153764647689 -0.044492254616565037 0 -0.0072319765520409062 -0.068818796064575097 0 -0.0056293594721457006 -0.082036805430144924 0 0.0054575408194632406 -0.073720759659108445 0 -0.0072319765520409062 -0.068818796064575097 0 -0.016531268938654212 -0.068489504758274394 0 -0.015984604638349179 -0.077390510727319894 0 -0.0072319765520409062 -0.068818796064575097 0 -0.0056293594721457006 -0.082036805430144924 0 -0.015984604638349179 -0.077390510727319894 0 -0.015718878272565229 -0.058792224196781109 0 -0.0072319765520409062 -0.068818796064575097 0 -0.016531268938654212 -0.068489504758274394 0 -0.0075898384642912086 -0.092772169897659226 0 -0.0056293594721457006 -0.082036805430144924 0 0.0072012692200917657 -0.09144049599341271 0 -0.0056293594721457006 -0.082036805430144924 0 -0.01562854721774792 -0.088078100238794171 0 -0.015984604638349179 -0.077390510727319894 0 -0.0075898384642912086 -0.092772169897659226 0 -0.0056293594721457006 -0.082036805430144924 0 -0.01562854721774792 -0.088078100238794171 0 -0.0075898384642912086 -0.092772169897659226 0 -0.01562854721774792 -0.088078100238794171 0 -0.015839401072447711 -0.097831294581907868 0 -0.01562854721774792 -0.088078100238794171 0 -0.02305577581672685 -0.083163458542690943 0 -0.024670005891415589 -0.092262667611894875 0 -0.01562854721774792 -0.088078100238794171 0 -0.024670005891415589 -0.092262667611894875 0 -0.015839401072447711 -0.097831294581907868 0 -0.01562854721774792 -0.088078100238794171 0 -0.02305577581672685 -0.083163458542690943 0 -0.015984604638349179 -0.077390510727319894 0 -0.02305577581672685 -0.083163458542690943 0 -0.024670005891415589 -0.092262667611894875 0 -0.031754510724464793 -0.081253108138323094 0 -0.024670005891415589 -0.092262667611894875 0 -0.031754510724464793 -0.081253108138323094 0 -0.03344051123233422 -0.092098432850847969 0 -0.015718878272565229 -0.058792224196781109 0 -0.016531268938654212 -0.068489504758274394 0 -0.027189616291661511 -0.068956488044421491 0 -0.016531268938654212 -0.068489504758274394 0 -0.015984604638349179 -0.077390510727319894 0 -0.027189616291661511 -0.068956488044421491 0 -0.02305577581672685 -0.083163458542690943 0 -0.015984604638349179 -0.077390510727319894 0 -0.027189616291661511 -0.068956488044421491 0 -0.02305577581672685 -0.083163458542690943 0 -0.027189616291661511 -0.068956488044421491 0 -0.031754510724464793 -0.081253108138323094 0 -0.04125611079489349 -0.061033813963863537 0 -0.027189616291661511 -0.068956488044421491 0 -0.04053175759116228 -0.071452392996033218 0 -0.04125611079489349 -0.061033813963863537 0 -0.04053175759116228 -0.071452392996033218 0 -0.05461803829180413 -0.069755112608578862 0 -0.04053175759116228 -0.071452392996033218 0 -0.04331800788480706 -0.080321541169751709 0 -0.05461803829180413 -0.069755112608578862 0 -0.027189616291661511 -0.068956488044421491 0 -0.04053175759116228 -0.071452392996033218 0 -0.031754510724464793 -0.081253108138323094 0 -0.04053175759116228 -0.071452392996033218 0 -0.031754510724464793 -0.081253108138323094 0 -0.04331800788480706 -0.080321541169751709 0 -0.031754510724464793 -0.081253108138323094 0 -0.037920360895102763 -0.086728863392239786 0 -0.04331800788480706 -0.080321541169751709 0 -0.031754510724464793 -0.081253108138323094 0 -0.03344051123233422 -0.092098432850847969 0 -0.037920360895102763 -0.086728863392239786 0 -0.03344051123233422 -0.092098432850847969 0 -0.037920360895102763 -0.086728863392239786 0 -0.039477100495342581 -0.093081883261144749 0 -0.043535591074226332 -0.088659540190963698 0 -0.052607434978589038 -0.084605160310905272 0 -0.044151246104392423 -0.095288874830203096 0 -0.039477100495342581 -0.093081883261144749 0 -0.043535591074226332 -0.088659540190963698 0 -0.044151246104392423 -0.095288874830203096 0 -0.037920360895102763 -0.086728863392239786 0 -0.039477100495342581 -0.093081883261144749 0 -0.043535591074226332 -0.088659540190963698 0 -0.043535591074226332 -0.088659540190963698 0 -0.044151246104392423 -0.095288874830203096 0 -0.037920360895102763 -0.086728863392239786 0 -0.043535591074226332 -0.088659540190963698 0 -0.04331800788480706 -0.080321541169751709 0 -0.043535591074226332 -0.088659540190963698 0 -0.04331800788480706 -0.080321541169751709 0 -0.052607434978589038 -0.084605160310905272 0 -0.04331800788480706 -0.080321541169751709 0 -0.052607434978589038 -0.084605160310905272 0 -0.05461803829180413 -0.069755112608578862 0 -0.070013937980536456 -0.090181036700446429 0 -0.057002573683865979 -0.089060817942991616 0 -0.04460455598339258 -0.10017008709341529 0 -0.052607434978589038 -0.084605160310905272 0 -0.044151246104392423 -0.095288874830203096 0 -0.052607434978589038 -0.084605160310905272 0 -0.057002573683865979 -0.089060817942991616 0 -0.044151246104392423 -0.095288874830203096 0 -0.064240921843242857 -0.078969573753286809 0 -0.065719917437320752 -0.085301382988547655 0 -0.057002573683865979 -0.089060817942991616 0 -0.064240921843242857 -0.078969573753286809 0 -0.052607434978589038 -0.084605160310905272 0 -0.057002573683865979 -0.089060817942991616 0 -0.064240921843242857 -0.078969573753286809 0 -0.052607434978589038 -0.084605160310905272 0 -0.05461803829180413 -0.069755112608578862 0 -0.064648045787775776 -0.1114736180136202 0 -0.054889055151619223 -0.1064960745062641 0 -0.046573596299020338 -0.1213725893565638 0 -0.064648045787775776 -0.1114736180136202 0 -0.060928146748241367 -0.123537549367131 0 -0.046573596299020338 -0.1213725893565638 0 -0.064167586873575405 -0.098824988458513688 0 -0.054889055151619223 -0.1064960745062641 0 -0.04460455598339258 -0.10017008709341529 0 -0.054889055151619223 -0.1064960745062641 0 -0.04460455598339258 -0.10017008709341529 0 -0.046573596299020338 -0.1213725893565638 0 -0.070013937980536456 -0.090181036700446429 0 -0.04460455598339258 -0.10017008709341529 0 -0.070013937980536456 -0.090181036700446429 0 -0.064167586873575405 -0.098824988458513688 0 -0.04460455598339258 -0.10017008709341529 0 -0.064167586873575405 -0.098824988458513688 0 -0.064648045787775776 -0.1114736180136202 0 -0.054889055151619223 -0.1064960745062641 0 -0.057002573683865979 -0.089060817942991616 0 -0.044151246104392423 -0.095288874830203096 0 -0.04460455598339258 -0.10017008709341529 0 -0.04460455598339258 -0.10017008709341529 0 -0.038337793170655582 -0.1026337050414691 0 -0.046573596299020338 -0.1213725893565638 0 -0.039477100495342581 -0.093081883261144749 0 -0.044151246104392423 -0.095288874830203096 0 -0.038337793170655582 -0.1026337050414691 0 -0.044151246104392423 -0.095288874830203096 0 -0.04460455598339258 -0.10017008709341529 0 -0.044151246104392423 -0.095288874830203096 0 -0.038337793170655582 -0.1026337050414691 0 -0.04460455598339258 -0.10017008709341529 0 -0.038337793170655582 -0.1026337050414691 0 -0.044151246104392423 -0.095288874830203096 0 -0.04460455598339258 -0.10017008709341529 0 -0.038337793170655582 -0.1026337050414691 0 -0.03344051123233422 -0.092098432850847969 0 -0.039477100495342581 -0.093081883261144749 0 -0.038337793170655582 -0.1026337050414691 0 -0.03344051123233422 -0.092098432850847969 0 -0.038337793170655582 -0.1026337050414691 0 -0.030143021990877521 -0.097413384547063803 0 -0.038337793170655582 -0.1026337050414691 0 -0.046573596299020338 -0.1213725893565638 0 -0.032898799107638058 -0.1301455039054305 0 -0.04460455598339258 -0.10017008709341529 0 -0.046573596299020338 -0.1213725893565638 0 -0.038337793170655582 -0.1026337050414691 0 -0.02075820173733281 -0.1248441049076035 0 -0.038337793170655582 -0.1026337050414691 0 -0.02075820173733281 -0.1248441049076035 0 -0.032898799107638058 -0.1301455039054305 0 -0.038337793170655582 -0.1026337050414691 0 -0.02075820173733281 -0.1248441049076035 0 -0.013304609286582791 -0.1124748627422944 0 -0.038337793170655582 -0.1026337050414691 0 -0.013304609286582791 -0.1124748627422944 0 -0.038337793170655582 -0.1026337050414691 0 -0.024123777669104458 -0.10265873268404301 0 -0.013304609286582791 -0.1124748627422944 0 -0.038337793170655582 -0.1026337050414691 0 -0.030143021990877521 -0.097413384547063803 0 -0.024123777669104458 -0.10265873268404301 0 -0.024670005891415589 -0.092262667611894875 0 -0.030143021990877521 -0.097413384547063803 0 -0.024123777669104458 -0.10265873268404301 0 -0.024670005891415589 -0.092262667611894875 0 -0.03344051123233422 -0.092098432850847969 0 -0.030143021990877521 -0.097413384547063803 0 -0.024123777669104458 -0.10265873268404301 0 -0.015994782990863529 -0.1079378035875192 0 -0.013304609286582791 -0.1124748627422944 0 -0.024123777669104458 -0.10265873268404301 0 -0.015994782990863529 -0.1079378035875192 0 -0.015839401072447711 -0.097831294581907868 0 -0.024670005891415589 -0.092262667611894875 0 -0.024123777669104458 -0.10265873268404301 0 -0.015839401072447711 -0.097831294581907868 0 -0.0070294542012635762 -0.10327829347153671 0 -0.013304609286582791 -0.1124748627422944 0 0.0046245275045138064 -0.1076828264142336 0 -0.0075898384642912086 -0.092772169897659226 0 -0.015839401072447711 -0.097831294581907868 0 -0.0070294542012635762 -0.10327829347153671 0 -0.015994782990863529 -0.1079378035875192 0 -0.015839401072447711 -0.097831294581907868 0 -0.0070294542012635762 -0.10327829347153671 0 -0.015994782990863529 -0.1079378035875192 0 -0.0070294542012635762 -0.10327829347153671 0 -0.013304609286582791 -0.1124748627422944 0 -0.0075898384642912086 -0.092772169897659226 0 -0.0070294542012635762 -0.10327829347153671 0 0.0072012692200917657 -0.09144049599341271 0 -0.02075820173733281 -0.1248441049076035 0 -0.013304609286582791 -0.1124748627422944 0 -0.00221818493688669 -0.13117245205018849 0 -0.013304609286582791 -0.1124748627422944 0 -0.00221818493688669 -0.13117245205018849 0 0.014197789575412951 -0.12328672932727321 0 -0.013304609286582791 -0.1124748627422944 0 -0.00221818493688669 -0.13117245205018849 0 -0.015994782990863529 -0.1079378035875192 0 -0.013304609286582791 -0.1124748627422944 0 -0.02075820173733281 -0.1248441049076035 0 -0.0137133242766358 -0.14598078836242959 0 -0.0031786103040098569 -0.14705450477373769 0 -0.02075820173733281 -0.1248441049076035 0 -0.0031786103040098569 -0.14705450477373769 0 -0.02075820173733281 -0.1248441049076035 0 -0.00221818493688669 -0.13117245205018849 0 -0.0031786103040098569 -0.14705450477373769 0 -0.02075820173733281 -0.1248441049076035 0 -0.02657462786173766 -0.13400490724319661 0 -0.021326083532184278 -0.14069250208886769 0 -0.02075820173733281 -0.1248441049076035 0 -0.021326083532184278 -0.14069250208886769 0 -0.0137133242766358 -0.14598078836242959 0 -0.02657462786173766 -0.13400490724319661 0 -0.032898799107638058 -0.1301455039054305 0 -0.031315427069795509 -0.14033751807088471 0 -0.02657462786173766 -0.13400490724319661 0 -0.021326083532184278 -0.14069250208886769 0 -0.031315427069795509 -0.14033751807088471 0 -0.02075820173733281 -0.1248441049076035 0 -0.02657462786173766 -0.13400490724319661 0 -0.032898799107638058 -0.1301455039054305 0 -0.026655807174363451 -0.14845120392719069 0 -0.02210874630731275 -0.1561964137015745 0 -0.031495029160766817 -0.15509855920566379 0 -0.026655807174363451 -0.14845120392719069 0 -0.03449156258747036 -0.148917707105098 0 -0.031495029160766817 -0.15509855920566379 0 -0.026655807174363451 -0.14845120392719069 0 -0.021326083532184278 -0.14069250208886769 0 -0.031315427069795509 -0.14033751807088471 0 -0.026655807174363451 -0.14845120392719069 0 -0.031315427069795509 -0.14033751807088471 0 -0.03449156258747036 -0.148917707105098 0 -0.021326083532184278 -0.14069250208886769 0 -0.019449426413567759 -0.15004718796545319 0 -0.0137133242766358 -0.14598078836242959 0 -0.026655807174363451 -0.14845120392719069 0 -0.021326083532184278 -0.14069250208886769 0 -0.019449426413567759 -0.15004718796545319 0 -0.019449426413567759 -0.15004718796545319 0 -0.01542317820397726 -0.15505006264073101 0 -0.0137133242766358 -0.14598078836242959 0 -0.026655807174363451 -0.14845120392719069 0 -0.019449426413567759 -0.15004718796545319 0 -0.02210874630731275 -0.1561964137015745 0 -0.019449426413567759 -0.15004718796545319 0 -0.02210874630731275 -0.1561964137015745 0 -0.01542317820397726 -0.15505006264073101 0 -0.0137133242766358 -0.14598078836242959 0 -0.0031786103040098569 -0.14705450477373769 0 -0.0072073677341612146 -0.1544888065361133 0 -0.01542317820397726 -0.15505006264073101 0 -0.0137133242766358 -0.14598078836242959 0 -0.0072073677341612146 -0.1544888065361133 0 -0.0031786103040098569 -0.14705450477373769 0 -0.0072073677341612146 -0.1544888065361133 0 -0.0025999653858941639 -0.16131422913783491 0 -0.01542317820397726 -0.15505006264073101 0 -0.0084927016390539001 -0.17431231470194719 0 -0.01542317820397726 -0.15505006264073101 0 -0.0025999653858941639 -0.16131422913783491 0 -0.0084927016390539001 -0.17431231470194719 0 -0.01542317820397726 -0.15505006264073101 0 -0.0084927016390539001 -0.17431231470194719 0 -0.018600123305710169 -0.16452936741983731 0 -0.0025999653858941639 -0.16131422913783491 0 -0.0084927016390539001 -0.17431231470194719 0 0.0067086063528142403 -0.16809244781376179 0 -0.0084927016390539001 -0.17431231470194719 0 -0.019446339186483811 -0.17229591455881449 0 -0.018600123305710169 -0.16452936741983731 0 -0.01542317820397726 -0.15505006264073101 0 -0.0072073677341612146 -0.1544888065361133 0 -0.0025999653858941639 -0.16131422913783491 0 -0.0084927016390539001 -0.17431231470194719 0 -0.0015622250741301779 -0.1935745667631632 0 -0.01452589755716127 -0.18854972137590889 0 -0.0084927016390539001 -0.17431231470194719 0 -0.0015622250741301779 -0.1935745667631632 0 -0.0084927016390539001 -0.17431231470194719 0 -0.0015622250741301779 -0.1935745667631632 0 0.0091962193441852118 -0.18107109871456811 0 -0.0084927016390539001 -0.17431231470194719 0 -0.019789997202817391 -0.17944929683230451 0 -0.01452589755716127 -0.18854972137590889 0 -0.019789997202817391 -0.17944929683230451 0 -0.01452589755716127 -0.18854972137590889 0 -0.02459459850908961 -0.18853055632871979 0 -0.0084927016390539001 -0.17431231470194719 0 -0.019789997202817391 -0.17944929683230451 0 -0.019446339186483811 -0.17229591455881449 0 -0.019789997202817391 -0.17944929683230451 0 -0.019446339186483811 -0.17229591455881449 0 -0.025875972540285681 -0.17494695229964419 0 -0.019789997202817391 -0.17944929683230451 0 -0.025875972540285681 -0.17494695229964419 0 -0.028761852805915141 -0.18157091371807699 0 -0.025875972540285681 -0.17494695229964419 0 -0.032240004386850082 -0.17024588421870079 0 -0.032480769472988377 -0.1765838753595764 0 -0.025875972540285681 -0.17494695229964419 0 -0.028761852805915141 -0.18157091371807699 0 -0.032480769472988377 -0.1765838753595764 0 -0.028761852805915141 -0.18157091371807699 0 -0.032920373861235572 -0.18696580359983689 0 -0.02459459850908961 -0.18853055632871979 0 -0.019789997202817391 -0.17944929683230451 0 -0.028761852805915141 -0.18157091371807699 0 -0.02459459850908961 -0.18853055632871979 0 -0.02210874630731275 -0.1561964137015745 0 -0.02334206205745518 -0.16321350683772101 0 -0.018600123305710169 -0.16452936741983731 0 -0.02210874630731275 -0.1561964137015745 0 -0.01542317820397726 -0.15505006264073101 0 -0.018600123305710169 -0.16452936741983731 0 -0.019446339186483811 -0.17229591455881449 0 -0.018600123305710169 -0.16452936741983731 0 -0.024472901244551901 -0.1682416415403396 0 -0.019446339186483811 -0.17229591455881449 0 -0.025875972540285681 -0.17494695229964419 0 -0.024472901244551901 -0.1682416415403396 0 -0.02334206205745518 -0.16321350683772101 0 -0.018600123305710169 -0.16452936741983731 0 -0.024472901244551901 -0.1682416415403396 0 -0.02334206205745518 -0.16321350683772101 0 -0.024472901244551901 -0.1682416415403396 0 -0.028186477372245909 -0.16388660468913291 0 -0.025875972540285681 -0.17494695229964419 0 -0.024472901244551901 -0.1682416415403396 0 -0.032240004386850082 -0.17024588421870079 0 -0.024472901244551901 -0.1682416415403396 0 -0.028186477372245909 -0.16388660468913291 0 -0.032240004386850082 -0.17024588421870079 0 -0.02210874630731275 -0.1561964137015745 0 -0.036601677587355427 -0.1631254910080501 0 -0.02210874630731275 -0.1561964137015745 0 -0.028186477372245909 -0.16388660468913291 0 -0.036601677587355427 -0.1631254910080501 0 -0.02210874630731275 -0.1561964137015745 0 -0.036601677587355427 -0.1631254910080501 0 -0.031495029160766817 -0.15509855920566379 0 -0.02210874630731275 -0.1561964137015745 0 -0.02334206205745518 -0.16321350683772101 0 -0.028186477372245909 -0.16388660468913291 0 -0.036601677587355427 -0.1631254910080501 0 -0.031495029160766817 -0.15509855920566379 0 -0.03757233301838208 -0.1561293615731485 0 -0.036601677587355427 -0.1631254910080501 0 -0.042683024331232992 -0.16071659108817879 0 -0.03757233301838208 -0.1561293615731485 0 -0.036601677587355427 -0.1631254910080501 0 -0.032240004386850082 -0.17024588421870079 0 -0.040990311010288182 -0.1707810542940659 0 -0.028186477372245909 -0.16388660468913291 0 -0.036601677587355427 -0.1631254910080501 0 -0.032240004386850082 -0.17024588421870079 0 -0.036601677587355427 -0.1631254910080501 0 -0.040990311010288182 -0.1707810542940659 0 -0.051094608867397598 -0.17005456831452659 0 -0.036601677587355427 -0.1631254910080501 0 -0.042683024331232992 -0.16071659108817879 0 -0.051094608867397598 -0.17005456831452659 0 -0.036601677587355427 -0.1631254910080501 0 -0.051094608867397598 -0.17005456831452659 0 -0.042683024331232992 -0.16071659108817879 0 -0.03757233301838208 -0.1561293615731485 0 -0.042590371425084809 -0.152788459458752 0 -0.042683024331232992 -0.16071659108817879 0 -0.049852416986034973 -0.1566787242717059 0 -0.042590371425084809 -0.152788459458752 0 -0.042683024331232992 -0.16071659108817879 0 -0.049852416986034973 -0.1566787242717059 0 -0.032920373861235572 -0.18696580359983689 0 -0.035662893679222471 -0.1808176818492459 0 -0.039648887306358682 -0.18457447877016059 0 -0.028761852805915141 -0.18157091371807699 0 -0.032920373861235572 -0.18696580359983689 0 -0.035662893679222471 -0.1808176818492459 0 -0.032240004386850082 -0.17024588421870079 0 -0.040990311010288182 -0.1707810542940659 0 -0.038331319031698619 -0.1753090981098179 0 -0.035662893679222471 -0.1808176818492459 0 -0.038331319031698619 -0.1753090981098179 0 -0.042134054383572032 -0.1794085226548284 0 -0.035662893679222471 -0.1808176818492459 0 -0.032480769472988377 -0.1765838753595764 0 -0.038331319031698619 -0.1753090981098179 0 -0.028761852805915141 -0.18157091371807699 0 -0.035662893679222471 -0.1808176818492459 0 -0.032480769472988377 -0.1765838753595764 0 -0.032240004386850082 -0.17024588421870079 0 -0.032480769472988377 -0.1765838753595764 0 -0.038331319031698619 -0.1753090981098179 0 -0.040990311010288182 -0.1707810542940659 0 -0.045496547127059937 -0.17528527585558801 0 -0.051094608867397598 -0.17005456831452659 0 -0.040990311010288182 -0.1707810542940659 0 -0.038331319031698619 -0.1753090981098179 0 -0.045496547127059937 -0.17528527585558801 0 -0.045496547127059937 -0.17528527585558801 0 -0.042134054383572032 -0.1794085226548284 0 -0.049232931697160941 -0.18142535687920061 0 -0.038331319031698619 -0.1753090981098179 0 -0.045496547127059937 -0.17528527585558801 0 -0.042134054383572032 -0.1794085226548284 0 -0.042134054383572032 -0.1794085226548284 0 -0.039648887306358682 -0.18457447877016059 0 -0.049232931697160941 -0.18142535687920061 0 -0.039648887306358682 -0.18457447877016059 0 -0.049232931697160941 -0.18142535687920061 0 -0.037513132105194948 -0.19164621715467339 0 -0.035662893679222471 -0.1808176818492459 0 -0.042134054383572032 -0.1794085226548284 0 -0.039648887306358682 -0.18457447877016059 0 -0.052530262953744307 -0.18551360121156771 0 -0.064566778430722005 -0.1899668467895553 0 -0.070259181001566293 -0.17921715932508539 0 -0.052530262953744307 -0.18551360121156771 0 -0.051094608867397598 -0.17005456831452659 0 -0.070259181001566293 -0.17921715932508539 0 -0.051094608867397598 -0.17005456831452659 0 -0.070259181001566293 -0.17921715932508539 0 -0.052530262953744307 -0.18551360121156771 0 -0.049232931697160941 -0.18142535687920061 0 -0.051094608867397598 -0.17005456831452659 0 -0.052530262953744307 -0.18551360121156771 0 -0.051094608867397598 -0.17005456831452659 0 -0.045496547127059937 -0.17528527585558801 0 -0.049232931697160941 -0.18142535687920061 0 -0.051094608867397598 -0.17005456831452659 0 -0.051094608867397598 -0.17005456831452659 0 -0.061817946007188637 -0.1647032604190713 0 -0.070259181001566293 -0.17921715932508539 0 -0.049852416986034973 -0.1566787242717059 0 -0.051094608867397598 -0.17005456831452659 0 -0.061817946007188637 -0.1647032604190713 0 -0.042683024331232992 -0.16071659108817879 0 -0.049852416986034973 -0.1566787242717059 0 -0.051094608867397598 -0.17005456831452659 0 -0.049852416986034973 -0.1566787242717059 0 -0.051094608867397598 -0.17005456831452659 0 -0.049852416986034973 -0.1566787242717059 0 -0.061817946007188637 -0.1647032604190713 0 -0.059473492795946999 -0.1512600473178678 0 -0.049852416986034973 -0.1566787242717059 0 -0.059473492795946999 -0.1512600473178678 0 -0.049852416986034973 -0.1566787242717059 0 -0.048542636614648908 -0.14257509161971199 0 -0.042590371425084809 -0.152788459458752 0 -0.049852416986034973 -0.1566787242717059 0 -0.059473492795946999 -0.1512600473178678 0 -0.048542636614648908 -0.14257509161971199 0 -0.049852416986034973 -0.1566787242717059 0 -0.048542636614648908 -0.14257509161971199 0 -0.059473492795946999 -0.1512600473178678 0 -0.048542636614648908 -0.14257509161971199 0 -0.059473492795946999 -0.1512600473178678 0 -0.048542636614648908 -0.14257509161971199 0 -0.061100100412547438 -0.13647315015658409 0 -0.046573596299020338 -0.1213725893565638 0 -0.048542636614648908 -0.14257509161971199 0 -0.061100100412547438 -0.13647315015658409 0 -0.046573596299020338 -0.1213725893565638 0 -0.048542636614648908 -0.14257509161971199 0 -0.060928146748241367 -0.123537549367131 0 -0.046573596299020338 -0.1213725893565638 0 -0.061100100412547438 -0.13647315015658409 0 -0.046573596299020338 -0.1213725893565638 0 -0.048542636614648908 -0.14257509161971199 0 -0.032898799107638058 -0.1301455039054305 0 -0.048542636614648908 -0.14257509161971199 0 -0.032898799107638058 -0.1301455039054305 0 -0.031315427069795509 -0.14033751807088471 0 -0.048542636614648908 -0.14257509161971199 0 -0.032898799107638058 -0.1301455039054305 0 -0.048542636614648908 -0.14257509161971199 0 -0.031315427069795509 -0.14033751807088471 0 -0.03449156258747036 -0.148917707105098 0 -0.03449156258747036 -0.148917707105098 0 -0.03757233301838208 -0.1561293615731485 0 -0.042590371425084809 -0.152788459458752 0 -0.03449156258747036 -0.148917707105098 0 -0.031495029160766817 -0.15509855920566379 0 -0.03757233301838208 -0.1561293615731485 0 -0.048542636614648908 -0.14257509161971199 0 -0.03449156258747036 -0.148917707105098 0 -0.042590371425084809 -0.152788459458752 0 -0.030801127425925001 -0.25680016795848581 0 -0.026871719323301121 -0.24650256912316601 0 -0.018733547469201091 -0.24349008461987329 0 -0.032940321160402269 -0.25029644079438251 0 -0.026871719323301121 -0.24650256912316601 0 -0.030857658388656541 -0.2362056796655021 0 -0.032940321160402269 -0.25029644079438251 0 -0.026871719323301121 -0.24650256912316601 0 -0.026871719323301121 -0.24650256912316601 0 -0.030857658388656541 -0.2362056796655021 0 -0.018733547469201091 -0.24349008461987329 0 -0.018733547469201091 -0.24349008461987329 0 0.0010854142569982001 -0.23807309260292489 0 0.0025328853753160741 -0.24958102673793139 0 -0.018733547469201091 -0.24349008461987329 0 -0.0061584899570064598 -0.22962027277065361 0 0.0010854142569982001 -0.23807309260292489 0 -0.018733547469201091 -0.24349008461987329 0 -0.0061584899570064598 -0.22962027277065361 0 -0.018733547469201091 -0.24349008461987329 0 -0.0061584899570064598 -0.22962027277065361 0 -0.014959502272226489 -0.22084886391346231 0 -0.0061584899570064598 -0.22962027277065361 0 -0.0054289760133702037 -0.21457987404047249 0 0.0064165675551885711 -0.21575046092143421 0 -0.0061584899570064598 -0.22962027277065361 0 -0.014959502272226489 -0.22084886391346231 0 -0.0054289760133702037 -0.21457987404047249 0 -0.018733547469201091 -0.24349008461987329 0 -0.02919644603132129 -0.2221986071991269 0 -0.02714058579554627 -0.22330174697438809 0 -0.018733547469201091 -0.24349008461987329 0 -0.02919644603132129 -0.2221986071991269 0 -0.018733547469201091 -0.24349008461987329 0 -0.014959502272226489 -0.22084886391346231 0 -0.02714058579554627 -0.22330174697438809 0 -0.030857658388656541 -0.2362056796655021 0 -0.018733547469201091 -0.24349008461987329 0 -0.02919644603132129 -0.2221986071991269 0 -0.02919644603132129 -0.2221986071991269 0 -0.02714058579554627 -0.22330174697438809 0 -0.023298310508535151 -0.21367384618425 0 -0.02883797433537726 -0.20835292232393379 0 -0.020914866328615171 -0.2008213059726579 0 -0.039659344593441261 -0.20090712977838049 0 -0.02919644603132129 -0.2221986071991269 0 -0.02883797433537726 -0.20835292232393379 0 -0.023298310508535151 -0.21367384618425 0 -0.02883797433537726 -0.20835292232393379 0 -0.023298310508535151 -0.21367384618425 0 -0.020914866328615171 -0.2008213059726579 0 -0.023298310508535151 -0.21367384618425 0 -0.014351405434837939 -0.2084381568687759 0 -0.020914866328615171 -0.2008213059726579 0 -0.02714058579554627 -0.22330174697438809 0 -0.014351405434837939 -0.2084381568687759 0 -0.014959502272226489 -0.22084886391346231 0 -0.02714058579554627 -0.22330174697438809 0 -0.014351405434837939 -0.2084381568687759 0 -0.02714058579554627 -0.22330174697438809 0 -0.023298310508535151 -0.21367384618425 0 -0.014351405434837939 -0.2084381568687759 0 -0.014959502272226489 -0.22084886391346231 0 -0.0054289760133702037 -0.21457987404047249 0 -0.014351405434837939 -0.2084381568687759 0 -0.0054289760133702037 -0.21457987404047249 0 -0.014351405434837939 -0.2084381568687759 0 -0.0015622250741301779 -0.1935745667631632 0 -0.0054289760133702037 -0.21457987404047249 0 -0.0015622250741301779 -0.1935745667631632 0 0.0064165675551885711 -0.21575046092143421 0 -0.014351405434837939 -0.2084381568687759 0 -0.0015622250741301779 -0.1935745667631632 0 -0.014351405434837939 -0.2084381568687759 0 -0.01223217889679739 -0.19705511845509929 0 -0.0015622250741301779 -0.1935745667631632 0 -0.01223217889679739 -0.19705511845509929 0 -0.0015622250741301779 -0.1935745667631632 0 -0.01452589755716127 -0.18854972137590889 0 -0.020914866328615171 -0.2008213059726579 0 -0.039659344593441261 -0.20090712977838049 0 -0.01452589755716127 -0.18854972137590889 0 -0.020914866328615171 -0.2008213059726579 0 -0.02459459850908961 -0.18853055632871979 0 -0.020914866328615171 -0.2008213059726579 0 -0.030654603298793132 -0.19382629647353339 0 -0.039659344593441261 -0.20090712977838049 0 -0.014351405434837939 -0.2084381568687759 0 -0.01223217889679739 -0.19705511845509929 0 -0.020914866328615171 -0.2008213059726579 0 -0.01223217889679739 -0.19705511845509929 0 -0.01452589755716127 -0.18854972137590889 0 -0.020914866328615171 -0.2008213059726579 0 -0.020914866328615171 -0.2008213059726579 0 -0.030654603298793132 -0.19382629647353339 0 -0.02459459850908961 -0.18853055632871979 0 -0.032920373861235572 -0.18696580359983689 0 -0.030654603298793132 -0.19382629647353339 0 -0.02459459850908961 -0.18853055632871979 0 -0.049232931697160941 -0.18142535687920061 0 -0.037513132105194948 -0.19164621715467339 0 -0.039659344593441261 -0.20090712977838049 0 -0.049232931697160941 -0.18142535687920061 0 -0.039659344593441261 -0.20090712977838049 0 -0.032920373861235572 -0.18696580359983689 0 -0.039648887306358682 -0.18457447877016059 0 -0.037513132105194948 -0.19164621715467339 0 -0.032920373861235572 -0.18696580359983689 0 -0.030654603298793132 -0.19382629647353339 0 -0.037513132105194948 -0.19164621715467339 0 -0.030654603298793132 -0.19382629647353339 0 -0.037513132105194948 -0.19164621715467339 0 -0.039659344593441261 -0.20090712977838049 0 -0.039659344593441261 -0.20090712977838049 0 -0.049171036143441697 -0.20095068018059209 0 -0.052530262953744307 -0.18551360121156771 0 -0.053965917040092279 -0.20097263410860849 0 -0.052530262953744307 -0.18551360121156771 0 -0.049232931697160941 -0.18142535687920061 0 -0.039659344593441261 -0.20090712977838049 0 -0.052530262953744307 -0.18551360121156771 0 -0.053965917040092279 -0.20097263410860849 0 -0.064566778430722005 -0.1899668467895553 0 -0.052530262953744307 -0.18551360121156771 0 -0.039659344593441261 -0.20090712977838049 0 -0.049171036143441697 -0.20095068018059209 0 -0.053965917040092279 -0.20097263410860849 0 -0.049171036143441697 -0.20095068018059209 0 -0.052530262953744307 -0.18551360121156771 0 -0.053965917040092279 -0.20097263410860849 0 -0.049171036143441697 -0.20095068018059209 0 -0.049171036143441697 -0.20095068018059209 0 -0.054685660498906767 -0.208722786400212 0 -0.041055678651922348 -0.2256235604874875 0 -0.053965917040092279 -0.20097263410860849 0 -0.054685660498906767 -0.208722786400212 0 -0.075274492420391248 -0.20107019793555661 0 -0.054685660498906767 -0.208722786400212 0 -0.058782723788501128 -0.22597342721149569 0 -0.066300796797188796 -0.21509277327032089 0 -0.053965917040092279 -0.20097263410860849 0 -0.049171036143441697 -0.20095068018059209 0 -0.054685660498906767 -0.208722786400212 0 -0.053965917040092279 -0.20097263410860849 0 -0.054685660498906767 -0.208722786400212 0 -0.049171036143441697 -0.20095068018059209 0 -0.041055678651922348 -0.2256235604874875 0 -0.02919644603132129 -0.2221986071991269 0 -0.039659344593441261 -0.20090712977838049 0 -0.02919644603132129 -0.2221986071991269 0 -0.02883797433537726 -0.20835292232393379 0 -0.039659344593441261 -0.20090712977838049 0 -0.039659344593441261 -0.20090712977838049 0 -0.049171036143441697 -0.20095068018059209 0 -0.041055678651922348 -0.2256235604874875 0 -0.02919644603132129 -0.2221986071991269 0 -0.039659344593441261 -0.20090712977838049 0 -0.041055678651922348 -0.2256235604874875 0 -0.030857658388656541 -0.2362056796655021 0 -0.02919644603132129 -0.2221986071991269 0 -0.041055678651922348 -0.2256235604874875 0 -0.041055678651922348 -0.2256235604874875 0 -0.058782723788501128 -0.22597342721149569 0 -0.050902643065861071 -0.24349095896983161 0 -0.054685660498906767 -0.208722786400212 0 -0.041055678651922348 -0.2256235604874875 0 -0.058782723788501128 -0.22597342721149569 0 -0.058782723788501128 -0.22597342721149569 0 -0.050902643065861071 -0.24349095896983161 0 -0.077646128541525 -0.24813916513248199 0 -0.032940321160402269 -0.25029644079438251 0 -0.041055678651922348 -0.2256235604874875 0 -0.050902643065861071 -0.24349095896983161 0 -0.032940321160402269 -0.25029644079438251 0 -0.030857658388656541 -0.2362056796655021 0 -0.041055678651922348 -0.2256235604874875 0 -0.032940321160402269 -0.25029644079438251 0 -0.041055678651922348 -0.2256235604874875 0 -0.077646128541525 -0.24813916513248199 0 -0.082279147983734507 -0.22463132376819159 0 -0.088104632666654803 -0.24175912157342011 0 -0.077646128541525 -0.24813916513248199 0 -0.082279147983734507 -0.22463132376819159 0 -0.077646128541525 -0.24813916513248199 0 -0.076460310480956056 -0.22460468153401941 0 -0.058782723788501128 -0.22597342721149569 0 -0.077646128541525 -0.24813916513248199 0 -0.076460310480956056 -0.22460468153401941 0 -0.058782723788501128 -0.22597342721149569 0 -0.076460310480956056 -0.22460468153401941 0 -0.066300796797188796 -0.21509277327032089 0 -0.077646128541525 -0.24813916513248199 0 -0.076460310480956056 -0.22460468153401941 0 -0.082279147983734507 -0.22463132376819159 0 -0.088104632666654803 -0.24175912157342011 0 -0.091210523848666042 -0.22145825259936749 0 -0.096373561920523113 -0.2318247108995648 0 -0.088104632666654803 -0.24175912157342011 0 -0.082279147983734507 -0.22463132376819159 0 -0.091210523848666042 -0.22145825259936749 0 -0.088104632666654803 -0.24175912157342011 0 -0.091210523848666042 -0.22145825259936749 0 -0.082279147983734507 -0.22463132376819159 0 -0.075274492420391248 -0.20107019793555661 0 -0.086912167425944153 -0.20112348240390099 0 -0.082279147983734507 -0.22463132376819159 0 -0.091210523848666042 -0.22145825259936749 0 -0.086912167425944153 -0.20112348240390099 0 -0.091210523848666042 -0.22145825259936749 0 -0.094316415030678002 -0.20115738362531499 0 -0.091210523848666042 -0.22145825259936749 0 -0.086912167425944153 -0.20112348240390099 0 -0.094316415030678002 -0.20115738362531499 0 -0.082279147983734507 -0.22463132376819159 0 -0.086912167425944153 -0.20112348240390099 0 -0.076460310480956056 -0.22460468153401941 0 -0.066300796797188796 -0.21509277327032089 0 -0.075274492420391248 -0.20107019793555661 0 -0.054685660498906767 -0.208722786400212 0 -0.066300796797188796 -0.21509277327032089 0 -0.075274492420391248 -0.20107019793555661 0 -0.076460310480956056 -0.22460468153401941 0 -0.082279147983734507 -0.22463132376819159 0 -0.075274492420391248 -0.20107019793555661 0 -0.076460310480956056 -0.22460468153401941 0 -0.075274492420391248 -0.20107019793555661 0 -0.053965917040092279 -0.20097263410860849 0 -0.075274492420391248 -0.20107019793555661 0 -0.070100108945259781 -0.19629415080948229 0 -0.053965917040092279 -0.20097263410860849 0 -0.070100108945259781 -0.19629415080948229 0 -0.064566778430722005 -0.1899668467895553 0 -0.053965917040092279 -0.20097263410860849 0 -0.075274492420391248 -0.20107019793555661 0 -0.075274492420391248 -0.20107019793555661 0 -0.075113373652805612 -0.19571605274700751 0 -0.079733979793737045 -0.19605477611637959 0 -0.075274492420391248 -0.20107019793555661 0 -0.075113373652805612 -0.19571605274700751 0 -0.070100108945259781 -0.19629415080948229 0 -0.070100108945259781 -0.19629415080948229 0 -0.064566778430722005 -0.1899668467895553 0 -0.075377056328755521 -0.19008301367616509 0 -0.075113373652805612 -0.19571605274700751 0 -0.070100108945259781 -0.19629415080948229 0 -0.075377056328755521 -0.19008301367616509 0 -0.075113373652805612 -0.19571605274700751 0 -0.075377056328755521 -0.19008301367616509 0 -0.079733979793737045 -0.19605477611637959 0 -0.075377056328755521 -0.19008301367616509 0 -0.079733979793737045 -0.19605477611637959 0 -0.089423753135733974 -0.18837975033564619 0 -0.079733979793737045 -0.19605477611637959 0 -0.086912167425944153 -0.20112348240390099 0 -0.089423753135733974 -0.18837975033564619 0 -0.075274492420391248 -0.20107019793555661 0 -0.086912167425944153 -0.20112348240390099 0 -0.075274492420391248 -0.20107019793555661 0 -0.079733979793737045 -0.19605477611637959 0 -0.086912167425944153 -0.20112348240390099 0 -0.086912167425944153 -0.20112348240390099 0 -0.095804572093432044 -0.1914304229002349 0 -0.094316415030678002 -0.20115738362531499 0 -0.086912167425944153 -0.20112348240390099 0 -0.094316415030678002 -0.20115738362531499 0 -0.086912167425944153 -0.20112348240390099 0 -0.089423753135733974 -0.18837975033564619 0 -0.086912167425944153 -0.20112348240390099 0 -0.089423753135733974 -0.18837975033564619 0 -0.095804572093432044 -0.1914304229002349 0 -0.089423753135733974 -0.18837975033564619 0 -0.095804572093432044 -0.1914304229002349 0 -0.090500110278716836 -0.18291833725845449 0 -0.089423753135733974 -0.18837975033564619 0 -0.095804572093432044 -0.1914304229002349 0 -0.095804572093432044 -0.1914304229002349 0 -0.1055884512206339 -0.19610810014299959 0 -0.099028938128851704 -0.1826882615985625 0 -0.095804572093432044 -0.1914304229002349 0 -0.1055884512206339 -0.19610810014299959 0 -0.095804572093432044 -0.1914304229002349 0 -0.099726318276372988 -0.19712665769699661 0 -0.1055884512206339 -0.19610810014299959 0 -0.094316415030678002 -0.20115738362531499 0 -0.099726318276372988 -0.19712665769699661 0 -0.1069539478940484 -0.20121524606085259 0 -0.095804572093432044 -0.1914304229002349 0 -0.094316415030678002 -0.20115738362531499 0 -0.095804572093432044 -0.1914304229002349 0 -0.094316415030678002 -0.20115738362531499 0 -0.099726318276372988 -0.19712665769699661 0 -0.094316415030678002 -0.20115738362531499 0 -0.1069539478940484 -0.20121524606085259 0 -0.1006154135170836 -0.20550376286944089 0 -0.094316415030678002 -0.20115738362531499 0 -0.1069539478940484 -0.20121524606085259 0 -0.099726318276372988 -0.19712665769699661 0 -0.1069539478940484 -0.20121524606085259 0 -0.1055884512206339 -0.19610810014299959 0 -0.1069539478940484 -0.20121524606085259 0 -0.1055884512206339 -0.19610810014299959 0 -0.1143022105317214 -0.19176920984990589 0 -0.1234142843990034 -0.20129061165398179 0 -0.118443644943155 -0.18313735869921541 0 -0.1234142843990034 -0.20129061165398179 0 -0.118443644943155 -0.18313735869921541 0 -0.12836978379805469 -0.19505845874684749 0 -0.1055884512206339 -0.19610810014299959 0 -0.1143022105317214 -0.19176920984990589 0 -0.1095912747331507 -0.1796343382558257 0 -0.1234142843990034 -0.20129061165398179 0 -0.118443644943155 -0.18313735869921541 0 -0.1234142843990034 -0.20129061165398179 0 -0.11636069704563699 -0.20125831597190941 0 -0.12446659453658469 -0.2051337493999616 0 -0.1143022105317214 -0.19176920984990589 0 -0.1234142843990034 -0.20129061165398179 0 -0.11636069704563699 -0.20125831597190941 0 -0.1234142843990034 -0.20129061165398179 0 -0.11636069704563699 -0.20125831597190941 0 -0.1055884512206339 -0.19610810014299959 0 -0.1143022105317214 -0.19176920984990589 0 -0.11636069704563699 -0.20125831597190941 0 -0.1055884512206339 -0.19610810014299959 0 -0.11636069704563699 -0.20125831597190941 0 -0.1069539478940484 -0.20121524606085259 0 -0.11636069704563699 -0.20125831597190941 0 -0.116503442890511 -0.20615462214379501 0 -0.1069539478940484 -0.20121524606085259 0 -0.1055884512206339 -0.19610810014299959 0 -0.11636069704563699 -0.20125831597190941 0 -0.1069539478940484 -0.20121524606085259 0 -0.11636069704563699 -0.20125831597190941 0 -0.1069539478940484 -0.20121524606085259 0 -0.1182325320857732 -0.21701117714245771 0 -0.1146322195844853 -0.229933041338924 0 -0.1069539478940484 -0.20121524606085259 0 -0.1146322195844853 -0.229933041338924 0 -0.12446659453658469 -0.2051337493999616 0 -0.1182325320857732 -0.21701117714245771 0 -0.12964778408632779 -0.2240559515308029 0 -0.1069539478940484 -0.20121524606085259 0 -0.116503442890511 -0.20615462214379501 0 -0.1182325320857732 -0.21701117714245771 0 -0.116503442890511 -0.20615462214379501 0 -0.12446659453658469 -0.2051337493999616 0 -0.1182325320857732 -0.21701117714245771 0 -0.11636069704563699 -0.20125831597190941 0 -0.116503442890511 -0.20615462214379501 0 -0.12446659453658469 -0.2051337493999616 0 -0.11636069704563699 -0.20125831597190941 0 -0.12446659453658469 -0.2051337493999616 0 -0.1234142843990034 -0.20129061165398179 0 -0.12446659453658469 -0.2051337493999616 0 -0.1069539478940484 -0.20121524606085259 0 -0.1039432587622498 -0.21234961129803451 0 -0.1146322195844853 -0.229933041338924 0 -0.091210523848666042 -0.22145825259936749 0 -0.094316415030678002 -0.20115738362531499 0 -0.098742607236989521 -0.21208478243994361 0 -0.1039432587622498 -0.21234961129803451 0 -0.098742607236989521 -0.21208478243994361 0 -0.10362742502627011 -0.2199549018075595 0 -0.1069539478940484 -0.20121524606085259 0 -0.1039432587622498 -0.21234961129803451 0 -0.1006154135170836 -0.20550376286944089 0 -0.1039432587622498 -0.21234961129803451 0 -0.1006154135170836 -0.20550376286944089 0 -0.098742607236989521 -0.21208478243994361 0 -0.094316415030678002 -0.20115738362531499 0 -0.1006154135170836 -0.20550376286944089 0 -0.098742607236989521 -0.21208478243994361 0 -0.091210523848666042 -0.22145825259936749 0 -0.098742607236989521 -0.21208478243994361 0 -0.10362742502627011 -0.2199549018075595 0 -0.096373561920523113 -0.2318247108995648 0 -0.10362742502627011 -0.2199549018075595 0 -0.1025516661405015 -0.24412656761791199 0 -0.1039432587622498 -0.21234961129803451 0 -0.10362742502627011 -0.2199549018075595 0 -0.1146322195844853 -0.229933041338924 0 -0.10362742502627011 -0.2199549018075595 0 -0.1025516661405015 -0.24412656761791199 0 -0.10362742502627011 -0.2199549018075595 0 -0.11057817055071439 -0.23713955200355691 0 -0.1025516661405015 -0.24412656761791199 0 -0.091210523848666042 -0.22145825259936749 0 -0.096373561920523113 -0.2318247108995648 0 -0.10362742502627011 -0.2199549018075595 0 -0.10362742502627011 -0.2199549018075595 0 -0.1146322195844853 -0.229933041338924 0 -0.11057817055071439 -0.23713955200355691 0 -0.1182325320857732 -0.21701117714245771 0 -0.1146322195844853 -0.229933041338924 0 -0.12964778408632779 -0.2240559515308029 0 -0.1146322195844853 -0.229933041338924 0 -0.12594535918601221 -0.23537450645762351 0 -0.12964778408632779 -0.2240559515308029 0 -0.1146322195844853 -0.229933041338924 0 -0.11057817055071439 -0.23713955200355691 0 -0.11992695639240671 -0.24305274461581289 0 -0.1146322195844853 -0.229933041338924 0 -0.11992695639240671 -0.24305274461581289 0 -0.12594535918601221 -0.23537450645762351 0 -0.11992695639240671 -0.24305274461581289 0 -0.12594535918601221 -0.23537450645762351 0 -0.1270777831465402 -0.24161244513161839 0 -0.11057817055071439 -0.23713955200355691 0 -0.11992695639240671 -0.24305274461581289 0 -0.1121525856099083 -0.24863050463757599 0 -0.1183855941197941 -0.25651062511641259 0 -0.11992695639240671 -0.24305274461581289 0 -0.1121525856099083 -0.24863050463757599 0 -0.1097432552782682 -0.2572086698476283 0 -0.1121525856099083 -0.24863050463757599 0 -0.1025516661405015 -0.24412656761791199 0 -0.11057817055071439 -0.23713955200355691 0 -0.1121525856099083 -0.24863050463757599 0 -0.1025516661405015 -0.24412656761791199 0 -0.088104632666654803 -0.24175912157342011 0 -0.096373561920523113 -0.2318247108995648 0 -0.1025516661405015 -0.24412656761791199 0 -0.093680051977193257 -0.25300014610948141 0 -0.088104632666654803 -0.24175912157342011 0 -0.1025516661405015 -0.24412656761791199 0 -0.091208904987890735 -0.14232661368977559 0 -0.087323419063827665 -0.1566704494577609 0 -0.098398678104261977 -0.16921735691638781 0 -0.081276062778159672 -0.14883202435870879 0 -0.08710950077230438 -0.14178266396580899 0 -0.074302444905730333 -0.14290824730771751 0 -0.081276062778159672 -0.14883202435870879 0 -0.091208904987890735 -0.14232661368977559 0 -0.087323419063827665 -0.1566704494577609 0 -0.081276062778159672 -0.14883202435870879 0 -0.08710950077230438 -0.14178266396580899 0 -0.091208904987890735 -0.14232661368977559 0 -0.08710950077230438 -0.14178266396580899 0 -0.091208904987890735 -0.14232661368977559 0 -0.091208904987890735 -0.14232661368977559 0 -0.089131397015513494 -0.13455644729756691 0 -0.089131397015513494 -0.13455644729756691 0 -0.072915517223638954 -0.12670463451369329 0 -0.074302444905730333 -0.14290824730771751 0 -0.08710950077230438 -0.14178266396580899 0 -0.091208904987890735 -0.14232661368977559 0 -0.089131397015513494 -0.13455644729756691 0 -0.08710950077230438 -0.14178266396580899 0 -0.089131397015513494 -0.13455644729756691 0 -0.074302444905730333 -0.14290824730771751 0 -0.089131397015513494 -0.13455644729756691 0 -0.074302444905730333 -0.14290824730771751 0 -0.061100100412547438 -0.13647315015658409 0 -0.072915517223638954 -0.12670463451369329 0 -0.074302444905730333 -0.14290824730771751 0 -0.060928146748241367 -0.123537549367131 0 -0.061100100412547438 -0.13647315015658409 0 -0.072915517223638954 -0.12670463451369329 0 -0.059473492795946999 -0.1512600473178678 0 -0.081276062778159672 -0.14883202435870879 0 -0.074302444905730333 -0.14290824730771751 0 -0.059473492795946999 -0.1512600473178678 0 -0.081276062778159672 -0.14883202435870879 0 -0.078410030384998497 -0.16630580286617139 0 -0.059473492795946999 -0.1512600473178678 0 -0.074302444905730333 -0.14290824730771751 0 -0.059473492795946999 -0.1512600473178678 0 -0.061100100412547438 -0.13647315015658409 0 -0.074302444905730333 -0.14290824730771751 0 -0.061817946007188637 -0.1647032604190713 0 -0.070259181001566293 -0.17921715932508539 0 -0.078410030384998497 -0.16630580286617139 0 -0.059473492795946999 -0.1512600473178678 0 -0.078410030384998497 -0.16630580286617139 0 -0.061817946007188637 -0.1647032604190713 0 -0.059473492795946999 -0.1512600473178678 0 -0.078410030384998497 -0.16630580286617139 0 -0.064566778430722005 -0.1899668467895553 0 -0.075377056328755521 -0.19008301367616509 0 -0.070259181001566293 -0.17921715932508539 0 -0.070259181001566293 -0.17921715932508539 0 -0.08402443889557612 -0.1788939005998389 0 -0.078410030384998497 -0.16630580286617139 0 -0.089423753135733974 -0.18837975033564619 0 -0.070259181001566293 -0.17921715932508539 0 -0.075377056328755521 -0.19008301367616509 0 -0.089423753135733974 -0.18837975033564619 0 -0.070259181001566293 -0.17921715932508539 0 -0.078410030384998497 -0.16630580286617139 0 -0.098398678104261977 -0.16921735691638781 0 -0.097346567974052028 -0.18135155841447259 0 -0.078410030384998497 -0.16630580286617139 0 -0.097346567974052028 -0.18135155841447259 0 -0.08402443889557612 -0.1788939005998389 0 -0.078410030384998497 -0.16630580286617139 0 -0.097346567974052028 -0.18135155841447259 0 -0.089423753135733974 -0.18837975033564619 0 -0.070259181001566293 -0.17921715932508539 0 -0.08402443889557612 -0.1788939005998389 0 -0.089423753135733974 -0.18837975033564619 0 -0.08402443889557612 -0.1788939005998389 0 -0.090500110278716836 -0.18291833725845449 0 -0.08402443889557612 -0.1788939005998389 0 -0.090500110278716836 -0.18291833725845449 0 -0.097346567974052028 -0.18135155841447259 0 -0.089423753135733974 -0.18837975033564619 0 -0.090500110278716836 -0.18291833725845449 0 -0.081276062778159672 -0.14883202435870879 0 -0.078410030384998497 -0.16630580286617139 0 -0.087323419063827665 -0.1566704494577609 0 -0.078410030384998497 -0.16630580286617139 0 -0.087323419063827665 -0.1566704494577609 0 -0.098398678104261977 -0.16921735691638781 0 -0.098398678104261977 -0.16921735691638781 0 -0.1095912747331507 -0.1796343382558257 0 -0.1134730054873082 -0.16498410574444861 0 -0.098398678104261977 -0.16921735691638781 0 -0.1134730054873082 -0.16498410574444861 0 -0.1057127461594554 -0.15566112818699529 0 -0.1055884512206339 -0.19610810014299959 0 -0.098398678104261977 -0.16921735691638781 0 -0.099028938128851704 -0.1826882615985625 0 -0.1055884512206339 -0.19610810014299959 0 -0.098398678104261977 -0.16921735691638781 0 -0.1055884512206339 -0.19610810014299959 0 -0.098398678104261977 -0.16921735691638781 0 -0.1095912747331507 -0.1796343382558257 0 -0.095804572093432044 -0.1914304229002349 0 -0.097346567974052028 -0.18135155841447259 0 -0.099028938128851704 -0.1826882615985625 0 -0.095804572093432044 -0.1914304229002349 0 -0.090500110278716836 -0.18291833725845449 0 -0.097346567974052028 -0.18135155841447259 0 -0.095804572093432044 -0.1914304229002349 0 -0.097346567974052028 -0.18135155841447259 0 -0.097346567974052028 -0.18135155841447259 0 -0.099028938128851704 -0.1826882615985625 0 -0.098398678104261977 -0.16921735691638781 0 -0.097346567974052028 -0.18135155841447259 0 -0.099028938128851704 -0.1826882615985625 0 -0.118443644943155 -0.18313735869921541 0 -0.1134730054873082 -0.16498410574444861 0 -0.1288769000074067 -0.1787922372229141 0 -0.118443644943155 -0.18313735869921541 0 -0.1134730054873082 -0.16498410574444861 0 -0.1095912747331507 -0.1796343382558257 0 -0.118443644943155 -0.18313735869921541 0 -0.1134730054873082 -0.16498410574444861 0 -0.1143022105317214 -0.19176920984990589 0 -0.1095912747331507 -0.1796343382558257 0 -0.118443644943155 -0.18313735869921541 0 -0.1134730054873082 -0.16498410574444861 0 -0.1197703960583608 -0.14611643639736929 0 -0.1290470673658046 -0.1573335562640088 0 -0.1134730054873082 -0.16498410574444861 0 -0.1197703960583608 -0.14611643639736929 0 -0.1057127461594554 -0.15566112818699529 0 -0.091208904987890735 -0.14232661368977559 0 -0.1197703960583608 -0.14611643639736929 0 -0.1055319536065798 -0.13433424813048789 0 -0.091208904987890735 -0.14232661368977559 0 -0.1197703960583608 -0.14611643639736929 0 -0.091208904987890735 -0.14232661368977559 0 -0.098398678104261977 -0.16921735691638781 0 -0.091208904987890735 -0.14232661368977559 0 -0.1197703960583608 -0.14611643639736929 0 -0.1057127461594554 -0.15566112818699529 0 -0.091208904987890735 -0.14232661368977559 0 -0.098398678104261977 -0.16921735691638781 0 -0.1057127461594554 -0.15566112818699529 0 -0.11422347955810171 -0.1204243593602408 0 -0.089131397015513494 -0.13455644729756691 0 -0.1055319536065798 -0.13433424813048789 0 -0.091208904987890735 -0.14232661368977559 0 -0.089131397015513494 -0.13455644729756691 0 -0.1055319536065798 -0.13433424813048789 0 -0.11422347955810171 -0.1204243593602408 0 -0.089131397015513494 -0.13455644729756691 0 -0.11422347955810171 -0.1204243593602408 0 -0.1197703960583608 -0.14611643639736929 0 -0.13445671698849809 -0.1291024538471422 0 -0.11422347955810171 -0.1204243593602408 0 -0.1197703960583608 -0.14611643639736929 0 -0.1055319536065798 -0.13433424813048789 0 -0.1483318871288308 -0.14990625910496369 0 -0.16449988742022109 -0.13664022397910389 0 -0.1531014227808439 -0.1221458571451004 0 -0.13445671698849809 -0.1291024538471422 0 -0.1483318871288308 -0.14990625910496369 0 -0.1531014227808439 -0.1221458571451004 0 -0.1197703960583608 -0.14611643639736929 0 -0.1483318871288308 -0.14990625910496369 0 -0.1197703960583608 -0.14611643639736929 0 -0.13445671698849809 -0.1291024538471422 0 -0.1483318871288308 -0.14990625910496369 0 -0.1197703960583608 -0.14611643639736929 0 -0.1483318871288308 -0.14990625910496369 0 -0.1290470673658046 -0.1573335562640088 0 -0.1134730054873082 -0.16498410574444861 0 -0.13461298078871861 -0.16832742380925381 0 -0.1288769000074067 -0.1787922372229141 0 -0.1134730054873082 -0.16498410574444861 0 -0.1290470673658046 -0.1573335562640088 0 -0.13461298078871861 -0.16832742380925381 0 -0.1483318871288308 -0.14990625910496369 0 -0.1290470673658046 -0.1573335562640088 0 -0.13461298078871861 -0.16832742380925381 0 -0.1288769000074067 -0.1787922372229141 0 -0.13667151748925299 -0.18732448341615179 0 -0.12964513627792831 -0.18854704193980709 0 -0.118443644943155 -0.18313735869921541 0 -0.1288769000074067 -0.1787922372229141 0 -0.12964513627792831 -0.18854704193980709 0 -0.13461298078871861 -0.16832742380925381 0 -0.1288769000074067 -0.1787922372229141 0 -0.13971937495991149 -0.1792470101286355 0 -0.13971937495991149 -0.1792470101286355 0 -0.13667151748925299 -0.18732448341615179 0 -0.14496415935730611 -0.1865433765957375 0 -0.1288769000074067 -0.1787922372229141 0 -0.13971937495991149 -0.1792470101286355 0 -0.13667151748925299 -0.18732448341615179 0 -0.13461298078871861 -0.16832742380925381 0 -0.13971937495991149 -0.1792470101286355 0 -0.15185728900885839 -0.17281716391360821 0 -0.13971937495991149 -0.1792470101286355 0 -0.14496415935730611 -0.1865433765957375 0 -0.15185728900885839 -0.17281716391360821 0 -0.14496415935730611 -0.1865433765957375 0 -0.15185728900885839 -0.17281716391360821 0 -0.15433817598466459 -0.18776234762491931 0 -0.1483318871288308 -0.14990625910496369 0 -0.13461298078871861 -0.16832742380925381 0 -0.15185728900885839 -0.17281716391360821 0 -0.1483318871288308 -0.14990625910496369 0 -0.15185728900885839 -0.17281716391360821 0 -0.1768933781993007 -0.15369608181255809 0 -0.15185728900885839 -0.17281716391360821 0 -0.16517877359736971 -0.18077311964873491 0 -0.1768933781993007 -0.15369608181255809 0 -0.16517877359736971 -0.18077311964873491 0 -0.15433817598466459 -0.18776234762491931 0 -0.16707343948115469 -0.19329854854562631 0 -0.15185728900885839 -0.17281716391360821 0 -0.16517877359736971 -0.18077311964873491 0 -0.15433817598466459 -0.18776234762491931 0 -0.16517877359736971 -0.18077311964873491 0 -0.17993745220376059 -0.17895489523397801 0 -0.16707343948115469 -0.19329854854562631 0 -0.16517877359736971 -0.18077311964873491 0 -0.17993745220376059 -0.17895489523397801 0 -0.1768933781993007 -0.15369608181255809 0 -0.17993745220376059 -0.17895489523397801 0 -0.1768933781993007 -0.15369608181255809 0 -0.19905977422349169 -0.1755558360643551 0 -0.1768933781993007 -0.15369608181255809 0 -0.17856324423929071 -0.13411692648003359 0 -0.16449988742022109 -0.13664022397910389 0 -0.1768933781993007 -0.15369608181255809 0 -0.17856324423929071 -0.13411692648003359 0 -0.1900158864605431 -0.1418606691544825 0 -0.17856324423929071 -0.13411692648003359 0 -0.1912596026832544 -0.12883579632457359 0 -0.1900158864605431 -0.1418606691544825 0 -0.17856324423929071 -0.13411692648003359 0 -0.1912596026832544 -0.12883579632457359 0 -0.18212358698306741 -0.12142770117184561 0 -0.17856324423929071 -0.13411692648003359 0 -0.18212358698306741 -0.12142770117184561 0 -0.16904936396502779 -0.1225698900008125 0 -0.16449988742022109 -0.13664022397910389 0 -0.16904936396502779 -0.1225698900008125 0 -0.1531014227808439 -0.1221458571451004 0 -0.17856324423929071 -0.13411692648003359 0 -0.16449988742022109 -0.13664022397910389 0 -0.16904936396502779 -0.1225698900008125 0 -0.1483318871288308 -0.14990625910496369 0 -0.1768933781993007 -0.15369608181255809 0 -0.1483318871288308 -0.14990625910496369 0 -0.1768933781993007 -0.15369608181255809 0 -0.16449988742022109 -0.13664022397910389 0 -0.15566934165753701 -0.24482136105764621 0 -0.13482897363606841 -0.24297815366164491 0 -0.14564999181442231 -0.22989611270817639 0 -0.15566934165753701 -0.24482136105764621 0 -0.14564999181442231 -0.22989611270817639 0 -0.16429012863802009 -0.23491512272004891 0 -0.15821309250511281 -0.26118480488572993 0 -0.15566934165753701 -0.24482136105764621 0 -0.13482897363606841 -0.24297815366164491 0 -0.1283361407779757 -0.25159171728621699 0 -0.13482897363606841 -0.24297815366164491 0 -0.1310987251445577 -0.2446583467236331 0 -0.1283361407779757 -0.25159171728621699 0 -0.1310987251445577 -0.2446583467236331 0 -0.1270777831465402 -0.24161244513161839 0 -0.1283361407779757 -0.25159171728621699 0 -0.11992695639240671 -0.24305274461581289 0 -0.1270777831465402 -0.24161244513161839 0 -0.13482897363606841 -0.24297815366164491 0 -0.1310987251445577 -0.2446583467236331 0 -0.1270777831465402 -0.24161244513161839 0 -0.13482897363606841 -0.24297815366164491 0 -0.12594535918601221 -0.23537450645762351 0 -0.1270777831465402 -0.24161244513161839 0 -0.13482897363606841 -0.24297815366164491 0 -0.12964778408632779 -0.2240559515308029 0 -0.14564999181442231 -0.22989611270817639 0 -0.13482897363606841 -0.24297815366164491 0 -0.12594535918601221 -0.23537450645762351 0 -0.12964778408632779 -0.2240559515308029 0 -0.13482897363606841 -0.24297815366164491 0 -0.12964778408632779 -0.2240559515308029 0 -0.12964778408632779 -0.2240559515308029 0 -0.14564999181442231 -0.22989611270817639 0 -0.13906082520362789 -0.21424948005767519 0 -0.14564999181442231 -0.22989611270817639 0 -0.1532157355819776 -0.21469763412746851 0 -0.16429012863802009 -0.23491512272004891 0 -0.14564999181442231 -0.22989611270817639 0 -0.1532157355819776 -0.21469763412746851 0 -0.13906082520362789 -0.21424948005767519 0 -0.1532157355819776 -0.21469763412746851 0 -0.1421413425259351 -0.1944801455348881 0 -0.14344356041104711 -0.20138231805780499 0 -0.1532157355819776 -0.21469763412746851 0 -0.1421413425259351 -0.1944801455348881 0 -0.1532157355819776 -0.21469763412746851 0 -0.13906082520362789 -0.21424948005767519 0 -0.14344356041104711 -0.20138231805780499 0 -0.12964778408632779 -0.2240559515308029 0 -0.13906082520362789 -0.21424948005767519 0 -0.12775347419704111 -0.20670520812175669 0 -0.12446659453658469 -0.2051337493999616 0 -0.12964778408632779 -0.2240559515308029 0 -0.12775347419704111 -0.20670520812175669 0 -0.12446659453658469 -0.2051337493999616 0 -0.12964778408632779 -0.2240559515308029 0 -0.1234142843990034 -0.20129061165398179 0 -0.12775347419704111 -0.20670520812175669 0 -0.1342433848347403 -0.2059710501757869 0 -0.1234142843990034 -0.20129061165398179 0 -0.12446659453658469 -0.2051337493999616 0 -0.12775347419704111 -0.20670520812175669 0 -0.12446659453658469 -0.2051337493999616 0 -0.12775347419704111 -0.20670520812175669 0 -0.13906082520362789 -0.21424948005767519 0 -0.12775347419704111 -0.20670520812175669 0 -0.1342433848347403 -0.2059710501757869 0 -0.13906082520362789 -0.21424948005767519 0 -0.1342433848347403 -0.2059710501757869 0 -0.14344356041104711 -0.20138231805780499 0 -0.13448747671815081 -0.19705371152474219 0 -0.1421413425259351 -0.1944801455348881 0 -0.14344356041104711 -0.20138231805780499 0 -0.1234142843990034 -0.20129061165398179 0 -0.1342433848347403 -0.2059710501757869 0 -0.14344356041104711 -0.20138231805780499 0 -0.1234142843990034 -0.20129061165398179 0 -0.13448747671815081 -0.19705371152474219 0 -0.14344356041104711 -0.20138231805780499 0 -0.1234142843990034 -0.20129061165398179 0 -0.14344356041104711 -0.20138231805780499 0 -0.1234142843990034 -0.20129061165398179 0 -0.13448747671815081 -0.19705371152474219 0 -0.12836978379805469 -0.19505845874684749 0 -0.118443644943155 -0.18313735869921541 0 -0.12836978379805469 -0.19505845874684749 0 -0.12964513627792831 -0.18854704193980709 0 -0.12836978379805469 -0.19505845874684749 0 -0.12964513627792831 -0.18854704193980709 0 -0.1350684124567138 -0.19305702363018909 0 -0.13448747671815081 -0.19705371152474219 0 -0.12836978379805469 -0.19505845874684749 0 -0.1350684124567138 -0.19305702363018909 0 -0.13667151748925299 -0.18732448341615179 0 -0.12964513627792831 -0.18854704193980709 0 -0.1350684124567138 -0.19305702363018909 0 -0.13448747671815081 -0.19705371152474219 0 -0.1350684124567138 -0.19305702363018909 0 -0.1421413425259351 -0.1944801455348881 0 -0.13667151748925299 -0.18732448341615179 0 -0.1350684124567138 -0.19305702363018909 0 -0.1421413425259351 -0.1944801455348881 0 -0.1532157355819776 -0.21469763412746851 0 -0.1421413425259351 -0.1944801455348881 0 -0.15666351948114629 -0.1995899832452937 0 -0.13667151748925299 -0.18732448341615179 0 -0.14496415935730611 -0.1865433765957375 0 -0.1421413425259351 -0.1944801455348881 0 -0.14496415935730611 -0.1865433765957375 0 -0.1421413425259351 -0.1944801455348881 0 -0.15433817598466459 -0.18776234762491931 0 -0.1421413425259351 -0.1944801455348881 0 -0.15433817598466459 -0.18776234762491931 0 -0.15666351948114629 -0.1995899832452937 0 -0.15433817598466459 -0.18776234762491931 0 -0.15666351948114629 -0.1995899832452937 0 -0.16707343948115469 -0.19329854854562631 0 -0.15666351948114629 -0.1995899832452937 0 -0.16707343948115469 -0.19329854854562631 0 -0.16732224548458891 -0.20842311436722119 0 -0.16707343948115469 -0.19329854854562631 0 -0.17975878066101059 -0.20042989322362739 0 -0.16732224548458891 -0.20842311436722119 0 -0.17993745220376059 -0.17895489523397801 0 -0.17975878066101059 -0.20042989322362739 0 -0.19266467917721081 -0.1936257676085566 0 -0.17993745220376059 -0.17895489523397801 0 -0.16707343948115469 -0.19329854854562631 0 -0.17975878066101059 -0.20042989322362739 0 -0.17975878066101059 -0.20042989322362739 0 -0.18070391625864071 -0.21863984915545301 0 -0.19253239785726259 -0.2093467412910768 0 -0.17975878066101059 -0.20042989322362739 0 -0.18070391625864071 -0.21863984915545301 0 -0.16732224548458891 -0.20842311436722119 0 -0.1532157355819776 -0.21469763412746851 0 -0.15666351948114629 -0.1995899832452937 0 -0.16732224548458891 -0.20842311436722119 0 -0.1532157355819776 -0.21469763412746851 0 -0.16732224548458891 -0.20842311436722119 0 -0.16429012863802009 -0.23491512272004891 0 -0.1532157355819776 -0.21469763412746851 0 -0.16429012863802009 -0.23491512272004891 0 -0.18070391625864071 -0.21863984915545301 0 -0.16732224548458891 -0.20842311436722119 0 -0.16429012863802009 -0.23491512272004891 0 -0.18070391625864071 -0.21863984915545301 0 -0.18601458812680871 -0.23629827425452701 0 -0.16429012863802009 -0.23491512272004891 0 -0.18070391625864071 -0.21863984915545301 0 -0.18601458812680871 -0.23629827425452701 0 -0.19270158591305361 -0.22296204550849591 0 -0.17536452169406261 -0.25513261131262932 0 -0.18601458812680871 -0.23629827425452701 0 -0.1971211098569064 -0.2485562144643311 0 -0.17536452169406261 -0.25513261131262932 0 -0.18601458812680871 -0.23629827425452701 0 -0.16429012863802009 -0.23491512272004891 0 -0.17536452169406261 -0.25513261131262932 0 -0.16429012863802009 -0.23491512272004891 0 -0.17536452169406261 -0.25513261131262932 0 -0.15566934165753701 -0.24482136105764621 0 -0.16429012863802009 -0.23491512272004891 0 -0.2040044810152343 -0.23377727090047351 0 -0.22181314593257209 -0.22697511150882529 0 -0.22025275826160279 -0.2471257797298928 0 -0.1971211098569064 -0.2485562144643311 0 -0.2040044810152343 -0.23377727090047351 0 -0.22025275826160279 -0.2471257797298928 0 -0.18601458812680871 -0.23629827425452701 0 -0.1971211098569064 -0.2485562144643311 0 -0.2040044810152343 -0.23377727090047351 0 -0.18601458812680871 -0.23629827425452701 0 -0.19270158591305361 -0.22296204550849591 0 -0.2040044810152343 -0.23377727090047351 0 -0.19270158591305361 -0.22296204550849591 0 -0.20646661184779291 -0.2209366033754204 0 -0.2040044810152343 -0.23377727090047351 0 -0.20646661184779291 -0.2209366033754204 0 -0.2040044810152343 -0.23377727090047351 0 -0.22181314593257209 -0.22697511150882529 0 -0.20646661184779291 -0.2209366033754204 0 -0.22181314593257209 -0.22697511150882529 0 -0.20646661184779291 -0.2209366033754204 0 -0.21966781828876961 -0.21222017746694699 0 -0.22181314593257209 -0.22697511150882529 0 -0.20646661184779291 -0.2209366033754204 0 -0.20611948272011121 -0.20304611138236681 0 -0.21966781828876961 -0.21222017746694699 0 -0.20611948272011121 -0.20304611138236681 0 -0.21897926871800019 -0.19669337567287831 0 -0.21966781828876961 -0.21222017746694699 0 -0.20646661184779291 -0.2209366033754204 0 -0.19253239785726259 -0.2093467412910768 0 -0.20611948272011121 -0.20304611138236681 0 -0.19270158591305361 -0.22296204550849591 0 -0.20646661184779291 -0.2209366033754204 0 -0.19253239785726259 -0.2093467412910768 0 -0.18070391625864071 -0.21863984915545301 0 -0.19270158591305361 -0.22296204550849591 0 -0.19253239785726259 -0.2093467412910768 0 -0.19266467917721081 -0.1936257676085566 0 -0.20611948272011121 -0.20304611138236681 0 -0.2083219237785757 -0.1873320277690235 0 -0.17975878066101059 -0.20042989322362739 0 -0.19253239785726259 -0.2093467412910768 0 -0.19266467917721081 -0.1936257676085566 0 -0.19253239785726259 -0.2093467412910768 0 -0.19266467917721081 -0.1936257676085566 0 -0.20611948272011121 -0.20304611138236681 0 -0.20611948272011121 -0.20304611138236681 0 -0.21897926871800019 -0.19669337567287831 0 -0.2083219237785757 -0.1873320277690235 0 -0.21897926871800019 -0.19669337567287831 0 -0.23230424975577199 -0.20503470769258789 0 -0.23313215691775949 -0.18450877018534409 0 -0.2448317244682672 -0.19494017856122331 0 -0.23230424975577199 -0.20503470769258789 0 -0.23313215691775949 -0.18450877018534409 0 -0.2448317244682672 -0.19494017856122331 0 -0.24405101732391901 -0.2151790953022156 0 -0.23230424975577199 -0.20503470769258789 0 -0.2448317244682672 -0.19494017856122331 0 -0.24405101732391901 -0.2151790953022156 0 -0.24405101732391901 -0.2151790953022156 0 -0.23230424975577199 -0.20503470769258789 0 -0.23232415075836929 -0.22063515516960361 0 -0.23230424975577199 -0.20503470769258789 0 -0.21966781828876961 -0.21222017746694699 0 -0.23232415075836929 -0.22063515516960361 0 -0.21897926871800019 -0.19669337567287831 0 -0.23230424975577199 -0.20503470769258789 0 -0.21966781828876961 -0.21222017746694699 0 -0.21966781828876961 -0.21222017746694699 0 -0.22181314593257209 -0.22697511150882529 0 -0.23232415075836929 -0.22063515516960361 0 -0.22181314593257209 -0.22697511150882529 0 -0.23232415075836929 -0.22063515516960361 0 -0.2371596800173508 -0.23301361964223161 0 -0.22181314593257209 -0.22697511150882529 0 -0.2371596800173508 -0.23301361964223161 0 -0.24405101732391901 -0.2151790953022156 0 -0.24327031017957049 -0.23541801204320789 0 -0.24405101732391901 -0.2151790953022156 0 -0.24327031017957049 -0.23541801204320789 0 -0.25588924886857078 -0.22577026586403889 0 -0.24405101732391901 -0.2151790953022156 0 -0.23232415075836929 -0.22063515516960361 0 -0.23916826383476761 -0.23133706037317611 0 -0.24405101732391901 -0.2151790953022156 0 -0.23916826383476761 -0.23133706037317611 0 -0.24327031017957049 -0.23541801204320789 0 -0.23916826383476761 -0.23133706037317611 0 -0.2371596800173508 -0.23301361964223161 0 -0.24327031017957049 -0.23541801204320789 0 -0.2371596800173508 -0.23301361964223161 0 -0.24327031017957049 -0.23541801204320789 0 -0.23232415075836929 -0.22063515516960361 0 -0.23916826383476761 -0.23133706037317611 0 -0.2371596800173508 -0.23301361964223161 0 -0.23916826383476761 -0.23133706037317611 0 -0.2371596800173508 -0.23301361964223161 0 -0.24233717299785959 -0.25960849866204011 0 -0.24327031017957049 -0.23541801204320789 0 -0.23442911476228809 -0.24683612341654529 0 -0.24233717299785959 -0.25960849866204011 0 -0.24327031017957049 -0.23541801204320789 0 -0.25018128361314113 -0.24746468840205441 0 -0.2371596800173508 -0.23301361964223161 0 -0.24327031017957049 -0.23541801204320789 0 -0.23442911476228809 -0.24683612341654529 0 -0.24233717299785959 -0.25960849866204011 0 -0.24327031017957049 -0.23541801204320789 0 -0.2371596800173508 -0.23301361964223161 0 -0.22025275826160279 -0.2471257797298928 0 -0.2371596800173508 -0.23301361964223161 0 -0.23442911476228809 -0.24683612341654529 0 -0.22025275826160279 -0.2471257797298928 0 -0.22181314593257209 -0.22697511150882529 0 -0.2371596800173508 -0.23301361964223161 0 -0.22025275826160279 -0.2471257797298928 0 -0.21260261997950849 -0.1372892749024191 0 -0.20545486926977061 -0.1574859045201529 0 -0.21260261997950849 -0.1372892749024191 0 -0.20545486926977061 -0.1574859045201529 0 -0.22601880180638709 -0.14497793796819641 0 -0.21260261997950849 -0.1372892749024191 0 -0.20085213665154589 -0.13643960324073179 0 -0.20545486926977061 -0.1574859045201529 0 -0.21260261997950849 -0.1372892749024191 0 -0.2197503706892443 -0.1170926452846846 0 -0.20366324778073339 -0.1226314006036201 0 -0.21260261997950849 -0.1372892749024191 0 -0.2197503706892443 -0.1170926452846846 0 -0.21260261997950849 -0.1372892749024191 0 -0.20085213665154589 -0.13643960324073179 0 -0.20366324778073339 -0.1226314006036201 0 -0.20085213665154589 -0.13643960324073179 0 -0.1912596026832544 -0.12883579632457359 0 -0.20366324778073339 -0.1226314006036201 0 -0.20085213665154589 -0.13643960324073179 0 -0.1912596026832544 -0.12883579632457359 0 -0.1900158864605431 -0.1418606691544825 0 -0.1768933781993007 -0.15369608181255809 0 -0.1900158864605431 -0.1418606691544825 0 -0.20545486926977061 -0.1574859045201529 0 -0.1768933781993007 -0.15369608181255809 0 -0.20545486926977061 -0.1574859045201529 0 -0.20085213665154589 -0.13643960324073179 0 -0.1900158864605431 -0.1418606691544825 0 -0.20545486926977061 -0.1574859045201529 0 -0.1768933781993007 -0.15369608181255809 0 -0.19905977422349169 -0.1755558360643551 0 -0.20545486926977061 -0.1574859045201529 0 -0.19905977422349169 -0.1755558360643551 0 -0.20545486926977061 -0.1574859045201529 0 -0.19266467917721081 -0.1936257676085566 0 -0.19905977422349169 -0.1755558360643551 0 -0.19266467917721081 -0.1936257676085566 0 -0.19905977422349169 -0.1755558360643551 0 -0.2083219237785757 -0.1873320277690235 0 -0.17993745220376059 -0.17895489523397801 0 -0.19266467917721081 -0.1936257676085566 0 -0.19905977422349169 -0.1755558360643551 0 -0.21897926871800019 -0.19669337567287831 0 -0.2083219237785757 -0.1873320277690235 0 -0.21860002285518379 -0.17692462022396371 0 -0.19905977422349169 -0.1755558360643551 0 -0.2083219237785757 -0.1873320277690235 0 -0.21860002285518379 -0.17692462022396371 0 -0.19905977422349169 -0.1755558360643551 0 -0.21860002285518379 -0.17692462022396371 0 -0.20545486926977061 -0.1574859045201529 0 -0.21860002285518379 -0.17692462022396371 0 -0.20545486926977061 -0.1574859045201529 0 -0.2334194436613071 -0.16119652238585741 0 -0.20545486926977061 -0.1574859045201529 0 -0.2334194436613071 -0.16119652238585741 0 -0.21860002285518379 -0.17692462022396371 0 -0.2334194436613071 -0.16119652238585741 0 -0.23313215691775949 -0.18450877018534409 0 -0.21897926871800019 -0.19669337567287831 0 -0.21860002285518379 -0.17692462022396371 0 -0.23313215691775949 -0.18450877018534409 0 -0.2448317244682672 -0.19494017856122331 0 -0.24561243161261531 -0.1747012618202311 0 -0.2448317244682672 -0.19494017856122331 0 -0.23313215691775949 -0.18450877018534409 0 -0.24561243161261531 -0.1747012618202311 0 -0.2334194436613071 -0.16119652238585741 0 -0.23313215691775949 -0.18450877018534409 0 -0.24561243161261531 -0.1747012618202311 0 -0.2334194436613071 -0.16119652238585741 0 -0.24768759332024501 -0.15288591991307249 0 -0.26138401805284373 -0.16490714025156239 0 -0.2334194436613071 -0.16119652238585741 0 -0.24561243161261531 -0.1747012618202311 0 -0.26138401805284373 -0.16490714025156239 0 -0.2334194436613071 -0.16119652238585741 0 -0.26138401805284373 -0.16490714025156239 0 -0.24768759332024501 -0.15288591991307249 0 -0.24035206963199701 -0.13773520297616959 0 -0.25066558347885931 -0.13251764995053431 0 -0.23716828236838119 -0.14842713651880179 0 -0.22601880180638709 -0.14497793796819641 0 -0.24035206963199701 -0.13773520297616959 0 -0.24768759332024501 -0.15288591991307249 0 -0.23716828236838119 -0.14842713651880179 0 -0.24035206963199701 -0.13773520297616959 0 -0.2334194436613071 -0.16119652238585741 0 -0.24768759332024501 -0.15288591991307249 0 -0.23716828236838119 -0.14842713651880179 0 -0.20545486926977061 -0.1574859045201529 0 -0.2334194436613071 -0.16119652238585741 0 -0.22601880180638709 -0.14497793796819641 0 -0.2334194436613071 -0.16119652238585741 0 -0.23716828236838119 -0.14842713651880179 0 -0.22601880180638709 -0.14497793796819641 0 -0.21260261997950849 -0.1372892749024191 0 -0.22701037204806629 -0.12800517972509859 0 -0.2197503706892443 -0.1170926452846846 0 -0.22601880180638709 -0.14497793796819641 0 -0.22701037204806629 -0.12800517972509859 0 -0.24035206963199701 -0.13773520297616959 0 -0.21260261997950849 -0.1372892749024191 0 -0.22601880180638709 -0.14497793796819641 0 -0.22701037204806629 -0.12800517972509859 0 -0.22701037204806629 -0.12800517972509859 0 -0.23833475363582929 -0.12699719077821001 0 -0.24035206963199701 -0.13773520297616959 0 -0.23833475363582929 -0.12699719077821001 0 -0.24035206963199701 -0.13773520297616959 0 -0.25066558347885931 -0.13251764995053431 0 -0.23833475363582929 -0.12699719077821001 0 -0.2466021228926524 -0.1215603100838341 0 -0.25066558347885931 -0.13251764995053431 0 -0.2466021228926524 -0.1215603100838341 0 -0.23420880670407421 -0.115344861449812 0 -0.25028307647261949 -0.1119170655065333 0 -0.23833475363582929 -0.12699719077821001 0 -0.2466021228926524 -0.1215603100838341 0 -0.23420880670407421 -0.115344861449812 0 -0.23975108867161321 -0.096745383671773488 0 -0.23420880670407421 -0.115344861449812 0 -0.25028307647261949 -0.1119170655065333 0 -0.23975108867161321 -0.096745383671773488 0 -0.25028307647261949 -0.1119170655065333 0 -0.25454071313255938 -0.097810231909066098 0 -0.23975108867161321 -0.096745383671773488 0 -0.22550089202944229 -0.1008440162637169 0 -0.23125141336964011 -0.084595387242749231 0 -0.23975108867161321 -0.096745383671773488 0 -0.22550089202944229 -0.1008440162637169 0 -0.23420880670407421 -0.115344861449812 0 -0.22550089202944229 -0.1008440162637169 0 -0.23125141336964011 -0.084595387242749231 0 -0.20770402821161371 -0.098985744105056478 0 -0.22550089202944229 -0.1008440162637169 0 -0.2197503706892443 -0.1170926452846846 0 -0.22550089202944229 -0.1008440162637169 0 -0.2197503706892443 -0.1170926452846846 0 -0.23420880670407421 -0.115344861449812 0 -0.22701037204806629 -0.12800517972509859 0 -0.2197503706892443 -0.1170926452846846 0 -0.22701037204806629 -0.12800517972509859 0 -0.2197503706892443 -0.1170926452846846 0 -0.23420880670407421 -0.115344861449812 0 -0.22701037204806629 -0.12800517972509859 0 -0.23833475363582929 -0.12699719077821001 0 -0.23420880670407421 -0.115344861449812 0 -0.24621250417125429 -0.067242688607955695 0 -0.2359213828018043 -0.071399957410672343 0 -0.2460442741291925 -0.056732515276429897 0 -0.24101683233652779 -0.07862751170581421 0 -0.252754029676304 -0.071454636367457428 0 -0.24621250417125429 -0.067242688607955695 0 -0.24101683233652779 -0.07862751170581421 0 -0.252754029676304 -0.071454636367457428 0 -0.2359213828018043 -0.071399957410672343 0 -0.24101683233652779 -0.07862751170581421 0 -0.24621250417125429 -0.067242688607955695 0 -0.2359213828018043 -0.071399957410672343 0 -0.24101683233652779 -0.07862751170581421 0 -0.24101683233652779 -0.07862751170581421 0 -0.25454071313255938 -0.097810231909066098 0 -0.23975108867161321 -0.096745383671773488 0 -0.24101683233652779 -0.07862751170581421 0 -0.25454071313255938 -0.097810231909066098 0 -0.23975108867161321 -0.096745383671773488 0 -0.24101683233652779 -0.07862751170581421 0 -0.23125141336964011 -0.084595387242749231 0 -0.24101683233652779 -0.07862751170581421 0 -0.23125141336964011 -0.084595387242749231 0 -0.2359213828018043 -0.071399957410672343 0 -0.24101683233652779 -0.07862751170581421 0 -0.23125141336964011 -0.084595387242749231 0 -0.23125141336964011 -0.084595387242749231 0 -0.2244703125416819 -0.072794076224461268 0 -0.21310247649950159 -0.079773441579648038 0 -0.23125141336964011 -0.084595387242749231 0 -0.20770402821161371 -0.098985744105056478 0 -0.22550089202944229 -0.1008440162637169 0 -0.23125141336964011 -0.084595387242749231 0 -0.2359213828018043 -0.071399957410672343 0 -0.2235514570548072 -0.053854045248439182 0 -0.2244703125416819 -0.072794076224461268 0 -0.21482267827762841 -0.069082647852091478 0 -0.2235514570548072 -0.053854045248439182 0 -0.2359213828018043 -0.071399957410672343 0 -0.2244703125416819 -0.072794076224461268 0 -0.2235514570548072 -0.053854045248439182 0 -0.2359213828018043 -0.071399957410672343 0 -0.23125141336964011 -0.084595387242749231 0 -0.2244703125416819 -0.072794076224461268 0 -0.2359213828018043 -0.071399957410672343 0 -0.23125141336964011 -0.084595387242749231 0 -0.20472732395068391 -0.070425609547595483 0 -0.21310247649950159 -0.079773441579648038 0 -0.1942101978544846 -0.078703118630565005 0 -0.21482267827762841 -0.069082647852091478 0 -0.20472732395068391 -0.070425609547595483 0 -0.20783277774853701 -0.056374475910446593 0 -0.2244703125416819 -0.072794076224461268 0 -0.21482267827762841 -0.069082647852091478 0 -0.21310247649950159 -0.079773441579648038 0 -0.21482267827762841 -0.069082647852091478 0 -0.20472732395068391 -0.070425609547595483 0 -0.21310247649950159 -0.079773441579648038 0 -0.23125141336964011 -0.084595387242749231 0 -0.21310247649950159 -0.079773441579648038 0 -0.20770402821161371 -0.098985744105056478 0 -0.21310247649950159 -0.079773441579648038 0 -0.1942101978544846 -0.078703118630565005 0 -0.20770402821161371 -0.098985744105056478 0 -0.1942101978544846 -0.078703118630565005 0 -0.20770402821161371 -0.098985744105056478 0 -0.1942101978544846 -0.078703118630565005 0 -0.20770402821161371 -0.098985744105056478 0 -0.19331927689223261 -0.094690670375105077 0 -0.1942101978544846 -0.078703118630565005 0 -0.19331927689223261 -0.094690670375105077 0 -0.1804061946459036 -0.0975656506999769 0 -0.1942101978544846 -0.078703118630565005 0 -0.1807163674973549 -0.058420493156073998 0 -0.19569491766720151 -0.061370611856350392 0 -0.20472732395068391 -0.070425609547595483 0 -0.1942101978544846 -0.078703118630565005 0 -0.19569491766720151 -0.061370611856350392 0 -0.20472732395068391 -0.070425609547595483 0 -0.19569491766720151 -0.061370611856350392 0 -0.20783277774853701 -0.056374475910446593 0 -0.2197503706892443 -0.1170926452846846 0 -0.20366324778073339 -0.1226314006036201 0 -0.20770402821161371 -0.098985744105056478 0 -0.22550089202944229 -0.1008440162637169 0 -0.2197503706892443 -0.1170926452846846 0 -0.20770402821161371 -0.098985744105056478 0 -0.2197503706892443 -0.1170926452846846 0 -0.20770402821161371 -0.098985744105056478 0 -0.20770402821161371 -0.098985744105056478 0 -0.19331927689223261 -0.094690670375105077 0 -0.18400427859456039 -0.1134692144457318 0 -0.20770402821161371 -0.098985744105056478 0 -0.18400427859456039 -0.1134692144457318 0 -0.20770402821161371 -0.098985744105056478 0 -0.19170728544238649 -0.1194909919475228 0 -0.18400427859456039 -0.1134692144457318 0 -0.20366324778073339 -0.1226314006036201 0 -0.20770402821161371 -0.098985744105056478 0 -0.19170728544238649 -0.1194909919475228 0 -0.1912596026832544 -0.12883579632457359 0 -0.20366324778073339 -0.1226314006036201 0 -0.19170728544238649 -0.1194909919475228 0 -0.1912596026832544 -0.12883579632457359 0 -0.19170728544238649 -0.1194909919475228 0 -0.18212358698306741 -0.12142770117184561 0 -0.18212358698306741 -0.12142770117184561 0 -0.18400427859456039 -0.1134692144457318 0 -0.1804061946459036 -0.0975656506999769 0 -0.18212358698306741 -0.12142770117184561 0 -0.17231042801981861 -0.11010941660198729 0 -0.1804061946459036 -0.0975656506999769 0 -0.19170728544238649 -0.1194909919475228 0 -0.18212358698306741 -0.12142770117184561 0 -0.18400427859456039 -0.1134692144457318 0 -0.18212358698306741 -0.12142770117184561 0 -0.1804061946459036 -0.0975656506999769 0 -0.18212358698306741 -0.12142770117184561 0 -0.17231042801981861 -0.11010941660198729 0 -0.16904936396502779 -0.1225698900008125 0 -0.16904936396502779 -0.1225698900008125 0 -0.16303186383997401 -0.11054530689275879 0 -0.1531014227808439 -0.1221458571451004 0 -0.16303186383997401 -0.11054530689275879 0 -0.1531014227808439 -0.1221458571451004 0 -0.15302467802266631 -0.099964594768007481 0 -0.17231042801981861 -0.11010941660198729 0 -0.16904936396502779 -0.1225698900008125 0 -0.16303186383997401 -0.11054530689275879 0 -0.16694113066512001 -0.098438534244542714 0 -0.1583311292500037 -0.086155785580523059 0 -0.15302467802266631 -0.099964594768007481 0 -0.16303186383997401 -0.11054530689275879 0 -0.16694113066512001 -0.098438534244542714 0 -0.15302467802266631 -0.099964594768007481 0 -0.17231042801981861 -0.11010941660198729 0 -0.16303186383997401 -0.11054530689275879 0 -0.16694113066512001 -0.098438534244542714 0 -0.16694113066512001 -0.098438534244542714 0 -0.1804061946459036 -0.0975656506999769 0 -0.1699979234477183 -0.086164615643162509 0 -0.19331927689223261 -0.094690670375105077 0 -0.18400427859456039 -0.1134692144457318 0 -0.1804061946459036 -0.0975656506999769 0 -0.17231042801981861 -0.11010941660198729 0 -0.16694113066512001 -0.098438534244542714 0 -0.1804061946459036 -0.0975656506999769 0 -0.1942101978544846 -0.078703118630565005 0 -0.1804061946459036 -0.0975656506999769 0 -0.17868880230873979 -0.073703600228108263 0 -0.1804061946459036 -0.0975656506999769 0 -0.17868880230873979 -0.073703600228108263 0 -0.1804061946459036 -0.0975656506999769 0 -0.17868880230873979 -0.073703600228108263 0 -0.1699979234477183 -0.086164615643162509 0 -0.1942101978544846 -0.078703118630565005 0 -0.17868880230873979 -0.073703600228108263 0 -0.1807163674973549 -0.058420493156073998 0 -0.1942101978544846 -0.078703118630565005 0 -0.1807163674973549 -0.058420493156073998 0 -0.17868880230873979 -0.073703600228108263 0 -0.16456215259537851 -0.07423447470758808 0 -0.1687761726195266 -0.062055246708151823 0 -0.16456215259537851 -0.07423447470758808 0 -0.1601060057786266 -0.063048208625582775 0 -0.1687761726195266 -0.062055246708151823 0 -0.17868880230873979 -0.073703600228108263 0 -0.16456215259537851 -0.07423447470758808 0 -0.1699979234477183 -0.086164615643162509 0 -0.16456215259537851 -0.07423447470758808 0 -0.1601060057786266 -0.063048208625582775 0 -0.15147288216765581 -0.074279391460000108 0 -0.16694113066512001 -0.098438534244542714 0 -0.1699979234477183 -0.086164615643162509 0 -0.1583311292500037 -0.086155785580523059 0 -0.16456215259537851 -0.07423447470758808 0 -0.1699979234477183 -0.086164615643162509 0 -0.1583311292500037 -0.086155785580523059 0 -0.16456215259537851 -0.07423447470758808 0 -0.1583311292500037 -0.086155785580523059 0 -0.15147288216765581 -0.074279391460000108 0 -0.1583311292500037 -0.086155785580523059 0 -0.1406917504718985 -0.083199174386461974 0 -0.15147288216765581 -0.074279391460000108 0 -0.1583311292500037 -0.086155785580523059 0 -0.1406917504718985 -0.083199174386461974 0 -0.15302467802266631 -0.099964594768007481 0 -0.1601060057786266 -0.063048208625582775 0 -0.15147288216765581 -0.074279391460000108 0 -0.14916280428309589 -0.053864076679432472 0 -0.15147288216765581 -0.074279391460000108 0 -0.13891648936515211 -0.064472249171247775 0 -0.14916280428309589 -0.053864076679432472 0 -0.1406917504718985 -0.083199174386461974 0 -0.15147288216765581 -0.074279391460000108 0 -0.13891648936515211 -0.064472249171247775 0 -0.12197003300458489 -0.067133964797042034 0 -0.1406917504718985 -0.083199174386461974 0 -0.13891648936515211 -0.064472249171247775 0 -0.121811479392537 -0.084095963505499416 0 -0.12197003300458489 -0.067133964797042034 0 -0.1406917504718985 -0.083199174386461974 0 -0.121811479392537 -0.084095963505499416 0 -0.1406917504718985 -0.083199174386461974 0 -0.13931556210068971 -0.10629227142291391 0 -0.11605893441195141 -0.10185107539240761 0 -0.121811479392537 -0.084095963505499416 0 -0.13931556210068971 -0.10629227142291391 0 -0.11422347955810171 -0.1204243593602408 0 -0.13931556210068971 -0.10629227142291391 0 -0.11422347955810171 -0.1204243593602408 0 -0.13445671698849809 -0.1291024538471422 0 -0.13931556210068971 -0.10629227142291391 0 -0.13445671698849809 -0.1291024538471422 0 -0.13931556210068971 -0.10629227142291391 0 -0.1531014227808439 -0.1221458571451004 0 -0.13931556210068971 -0.10629227142291391 0 -0.1531014227808439 -0.1221458571451004 0 -0.15302467802266631 -0.099964594768007481 0 -0.1406917504718985 -0.083199174386461974 0 -0.13931556210068971 -0.10629227142291391 0 -0.15302467802266631 -0.099964594768007481 0 -0.14079925107272581 -0.02334449083682992 0 -0.15349169287978739 -0.035208883327978051 0 -0.15939520176274349 -0.015620398581745401 0 -0.14079925107272581 -0.02334449083682992 0 -0.14275634286812811 -0.006203461430080404 0 -0.15939520176274349 -0.015620398581745401 0 -0.14275634286812811 -0.006203461430080404 0 -0.15939520176274349 -0.015620398581745401 0 -0.15796117991031841 -0.00029962151665172479 0 -0.14079925107272581 -0.02334449083682992 0 -0.14275634286812811 -0.006203461430080404 0 -0.1278640484455188 -0.012334690821253821 0 -0.14275634286812811 -0.006203461430080404 0 -0.1278640484455188 -0.012334690821253821 0 -0.1273771369441013 0.0023450629401116992 0 -0.12411398995058071 -0.026208981462584841 0 -0.14079925107272581 -0.02334449083682992 0 -0.1278640484455188 -0.012334690821253821 0 -0.12411398995058071 -0.026208981462584841 0 -0.14079925107272581 -0.02334449083682992 0 -0.13241258759658719 -0.044529255409706578 0 -0.13891648936515211 -0.064472249171247775 0 -0.13241258759658719 -0.044529255409706578 0 -0.14916280428309589 -0.053864076679432472 0 -0.12197003300458489 -0.067133964797042034 0 -0.13891648936515211 -0.064472249171247775 0 -0.13241258759658719 -0.044529255409706578 0 -0.14079925107272581 -0.02334449083682992 0 -0.13241258759658719 -0.044529255409706578 0 -0.15349169287978739 -0.035208883327978051 0 -0.14916280428309589 -0.053864076679432472 0 -0.15349169287978739 -0.035208883327978051 0 -0.16249228466986629 -0.048723367468166891 0 -0.13241258759658719 -0.044529255409706578 0 -0.14916280428309589 -0.053864076679432472 0 -0.15349169287978739 -0.035208883327978051 0 -0.15349169287978739 -0.035208883327978051 0 -0.16249228466986629 -0.048723367468166891 0 -0.17525401763441231 -0.025979499284370731 0 -0.16249228466986629 -0.048723367468166891 0 -0.17697140997157609 -0.049841549756239563 0 -0.17525401763441231 -0.025979499284370731 0 -0.1601060057786266 -0.063048208625582775 0 -0.14916280428309589 -0.053864076679432472 0 -0.16249228466986629 -0.048723367468166891 0 -0.1601060057786266 -0.063048208625582775 0 -0.16249228466986629 -0.048723367468166891 0 -0.1687761726195266 -0.062055246708151823 0 -0.16249228466986629 -0.048723367468166891 0 -0.1687761726195266 -0.062055246708151823 0 -0.17697140997157609 -0.049841549756239563 0 -0.17868880230873979 -0.073703600228108263 0 -0.17697140997157609 -0.049841549756239563 0 -0.17868880230873979 -0.073703600228108263 0 -0.17697140997157609 -0.049841549756239563 0 -0.1807163674973549 -0.058420493156073998 0 -0.17868880230873979 -0.073703600228108263 0 -0.1687761726195266 -0.062055246708151823 0 -0.17697140997157609 -0.049841549756239563 0 -0.17697140997157609 -0.049841549756239563 0 -0.187061179232277 -0.050545000195171969 0 -0.1807163674973549 -0.058420493156073998 0 -0.17697140997157609 -0.049841549756239563 0 -0.17525401763441231 -0.025979499284370731 0 -0.17697140997157609 -0.049841549756239563 0 -0.1844822702309237 -0.037308153316215523 0 -0.17525401763441231 -0.025979499284370731 0 -0.17697140997157609 -0.049841549756239563 0 -0.187061179232277 -0.050545000195171969 0 -0.1844822702309237 -0.037308153316215523 0 -0.1844822702309237 -0.037308153316215523 0 -0.17525401763441231 -0.025979499284370731 0 -0.19881160556081021 -0.01876222092397466 0 -0.17525401763441231 -0.025979499284370731 0 -0.17967452986780849 -0.0030086181600807401 0 -0.19881160556081021 -0.01876222092397466 0 -0.15349169287978739 -0.035208883327978051 0 -0.17525401763441231 -0.025979499284370731 0 -0.15939520176274349 -0.015620398581745401 0 -0.17525401763441231 -0.025979499284370731 0 -0.15939520176274349 -0.015620398581745401 0 -0.17967452986780849 -0.0030086181600807401 0 -0.15939520176274349 -0.015620398581745401 0 -0.15796117991031841 -0.00029962151665172479 0 -0.17967452986780849 -0.0030086181600807401 0 -0.17967452986780849 -0.0030086181600807401 0 -0.19881160556081021 -0.01876222092397466 0 -0.20680301002479959 -0.0020434230711429339 0 -0.1844822702309237 -0.037308153316215523 0 -0.19881160556081021 -0.01876222092397466 0 -0.19797908447346779 -0.034540675054344362 0 -0.19881160556081021 -0.01876222092397466 0 -0.19797908447346779 -0.034540675054344362 0 -0.2111815313078087 -0.036308133086206937 0 -0.19881160556081021 -0.01876222092397466 0 -0.2111815313078087 -0.036308133086206937 0 -0.19881160556081021 -0.01876222092397466 0 -0.2111815313078087 -0.036308133086206937 0 -0.21993326537292579 -0.016570742696256829 0 -0.19881160556081021 -0.01876222092397466 0 -0.20680301002479959 -0.0020434230711429339 0 -0.21993326537292579 -0.016570742696256829 0 -0.20680301002479959 -0.0020434230711429339 0 -0.21993326537292579 -0.016570742696256829 0 -0.22850437187820721 0.00061554774341724197 0 -0.187061179232277 -0.050545000195171969 0 -0.1807163674973549 -0.058420493156073998 0 -0.19569491766720151 -0.061370611856350392 0 -0.187061179232277 -0.050545000195171969 0 -0.19569491766720151 -0.061370611856350392 0 -0.1974409307943287 -0.045784192890980333 0 -0.19569491766720151 -0.061370611856350392 0 -0.1974409307943287 -0.045784192890980333 0 -0.20783277774853701 -0.056374475910446593 0 -0.187061179232277 -0.050545000195171969 0 -0.1844822702309237 -0.037308153316215523 0 -0.1974409307943287 -0.045784192890980333 0 -0.1844822702309237 -0.037308153316215523 0 -0.1974409307943287 -0.045784192890980333 0 -0.19797908447346779 -0.034540675054344362 0 -0.1974409307943287 -0.045784192890980333 0 -0.19797908447346779 -0.034540675054344362 0 -0.2111815313078087 -0.036308133086206937 0 -0.1974409307943287 -0.045784192890980333 0 -0.2111815313078087 -0.036308133086206937 0 -0.20783277774853701 -0.056374475910446593 0 -0.2111815313078087 -0.036308133086206937 0 -0.2235514570548072 -0.053854045248439182 0 -0.21482267827762841 -0.069082647852091478 0 -0.20783277774853701 -0.056374475910446593 0 -0.2235514570548072 -0.053854045248439182 0 -0.2111815313078087 -0.036308133086206937 0 -0.20783277774853701 -0.056374475910446593 0 -0.2235514570548072 -0.053854045248439182 0 -0.2359213828018043 -0.071399957410672343 0 -0.2235514570548072 -0.053854045248439182 0 -0.23385975453729951 -0.05448316257834377 0 -0.2235514570548072 -0.053854045248439182 0 -0.23385975453729951 -0.05448316257834377 0 -0.23195090370150159 -0.044148728843497582 0 -0.2111815313078087 -0.036308133086206937 0 -0.23195090370150159 -0.044148728843497582 0 -0.2330954250503823 -0.030605580137893669 0 -0.2111815313078087 -0.036308133086206937 0 -0.2235514570548072 -0.053854045248439182 0 -0.23195090370150159 -0.044148728843497582 0 -0.2440152745910836 -0.048529918810766987 0 -0.25210916638036568 -0.025659880210862549 0 -0.23195090370150159 -0.044148728843497582 0 -0.2440152745910836 -0.048529918810766987 0 -0.2330954250503823 -0.030605580137893669 0 -0.2440152745910836 -0.048529918810766987 0 -0.2330954250503823 -0.030605580137893669 0 -0.25210916638036568 -0.025659880210862549 0 -0.2359213828018043 -0.071399957410672343 0 -0.2440152745910836 -0.048529918810766987 0 -0.2460442741291925 -0.056732515276429897 0 -0.2359213828018043 -0.071399957410672343 0 -0.2440152745910836 -0.048529918810766987 0 -0.2359213828018043 -0.071399957410672343 0 -0.23385975453729951 -0.05448316257834377 0 -0.2440152745910836 -0.048529918810766987 0 -0.23385975453729951 -0.05448316257834377 0 -0.23195090370150159 -0.044148728843497582 0 -0.2440152745910836 -0.048529918810766987 0 -0.2440152745910836 -0.048529918810766987 0 -0.2460442741291925 -0.056732515276429897 0 -0.25586239660102372 -0.042106716883949957 0 -0.21993326537292579 -0.016570742696256829 0 -0.2409228609234593 -0.01213331886889705 0 -0.22850437187820721 0.00061554774341724197 0 -0.21993326537292579 -0.016570742696256829 0 -0.2330954250503823 -0.030605580137893669 0 -0.2409228609234593 -0.01213331886889705 0 -0.2111815313078087 -0.036308133086206937 0 -0.21993326537292579 -0.016570742696256829 0 -0.2330954250503823 -0.030605580137893669 0 -0.2330954250503823 -0.030605580137893669 0 -0.2409228609234593 -0.01213331886889705 0 -0.25210916638036568 -0.025659880210862549 0 -0.2409228609234593 -0.01213331886889705 0 -0.25132042997239518 0.0027134119798401068 0 -0.22850437187820721 0.00061554774341724197 0 -0.2409228609234593 -0.01213331886889705 0 -0.26431478179583978 -0.01186883573312463 0 -0.25132042997239518 0.0027134119798401068 0 -0.2409228609234593 -0.01213331886889705 0 -0.26431478179583978 -0.01186883573312463 0 -0.25210916638036568 -0.025659880210862549 0 -0.26431478179583978 -0.01186883573312463 0 -0.25210916638036568 -0.025659880210862549 0 -0.26885463380623098 -0.032431385670777198 0 -0.26431478179583978 -0.01186883573312463 0 -0.28272693982295583 -0.022072801118422261 0 -0.26885463380623098 -0.032431385670777198 0 -0.26431478179583978 -0.01186883573312463 0 -0.2820771903446922 -0.0013122005201030101 0 -0.28272693982295583 -0.022072801118422261 0 -0.26431478179583978 -0.01186883573312463 0 -0.2820771903446922 -0.0013122005201030101 0 -0.26646431581863778 0.01029557754540468 0 -0.2820771903446922 -0.0013122005201030101 0 -0.29531588189047731 -0.01459302740547606 0 -0.28272693982295583 -0.022072801118422261 0 -0.2820771903446922 -0.0013122005201030101 0 -0.29531588189047731 -0.01459302740547606 0 -0.30047775033007851 -0.00039401612408775783 0 -0.28272693982295583 -0.022072801118422261 0 -0.29548818451705972 -0.026431314805352931 0 -0.29006158744840338 -0.043009214960059237 0 -0.29531588189047731 -0.01459302740547606 0 -0.28272693982295583 -0.022072801118422261 0 -0.29548818451705972 -0.026431314805352931 0 -0.30546101391149699 -0.021623392358951481 0 -0.31536924438116293 -0.015921951660718081 0 -0.31269309410946189 -0.035953378537937578 0 -0.29531588189047731 -0.01459302740547606 0 -0.29548818451705972 -0.026431314805352931 0 -0.30546101391149699 -0.021623392358951481 0 -0.29548818451705972 -0.026431314805352931 0 -0.30546101391149699 -0.021623392358951481 0 -0.30306546886548719 -0.032455918975325043 0 -0.30546101391149699 -0.021623392358951481 0 -0.31269309410946189 -0.035953378537937578 0 -0.30546101391149699 -0.021623392358951481 0 -0.30306546886548719 -0.032455918975325043 0 -0.31269309410946189 -0.035953378537937578 0 -0.30546101391149699 -0.021623392358951481 0 -0.30702321298661528 -0.0098616365840560535 0 -0.31536924438116293 -0.015921951660718081 0 -0.30702321298661528 -0.0098616365840560535 0 -0.30047775033007851 -0.00039401612408775783 0 -0.31849217441985911 0.0032242046289520012 0 -0.29531588189047731 -0.01459302740547606 0 -0.30702321298661528 -0.0098616365840560535 0 -0.30047775033007851 -0.00039401612408775783 0 -0.29531588189047731 -0.01459302740547606 0 -0.30546101391149699 -0.021623392358951481 0 -0.30702321298661528 -0.0098616365840560535 0 -0.30785263576887473 -0.062005008750064983 0 -0.31269309410946189 -0.035953378537937578 0 -0.30785263576887473 -0.062005008750064983 0 -0.29006158744840338 -0.043009214960059237 0 -0.31269309410946189 -0.035953378537937578 0 -0.30306546886548719 -0.032455918975325043 0 -0.29006158744840338 -0.043009214960059237 0 -0.31269309410946189 -0.035953378537937578 0 -0.29006158744840338 -0.043009214960059237 0 -0.31269309410946189 -0.035953378537937578 0 -0.29548818451705972 -0.026431314805352931 0 -0.30306546886548719 -0.032455918975325043 0 -0.29006158744840338 -0.043009214960059237 0 -0.30785263576887473 -0.062005008750064983 0 -0.29006158744840338 -0.043009214960059237 0 -0.29043964680931811 -0.063340758069959313 0 -0.29006158744840338 -0.043009214960059237 0 -0.27571433008302992 -0.061323808156972907 0 -0.29043964680931811 -0.063340758069959313 0 -0.27571433008302992 -0.061323808156972907 0 -0.26805293078879788 -0.049870865118244581 0 -0.25908974683711639 -0.062912752445689821 0 -0.29006158744840338 -0.043009214960059237 0 -0.27571433008302992 -0.061323808156972907 0 -0.26805293078879788 -0.049870865118244581 0 -0.28272693982295583 -0.022072801118422261 0 -0.29006158744840338 -0.043009214960059237 0 -0.26885463380623098 -0.032431385670777198 0 -0.29006158744840338 -0.043009214960059237 0 -0.26805293078879788 -0.049870865118244581 0 -0.29006158744840338 -0.043009214960059237 0 -0.26805293078879788 -0.049870865118244581 0 -0.26885463380623098 -0.032431385670777198 0 -0.2440152745910836 -0.048529918810766987 0 -0.25210916638036568 -0.025659880210862549 0 -0.25586239660102372 -0.042106716883949957 0 -0.26805293078879788 -0.049870865118244581 0 -0.26885463380623098 -0.032431385670777198 0 -0.25586239660102372 -0.042106716883949957 0 -0.25210916638036568 -0.025659880210862549 0 -0.26885463380623098 -0.032431385670777198 0 -0.25586239660102372 -0.042106716883949957 0 -0.2460442741291925 -0.056732515276429897 0 -0.26805293078879788 -0.049870865118244581 0 -0.2460442741291925 -0.056732515276429897 0 -0.26805293078879788 -0.049870865118244581 0 -0.25908974683711639 -0.062912752445689821 0 -0.2460442741291925 -0.056732515276429897 0 -0.26805293078879788 -0.049870865118244581 0 -0.25586239660102372 -0.042106716883949957 0 -0.24621250417125429 -0.067242688607955695 0 -0.2460442741291925 -0.056732515276429897 0 -0.25908974683711639 -0.062912752445689821 0 -0.24621250417125429 -0.067242688607955695 0 -0.25908974683711639 -0.062912752445689821 0 -0.252754029676304 -0.071454636367457428 0 -0.24101683233652779 -0.07862751170581421 0 -0.252754029676304 -0.071454636367457428 0 -0.26402766811367417 -0.083484384069295273 0 -0.25908974683711639 -0.062912752445689821 0 -0.252754029676304 -0.071454636367457428 0 -0.26621243399467659 -0.070844567870559746 0 -0.252754029676304 -0.071454636367457428 0 -0.26402766811367417 -0.083484384069295273 0 -0.26621243399467659 -0.070844567870559746 0 -0.24101683233652779 -0.07862751170581421 0 -0.26402766811367417 -0.083484384069295273 0 -0.25454071313255938 -0.097810231909066098 0 -0.26402766811367417 -0.083484384069295273 0 -0.27094601368544552 -0.10060299140421709 0 -0.28369928052750421 -0.089996057638050242 0 -0.26402766811367417 -0.083484384069295273 0 -0.27947639526325851 -0.075047258313383283 0 -0.28369928052750421 -0.089996057638050242 0 -0.27571433008302992 -0.061323808156972907 0 -0.25908974683711639 -0.062912752445689821 0 -0.26621243399467659 -0.070844567870559746 0 -0.27571433008302992 -0.061323808156972907 0 -0.27947639526325851 -0.075047258313383283 0 -0.26621243399467659 -0.070844567870559746 0 -0.26402766811367417 -0.083484384069295273 0 -0.27947639526325851 -0.075047258313383283 0 -0.26621243399467659 -0.070844567870559746 0 -0.25700205454408459 -0.1228995308742117 0 -0.25028307647261949 -0.1119170655065333 0 -0.26806459392859111 -0.11699295211231781 0 -0.25700205454408459 -0.1228995308742117 0 -0.26806459392859111 -0.11699295211231781 0 -0.26633673802341562 -0.13121143084146969 0 -0.2466021228926524 -0.1215603100838341 0 -0.25700205454408459 -0.1228995308742117 0 -0.25028307647261949 -0.1119170655065333 0 -0.25454071313255938 -0.097810231909066098 0 -0.27094601368544552 -0.10060299140421709 0 -0.26806459392859111 -0.11699295211231781 0 -0.25028307647261949 -0.1119170655065333 0 -0.25454071313255938 -0.097810231909066098 0 -0.26806459392859111 -0.11699295211231781 0 -0.25454071313255938 -0.097810231909066098 0 -0.26806459392859111 -0.11699295211231781 0 -0.26402766811367417 -0.083484384069295273 0 -0.25454071313255938 -0.097810231909066098 0 -0.27094601368544552 -0.10060299140421709 0 -0.27094601368544552 -0.10060299140421709 0 -0.28498588272658609 -0.10953694176986691 0 -0.28369928052750421 -0.089996057638050242 0 -0.27094601368544552 -0.10060299140421709 0 -0.26806459392859111 -0.11699295211231781 0 -0.28498588272658609 -0.10953694176986691 0 -0.26806459392859111 -0.11699295211231781 0 -0.28498588272658609 -0.10953694176986691 0 -0.26633673802341562 -0.13121143084146969 0 -0.28498588272658609 -0.10953694176986691 0 -0.26633673802341562 -0.13121143084146969 0 -0.28390483366507108 -0.12795146285425149 0 -0.28498588272658609 -0.10953694176986691 0 -0.26633673802341562 -0.13121143084146969 0 -0.28498588272658609 -0.10953694176986691 0 -0.29939047470698632 -0.1138850881088251 0 -0.28390483366507108 -0.12795146285425149 0 -0.28498588272658609 -0.10953694176986691 0 -0.29939047470698632 -0.1138850881088251 0 -0.30363502742975002 -0.087862452698258112 0 -0.28498588272658609 -0.10953694176986691 0 -0.28369928052750421 -0.089996057638050242 0 -0.30363502742975002 -0.087862452698258112 0 -0.28498588272658609 -0.10953694176986691 0 -0.30363502742975002 -0.087862452698258112 0 -0.31112038415555038 -0.105912916312301 0 -0.30363502742975002 -0.087862452698258112 0 -0.31872509099925939 -0.09489525911115787 0 -0.29939047470698632 -0.1138850881088251 0 -0.30363502742975002 -0.087862452698258112 0 -0.31112038415555038 -0.105912916312301 0 -0.29939047470698632 -0.1138850881088251 0 -0.30363502742975002 -0.087862452698258112 0 -0.31112038415555038 -0.105912916312301 0 -0.29939047470698632 -0.1138850881088251 0 -0.3108150907057583 -0.123289039988229 0 -0.27571433008302992 -0.061323808156972907 0 -0.27947639526325851 -0.075047258313383283 0 -0.29043964680931811 -0.063340758069959313 0 -0.27947639526325851 -0.075047258313383283 0 -0.29326350469267087 -0.075637034816957854 0 -0.29043964680931811 -0.063340758069959313 0 -0.27947639526325851 -0.075047258313383283 0 -0.29326350469267087 -0.075637034816957854 0 -0.28369928052750421 -0.089996057638050242 0 -0.29326350469267087 -0.075637034816957854 0 -0.28369928052750421 -0.089996057638050242 0 -0.30363502742975002 -0.087862452698258112 0 -0.30363502742975002 -0.087862452698258112 0 -0.3147457864693044 -0.074949258596716542 0 -0.31872509099925939 -0.09489525911115787 0 -0.30363502742975002 -0.087862452698258112 0 -0.3147457864693044 -0.074949258596716542 0 -0.30785263576887473 -0.062005008750064983 0 -0.29326350469267087 -0.075637034816957854 0 -0.30363502742975002 -0.087862452698258112 0 -0.30785263576887473 -0.062005008750064983 0 -0.30363502742975002 -0.087862452698258112 0 -0.3147457864693044 -0.074949258596716542 0 -0.30785263576887473 -0.062005008750064983 0 -0.29326350469267087 -0.075637034816957854 0 -0.29043964680931811 -0.063340758069959313 0 -0.30785263576887473 -0.062005008750064983 0 -0.30363502742975002 -0.087862452698258112 0 -0.3147457864693044 -0.074949258596716542 0 -0.3258565455088529 -0.062036064495169851 0 -0.3147457864693044 -0.074949258596716542 0 -0.33306166037992252 -0.0763126202985034 0 -0.3258565455088529 -0.062036064495169851 0 -0.30785263576887473 -0.062005008750064983 0 -0.3147457864693044 -0.074949258596716542 0 -0.3258565455088529 -0.062036064495169851 0 -0.3147457864693044 -0.074949258596716542 0 -0.32890001459834822 -0.087516828956376788 0 -0.31872509099925939 -0.09489525911115787 0 -0.3147457864693044 -0.074949258596716542 0 -0.32890001459834822 -0.087516828956376788 0 -0.33306166037992252 -0.0763126202985034 0 -0.32890001459834822 -0.087516828956376788 0 -0.34026677525099192 -0.090589176101837157 0 -0.33306166037992252 -0.0763126202985034 0 -0.34026677525099192 -0.090589176101837157 0 -0.33306166037992252 -0.0763126202985034 0 -0.34026677525099192 -0.090589176101837157 0 -0.33306166037992252 -0.0763126202985034 0 -0.34512097989852569 -0.077376017677512551 0 -0.3363426704622316 -0.065040097883454634 0 -0.33306166037992252 -0.0763126202985034 0 -0.34512097989852569 -0.077376017677512551 0 -0.3363426704622316 -0.065040097883454634 0 -0.34775082305034588 -0.06364522302323769 0 -0.34512097989852569 -0.077376017677512551 0 -0.33306166037992252 -0.0763126202985034 0 -0.3258565455088529 -0.062036064495169851 0 -0.3363426704622316 -0.065040097883454634 0 -0.33306166037992252 -0.0763126202985034 0 -0.3258565455088529 -0.062036064495169851 0 -0.31112038415555038 -0.105912916312301 0 -0.3108150907057583 -0.123289039988229 0 -0.32269556115348802 -0.1134475374517785 0 -0.32269556115348802 -0.1134475374517785 0 -0.33213803149032362 -0.1206207689722909 0 -0.32288905220234743 -0.1288405143651869 0 -0.3108150907057583 -0.123289039988229 0 -0.32269556115348802 -0.1134475374517785 0 -0.32288905220234743 -0.1288405143651869 0 -0.32269556115348802 -0.1134475374517785 0 -0.31872509099925939 -0.09489525911115787 0 -0.33360553934550968 -0.1041906416325506 0 -0.31112038415555038 -0.105912916312301 0 -0.32269556115348802 -0.1134475374517785 0 -0.31872509099925939 -0.09489525911115787 0 -0.32890001459834822 -0.087516828956376788 0 -0.31872509099925939 -0.09489525911115787 0 -0.33360553934550968 -0.1041906416325506 0 -0.3434725512788051 -0.1026137903417853 0 -0.33360553934550968 -0.1041906416325506 0 -0.3466874303271234 -0.11958926053505441 0 -0.32890001459834822 -0.087516828956376788 0 -0.34026677525099192 -0.090589176101837157 0 -0.33360553934550968 -0.1041906416325506 0 -0.34026677525099192 -0.090589176101837157 0 -0.3434725512788051 -0.1026137903417853 0 -0.33360553934550968 -0.1041906416325506 0 -0.33360553934550968 -0.1041906416325506 0 -0.33213803149032362 -0.1206207689722909 0 -0.3466874303271234 -0.11958926053505441 0 -0.32269556115348802 -0.1134475374517785 0 -0.33360553934550968 -0.1041906416325506 0 -0.33213803149032362 -0.1206207689722909 0 -0.3466874303271234 -0.11958926053505441 0 -0.36980343247362518 -0.1100922289949047 0 -0.35999293180258313 -0.1258522389537349 0 -0.3466874303271234 -0.11958926053505441 0 -0.35333046019159542 -0.096086083097699004 0 -0.36980343247362518 -0.1100922289949047 0 -0.3434725512788051 -0.1026137903417853 0 -0.3466874303271234 -0.11958926053505441 0 -0.35333046019159542 -0.096086083097699004 0 -0.3466874303271234 -0.11958926053505441 0 -0.35333046019159542 -0.096086083097699004 0 -0.34026677525099192 -0.090589176101837157 0 -0.3434725512788051 -0.1026137903417853 0 -0.35333046019159542 -0.096086083097699004 0 -0.35333046019159542 -0.096086083097699004 0 -0.36980343247362518 -0.1100922289949047 0 -0.37347114863240299 -0.089088331268139143 0 -0.36980343247362518 -0.1100922289949047 0 -0.35999293180258313 -0.1258522389537349 0 -0.37152802352755399 -0.13164580699010159 0 -0.36980343247362518 -0.1100922289949047 0 -0.37152802352755399 -0.13164580699010159 0 -0.38235470820745771 -0.123978498660336 0 -0.34775082305034588 -0.06364522302323769 0 -0.35997349005606738 -0.07258290566034345 0 -0.36099236519079719 -0.058965157594587259 0 -0.34775082305034588 -0.06364522302323769 0 -0.34512097989852569 -0.077376017677512551 0 -0.35997349005606738 -0.07258290566034345 0 -0.35333046019159542 -0.096086083097699004 0 -0.35997349005606738 -0.07258290566034345 0 -0.35333046019159542 -0.096086083097699004 0 -0.34512097989852569 -0.077376017677512551 0 -0.35997349005606738 -0.07258290566034345 0 -0.34026677525099192 -0.090589176101837157 0 -0.35333046019159542 -0.096086083097699004 0 -0.34512097989852569 -0.077376017677512551 0 -0.35333046019159542 -0.096086083097699004 0 -0.37347114863240299 -0.089088331268139143 0 -0.35997349005606738 -0.07258290566034345 0 -0.37347114863240299 -0.089088331268139143 0 -0.35997349005606738 -0.07258290566034345 0 -0.37513495807632252 -0.068027960422620465 0 -0.35997349005606738 -0.07258290566034345 0 -0.36099236519079719 -0.058965157594587259 0 -0.37513495807632252 -0.068027960422620465 0 -0.37357085562444819 -0.050327950541553881 0 -0.36099236519079719 -0.058965157594587259 0 -0.37513495807632252 -0.068027960422620465 0 -0.37357085562444819 -0.050327950541553881 0 -0.36080282922430701 -0.047544586661118063 0 -0.36099236519079719 -0.058965157594587259 0 -0.34775082305034588 -0.06364522302323769 0 -0.36099236519079719 -0.058965157594587259 0 -0.34872123511329239 -0.051662319258650009 0 -0.36080282922430701 -0.047544586661118063 0 -0.36099236519079719 -0.058965157594587259 0 -0.34872123511329239 -0.051662319258650009 0 -0.34775082305034588 -0.06364522302323769 0 -0.34872123511329239 -0.051662319258650009 0 -0.33906118872719399 -0.055758100993783748 0 -0.35023980363822049 -0.040197400203048239 0 -0.3638826905141766 -0.035463803005797899 0 -0.34258176142245139 -0.029723406047678591 0 -0.35023980363822049 -0.040197400203048239 0 -0.34258176142245139 -0.029723406047678591 0 -0.35023980363822049 -0.040197400203048239 0 -0.34258176142245139 -0.029723406047678591 0 -0.33960488145915169 -0.038902248398748569 0 -0.34872123511329239 -0.051662319258650009 0 -0.35023980363822049 -0.040197400203048239 0 -0.33950963895876157 -0.046563850177851397 0 -0.36080282922430701 -0.047544586661118063 0 -0.35023980363822049 -0.040197400203048239 0 -0.3638826905141766 -0.035463803005797899 0 -0.36080282922430701 -0.047544586661118063 0 -0.34872123511329239 -0.051662319258650009 0 -0.35023980363822049 -0.040197400203048239 0 -0.37357085562444819 -0.050327950541553881 0 -0.3638826905141766 -0.035463803005797899 0 -0.38712728366555788 -0.02974425569958293 0 -0.37357085562444819 -0.050327950541553881 0 -0.36080282922430701 -0.047544586661118063 0 -0.3638826905141766 -0.035463803005797899 0 -0.3638826905141766 -0.035463803005797899 0 -0.36897360951007507 -0.015245218881805699 0 -0.38712728366555788 -0.02974425569958293 0 -0.36897360951007507 -0.015245218881805699 0 -0.38465333842141641 -0.0066435457767305304 0 -0.36979036210562988 0.0025511841975563729 0 -0.36897360951007507 -0.015245218881805699 0 -0.35319748844548088 -0.0026450940697062141 0 -0.36979036210562988 0.0025511841975563729 0 -0.36897360951007507 -0.015245218881805699 0 -0.35319748844548088 -0.0026450940697062141 0 -0.36897360951007507 -0.015245218881805699 0 -0.35319748844548088 -0.0026450940697062141 0 -0.34557514790129729 -0.01385186480739395 0 -0.35319748844548088 -0.0026450940697062141 0 -0.34557514790129729 -0.01385186480739395 0 -0.33742136738088668 0.0099550307423931228 0 -0.36897360951007507 -0.015245218881805699 0 -0.34557514790129729 -0.01385186480739395 0 -0.34258176142245139 -0.029723406047678591 0 -0.3638826905141766 -0.035463803005797899 0 -0.36897360951007507 -0.015245218881805699 0 -0.34258176142245139 -0.029723406047678591 0 -0.36897360951007507 -0.015245218881805699 0 -0.34258176142245139 -0.029723406047678591 0 -0.34258176142245139 -0.029723406047678591 0 -0.33053696792115572 -0.013249600709362951 0 -0.34557514790129729 -0.01385186480739395 0 -0.34258176142245139 -0.029723406047678591 0 -0.33053696792115572 -0.013249600709362951 0 -0.34258176142245139 -0.029723406047678591 0 -0.33123792958382192 -0.02655418191443467 0 -0.33053696792115572 -0.013249600709362951 0 -0.33123792958382192 -0.02655418191443467 0 -0.33053696792115572 -0.013249600709362951 0 -0.32518110448499649 -0.02265309324021984 0 -0.33123792958382192 -0.02655418191443467 0 -0.32494971957893121 -0.032132124138264453 0 -0.33294009451157502 -0.035012685436647553 0 -0.34258176142245139 -0.029723406047678591 0 -0.33123792958382192 -0.02655418191443467 0 -0.33294009451157502 -0.035012685436647553 0 -0.33053696792115572 -0.013249600709362951 0 -0.31849217441985911 0.0032242046289520012 0 -0.33742136738088668 0.0099550307423931228 0 -0.34557514790129729 -0.01385186480739395 0 -0.33053696792115572 -0.013249600709362951 0 -0.33742136738088668 0.0099550307423931228 0 -0.30702321298661528 -0.0098616365840560535 0 -0.31536924438116293 -0.015921951660718081 0 -0.31849217441985911 0.0032242046289520012 0 -0.31536924438116293 -0.015921951660718081 0 -0.31849217441985911 0.0032242046289520012 0 -0.33053696792115572 -0.013249600709362951 0 -0.31849217441985911 0.0032242046289520012 0 -0.33053696792115572 -0.013249600709362951 0 -0.31536924438116293 -0.015921951660718081 0 -0.31849217441985911 0.0032242046289520012 0 -0.31536924438116293 -0.015921951660718081 0 -0.31269309410946189 -0.035953378537937578 0 -0.31536924438116293 -0.015921951660718081 0 -0.3196636581113782 -0.026330909640423061 0 -0.31269309410946189 -0.035953378537937578 0 -0.33123792958382192 -0.02655418191443467 0 -0.32518110448499649 -0.02265309324021984 0 -0.32494971957893121 -0.032132124138264453 0 -0.32518110448499649 -0.02265309324021984 0 -0.3196636581113782 -0.026330909640423061 0 -0.32494971957893121 -0.032132124138264453 0 -0.33053696792115572 -0.013249600709362951 0 -0.32518110448499649 -0.02265309324021984 0 -0.31536924438116293 -0.015921951660718081 0 -0.32518110448499649 -0.02265309324021984 0 -0.31536924438116293 -0.015921951660718081 0 -0.3196636581113782 -0.026330909640423061 0 -0.31269309410946189 -0.035953378537937578 0 -0.32494971957893121 -0.032132124138264453 0 -0.3196636581113782 -0.026330909640423061 0 -0.31269309410946189 -0.035953378537937578 0 -0.32494971957893121 -0.032132124138264453 0 -0.32589239144387999 -0.038804272667940308 0 -0.32494971957893121 -0.032132124138264453 0 -0.33294009451157502 -0.035012685436647553 0 -0.31269309410946189 -0.035953378537937578 0 -0.32589239144387999 -0.038804272667940308 0 -0.32494971957893121 -0.032132124138264453 0 -0.31269309410946189 -0.035953378537937578 0 -0.32589239144387999 -0.038804272667940308 0 -0.32612594025468172 -0.0479092750983348 0 -0.31269309410946189 -0.035953378537937578 0 -0.3258565455088529 -0.062036064495169851 0 -0.32612594025468172 -0.0479092750983348 0 -0.30785263576887473 -0.062005008750064983 0 -0.31269309410946189 -0.035953378537937578 0 -0.3258565455088529 -0.062036064495169851 0 -0.31269309410946189 -0.035953378537937578 0 -0.3258565455088529 -0.062036064495169851 0 -0.3258565455088529 -0.062036064495169851 0 -0.32612594025468172 -0.0479092750983348 0 -0.32948021068586231 -0.057824552786275359 0 -0.3258565455088529 -0.062036064495169851 0 -0.32948021068586231 -0.057824552786275359 0 -0.33273312926745618 -0.050000536382928867 0 -0.32948021068586231 -0.057824552786275359 0 -0.33906118872719399 -0.055758100993783748 0 -0.32612594025468172 -0.0479092750983348 0 -0.33273312926745618 -0.050000536382928867 0 -0.32948021068586231 -0.057824552786275359 0 -0.32612594025468172 -0.0479092750983348 0 -0.33273312926745618 -0.050000536382928867 0 -0.33275310876475001 -0.043013900128517107 0 -0.3363426704622316 -0.065040097883454634 0 -0.32948021068586231 -0.057824552786275359 0 -0.33906118872719399 -0.055758100993783748 0 -0.3363426704622316 -0.065040097883454634 0 -0.3258565455088529 -0.062036064495169851 0 -0.32948021068586231 -0.057824552786275359 0 -0.3363426704622316 -0.065040097883454634 0 -0.34775082305034588 -0.06364522302323769 0 -0.33906118872719399 -0.055758100993783748 0 -0.34872123511329239 -0.051662319258650009 0 -0.33906118872719399 -0.055758100993783748 0 -0.33950963895876157 -0.046563850177851397 0 -0.33273312926745618 -0.050000536382928867 0 -0.33906118872719399 -0.055758100993783748 0 -0.33950963895876157 -0.046563850177851397 0 -0.35023980363822049 -0.040197400203048239 0 -0.33950963895876157 -0.046563850177851397 0 -0.33960488145915169 -0.038902248398748569 0 -0.33950963895876157 -0.046563850177851397 0 -0.33960488145915169 -0.038902248398748569 0 -0.33275310876475001 -0.043013900128517107 0 -0.34258176142245139 -0.029723406047678591 0 -0.33294009451157502 -0.035012685436647553 0 -0.34258176142245139 -0.029723406047678591 0 -0.33960488145915169 -0.038902248398748569 0 -0.33294009451157502 -0.035012685436647553 0 -0.32589239144387999 -0.038804272667940308 0 -0.33294009451157502 -0.035012685436647553 0 -0.33275310876475001 -0.043013900128517107 0 -0.33960488145915169 -0.038902248398748569 0 -0.33294009451157502 -0.035012685436647553 0 -0.33275310876475001 -0.043013900128517107 0 -0.32589239144387999 -0.038804272667940308 0 -0.32612594025468172 -0.0479092750983348 0 -0.33275310876475001 -0.043013900128517107 0 -0.33273312926745618 -0.050000536382928867 0 -0.33950963895876157 -0.046563850177851397 0 -0.33275310876475001 -0.043013900128517107 0 -0.3072444938386063 -0.24298546540808871 0 -0.29465074886808879 -0.2402547820199166 0 -0.31547147842988582 -0.2330670094454039 0 -0.29465074886808879 -0.2402547820199166 0 -0.31547147842988582 -0.2330670094454039 0 -0.31283906540333922 -0.25031215033235238 0 -0.3072444938386063 -0.24298546540808871 0 -0.31547147842988582 -0.2330670094454039 0 -0.29948497002523827 -0.2483657822867901 0 -0.3072444938386063 -0.24298546540808871 0 -0.29465074886808879 -0.2402547820199166 0 -0.29948497002523827 -0.2483657822867901 0 -0.3072444938386063 -0.24298546540808871 0 -0.30623861516307299 -0.24935013043731349 0 -0.31283906540333922 -0.25031215033235238 0 -0.3072444938386063 -0.24298546540808871 0 -0.30623861516307299 -0.24935013043731349 0 -0.30340245666429422 -0.2199120115188499 0 -0.29465074886808879 -0.2402547820199166 0 -0.31547147842988582 -0.2330670094454039 0 -0.30340245666429422 -0.2199120115188499 0 -0.31790591229007997 -0.21133065133653661 0 -0.31547147842988582 -0.2330670094454039 0 -0.30340245666429422 -0.2199120115188499 0 -0.29465074886808879 -0.2402547820199166 0 -0.28241226381596191 -0.21797562975109799 0 -0.29465074886808879 -0.2402547820199166 0 -0.27816771109320582 -0.2439982651616662 0 -0.28241226381596191 -0.21797562975109799 0 -0.29465074886808879 -0.2402547820199166 0 -0.27383001930629169 -0.24744255459442921 0 -0.28942662192718172 -0.25357945894426132 0 -0.29465074886808879 -0.2402547820199166 0 -0.27383001930629169 -0.24744255459442921 0 -0.29465074886808879 -0.2402547820199166 0 -0.27816771109320582 -0.2439982651616662 0 -0.27383001930629169 -0.24744255459442921 0 -0.28942662192718172 -0.25357945894426132 0 -0.29948497002523827 -0.2483657822867901 0 -0.29465074886808879 -0.2402547820199166 0 -0.27816771109320582 -0.2439982651616662 0 -0.27383001930629169 -0.24744255459442921 0 -0.26926560585898118 -0.2360615599669478 0 -0.27383001930629169 -0.24744255459442921 0 -0.26926560585898118 -0.2360615599669478 0 -0.25855016474293108 -0.24143028331881861 0 -0.27383001930629169 -0.24744255459442921 0 -0.25855016474293108 -0.24143028331881861 0 -0.2565674865322034 -0.25340195958415102 0 -0.27383001930629169 -0.24744255459442921 0 -0.25855016474293108 -0.24143028331881861 0 -0.26926560585898118 -0.2360615599669478 0 -0.25855016474293108 -0.24143028331881861 0 -0.25588924886857078 -0.22577026586403889 0 -0.24327031017957049 -0.23541801204320789 0 -0.25855016474293108 -0.24143028331881861 0 -0.24327031017957049 -0.23541801204320789 0 -0.25855016474293108 -0.24143028331881861 0 -0.25018128361314113 -0.24746468840205441 0 -0.2565674865322034 -0.25340195958415102 0 -0.25855016474293108 -0.24143028331881861 0 -0.25018128361314113 -0.24746468840205441 0 -0.24327031017957049 -0.23541801204320789 0 -0.25855016474293108 -0.24143028331881861 0 -0.25588924886857078 -0.22577026586403889 0 -0.26926560585898118 -0.2360615599669478 0 -0.25588924886857078 -0.22577026586403889 0 -0.26783798195298542 -0.22189041659364681 0 -0.27816771109320582 -0.2439982651616662 0 -0.26926560585898118 -0.2360615599669478 0 -0.28241226381596191 -0.21797562975109799 0 -0.26926560585898118 -0.2360615599669478 0 -0.26783798195298542 -0.22189041659364681 0 -0.28241226381596191 -0.21797562975109799 0 -0.27816771109320582 -0.2439982651616662 0 -0.28241226381596191 -0.21797562975109799 0 -0.26378480926842768 -0.2077542107925027 0 -0.286656816538718 -0.19195299434052959 0 -0.28241226381596191 -0.21797562975109799 0 -0.26783798195298542 -0.22189041659364681 0 -0.26378480926842768 -0.2077542107925027 0 -0.28241226381596191 -0.21797562975109799 0 -0.25588924886857078 -0.22577026586403889 0 -0.26783798195298542 -0.22189041659364681 0 -0.26378480926842768 -0.2077542107925027 0 -0.2448317244682672 -0.19494017856122331 0 -0.24405101732391901 -0.2151790953022156 0 -0.26378480926842768 -0.2077542107925027 0 -0.24405101732391901 -0.2151790953022156 0 -0.25588924886857078 -0.22577026586403889 0 -0.26378480926842768 -0.2077542107925027 0 -0.2448317244682672 -0.19494017856122331 0 -0.26378480926842768 -0.2077542107925027 0 -0.26312512204060101 -0.18530650416748581 0 -0.26378480926842768 -0.2077542107925027 0 -0.286656816538718 -0.19195299434052959 0 -0.26312512204060101 -0.18530650416748581 0 -0.286656816538718 -0.19195299434052959 0 -0.28241226381596191 -0.21797562975109799 0 -0.30591086076688379 -0.19847336016990141 0 -0.286656816538718 -0.19195299434052959 0 -0.28241226381596191 -0.21797562975109799 0 -0.30340245666429422 -0.2199120115188499 0 -0.28241226381596191 -0.21797562975109799 0 -0.30591086076688379 -0.19847336016990141 0 -0.30340245666429422 -0.2199120115188499 0 -0.30591086076688379 -0.19847336016990141 0 -0.31790591229007997 -0.21133065133653661 0 -0.286656816538718 -0.19195299434052959 0 -0.30591086076688379 -0.19847336016990141 0 -0.31180552805921091 -0.17430838359622669 0 -0.31180552805921091 -0.17430838359622669 0 -0.29090136926147409 -0.16593035892996141 0 -0.30878195228896921 -0.15303576335633209 0 -0.286656816538718 -0.19195299434052959 0 -0.29090136926147409 -0.16593035892996141 0 -0.286656816538718 -0.19195299434052959 0 -0.31180552805921091 -0.17430838359622669 0 -0.29090136926147409 -0.16593035892996141 0 -0.286656816538718 -0.19195299434052959 0 -0.29090136926147409 -0.16593035892996141 0 -0.27584707269233227 -0.1739466899300364 0 -0.27584707269233227 -0.1739466899300364 0 -0.26312512204060101 -0.18530650416748581 0 -0.26138401805284373 -0.16490714025156239 0 -0.286656816538718 -0.19195299434052959 0 -0.27584707269233227 -0.1739466899300364 0 -0.26312512204060101 -0.18530650416748581 0 -0.2448317244682672 -0.19494017856122331 0 -0.24561243161261531 -0.1747012618202311 0 -0.26312512204060101 -0.18530650416748581 0 -0.24561243161261531 -0.1747012618202311 0 -0.26312512204060101 -0.18530650416748581 0 -0.26138401805284373 -0.16490714025156239 0 -0.27584707269233227 -0.1739466899300364 0 -0.26138401805284373 -0.16490714025156239 0 -0.27641132505293098 -0.14990407015019561 0 -0.29090136926147409 -0.16593035892996141 0 -0.27584707269233227 -0.1739466899300364 0 -0.27641132505293098 -0.14990407015019561 0 -0.27641132505293098 -0.14990407015019561 0 -0.26295491861235881 -0.14972714028907499 0 -0.26633673802341562 -0.13121143084146969 0 -0.26138401805284373 -0.16490714025156239 0 -0.27641132505293098 -0.14990407015019561 0 -0.26295491861235881 -0.14972714028907499 0 -0.24768759332024501 -0.15288591991307249 0 -0.26633673802341562 -0.13121143084146969 0 -0.24768759332024501 -0.15288591991307249 0 -0.26295491861235881 -0.14972714028907499 0 -0.26633673802341562 -0.13121143084146969 0 -0.24768759332024501 -0.15288591991307249 0 -0.26138401805284373 -0.16490714025156239 0 -0.26295491861235881 -0.14972714028907499 0 -0.25700205454408459 -0.1228995308742117 0 -0.25066558347885931 -0.13251764995053431 0 -0.26633673802341562 -0.13121143084146969 0 -0.24768759332024501 -0.15288591991307249 0 -0.25066558347885931 -0.13251764995053431 0 -0.26633673802341562 -0.13121143084146969 0 -0.2466021228926524 -0.1215603100838341 0 -0.25700205454408459 -0.1228995308742117 0 -0.25066558347885931 -0.13251764995053431 0 -0.27641132505293098 -0.14990407015019561 0 -0.26633673802341562 -0.13121143084146969 0 -0.28390483366507108 -0.12795146285425149 0 -0.27641132505293098 -0.14990407015019561 0 -0.29514592198423018 -0.13990772351939329 0 -0.28390483366507108 -0.12795146285425149 0 -0.29939047470698632 -0.1138850881088251 0 -0.29514592198423018 -0.13990772351939329 0 -0.28390483366507108 -0.12795146285425149 0 -0.29090136926147409 -0.16593035892996141 0 -0.27641132505293098 -0.14990407015019561 0 -0.29514592198423018 -0.13990772351939329 0 -0.29090136926147409 -0.16593035892996141 0 -0.29514592198423018 -0.13990772351939329 0 -0.29514592198423018 -0.13990772351939329 0 -0.30878195228896921 -0.15303576335633209 0 -0.31204687939749698 -0.1371714365216575 0 -0.29090136926147409 -0.16593035892996141 0 -0.29514592198423018 -0.13990772351939329 0 -0.30878195228896921 -0.15303576335633209 0 -0.3108150907057583 -0.123289039988229 0 -0.29514592198423018 -0.13990772351939329 0 -0.31204687939749698 -0.1371714365216575 0 -0.29939047470698632 -0.1138850881088251 0 -0.3108150907057583 -0.123289039988229 0 -0.29514592198423018 -0.13990772351939329 0 -0.29939047470698632 -0.1138850881088251 0 -0.29514592198423018 -0.13990772351939329 0 -0.32288905220234743 -0.1288405143651869 0 -0.32258299715563782 -0.14068177926995709 0 -0.33321030378869931 -0.13646686722665249 0 -0.3108150907057583 -0.123289039988229 0 -0.31204687939749698 -0.1371714365216575 0 -0.32288905220234743 -0.1288405143651869 0 -0.31204687939749698 -0.1371714365216575 0 -0.32288905220234743 -0.1288405143651869 0 -0.32258299715563782 -0.14068177926995709 0 -0.30878195228896921 -0.15303576335633209 0 -0.32482557091518699 -0.15217937608711771 0 -0.32258299715563782 -0.14068177926995709 0 -0.30878195228896921 -0.15303576335633209 0 -0.31204687939749698 -0.1371714365216575 0 -0.32258299715563782 -0.14068177926995709 0 -0.32482557091518699 -0.15217937608711771 0 -0.32258299715563782 -0.14068177926995709 0 -0.33321030378869931 -0.13646686722665249 0 -0.32482557091518699 -0.15217937608711771 0 -0.34004440046265172 -0.14309243797241011 0 -0.33321030378869931 -0.13646686722665249 0 -0.34004440046265172 -0.14309243797241011 0 -0.35498504575946821 -0.15757720561970059 0 -0.3332048416520596 -0.1672909388971599 0 -0.34004440046265172 -0.14309243797241011 0 -0.3332048416520596 -0.1672909388971599 0 -0.32482557091518699 -0.15217937608711771 0 -0.34004440046265172 -0.14309243797241011 0 -0.3332048416520596 -0.1672909388971599 0 -0.3466874303271234 -0.11958926053505441 0 -0.34004440046265172 -0.14309243797241011 0 -0.33213803149032362 -0.1206207689722909 0 -0.32288905220234743 -0.1288405143651869 0 -0.33321030378869931 -0.13646686722665249 0 -0.33213803149032362 -0.1206207689722909 0 -0.3466874303271234 -0.11958926053505441 0 -0.33321030378869931 -0.13646686722665249 0 -0.3466874303271234 -0.11958926053505441 0 -0.34004440046265172 -0.14309243797241011 0 -0.33321030378869931 -0.13646686722665249 0 -0.34004440046265172 -0.14309243797241011 0 -0.33321030378869931 -0.13646686722665249 0 -0.3466874303271234 -0.11958926053505441 0 -0.35676717686891291 -0.14006723761877321 0 -0.35999293180258313 -0.1258522389537349 0 -0.3466874303271234 -0.11958926053505441 0 -0.34004440046265172 -0.14309243797241011 0 -0.35676717686891291 -0.14006723761877321 0 -0.35676717686891291 -0.14006723761877321 0 -0.37152802352755399 -0.13164580699010159 0 -0.37069541475874412 -0.1487336244607225 0 -0.35676717686891291 -0.14006723761877321 0 -0.35999293180258313 -0.1258522389537349 0 -0.37152802352755399 -0.13164580699010159 0 -0.35676717686891291 -0.14006723761877321 0 -0.37069541475874412 -0.1487336244607225 0 -0.35498504575946821 -0.15757720561970059 0 -0.37069541475874412 -0.1487336244607225 0 -0.35498504575946821 -0.15757720561970059 0 -0.37692746124962329 -0.16011968929401549 0 -0.37152802352755399 -0.13164580699010159 0 -0.37069541475874412 -0.1487336244607225 0 -0.38190833683646341 -0.1417380771930716 0 -0.34004440046265172 -0.14309243797241011 0 -0.35676717686891291 -0.14006723761877321 0 -0.35498504575946821 -0.15757720561970059 0 -0.34004440046265172 -0.14309243797241011 0 -0.35498504575946821 -0.15757720561970059 0 -0.35102499454429859 -0.17065527247529391 0 -0.35498504575946821 -0.15757720561970059 0 -0.36992569105628492 -0.1720619732669908 0 -0.35102499454429859 -0.17065527247529391 0 -0.35498504575946821 -0.15757720561970059 0 -0.3332048416520596 -0.1672909388971599 0 -0.35498504575946821 -0.15757720561970059 0 -0.36992569105628492 -0.1720619732669908 0 -0.37692746124962329 -0.16011968929401549 0 -0.35498504575946821 -0.15757720561970059 0 -0.36992569105628492 -0.1720619732669908 0 -0.36802329911298681 -0.18587483615006681 0 -0.36992569105628492 -0.1720619732669908 0 -0.38452179946839471 -0.1862127167391712 0 -0.36802329911298681 -0.18587483615006681 0 -0.36992569105628492 -0.1720619732669908 0 -0.34598439970938172 -0.18569097211732419 0 -0.35102499454429859 -0.17065527247529391 0 -0.36992569105628492 -0.1720619732669908 0 -0.34598439970938172 -0.18569097211732419 0 -0.36992569105628492 -0.1720619732669908 0 -0.34598439970938172 -0.18569097211732419 0 -0.35102499454429859 -0.17065527247529391 0 -0.34598439970938172 -0.18569097211732419 0 -0.3332048416520596 -0.1672909388971599 0 -0.34598439970938172 -0.18569097211732419 0 -0.3332048416520596 -0.1672909388971599 0 -0.32636528284146782 -0.19148943982190991 0 -0.3332048416520596 -0.1672909388971599 0 -0.32636528284146782 -0.19148943982190991 0 -0.31180552805921091 -0.17430838359622669 0 -0.32482557091518699 -0.15217937608711771 0 -0.3332048416520596 -0.1672909388971599 0 -0.31180552805921091 -0.17430838359622669 0 -0.30878195228896921 -0.15303576335633209 0 -0.32482557091518699 -0.15217937608711771 0 -0.31180552805921091 -0.17430838359622669 0 -0.3332048416520596 -0.1672909388971599 0 -0.32636528284146782 -0.19148943982190991 0 -0.30591086076688379 -0.19847336016990141 0 -0.32636528284146782 -0.19148943982190991 0 -0.31790591229007997 -0.21133065133653661 0 -0.30591086076688379 -0.19847336016990141 0 -0.31180552805921091 -0.17430838359622669 0 -0.32636528284146782 -0.19148943982190991 0 -0.32636528284146782 -0.19148943982190991 0 -0.31790591229007997 -0.21133065133653661 0 -0.33039187961118982 -0.20742389982875531 0 -0.31790591229007997 -0.21133065133653661 0 -0.33039187961118982 -0.20742389982875531 0 -0.32870803705144969 -0.21844997174213321 0 -0.33039187961118982 -0.20742389982875531 0 -0.32870803705144969 -0.21844997174213321 0 -0.33850246058748812 -0.21389845468103499 0 -0.32870803705144969 -0.21844997174213321 0 -0.33850246058748812 -0.21389845468103499 0 -0.33596699493009807 -0.21993263715474329 0 -0.33850246058748812 -0.21389845468103499 0 -0.34687159193856038 -0.2183762197826761 0 -0.3403652740897718 -0.22150288532491411 0 -0.33850246058748812 -0.21389845468103499 0 -0.3403652740897718 -0.22150288532491411 0 -0.33596699493009807 -0.21993263715474329 0 -0.33039187961118982 -0.20742389982875531 0 -0.33850246058748812 -0.21389845468103499 0 -0.34047770528546362 -0.2019509815621614 0 -0.33850246058748812 -0.21389845468103499 0 -0.34047770528546362 -0.2019509815621614 0 -0.34737571748628571 -0.2101963969508848 0 -0.34598439970938172 -0.18569097211732419 0 -0.32636528284146782 -0.19148943982190991 0 -0.34047770528546362 -0.2019509815621614 0 -0.32636528284146782 -0.19148943982190991 0 -0.33039187961118982 -0.20742389982875531 0 -0.34047770528546362 -0.2019509815621614 0 -0.34598439970938172 -0.18569097211732419 0 -0.35303310702934909 -0.20231631441727971 0 -0.36343771537771569 -0.19566750525459251 0 -0.34598439970938172 -0.18569097211732419 0 -0.34047770528546362 -0.2019509815621614 0 -0.35303310702934909 -0.20231631441727971 0 -0.36802329911298681 -0.18587483615006681 0 -0.34598439970938172 -0.18569097211732419 0 -0.36343771537771569 -0.19566750525459251 0 -0.35303310702934909 -0.20231631441727971 0 -0.36343771537771569 -0.19566750525459251 0 -0.36388592792924168 -0.20758305467352059 0 -0.36343771537771569 -0.19566750525459251 0 -0.37301156641091737 -0.20337184000283479 0 -0.36388592792924168 -0.20758305467352059 0 -0.36343771537771569 -0.19566750525459251 0 -0.37438048369549509 -0.19384422148204511 0 -0.37301156641091737 -0.20337184000283479 0 -0.36802329911298681 -0.18587483615006681 0 -0.36343771537771569 -0.19566750525459251 0 -0.37438048369549509 -0.19384422148204511 0 -0.37273312771996808 -0.21396345107145709 0 -0.37301156641091737 -0.20337184000283479 0 -0.36388592792924168 -0.20758305467352059 0 -0.37273312771996808 -0.21396345107145709 0 -0.36388592792924168 -0.20758305467352059 0 -0.36460053442081081 -0.21946742083422599 0 -0.36388592792924168 -0.20758305467352059 0 -0.35626724818121019 -0.21440977701126371 0 -0.36460053442081081 -0.21946742083422599 0 -0.35626724818121019 -0.21440977701126371 0 -0.34687159193856038 -0.2183762197826761 0 -0.35361393690670712 -0.22275298964725909 0 -0.35303310702934909 -0.20231631441727971 0 -0.36388592792924168 -0.20758305467352059 0 -0.35626724818121019 -0.21440977701126371 0 -0.35303310702934909 -0.20231631441727971 0 -0.35626724818121019 -0.21440977701126371 0 -0.34737571748628571 -0.2101963969508848 0 -0.34047770528546362 -0.2019509815621614 0 -0.35303310702934909 -0.20231631441727971 0 -0.34737571748628571 -0.2101963969508848 0 -0.33850246058748812 -0.21389845468103499 0 -0.34737571748628571 -0.2101963969508848 0 -0.34687159193856038 -0.2183762197826761 0 -0.35626724818121019 -0.21440977701126371 0 -0.34737571748628571 -0.2101963969508848 0 -0.34687159193856038 -0.2183762197826761 0 -0.34687159193856038 -0.2183762197826761 0 -0.3448729074691318 -0.22568858673477191 0 -0.3403652740897718 -0.22150288532491411 0 -0.34687159193856038 -0.2183762197826761 0 -0.3448729074691318 -0.22568858673477191 0 -0.35361393690670712 -0.22275298964725909 0 -0.3448729074691318 -0.22568858673477191 0 -0.35311939258201253 -0.23120947699362049 0 -0.35361393690670712 -0.22275298964725909 0 -0.3448729074691318 -0.22568858673477191 0 -0.35311939258201253 -0.23120947699362049 0 -0.3466300329275056 -0.23782645962689411 0 -0.35311939258201253 -0.23120947699362049 0 -0.35361393690670712 -0.22275298964725909 0 -0.36278739720748587 -0.22937453583313699 0 -0.35311939258201253 -0.23120947699362049 0 -0.36278739720748587 -0.22937453583313699 0 -0.35743223323550471 -0.2390192939344549 0 -0.35626724818121019 -0.21440977701126371 0 -0.35361393690670712 -0.22275298964725909 0 -0.36460053442081081 -0.21946742083422599 0 -0.36460053442081081 -0.21946742083422599 0 -0.36278739720748587 -0.22937453583313699 0 -0.37306962678156358 -0.22430756502184571 0 -0.35361393690670712 -0.22275298964725909 0 -0.36460053442081081 -0.21946742083422599 0 -0.36278739720748587 -0.22937453583313699 0 -0.36278739720748587 -0.22937453583313699 0 -0.37393716339703942 -0.23401667981853819 0 -0.37306962678156358 -0.22430756502184571 0 -0.36278739720748587 -0.22937453583313699 0 -0.37393716339703942 -0.23401667981853819 0 -0.36594725961251939 -0.23889039006825119 0 -0.37273312771996808 -0.21396345107145709 0 -0.36460053442081081 -0.21946742083422599 0 -0.37306962678156358 -0.22430756502184571 0 -0.37393540655460039 -0.25504906339868932 0 -0.37362469669529808 -0.24416340610428999 0 -0.363557814049559 -0.2486896754833777 0 -0.37362469669529808 -0.24416340610428999 0 -0.36594725961251939 -0.23889039006825119 0 -0.363557814049559 -0.2486896754833777 0 -0.37393716339703942 -0.23401667981853819 0 -0.37362469669529808 -0.24416340610428999 0 -0.36594725961251939 -0.23889039006825119 0 -0.36278739720748587 -0.22937453583313699 0 -0.36594725961251939 -0.23889039006825119 0 -0.35743223323550471 -0.2390192939344549 0 -0.36594725961251939 -0.23889039006825119 0 -0.363557814049559 -0.2486896754833777 0 -0.35743223323550471 -0.2390192939344549 0 -0.363557814049559 -0.2486896754833777 0 -0.35255150303394622 -0.24812522560144931 0 -0.35743223323550471 -0.2390192939344549 0 -0.35311939258201253 -0.23120947699362049 0 -0.35743223323550471 -0.2390192939344549 0 -0.3466300329275056 -0.23782645962689411 0 -0.35255150303394622 -0.24812522560144931 0 -0.35743223323550471 -0.2390192939344549 0 -0.3466300329275056 -0.23782645962689411 0 -0.35255150303394622 -0.24812522560144931 0 -0.3466300329275056 -0.23782645962689411 0 -0.3420777495351906 -0.24844208584564559 0 -0.33131030172746923 -0.25321851497678438 0 -0.33373364759712132 -0.2373308373461466 0 -0.32202724095639168 -0.2495658441092535 0 -0.33131030172746923 -0.25321851497678438 0 -0.33373364759712132 -0.2373308373461466 0 -0.33131030172746923 -0.25321851497678438 0 -0.3420777495351906 -0.24844208584564559 0 -0.33373364759712132 -0.2373308373461466 0 -0.3466300329275056 -0.23782645962689411 0 -0.3420777495351906 -0.24844208584564559 0 -0.33373364759712132 -0.2373308373461466 0 -0.3448729074691318 -0.22568858673477191 0 -0.33373364759712132 -0.2373308373461466 0 -0.33513500532203722 -0.22814340766163391 0 -0.3448729074691318 -0.22568858673477191 0 -0.33373364759712132 -0.2373308373461466 0 -0.3448729074691318 -0.22568858673477191 0 -0.3466300329275056 -0.23782645962689411 0 -0.33373364759712132 -0.2373308373461466 0 -0.3362922079916828 -0.22587923687089109 0 -0.33513500532203722 -0.22814340766163391 0 -0.31547147842988582 -0.2330670094454039 0 -0.3448729074691318 -0.22568858673477191 0 -0.3362922079916828 -0.22587923687089109 0 -0.33513500532203722 -0.22814340766163391 0 -0.3448729074691318 -0.22568858673477191 0 -0.3403652740897718 -0.22150288532491411 0 -0.3362922079916828 -0.22587923687089109 0 -0.3403652740897718 -0.22150288532491411 0 -0.3362922079916828 -0.22587923687089109 0 -0.33596699493009807 -0.21993263715474329 0 -0.32870803705144969 -0.21844997174213321 0 -0.3362922079916828 -0.22587923687089109 0 -0.33596699493009807 -0.21993263715474329 0 -0.33373364759712132 -0.2373308373461466 0 -0.33513500532203722 -0.22814340766163391 0 -0.31790591229007997 -0.21133065133653661 0 -0.32870803705144969 -0.21844997174213321 0 -0.31547147842988582 -0.2330670094454039 0 -0.3362922079916828 -0.22587923687089109 0 -0.31547147842988582 -0.2330670094454039 0 -0.32870803705144969 -0.21844997174213321 0 -0.3362922079916828 -0.22587923687089109 0 -0.31547147842988582 -0.2330670094454039 0 -0.33373364759712132 -0.2373308373461466 0 -0.33513500532203722 -0.22814340766163391 0 -0.31547147842988582 -0.2330670094454039 0 -0.33373364759712132 -0.2373308373461466 0 -0.31547147842988582 -0.2330670094454039 0 -0.32202724095639168 -0.2495658441092535 0 -0.31283906540333922 -0.25031215033235238 0 -0.31547147842988582 -0.2330670094454039 0 -0.32202724095639168 -0.2495658441092535 0 -0.33373364759712132 -0.2373308373461466 0 -0.32202724095639168 -0.2495658441092535 0 -0.42931567121415071 -0.25028064732030619 0 -0.41974440223132548 -0.2277223948390894 0 -0.42931567121415071 -0.25028064732030619 0 -0.43665732485841618 -0.24137016429136929 0 -0.41974440223132548 -0.2277223948390894 0 -0.43487007995442373 -0.25384069753834382 0 -0.42931567121415071 -0.25028064732030619 0 -0.43665732485841618 -0.24137016429136929 0 -0.43665732485841618 -0.24137016429136929 0 -0.41974440223132548 -0.2277223948390894 0 -0.44277641758923081 -0.23102430468348881 0 -0.43377720402095787 -0.21991138490827611 0 -0.41974440223132548 -0.2277223948390894 0 -0.44277641758923081 -0.23102430468348881 0 -0.43377720402095787 -0.21991138490827611 0 -0.41974440223132548 -0.2277223948390894 0 -0.42075205755079043 -0.21398522646416529 0 -0.41974440223132548 -0.2277223948390894 0 -0.40847937369743209 -0.24258689873782929 0 -0.40379864078896821 -0.22147517947459039 0 -0.42931567121415071 -0.25028064732030619 0 -0.41974440223132548 -0.2277223948390894 0 -0.40847937369743209 -0.24258689873782929 0 -0.3945867816951415 -0.25828321704239809 0 -0.40847937369743209 -0.24258689873782929 0 -0.3933004523496676 -0.24484402304582939 0 -0.40847937369743209 -0.24258689873782929 0 -0.3933004523496676 -0.24484402304582939 0 -0.39478669289115392 -0.23309544567896751 0 -0.3933004523496676 -0.24484402304582939 0 -0.38349803953804651 -0.2389949919606586 0 -0.38258347849844832 -0.24967798674395081 0 -0.3933004523496676 -0.24484402304582939 0 -0.38349803953804651 -0.2389949919606586 0 -0.39478669289115392 -0.23309544567896751 0 -0.37393716339703942 -0.23401667981853819 0 -0.37362469669529808 -0.24416340610428999 0 -0.38349803953804651 -0.2389949919606586 0 -0.37393540655460039 -0.25504906339868932 0 -0.37362469669529808 -0.24416340610428999 0 -0.38258347849844832 -0.24967798674395081 0 -0.37362469669529808 -0.24416340610428999 0 -0.38349803953804651 -0.2389949919606586 0 -0.38258347849844832 -0.24967798674395081 0 -0.37306962678156358 -0.22430756502184571 0 -0.38469596054732291 -0.22836918992304631 0 -0.38295547739377761 -0.21861943378263729 0 -0.37273312771996808 -0.21396345107145709 0 -0.37306962678156358 -0.22430756502184571 0 -0.38295547739377761 -0.21861943378263729 0 -0.37393716339703942 -0.23401667981853819 0 -0.38349803953804651 -0.2389949919606586 0 -0.38469596054732291 -0.22836918992304631 0 -0.37393716339703942 -0.23401667981853819 0 -0.37306962678156358 -0.22430756502184571 0 -0.38469596054732291 -0.22836918992304631 0 -0.38349803953804651 -0.2389949919606586 0 -0.38469596054732291 -0.22836918992304631 0 -0.39478669289115392 -0.23309544567896751 0 -0.38469596054732291 -0.22836918992304631 0 -0.39264909581396568 -0.2229573829789786 0 -0.38295547739377761 -0.21861943378263729 0 -0.39264909581396568 -0.2229573829789786 0 -0.39478669289115392 -0.23309544567896751 0 -0.40379864078896821 -0.22147517947459039 0 -0.40847937369743209 -0.24258689873782929 0 -0.39478669289115392 -0.23309544567896751 0 -0.40379864078896821 -0.22147517947459039 0 -0.40847937369743209 -0.24258689873782929 0 -0.40379864078896821 -0.22147517947459039 0 -0.39264909581396568 -0.2229573829789786 0 -0.40379864078896821 -0.22147517947459039 0 -0.39247153470499518 -0.2129117927155128 0 -0.38469596054732291 -0.22836918992304631 0 -0.39264909581396568 -0.2229573829789786 0 -0.39478669289115392 -0.23309544567896751 0 -0.40379864078896821 -0.22147517947459039 0 -0.39911790788050461 -0.2003634602113514 0 -0.40379864078896821 -0.22147517947459039 0 -0.39247153470499518 -0.2129117927155128 0 -0.39911790788050461 -0.2003634602113514 0 -0.40379864078896821 -0.22147517947459039 0 -0.40520524043689871 -0.20626505254016059 0 -0.39911790788050461 -0.2003634602113514 0 -0.40520524043689871 -0.20626505254016059 0 -0.39911790788050461 -0.2003634602113514 0 -0.41017313324850019 -0.2051641423578727 0 -0.40520524043689871 -0.20626505254016059 0 -0.39911790788050461 -0.2003634602113514 0 -0.39247153470499518 -0.2129117927155128 0 -0.38971867217429529 -0.20303686442097379 0 -0.39911790788050461 -0.2003634602113514 0 -0.39247153470499518 -0.2129117927155128 0 -0.38295547739377761 -0.21861943378263729 0 -0.38211351879485039 -0.2092072209849834 0 -0.39264909581396568 -0.2229573829789786 0 -0.39247153470499518 -0.2129117927155128 0 -0.38295547739377761 -0.21861943378263729 0 -0.38211351879485039 -0.2092072209849834 0 -0.38151862494823319 -0.19996558655041019 0 -0.38971867217429529 -0.20303686442097379 0 -0.39247153470499518 -0.2129117927155128 0 -0.38211351879485039 -0.2092072209849834 0 -0.38971867217429529 -0.20303686442097379 0 -0.37273312771996808 -0.21396345107145709 0 -0.37301156641091737 -0.20337184000283479 0 -0.38211351879485039 -0.2092072209849834 0 -0.37301156641091737 -0.20337184000283479 0 -0.38211351879485039 -0.2092072209849834 0 -0.38151862494823319 -0.19996558655041019 0 -0.37273312771996808 -0.21396345107145709 0 -0.38295547739377761 -0.21861943378263729 0 -0.38211351879485039 -0.2092072209849834 0 -0.36802329911298681 -0.18587483615006681 0 -0.37438048369549509 -0.19384422148204511 0 -0.38452179946839471 -0.1862127167391712 0 -0.38151862494823319 -0.19996558655041019 0 -0.38971867217429529 -0.20303686442097379 0 -0.38452179946839471 -0.1862127167391712 0 -0.37438048369549509 -0.19384422148204511 0 -0.38151862494823319 -0.19996558655041019 0 -0.38452179946839471 -0.1862127167391712 0 -0.37438048369549509 -0.19384422148204511 0 -0.37301156641091737 -0.20337184000283479 0 -0.38151862494823319 -0.19996558655041019 0 -0.39911790788050461 -0.2003634602113514 0 -0.39550730918059213 -0.18407841519480589 0 -0.38452179946839471 -0.1862127167391712 0 -0.39911790788050461 -0.2003634602113514 0 -0.40135005364381798 -0.19305297691017151 0 -0.39550730918059213 -0.18407841519480589 0 -0.39911790788050461 -0.2003634602113514 0 -0.39550730918059213 -0.18407841519480589 0 -0.38971867217429529 -0.20303686442097379 0 -0.39911790788050461 -0.2003634602113514 0 -0.38452179946839471 -0.1862127167391712 0 -0.41017313324850019 -0.2051641423578727 0 -0.40060186426567512 -0.18260588987665591 0 -0.40135005364381798 -0.19305297691017151 0 -0.41017313324850019 -0.2051641423578727 0 -0.40060186426567512 -0.18260588987665591 0 -0.39911790788050461 -0.2003634602113514 0 -0.38452179946839471 -0.1862127167391712 0 -0.39911790788050461 -0.2003634602113514 0 -0.40135005364381798 -0.19305297691017151 0 -0.41017313324850019 -0.2051641423578727 0 -0.40882722491020068 -0.19324634934951379 0 -0.40670914653930851 -0.1871811045826946 0 -0.40060186426567512 -0.18260588987665591 0 -0.40882722491020068 -0.19324634934951379 0 -0.41182634361573828 -0.18846823012601879 0 -0.40670914653930851 -0.1871811045826946 0 -0.40882722491020068 -0.19324634934951379 0 -0.41017313324850019 -0.2051641423578727 0 -0.40060186426567512 -0.18260588987665591 0 -0.40882722491020068 -0.19324634934951379 0 -0.41332632127240471 -0.19520135196246871 0 -0.41182634361573828 -0.18846823012601879 0 -0.41182634361573828 -0.18846823012601879 0 -0.42015528071935893 -0.19373976728588371 0 -0.42086010939994178 -0.18624419393877539 0 -0.41332632127240471 -0.19520135196246871 0 -0.41182634361573828 -0.18846823012601879 0 -0.42015528071935893 -0.19373976728588371 0 -0.42015528071935893 -0.19373976728588371 0 -0.41596892406105851 -0.2005599774501266 0 -0.4250272884910265 -0.2012921483654643 0 -0.41596892406105851 -0.2005599774501266 0 -0.41798035083784391 -0.20525037365940721 0 -0.4250272884910265 -0.2012921483654643 0 -0.41332632127240471 -0.19520135196246871 0 -0.42015528071935893 -0.19373976728588371 0 -0.41596892406105851 -0.2005599774501266 0 -0.41596892406105851 -0.2005599774501266 0 -0.41190905555667651 -0.19876129696974801 0 -0.41017313324850019 -0.2051641423578727 0 -0.40882722491020068 -0.19324634934951379 0 -0.41190905555667651 -0.19876129696974801 0 -0.41017313324850019 -0.2051641423578727 0 -0.40882722491020068 -0.19324634934951379 0 -0.41332632127240471 -0.19520135196246871 0 -0.41190905555667651 -0.19876129696974801 0 -0.41332632127240471 -0.19520135196246871 0 -0.41596892406105851 -0.2005599774501266 0 -0.41190905555667651 -0.19876129696974801 0 -0.41974440223132548 -0.2277223948390894 0 -0.40379864078896821 -0.22147517947459039 0 -0.41017313324850019 -0.2051641423578727 0 -0.41974440223132548 -0.2277223948390894 0 -0.41017313324850019 -0.2051641423578727 0 -0.42075205755079043 -0.21398522646416529 0 -0.40379864078896821 -0.22147517947459039 0 -0.40520524043689871 -0.20626505254016059 0 -0.41017313324850019 -0.2051641423578727 0 -0.41974440223132548 -0.2277223948390894 0 -0.41017313324850019 -0.2051641423578727 0 -0.41017313324850019 -0.2051641423578727 0 -0.42075205755079043 -0.21398522646416529 0 -0.41798035083784391 -0.20525037365940721 0 -0.42075205755079043 -0.21398522646416529 0 -0.41798035083784391 -0.20525037365940721 0 -0.4250272884910265 -0.2012921483654643 0 -0.41596892406105851 -0.2005599774501266 0 -0.41017313324850019 -0.2051641423578727 0 -0.41798035083784391 -0.20525037365940721 0 -0.42075205755079043 -0.21398522646416529 0 -0.43601245252430942 -0.20793643678791121 0 -0.4250272884910265 -0.2012921483654643 0 -0.43377720402095787 -0.21991138490827611 0 -0.42075205755079043 -0.21398522646416529 0 -0.43601245252430942 -0.20793643678791121 0 -0.42704416580793209 -0.1915833167308334 0 -0.4250272884910265 -0.2012921483654643 0 -0.43829012180726529 -0.19322062900912909 0 -0.43601245252430942 -0.20793643678791121 0 -0.4250272884910265 -0.2012921483654643 0 -0.43829012180726529 -0.19322062900912909 0 -0.42704416580793209 -0.1915833167308334 0 -0.43088802862206788 -0.18341984505491449 0 -0.43829012180726529 -0.19322062900912909 0 -0.42015528071935893 -0.19373976728588371 0 -0.42704416580793209 -0.1915833167308334 0 -0.42086010939994178 -0.18624419393877539 0 -0.42015528071935893 -0.19373976728588371 0 -0.42704416580793209 -0.1915833167308334 0 -0.4250272884910265 -0.2012921483654643 0 -0.4285734277027195 -0.1734756855885477 0 -0.43088802862206788 -0.18341984505491449 0 -0.41995474680429618 -0.17713819565942951 0 -0.42704416580793209 -0.1915833167308334 0 -0.43088802862206788 -0.18341984505491449 0 -0.42086010939994178 -0.18624419393877539 0 -0.43088802862206788 -0.18341984505491449 0 -0.41995474680429618 -0.17713819565942951 0 -0.42086010939994178 -0.18624419393877539 0 -0.43088802862206788 -0.18341984505491449 0 -0.44104422433457419 -0.1777922577957152 0 -0.43829012180726529 -0.19322062900912909 0 -0.4285734277027195 -0.1734756855885477 0 -0.43088802862206788 -0.18341984505491449 0 -0.44104422433457419 -0.1777922577957152 0 -0.4285734277027195 -0.1734756855885477 0 -0.4344270590450659 -0.1609053943072484 0 -0.44104422433457419 -0.1777922577957152 0 -0.4285734277027195 -0.1734756855885477 0 -0.4344270590450659 -0.1609053943072484 0 -0.4151480566294905 -0.1680004084026471 0 -0.4151480566294905 -0.1680004084026471 0 -0.40323096316088519 -0.16793215078578741 0 -0.41306883257355248 -0.1475019853524365 0 -0.4344270590450659 -0.1609053943072484 0 -0.4151480566294905 -0.1680004084026471 0 -0.41306883257355248 -0.1475019853524365 0 -0.4151480566294905 -0.1680004084026471 0 -0.40690801218449152 -0.1762036959065488 0 -0.40323096316088519 -0.16793215078578741 0 -0.4151480566294905 -0.1680004084026471 0 -0.40690801218449152 -0.1762036959065488 0 -0.4136865446123984 -0.1757543503219206 0 -0.40690801218449152 -0.1762036959065488 0 -0.4136865446123984 -0.1757543503219206 0 -0.41273536283131562 -0.1816751013190569 0 -0.4151480566294905 -0.1680004084026471 0 -0.4136865446123984 -0.1757543503219206 0 -0.41995474680429618 -0.17713819565942951 0 -0.4285734277027195 -0.1734756855885477 0 -0.4151480566294905 -0.1680004084026471 0 -0.41995474680429618 -0.17713819565942951 0 -0.4136865446123984 -0.1757543503219206 0 -0.41995474680429618 -0.17713819565942951 0 -0.41273536283131562 -0.1816751013190569 0 -0.41995474680429618 -0.17713819565942951 0 -0.42086010939994178 -0.18624419393877539 0 -0.41273536283131562 -0.1816751013190569 0 -0.41182634361573828 -0.18846823012601879 0 -0.42086010939994178 -0.18624419393877539 0 -0.41273536283131562 -0.1816751013190569 0 -0.41182634361573828 -0.18846823012601879 0 -0.41273536283131562 -0.1816751013190569 0 -0.4077561458873058 -0.18322680436219499 0 -0.40690801218449152 -0.1762036959065488 0 -0.41273536283131562 -0.1816751013190569 0 -0.4077561458873058 -0.18322680436219499 0 -0.41182634361573828 -0.18846823012601879 0 -0.4077561458873058 -0.18322680436219499 0 -0.40670914653930851 -0.1871811045826946 0 -0.39550730918059213 -0.18407841519480589 0 -0.38736231178750308 -0.177259124355894 0 -0.39189671048067998 -0.1677933701782604 0 -0.40135005364381798 -0.19305297691017151 0 -0.40060186426567512 -0.18260588987665591 0 -0.39550730918059213 -0.18407841519480589 0 -0.4077561458873058 -0.18322680436219499 0 -0.40670914653930851 -0.1871811045826946 0 -0.40060186426567512 -0.18260588987665591 0 -0.39550730918059213 -0.18407841519480589 0 -0.39189671048067998 -0.1677933701782604 0 -0.40060186426567512 -0.18260588987665591 0 -0.39550730918059213 -0.18407841519480589 0 -0.39189671048067998 -0.1677933701782604 0 -0.40690801218449152 -0.1762036959065488 0 -0.4077561458873058 -0.18322680436219499 0 -0.40060186426567512 -0.18260588987665591 0 -0.40690801218449152 -0.1762036959065488 0 -0.40060186426567512 -0.18260588987665591 0 -0.40323096316088519 -0.16793215078578741 0 -0.36992569105628492 -0.1720619732669908 0 -0.38736231178750308 -0.177259124355894 0 -0.39189671048067998 -0.1677933701782604 0 -0.36992569105628492 -0.1720619732669908 0 -0.38452179946839471 -0.1862127167391712 0 -0.38736231178750308 -0.177259124355894 0 -0.39550730918059213 -0.18407841519480589 0 -0.38452179946839471 -0.1862127167391712 0 -0.38736231178750308 -0.177259124355894 0 -0.36992569105628492 -0.1720619732669908 0 -0.38452179946839471 -0.1862127167391712 0 -0.36992569105628492 -0.1720619732669908 0 -0.37692746124962329 -0.16011968929401549 0 -0.39103059528285172 -0.16004763739543851 0 -0.36992569105628492 -0.1720619732669908 0 -0.39189671048067998 -0.1677933701782604 0 -0.39103059528285172 -0.16004763739543851 0 -0.36992569105628492 -0.1720619732669908 0 -0.39103059528285172 -0.16004763739543851 0 -0.37692746124962329 -0.16011968929401549 0 -0.39103059528285172 -0.16004763739543851 0 -0.38828980922767731 -0.15358795645443499 0 -0.39103059528285172 -0.16004763739543851 0 -0.38828980922767731 -0.15358795645443499 0 -0.40060186426567512 -0.18260588987665591 0 -0.39103059528285172 -0.16004763739543851 0 -0.40323096316088519 -0.16793215078578741 0 -0.40060186426567512 -0.18260588987665591 0 -0.39189671048067998 -0.1677933701782604 0 -0.39103059528285172 -0.16004763739543851 0 -0.40060186426567512 -0.18260588987665591 0 -0.39103059528285172 -0.16004763739543851 0 -0.39103059528285172 -0.16004763739543851 0 -0.40323096316088519 -0.16793215078578741 0 -0.41306883257355248 -0.1475019853524365 0 -0.39103059528285172 -0.16004763739543851 0 -0.39795981207507403 -0.14502431583870179 0 -0.41306883257355248 -0.1475019853524365 0 -0.39795981207507403 -0.14502431583870179 0 -0.40633267592073652 -0.13102661860532899 0 -0.41306883257355248 -0.1475019853524365 0 -0.39103059528285172 -0.16004763739543851 0 -0.41306883257355248 -0.1475019853524365 0 -0.39103059528285172 -0.16004763739543851 0 -0.39795981207507403 -0.14502431583870179 0 -0.38828980922767731 -0.15358795645443499 0 -0.39795981207507403 -0.14502431583870179 0 -0.38828980922767731 -0.15358795645443499 0 -0.38190833683646341 -0.1417380771930716 0 -0.38828980922767731 -0.15358795645443499 0 -0.38190833683646341 -0.1417380771930716 0 -0.37945525551812698 -0.15104483685056111 0 -0.37069541475874412 -0.1487336244607225 0 -0.38190833683646341 -0.1417380771930716 0 -0.37945525551812698 -0.15104483685056111 0 -0.37692746124962329 -0.16011968929401549 0 -0.38828980922767731 -0.15358795645443499 0 -0.37945525551812698 -0.15104483685056111 0 -0.37069541475874412 -0.1487336244607225 0 -0.37692746124962329 -0.16011968929401549 0 -0.37945525551812698 -0.15104483685056111 0 -0.37152802352755399 -0.13164580699010159 0 -0.38190833683646341 -0.1417380771930716 0 -0.38235470820745771 -0.123978498660336 0 -0.38190833683646341 -0.1417380771930716 0 -0.39228294530364349 -0.13316426080004001 0 -0.38235470820745771 -0.123978498660336 0 -0.39228294530364349 -0.13316426080004001 0 -0.40633267592073652 -0.13102661860532899 0 -0.39306930808202878 -0.1142539450673672 0 -0.39795981207507403 -0.14502431583870179 0 -0.38190833683646341 -0.1417380771930716 0 -0.39228294530364349 -0.13316426080004001 0 -0.39795981207507403 -0.14502431583870179 0 -0.39228294530364349 -0.13316426080004001 0 -0.40633267592073652 -0.13102661860532899 0 -0.40633267592073652 -0.13102661860532899 0 -0.42371591628165239 -0.12841039464220819 0 -0.41294233195137359 -0.116724400289887 0 -0.40633267592073652 -0.13102661860532899 0 -0.41306883257355248 -0.1475019853524365 0 -0.42371591628165239 -0.12841039464220819 0 -0.4344270590450659 -0.1609053943072484 0 -0.41306883257355248 -0.1475019853524365 0 -0.43782831476482847 -0.1415704877041897 0 -0.41306883257355248 -0.1475019853524365 0 -0.42371591628165239 -0.12841039464220819 0 -0.43782831476482847 -0.1415704877041897 0 -0.42371591628165239 -0.12841039464220819 0 -0.43782831476482847 -0.1415704877041897 0 -0.44295770465017009 -0.12292285668534771 0 -0.43782831476482847 -0.1415704877041897 0 -0.45407528277834919 -0.1346042898317954 0 -0.44295770465017009 -0.12292285668534771 0 -0.43782831476482847 -0.1415704877041897 0 -0.45305184803309972 -0.15210272433296521 0 -0.45407528277834919 -0.1346042898317954 0 -0.4344270590450659 -0.1609053943072484 0 -0.43782831476482847 -0.1415704877041897 0 -0.45305184803309972 -0.15210272433296521 0 -0.45305184803309972 -0.15210272433296521 0 -0.45407528277834919 -0.1346042898317954 0 -0.47213782278640881 -0.13623393318828281 0 -0.45305184803309972 -0.15210272433296521 0 -0.47213782278640881 -0.13623393318828281 0 -0.46702369577757719 -0.16066454859793791 0 -0.45407528277834919 -0.1346042898317954 0 -0.47213782278640881 -0.13623393318828281 0 -0.46296805171726468 -0.11640170438458371 0 -0.47213782278640881 -0.13623393318828281 0 -0.5 -0.14556247672259531 0 -0.48245330698995931 -0.121898764666846 0 -0.5 -0.14556247672259531 0 -0.48245330698995931 -0.121898764666846 0 -0.50000000000000089 -0.1198938119733675 0 -0.47213782278640881 -0.13623393318828281 0 -0.5 -0.14556247672259531 0 -0.48142521519093828 -0.15645589086587239 0 -0.47213782278640881 -0.13623393318828281 0 -0.48142521519093828 -0.15645589086587239 0 -0.47213782278640881 -0.13623393318828281 0 -0.48142521519093828 -0.15645589086587239 0 -0.46702369577757719 -0.16066454859793791 0 -0.48142521519093828 -0.15645589086587239 0 -0.47632052375980027 -0.17461649056753861 0 -0.46702369577757719 -0.16066454859793791 0 -0.48142521519093828 -0.15645589086587239 0 -0.49071260759546798 -0.17667784854346191 0 -0.47632052375980027 -0.17461649056753861 0 -0.47632052375980027 -0.17461649056753861 0 -0.46570520523623959 -0.1757931846103527 0 -0.46702369577757719 -0.16066454859793791 0 -0.48142521519093828 -0.15645589086587239 0 -0.49071260759546798 -0.17667784854346191 0 -0.5 -0.14556247672259531 0 -0.48142521519093828 -0.15645589086587239 0 -0.5 -0.17123114147182319 0 -0.48142521519093828 -0.15645589086587239 0 -0.5 -0.17123114147182319 0 -0.49071260759546798 -0.17667784854346191 0 -0.49071260759546798 -0.17667784854346191 0 -0.49999999999999861 -0.19689980622105099 0 -0.5 -0.17123114147182319 0 -0.49071260759546798 -0.17667784854346191 0 -0.49999999999999861 -0.19689980622105099 0 -0.49071260759546798 -0.17667784854346191 0 -0.47632052375980027 -0.17461649056753861 0 -0.47993034859498662 -0.18922987045237161 0 -0.47632052375980027 -0.17461649056753861 0 -0.46763136520864318 -0.18653340036078911 0 -0.46570520523623959 -0.1757931846103527 0 -0.47632052375980027 -0.17461649056753861 0 -0.46763136520864318 -0.18653340036078911 0 -0.47993034859498662 -0.18922987045237161 0 -0.46570520523623959 -0.1757931846103527 0 -0.45350155965897682 -0.1687850680226157 0 -0.45596312027128949 -0.18794868189772959 0 -0.46763136520864318 -0.18653340036078911 0 -0.46570520523623959 -0.1757931846103527 0 -0.45596312027128949 -0.18794868189772959 0 -0.45305184803309972 -0.15210272433296521 0 -0.46702369577757719 -0.16066454859793791 0 -0.45350155965897682 -0.1687850680226157 0 -0.46570520523623959 -0.1757931846103527 0 -0.46702369577757719 -0.16066454859793791 0 -0.45350155965897682 -0.1687850680226157 0 -0.4344270590450659 -0.1609053943072484 0 -0.45305184803309972 -0.15210272433296521 0 -0.45350155965897682 -0.1687850680226157 0 -0.4344270590450659 -0.1609053943072484 0 -0.45350155965897682 -0.1687850680226157 0 -0.44104422433457419 -0.1777922577957152 0 -0.45350155965897682 -0.1687850680226157 0 -0.44104422433457419 -0.1777922577957152 0 -0.45596312027128949 -0.18794868189772959 0 -0.44104422433457419 -0.1777922577957152 0 -0.43829012180726529 -0.19322062900912909 0 -0.45596312027128949 -0.18794868189772959 0 -0.45013906333809789 -0.2009404811944836 0 -0.43829012180726529 -0.19322062900912909 0 -0.45596312027128949 -0.18794868189772959 0 -0.43601245252430942 -0.20793643678791121 0 -0.45013906333809789 -0.2009404811944836 0 -0.43829012180726529 -0.19322062900912909 0 -0.43377720402095787 -0.21991138490827611 0 -0.43601245252430942 -0.20793643678791121 0 -0.45297794936819918 -0.2159919965998246 0 -0.43601245252430942 -0.20793643678791121 0 -0.45013906333809789 -0.2009404811944836 0 -0.45297794936819918 -0.2159919965998246 0 -0.45013906333809789 -0.2009404811944836 0 -0.45297794936819918 -0.2159919965998246 0 -0.46745167271942573 -0.1996046616778234 0 -0.45297794936819918 -0.2159919965998246 0 -0.46745167271942573 -0.1996046616778234 0 -0.46956062781061803 -0.21704188818370149 0 -0.45013906333809789 -0.2009404811944836 0 -0.46745167271942573 -0.1996046616778234 0 -0.45596312027128949 -0.18794868189772959 0 -0.46763136520864318 -0.18653340036078911 0 -0.46745167271942573 -0.1996046616778234 0 -0.45596312027128949 -0.18794868189772959 0 -0.46745167271942573 -0.1996046616778234 0 -0.47993034859498662 -0.18922987045237161 0 -0.48475058775642699 -0.21058337118561141 0 -0.46763136520864318 -0.18653340036078911 0 -0.46745167271942573 -0.1996046616778234 0 -0.47993034859498662 -0.18922987045237161 0 -0.47993034859498662 -0.18922987045237161 0 -0.49999999999999861 -0.19689980622105099 0 -0.48475058775642699 -0.21058337118561141 0 -0.49071260759546798 -0.17667784854346191 0 -0.47993034859498662 -0.18922987045237161 0 -0.49999999999999861 -0.19689980622105099 0 -0.49999999999999861 -0.19689980622105099 0 -0.48475058775642699 -0.21058337118561141 0 -0.50000000000000355 -0.22426693615016591 0 -0.46745167271942573 -0.1996046616778234 0 -0.48475058775642699 -0.21058337118561141 0 -0.46956062781061803 -0.21704188818370149 0 -0.46956062781061803 -0.21704188818370149 0 -0.47829002665147741 -0.2341248566128927 0 -0.46279731583591321 -0.22891002208815581 0 -0.48475058775642699 -0.21058337118561141 0 -0.46956062781061803 -0.21704188818370149 0 -0.47829002665147741 -0.2341248566128927 0 -0.47829002665147741 -0.2341248566128927 0 -0.49757451855253881 -0.23053548086278239 0 -0.50000000000000355 -0.22426693615016591 0 -0.48475058775642699 -0.21058337118561141 0 -0.47829002665147741 -0.2341248566128927 0 -0.50000000000000355 -0.22426693615016591 0 -0.47829002665147741 -0.2341248566128927 0 -0.50000000000000355 -0.22426693615016591 0 -0.47829002665147741 -0.2341248566128927 0 -0.49757451855253881 -0.23053548086278239 0 -0.47793059070477772 -0.24540990329775009 0 -0.5 -0.25006354863638108 0 -0.49757451855253881 -0.23053548086278239 0 -0.49068252501969761 -0.24549971615663649 0 -0.49757451855253881 -0.23053548086278239 0 -0.49068252501969761 -0.24549971615663649 0 -0.47793059070477772 -0.24540990329775009 0 -0.49757451855253881 -0.23053548086278239 0 -0.47793059070477772 -0.24540990329775009 0 -0.5 -0.25006354863638108 0 -0.49757451855253881 -0.23053548086278239 0 -0.50000000000000355 -0.22426693615016591 0 -0.4872249908214738 -0.25598993182963242 0 -0.49068252501969761 -0.24549971615663649 0 -0.47793059070477772 -0.24540990329775009 0 -0.47829002665147741 -0.2341248566128927 0 -0.47793059070477772 -0.24540990329775009 0 -0.45658005330295048 -0.2439827770756183 0 -0.45658005330295048 -0.2439827770756183 0 -0.46279731583591321 -0.22891002208815581 0 -0.44277641758923081 -0.23102430468348881 0 -0.47829002665147741 -0.2341248566128927 0 -0.45658005330295048 -0.2439827770756183 0 -0.45828666285701658 -0.26028432573271792 0 -0.47793059070477772 -0.24540990329775009 0 -0.45658005330295048 -0.2439827770756183 0 -0.47829002665147741 -0.2341248566128927 0 -0.45658005330295048 -0.2439827770756183 0 -0.46279731583591321 -0.22891002208815581 0 -0.45297794936819918 -0.2159919965998246 0 -0.46956062781061803 -0.21704188818370149 0 -0.46279731583591321 -0.22891002208815581 0 -0.45297794936819918 -0.2159919965998246 0 -0.46279731583591321 -0.22891002208815581 0 -0.44277641758923081 -0.23102430468348881 0 -0.43377720402095787 -0.21991138490827611 0 -0.45297794936819918 -0.2159919965998246 0 -0.44277641758923081 -0.23102430468348881 0 -0.43487007995442373 -0.25384069753834382 0 -0.45658005330295048 -0.2439827770756183 0 -0.43487007995442373 -0.25384069753834382 0 -0.43665732485841618 -0.24137016429136929 0 -0.45658005330295048 -0.2439827770756183 0 -0.43665732485841618 -0.24137016429136929 0 -0.45658005330295048 -0.2439827770756183 0 -0.44277641758923081 -0.23102430468348881 0 -0.42837915354319411 -0.040827216461995969 0 -0.4199205163048339 -0.024265820886729 0 -0.40528095782104068 -0.044243292517360297 0 -0.42343463197652342 -0.05874232933513765 0 -0.42837915354319411 -0.040827216461995969 0 -0.40528095782104068 -0.044243292517360297 0 -0.42343463197652342 -0.05874232933513765 0 -0.40528095782104068 -0.044243292517360297 0 -0.42343463197652342 -0.05874232933513765 0 -0.40528095782104068 -0.044243292517360297 0 -0.40670414160736479 -0.063195666982337848 0 -0.42343463197652342 -0.05874232933513765 0 -0.42837915354319411 -0.040827216461995969 0 -0.44094154444346079 -0.04995238034171972 0 -0.42343463197652342 -0.05874232933513765 0 -0.44158830613200611 -0.073241366152915127 0 -0.44094154444346079 -0.04995238034171972 0 -0.42837915354319411 -0.040827216461995969 0 -0.4342900889778567 -0.026770694848987801 0 -0.4453801544960031 -0.037531923181514312 0 -0.4342900889778567 -0.026770694848987801 0 -0.43033724725149269 -0.0037964727450953309 0 -0.4199205163048339 -0.024265820886729 0 -0.4342900889778567 -0.026770694848987801 0 -0.43033724725149269 -0.0037964727450953309 0 -0.44743337329375982 -0.027432040969604381 0 -0.42837915354319411 -0.040827216461995969 0 -0.4342900889778567 -0.026770694848987801 0 -0.4199205163048339 -0.024265820886729 0 -0.43033724725149269 -0.0037964727450953309 0 -0.4131572459017161 -0.004875649818797438 0 -0.4199205163048339 -0.024265820886729 0 -0.4131572459017161 -0.004875649818797438 0 -0.4199205163048339 -0.024265820886729 0 -0.40195427741026962 -0.018113178269922089 0 -0.4199205163048339 -0.024265820886729 0 -0.40195427741026962 -0.018113178269922089 0 -0.40528095782104068 -0.044243292517360297 0 -0.40195427741026962 -0.018113178269922089 0 -0.38465333842141641 -0.0066435457767305304 0 -0.38712728366555788 -0.02974425569958293 0 -0.40195427741026962 -0.018113178269922089 0 -0.38712728366555788 -0.02974425569958293 0 -0.40528095782104068 -0.044243292517360297 0 -0.40195427741026962 -0.018113178269922089 0 -0.38465333842141641 -0.0066435457767305304 0 -0.40033306733275759 0.0019581273283447299 0 -0.4131572459017161 -0.004875649818797438 0 -0.40195427741026962 -0.018113178269922089 0 -0.40033306733275759 0.0019581273283447299 0 -0.38465333842141641 -0.0066435457767305304 0 -0.40033306733275759 0.0019581273283447299 0 -0.36897360951007507 -0.015245218881805699 0 -0.38465333842141641 -0.0066435457767305304 0 -0.36897360951007507 -0.015245218881805699 0 -0.38465333842141641 -0.0066435457767305304 0 -0.38712728366555788 -0.02974425569958293 0 -0.36897360951007507 -0.015245218881805699 0 -0.38712728366555788 -0.02974425569958293 0 -0.37357085562444819 -0.050327950541553881 0 -0.38712728366555788 -0.02974425569958293 0 -0.39147992867528753 -0.058279446621744307 0 -0.38712728366555788 -0.02974425569958293 0 -0.40528095782104068 -0.044243292517360297 0 -0.38712728366555788 -0.02974425569958293 0 -0.40528095782104068 -0.044243292517360297 0 -0.39147992867528753 -0.058279446621744307 0 -0.40528095782104068 -0.044243292517360297 0 -0.39147992867528753 -0.058279446621744307 0 -0.40670414160736479 -0.063195666982337848 0 -0.37357085562444819 -0.050327950541553881 0 -0.39147992867528753 -0.058279446621744307 0 -0.37513495807632252 -0.068027960422620465 0 -0.39147992867528753 -0.058279446621744307 0 -0.37513495807632252 -0.068027960422620465 0 -0.3944429598887787 -0.078419500118194568 0 -0.37347114863240299 -0.089088331268139143 0 -0.37513495807632252 -0.068027960422620465 0 -0.3944429598887787 -0.078419500118194568 0 -0.37347114863240299 -0.089088331268139143 0 -0.3944429598887787 -0.078419500118194568 0 -0.38844874713165228 -0.097169733216879689 0 -0.3944429598887787 -0.078419500118194568 0 -0.38844874713165228 -0.097169733216879689 0 -0.40907098738890341 -0.097978282768044114 0 -0.39147992867528753 -0.058279446621744307 0 -0.3944429598887787 -0.078419500118194568 0 -0.40670414160736479 -0.063195666982337848 0 -0.3944429598887787 -0.078419500118194568 0 -0.41749625226094061 -0.077358517460495352 0 -0.40670414160736479 -0.063195666982337848 0 -0.39228294530364349 -0.13316426080004001 0 -0.38235470820745771 -0.123978498660336 0 -0.39306930808202878 -0.1142539450673672 0 -0.36980343247362518 -0.1100922289949047 0 -0.38235470820745771 -0.123978498660336 0 -0.39306930808202878 -0.1142539450673672 0 -0.36980343247362518 -0.1100922289949047 0 -0.37347114863240299 -0.089088331268139143 0 -0.38844874713165228 -0.097169733216879689 0 -0.36980343247362518 -0.1100922289949047 0 -0.38844874713165228 -0.097169733216879689 0 -0.39306930808202878 -0.1142539450673672 0 -0.38844874713165228 -0.097169733216879689 0 -0.39306930808202878 -0.1142539450673672 0 -0.40907098738890341 -0.097978282768044114 0 -0.39306930808202878 -0.1142539450673672 0 -0.41294233195137359 -0.116724400289887 0 -0.40907098738890341 -0.097978282768044114 0 -0.40633267592073652 -0.13102661860532899 0 -0.39306930808202878 -0.1142539450673672 0 -0.41294233195137359 -0.116724400289887 0 -0.41294233195137359 -0.116724400289887 0 -0.40907098738890341 -0.097978282768044114 0 -0.42916563782925382 -0.1107160192160596 0 -0.42916563782925382 -0.1107160192160596 0 -0.42904349786494111 -0.093106334976964328 0 -0.44668080241849201 -0.10304266906569499 0 -0.40907098738890341 -0.097978282768044114 0 -0.42916563782925382 -0.1107160192160596 0 -0.42904349786494111 -0.093106334976964328 0 -0.42371591628165239 -0.12841039464220819 0 -0.42916563782925382 -0.1107160192160596 0 -0.44295770465017009 -0.12292285668534771 0 -0.42371591628165239 -0.12841039464220819 0 -0.41294233195137359 -0.116724400289887 0 -0.42916563782925382 -0.1107160192160596 0 -0.42343463197652342 -0.05874232933513765 0 -0.41749625226094061 -0.077358517460495352 0 -0.40670414160736479 -0.063195666982337848 0 -0.40907098738890341 -0.097978282768044114 0 -0.41749625226094061 -0.077358517460495352 0 -0.42904349786494111 -0.093106334976964328 0 -0.3944429598887787 -0.078419500118194568 0 -0.40907098738890341 -0.097978282768044114 0 -0.41749625226094061 -0.077358517460495352 0 -0.41749625226094061 -0.077358517460495352 0 -0.42904349786494111 -0.093106334976964328 0 -0.44158830613200611 -0.073241366152915127 0 -0.42904349786494111 -0.093106334976964328 0 -0.44158830613200611 -0.073241366152915127 0 -0.42343463197652342 -0.05874232933513765 0 -0.44158830613200611 -0.073241366152915127 0 -0.42343463197652342 -0.05874232933513765 0 -0.41749625226094061 -0.077358517460495352 0 -0.44158830613200611 -0.073241366152915127 0 -0.44158830613200611 -0.073241366152915127 0 -0.46118581313569179 -0.071431252447136412 0 -0.45067286806919349 -0.058855770468984832 0 -0.44158830613200611 -0.073241366152915127 0 -0.45067286806919349 -0.058855770468984832 0 -0.44158830613200611 -0.073241366152915127 0 -0.44459286929252761 -0.089545637905493386 0 -0.46105887075467122 -0.088792181426399025 0 -0.42904349786494111 -0.093106334976964328 0 -0.44158830613200611 -0.073241366152915127 0 -0.44459286929252761 -0.089545637905493386 0 -0.44158830613200611 -0.073241366152915127 0 -0.46105887075467122 -0.088792181426399025 0 -0.46105887075467122 -0.088792181426399025 0 -0.46118581313569179 -0.071431252447136412 0 -0.48115195350555812 -0.076249636056848105 0 -0.44158830613200611 -0.073241366152915127 0 -0.46105887075467122 -0.088792181426399025 0 -0.46118581313569179 -0.071431252447136412 0 -0.44295770465017009 -0.12292285668534771 0 -0.44668080241849201 -0.10304266906569499 0 -0.46296805171726468 -0.11640170438458371 0 -0.42916563782925382 -0.1107160192160596 0 -0.44295770465017009 -0.12292285668534771 0 -0.44668080241849201 -0.10304266906569499 0 -0.44459286929252761 -0.089545637905493386 0 -0.46105887075467122 -0.088792181426399025 0 -0.44668080241849201 -0.10304266906569499 0 -0.42904349786494111 -0.093106334976964328 0 -0.44459286929252761 -0.089545637905493386 0 -0.44668080241849201 -0.10304266906569499 0 -0.46105887075467122 -0.088792181426399025 0 -0.46296805171726468 -0.11640170438458371 0 -0.48052943537733628 -0.1043429966998831 0 -0.46105887075467122 -0.088792181426399025 0 -0.44668080241849201 -0.10304266906569499 0 -0.46296805171726468 -0.11640170438458371 0 -0.45407528277834919 -0.1346042898317954 0 -0.44295770465017009 -0.12292285668534771 0 -0.46296805171726468 -0.11640170438458371 0 -0.46296805171726468 -0.11640170438458371 0 -0.48245330698995931 -0.121898764666846 0 -0.48052943537733628 -0.1043429966998831 0 -0.47213782278640881 -0.13623393318828281 0 -0.46296805171726468 -0.11640170438458371 0 -0.48245330698995931 -0.121898764666846 0 -0.46105887075467122 -0.088792181426399025 0 -0.48052943537733628 -0.1043429966998831 0 -0.48052943537733628 -0.1043429966998831 0 -0.50000000000000089 -0.1198938119733675 0 -0.5 -0.090898883536528308 0 -0.48245330698995931 -0.121898764666846 0 -0.48052943537733628 -0.1043429966998831 0 -0.50000000000000089 -0.1198938119733675 0 -0.48052943537733628 -0.1043429966998831 0 -0.50000000000000089 -0.1198938119733675 0 -0.46118581313569179 -0.071431252447136412 0 -0.48115195350555812 -0.076249636056848105 0 -0.46833584839527592 -0.05632992550213807 0 -0.48115195350555812 -0.076249636056848105 0 -0.48490864188954641 -0.055044389119401932 0 -0.46833584839527592 -0.05632992550213807 0 -0.46105887075467122 -0.088792181426399025 0 -0.48052943537733628 -0.1043429966998831 0 -0.48115195350555812 -0.076249636056848105 0 -0.48052943537733628 -0.1043429966998831 0 -0.48115195350555812 -0.076249636056848105 0 -0.5 -0.090898883536528308 0 -0.48115195350555812 -0.076249636056848105 0 -0.5 -0.090898883536528308 0 -0.5 -0.061903955099689163 0 -0.48115195350555812 -0.076249636056848105 0 -0.5 -0.061903955099689163 0 -0.48490864188954641 -0.055044389119401932 0 -0.5 -0.061903955099689163 0 -0.48490864188954641 -0.055044389119401932 0 -0.5 -0.032909026662849998 0 -0.48490864188954641 -0.055044389119401932 0 -0.5 -0.032909026662849998 0 -0.47623700986288742 -0.042296174380792313 0 -0.47623700986288742 -0.042296174380792313 0 -0.45975743000638192 -0.044470174785055258 0 -0.47133789178420182 -0.026132268992706809 0 -0.5 -0.032909026662849998 0 -0.47623700986288742 -0.042296174380792313 0 -0.47133789178420182 -0.026132268992706809 0 -0.48490864188954641 -0.055044389119401932 0 -0.47623700986288742 -0.042296174380792313 0 -0.46833584839527592 -0.05632992550213807 0 -0.46118581313569179 -0.071431252447136412 0 -0.46833584839527592 -0.05632992550213807 0 -0.45067286806919349 -0.058855770468984832 0 -0.47623700986288742 -0.042296174380792313 0 -0.46833584839527592 -0.05632992550213807 0 -0.45975743000638192 -0.044470174785055258 0 -0.46833584839527592 -0.05632992550213807 0 -0.45975743000638192 -0.044470174785055258 0 -0.45067286806919349 -0.058855770468984832 0 -0.45975743000638192 -0.044470174785055258 0 -0.45067286806919349 -0.058855770468984832 0 -0.46833584839527592 -0.05632992550213807 0 -0.45975743000638192 -0.044470174785055258 0 -0.45964620516156041 -0.031574428691672249 0 -0.45975743000638192 -0.044470174785055258 0 -0.44743337329375982 -0.027432040969604381 0 -0.45975743000638192 -0.044470174785055258 0 -0.44743337329375982 -0.027432040969604381 0 -0.45975743000638192 -0.044470174785055258 0 -0.47133789178420182 -0.026132268992706809 0 -0.45964620516156041 -0.031574428691672249 0 -0.45975743000638192 -0.044470174785055258 0 -0.47133789178420182 -0.026132268992706809 0 -0.45975743000638192 -0.044470174785055258 0 -0.4453801544960031 -0.037531923181514312 0 -0.44743337329375982 -0.027432040969604381 0 -0.45975743000638192 -0.044470174785055258 0 -0.4453801544960031 -0.037531923181514312 0 -0.44094154444346079 -0.04995238034171972 0 -0.42837915354319411 -0.040827216461995969 0 -0.4453801544960031 -0.037531923181514312 0 -0.44094154444346079 -0.04995238034171972 0 -0.4453801544960031 -0.037531923181514312 0 -0.44743337329375982 -0.027432040969604381 0 -0.44158830613200611 -0.073241366152915127 0 -0.44094154444346079 -0.04995238034171972 0 -0.45067286806919349 -0.058855770468984832 0 -0.45975743000638192 -0.044470174785055258 0 -0.44094154444346079 -0.04995238034171972 0 -0.45067286806919349 -0.058855770468984832 0 -0.43033724725149269 -0.0037964727450953309 0 -0.45268467479845531 -0.00160063580491273 0 -0.44743337329375982 -0.027432040969604381 0 -0.45268467479845531 -0.00160063580491273 0 -0.44743337329375982 -0.027432040969604381 0 -0.43033724725149269 -0.0037964727450953309 0 -0.44743337329375982 -0.027432040969604381 0 -0.4342900889778567 -0.026770694848987801 0 -0.4453801544960031 -0.037531923181514312 0 -0.44743337329375982 -0.027432040969604381 0 -0.45964620516156041 -0.031574428691672249 0 -0.44743337329375982 -0.027432040969604381 0 -0.46065164258955998 -0.015998841515816709 0 -0.45964620516156041 -0.031574428691672249 0 -0.46065164258955998 -0.015998841515816709 0 -0.47133789178420182 -0.026132268992706809 0 -0.45268467479845531 -0.00160063580491273 0 -0.46065164258955998 -0.015998841515816709 0 -0.47044579822050858 0.003730308873902122 0 -0.45268467479845531 -0.00160063580491273 0 -0.44743337329375982 -0.027432040969604381 0 -0.46065164258955998 -0.015998841515816709 0 -0.46065164258955998 -0.015998841515816709 0 -0.48291835356202167 -0.0077943632003582772 0 -0.47044579822050858 0.003730308873902122 0 -0.46065164258955998 -0.015998841515816709 0 -0.48291835356202167 -0.0077943632003582772 0 -0.47133789178420182 -0.026132268992706809 0 -0.48291835356202167 -0.0077943632003582772 0 -0.47133789178420182 -0.026132268992706809 0 -0.5 -0.032909026662849998 0 -0.48291835356202167 -0.0077943632003582772 0 -0.47133789178420182 -0.026132268992706809 0 -0.5 -0.032909026662849998 0 -0.48291835356202167 -0.0077943632003582772 0 -0.5 -0.0039140982260107426 0 -0.48291835356202167 -0.0077943632003582772 0 -0.5 -0.0039140982260107426 0 -0.48656778433615411 0.0071434676601368312 0 -0.5 -0.0039140982260107426 0 -0.48656778433615411 0.0071434676601368312 0 -0.5 0.02508083021082835 0 -0.5 0.02508083021082835 0 -0.47947476989823978 0.0186146606423227 0 -0.48053744464613157 0.038241937480116027 0 -0.48656778433615411 0.0071434676601368312 0 -0.5 0.02508083021082835 0 -0.47947476989823978 0.0186146606423227 0 -0.47947476989823978 0.0186146606423227 0 -0.48053744464613157 0.038241937480116027 0 -0.45793597630314969 0.024230769359779091 0 -0.48656778433615411 0.0071434676601368312 0 -0.47947476989823978 0.0186146606423227 0 -0.47044579822050858 0.003730308873902122 0 -0.48291835356202167 -0.0077943632003582772 0 -0.48656778433615411 0.0071434676601368312 0 -0.47044579822050858 0.003730308873902122 0 -0.47947476989823978 0.0186146606423227 0 -0.47044579822050858 0.003730308873902122 0 -0.45793597630314969 0.024230769359779091 0 -0.5 0.05407575864766756 0 -0.48053744464613157 0.038241937480116027 0 -0.48160115767747708 0.06010989829645641 0 -0.5 0.02508083021082835 0 -0.5 0.05407575864766756 0 -0.48053744464613157 0.038241937480116027 0 -0.48053744464613157 0.038241937480116027 0 -0.48160115767747708 0.06010989829645641 0 -0.4631872778078443 0.050062174524471058 0 -0.48160115767747708 0.06010989829645641 0 -0.4631872778078443 0.050062174524471058 0 -0.46843857931253879 0.07589357968916309 0 -0.4631872778078443 0.050062174524471058 0 -0.4467001814262947 0.061097152827744368 0 -0.46843857931253879 0.07589357968916309 0 -0.48053744464613157 0.038241937480116027 0 -0.4631872778078443 0.050062174524471058 0 -0.45793597630314969 0.024230769359779091 0 -0.4631872778078443 0.050062174524471058 0 -0.45793597630314969 0.024230769359779091 0 -0.4631872778078443 0.050062174524471058 0 -0.44755765064800451 0.039790068000500847 0 -0.45793597630314969 0.024230769359779091 0 -0.44755765064800451 0.039790068000500847 0 -0.43523671041618939 0.023434885238954581 0 -0.43070758581248142 0.047053180835022322 0 -0.4631872778078443 0.050062174524471058 0 -0.44755765064800451 0.039790068000500847 0 -0.4467001814262947 0.061097152827744368 0 -0.44755765064800451 0.039790068000500847 0 -0.4467001814262947 0.061097152827744368 0 -0.43070758581248142 0.047053180835022322 0 -0.45268467479845531 -0.00160063580491273 0 -0.45793597630314969 0.024230769359779091 0 -0.45268467479845531 -0.00160063580491273 0 -0.47044579822050858 0.003730308873902122 0 -0.45793597630314969 0.024230769359779091 0 -0.44755765064800451 0.039790068000500847 0 -0.45793597630314969 0.024230769359779091 0 -0.43523671041618939 0.023434885238954581 0 -0.45268467479845531 -0.00160063580491273 0 -0.45793597630314969 0.024230769359779091 0 -0.43523671041618939 0.023434885238954581 0 -0.43033724725149269 -0.0037964727450953309 0 -0.45268467479845531 -0.00160063580491273 0 -0.43523671041618939 0.023434885238954581 0 -0.43033724725149269 -0.0037964727450953309 0 -0.41324112120922679 0.019839095479414509 0 -0.43523671041618939 0.023434885238954581 0 -0.4131572459017161 -0.004875649818797438 0 -0.41324112120922679 0.019839095479414509 0 -0.40033306733275759 0.0019581273283447299 0 -0.43033724725149269 -0.0037964727450953309 0 -0.4131572459017161 -0.004875649818797438 0 -0.41324112120922679 0.019839095479414509 0 -0.43033724725149269 -0.0037964727450953309 0 -0.41324112120922679 0.019839095479414509 0 -0.41324112120922679 0.019839095479414509 0 -0.43523671041618939 0.023434885238954581 0 -0.4159879611894004 0.038538653043845933 0 -0.43523671041618939 0.023434885238954581 0 -0.43070758581248142 0.047053180835022322 0 -0.4159879611894004 0.038538653043845933 0 -0.4467001814262947 0.061097152827744368 0 -0.43070758581248142 0.047053180835022322 0 -0.43187545736445182 0.065921103617004775 0 -0.43070758581248142 0.047053180835022322 0 -0.41322656597679058 0.058941655142102069 0 -0.43187545736445182 0.065921103617004775 0 -0.43070758581248142 0.047053180835022322 0 -0.41322656597679058 0.058941655142102069 0 -0.4159879611894004 0.038538653043845933 0 -0.41322656597679058 0.058941655142102069 0 -0.4159879611894004 0.038538653043845933 0 -0.39614499516696089 0.04347466370392436 0 -0.41324112120922679 0.019839095479414509 0 -0.4159879611894004 0.038538653043845933 0 -0.39614499516696089 0.04347466370392436 0 -0.41324112120922679 0.019839095479414509 0 -0.39614499516696089 0.04347466370392436 0 -0.39614499516696089 0.04347466370392436 0 -0.37904886912469499 0.067110231928434197 0 -0.39695674231957478 0.074929810419583368 0 -0.41322656597679058 0.058941655142102069 0 -0.39614499516696089 0.04347466370392436 0 -0.39695674231957478 0.074929810419583368 0 -0.39614499516696089 0.04347466370392436 0 -0.37904886912469499 0.067110231928434197 0 -0.39614499516696089 0.04347466370392436 0 -0.37830855690199738 0.048851891747440382 0 -0.37904886912469499 0.067110231928434197 0 -0.37830855690199738 0.048851891747440382 0 -0.37904886912469499 0.067110231928434197 0 -0.37119345183321822 0.058853827639881867 0 -0.39614499516696089 0.04347466370392436 0 -0.37753126207020948 0.034899308803226177 0 -0.39262774316901877 0.02112007510405265 0 -0.39614499516696089 0.04347466370392436 0 -0.37830855690199738 0.048851891747440382 0 -0.37753126207020948 0.034899308803226177 0 -0.38389636562500351 0.0078670615218947963 0 -0.39262774316901877 0.02112007510405265 0 -0.37274578052696178 0.01868977009819147 0 -0.37753126207020948 0.034899308803226177 0 -0.39262774316901877 0.02112007510405265 0 -0.37274578052696178 0.01868977009819147 0 -0.38465333842141641 -0.0066435457767305304 0 -0.38389636562500351 0.0078670615218947963 0 -0.40033306733275759 0.0019581273283447299 0 -0.38389636562500351 0.0078670615218947963 0 -0.37274578052696178 0.01868977009819147 0 -0.36979036210562988 0.0025511841975563729 0 -0.38465333842141641 -0.0066435457767305304 0 -0.38389636562500351 0.0078670615218947963 0 -0.36979036210562988 0.0025511841975563729 0 -0.38389636562500351 0.0078670615218947963 0 -0.40033306733275759 0.0019581273283447299 0 -0.39262774316901877 0.02112007510405265 0 -0.41324112120922679 0.019839095479414509 0 -0.40033306733275759 0.0019581273283447299 0 -0.39262774316901877 0.02112007510405265 0 -0.41324112120922679 0.019839095479414509 0 -0.39614499516696089 0.04347466370392436 0 -0.39262774316901877 0.02112007510405265 0 -0.38940712396436111 0.098535478259042519 0 -0.39976920250104669 0.086913075381088473 0 -0.40655062222011962 0.096340958868671334 0 -0.39063101314785642 0.1199442217017349 0 -0.40655062222011962 0.096340958868671334 0 -0.40795026737523371 0.1101441825861223 0 -0.39063101314785642 0.1199442217017349 0 -0.38940712396436111 0.098535478259042519 0 -0.40655062222011962 0.096340958868671334 0 -0.39063101314785642 0.1199442217017349 0 -0.40655062222011962 0.096340958868671334 0 -0.39063101314785642 0.1199442217017349 0 -0.40795026737523371 0.1101441825861223 0 -0.40406865080306442 0.1250183431131778 0 -0.39063101314785642 0.1199442217017349 0 -0.37896648635229202 0.10715504183998489 0 -0.36716541190589658 0.118616890008602 0 -0.39063101314785642 0.1199442217017349 0 -0.37896648635229202 0.10715504183998489 0 -0.38940712396436111 0.098535478259042519 0 -0.37896648635229202 0.10715504183998489 0 -0.38940712396436111 0.098535478259042519 0 -0.37643332436138899 0.09558572737664002 0 -0.38119130922167832 0.078766060501995444 0 -0.3856317933390121 0.08567132342606161 0 -0.39695674231957478 0.074929810419583368 0 -0.37643332436138899 0.09558572737664002 0 -0.3856317933390121 0.08567132342606161 0 -0.37016311523106599 0.083751267223082917 0 -0.38119130922167832 0.078766060501995444 0 -0.3856317933390121 0.08567132342606161 0 -0.37016311523106599 0.083751267223082917 0 -0.38940712396436111 0.098535478259042519 0 -0.37643332436138899 0.09558572737664002 0 -0.3856317933390121 0.08567132342606161 0 -0.39695674231957478 0.074929810419583368 0 -0.37201358599706058 0.070711840939253895 0 -0.38119130922167832 0.078766060501995444 0 -0.39695674231957478 0.074929810419583368 0 -0.37201358599706058 0.070711840939253895 0 -0.37904886912469499 0.067110231928434197 0 -0.39695674231957478 0.074929810419583368 0 -0.37201358599706058 0.070711840939253895 0 -0.39695674231957478 0.074929810419583368 0 -0.39976920250104669 0.086913075381088473 0 -0.42189989864208899 0.079147779899912826 0 -0.38940712396436111 0.098535478259042519 0 -0.3856317933390121 0.08567132342606161 0 -0.39976920250104669 0.086913075381088473 0 -0.3856317933390121 0.08567132342606161 0 -0.39695674231957478 0.074929810419583368 0 -0.39976920250104669 0.086913075381088473 0 -0.42189989864208899 0.079147779899912826 0 -0.41823283762125668 0.10021421029095 0 -0.40655062222011962 0.096340958868671334 0 -0.39976920250104669 0.086913075381088473 0 -0.42189989864208899 0.079147779899912826 0 -0.40655062222011962 0.096340958868671334 0 -0.39695674231957478 0.074929810419583368 0 -0.42189989864208899 0.079147779899912826 0 -0.41322656597679058 0.058941655142102069 0 -0.39695674231957478 0.074929810419583368 0 -0.42189989864208899 0.079147779899912826 0 -0.43187545736445182 0.065921103617004775 0 -0.42189989864208899 0.079147779899912826 0 -0.44684305496460319 0.083365749380242285 0 -0.41322656597679058 0.058941655142102069 0 -0.43187545736445182 0.065921103617004775 0 -0.42189989864208899 0.079147779899912826 0 -0.42189989864208899 0.079147779899912826 0 -0.43230900050581528 0.10074033507248679 0 -0.44684305496460319 0.083365749380242285 0 -0.42189989864208899 0.079147779899912826 0 -0.43230900050581528 0.10074033507248679 0 -0.41823283762125668 0.10021421029095 0 -0.42189989864208899 0.079147779899912826 0 -0.44684305496460319 0.083365749380242285 0 -0.43230900050581528 0.10074033507248679 0 -0.41823283762125668 0.10021421029095 0 -0.42245439936302609 0.1146977950275566 0 -0.41823283762125668 0.10021421029095 0 -0.40795026737523371 0.1101441825861223 0 -0.42245439936302609 0.1146977950275566 0 -0.41823283762125668 0.10021421029095 0 -0.40655062222011962 0.096340958868671334 0 -0.40795026737523371 0.1101441825861223 0 -0.40795026737523371 0.1101441825861223 0 -0.42245439936302609 0.1146977950275566 0 -0.41854804079657681 0.1335618185962307 0 -0.40795026737523371 0.1101441825861223 0 -0.41854804079657681 0.1335618185962307 0 -0.40795026737523371 0.1101441825861223 0 -0.41854804079657681 0.1335618185962307 0 -0.40406865080306442 0.1250183431131778 0 -0.4361514068569779 0.1212930370016405 0 -0.42245439936302609 0.1146977950275566 0 -0.41854804079657681 0.1335618185962307 0 -0.43230900050581528 0.10074033507248679 0 -0.4361514068569779 0.1212930370016405 0 -0.42245439936302609 0.1146977950275566 0 -0.4361514068569779 0.1212930370016405 0 -0.45131059104818438 0.10389771754541841 0 -0.45603072582896947 0.12415654782577901 0 -0.43230900050581528 0.10074033507248679 0 -0.4361514068569779 0.1212930370016405 0 -0.45131059104818438 0.10389771754541841 0 -0.43230900050581528 0.10074033507248679 0 -0.45131059104818438 0.10389771754541841 0 -0.44684305496460319 0.083365749380242285 0 -0.45131059104818438 0.10389771754541841 0 -0.46040635620489312 0.091287960740373597 0 -0.47503319949424611 0.10199479634667059 0 -0.45131059104818438 0.10389771754541841 0 -0.45603072582896947 0.12415654782577901 0 -0.47503319949424611 0.10199479634667059 0 -0.4467001814262947 0.061097152827744368 0 -0.43187545736445182 0.065921103617004775 0 -0.44684305496460319 0.083365749380242285 0 -0.45131059104818438 0.10389771754541841 0 -0.44684305496460319 0.083365749380242285 0 -0.46040635620489312 0.091287960740373597 0 -0.46040635620489312 0.091287960740373597 0 -0.46843857931253879 0.07589357968916309 0 -0.47503319949424611 0.10199479634667059 0 -0.44684305496460319 0.083365749380242285 0 -0.46040635620489312 0.091287960740373597 0 -0.46843857931253879 0.07589357968916309 0 -0.4631872778078443 0.050062174524471058 0 -0.46843857931253879 0.07589357968916309 0 -0.4467001814262947 0.061097152827744368 0 -0.44684305496460319 0.083365749380242285 0 -0.46843857931253879 0.07589357968916309 0 -0.48160115767747708 0.06010989829645641 0 -0.46843857931253879 0.07589357968916309 0 -0.5 0.083070687084506711 0 -0.46843857931253879 0.07589357968916309 0 -0.5 0.083070687084506711 0 -0.47503319949424611 0.10199479634667059 0 -0.5 0.05407575864766756 0 -0.48160115767747708 0.06010989829645641 0 -0.5 0.083070687084506711 0 -0.45603072582896947 0.12415654782577901 0 -0.47503319949424611 0.10199479634667059 0 -0.47840746745339868 0.1318715347448986 0 -0.5 0.083070687084506711 0 -0.47503319949424611 0.10199479634667059 0 -0.5 0.11206561552134579 0 -0.47503319949424611 0.10199479634667059 0 -0.5 0.11206561552134579 0 -0.47840746745339868 0.1318715347448986 0 -0.5 0.11206561552134579 0 -0.47840746745339868 0.1318715347448986 0 -0.5 0.14106054395818479 0 -0.47840746745339868 0.1318715347448986 0 -0.4813713775429343 0.15534342778339541 0 -0.45584990199199521 0.14839652371063539 0 -0.47840746745339868 0.1318715347448986 0 -0.4813713775429343 0.15534342778339541 0 -0.5 0.14106054395818479 0 -0.4813713775429343 0.15534342778339541 0 -0.5 0.14106054395818479 0 -0.5 0.17005547239502389 0 -0.4813713775429343 0.15534342778339541 0 -0.5 0.17005547239502389 0 -0.47888983910924399 0.1833910978263659 0 -0.5 0.17005547239502389 0 -0.47888983910924399 0.1833910978263659 0 -0.49999999999999639 0.19905040083186301 0 -0.4813713775429343 0.15534342778339541 0 -0.47888983910924399 0.1833910978263659 0 -0.46013732273498392 0.17116473448995881 0 -0.4813713775429343 0.15534342778339541 0 -0.47888983910924399 0.1833910978263659 0 -0.4813713775429343 0.15534342778339541 0 -0.46013732273498392 0.17116473448995881 0 -0.45584990199199521 0.14839652371063539 0 -0.47888983910924399 0.1833910978263659 0 -0.46013732273498392 0.17116473448995881 0 -0.4553652866229031 0.19812390853730849 0 -0.46013732273498392 0.17116473448995881 0 -0.43974358763926291 0.18039709061644729 0 -0.4553652866229031 0.19812390853730849 0 -0.46013732273498392 0.17116473448995881 0 -0.45584990199199521 0.14839652371063539 0 -0.42914581421791992 0.156979454606339 0 -0.46013732273498392 0.17116473448995881 0 -0.43974358763926291 0.18039709061644729 0 -0.42914581421791992 0.156979454606339 0 -0.43890233478009338 0.1378395493323826 0 -0.45584990199199521 0.14839652371063539 0 -0.42914581421791992 0.156979454606339 0 -0.4361514068569779 0.1212930370016405 0 -0.45603072582896947 0.12415654782577901 0 -0.43890233478009338 0.1378395493323826 0 -0.45603072582896947 0.12415654782577901 0 -0.43890233478009338 0.1378395493323826 0 -0.45584990199199521 0.14839652371063539 0 -0.45603072582896947 0.12415654782577901 0 -0.47840746745339868 0.1318715347448986 0 -0.45584990199199521 0.14839652371063539 0 -0.48510068849613291 0.2464952989699998 0 -0.5 0.22952651967534751 0 -0.5 0.27058277969487637 0 -0.48510068849613291 0.2464952989699998 0 -0.47450648191078398 0.23293413722231679 0 -0.4662317729600568 0.24711617116125539 0 -0.48510068849613291 0.2464952989699998 0 -0.5 0.22952651967534751 0 -0.47450648191078398 0.23293413722231679 0 -0.5 0.22952651967534751 0 -0.47450648191078398 0.23293413722231679 0 -0.47640830067555312 0.21143876786933641 0 -0.47450648191078398 0.23293413722231679 0 -0.47640830067555312 0.21143876786933641 0 -0.47640830067555312 0.21143876786933641 0 -0.49999999999999639 0.19905040083186301 0 -0.5 0.22952651967534751 0 -0.47640830067555312 0.21143876786933641 0 -0.49999999999999639 0.19905040083186301 0 -0.47888983910924399 0.1833910978263659 0 -0.47640830067555312 0.21143876786933641 0 -0.49999999999999639 0.19905040083186301 0 -0.47888983910924399 0.1833910978263659 0 -0.47640830067555312 0.21143876786933641 0 -0.47888983910924399 0.1833910978263659 0 -0.47640830067555312 0.21143876786933641 0 -0.4553652866229031 0.19812390853730849 0 -0.43974358763926291 0.18039709061644729 0 -0.4553652866229031 0.19812390853730849 0 -0.43067986422853077 0.20940139548392031 0 -0.4553652866229031 0.19812390853730849 0 -0.45283971357182312 0.22381499832142371 0 -0.43067986422853077 0.20940139548392031 0 -0.47640830067555312 0.21143876786933641 0 -0.4553652866229031 0.19812390853730849 0 -0.45283971357182312 0.22381499832142371 0 -0.47640830067555312 0.21143876786933641 0 -0.45283971357182312 0.22381499832142371 0 -0.47450648191078398 0.23293413722231679 0 -0.45283971357182312 0.22381499832142371 0 -0.45078000859246359 0.24156244513336969 0 -0.47450648191078398 0.23293413722231679 0 -0.47640830067555312 0.21143876786933641 0 -0.45283971357182312 0.22381499832142371 0 -0.45283971357182312 0.22381499832142371 0 -0.43294786837480398 0.2404538296894207 0 -0.42927112646809362 0.23619122877351181 0 -0.45283971357182312 0.22381499832142371 0 -0.42927112646809362 0.23619122877351181 0 -0.45283971357182312 0.22381499832142371 0 -0.42927112646809362 0.23619122877351181 0 -0.43067986422853077 0.20940139548392031 0 -0.45283971357182312 0.22381499832142371 0 -0.45078000859246359 0.24156244513336969 0 -0.43294786837480398 0.2404538296894207 0 -0.43294786837480398 0.2404538296894207 0 -0.44957601688056159 0.25938839971938082 0 -0.45078000859246359 0.24156244513336969 0 -0.43294786837480398 0.2404538296894207 0 -0.44957601688056159 0.25938839971938082 0 -0.45078000859246359 0.24156244513336969 0 -0.4662317729600568 0.24711617116125539 0 -0.44957601688056159 0.25938839971938082 0 -0.47450648191078398 0.23293413722231679 0 -0.45078000859246359 0.24156244513336969 0 -0.4662317729600568 0.24711617116125539 0 -0.42927112646809362 0.23619122877351181 0 -0.40439403923729561 0.237116777479636 0 -0.40570253936436479 0.24856745922560119 0 -0.42927112646809362 0.23619122877351181 0 -0.40570253936436479 0.24856745922560119 0 -0.43294786837480398 0.2404538296894207 0 -0.42927112646809362 0.23619122877351181 0 -0.40570253936436479 0.24856745922560119 0 -0.42927112646809362 0.23619122877351181 0 -0.41099867150134572 0.22378265931279079 0 -0.43067986422853077 0.20940139548392031 0 -0.42927112646809362 0.23619122877351181 0 -0.41099867150134572 0.22378265931279079 0 -0.40439403923729561 0.237116777479636 0 -0.40693149157881192 0.20854646138297669 0 -0.43067986422853077 0.20940139548392031 0 -0.41468845130467291 0.19268004053423909 0 -0.41099867150134572 0.22378265931279079 0 -0.40693149157881192 0.20854646138297669 0 -0.43067986422853077 0.20940139548392031 0 -0.43974358763926291 0.18039709061644729 0 -0.43067986422853077 0.20940139548392031 0 -0.41468845130467291 0.19268004053423909 0 -0.40693149157881192 0.20854646138297669 0 -0.41468845130467291 0.19268004053423909 0 -0.3971577940731173 0.19827573187671929 0 -0.41468845130467291 0.19268004053423909 0 -0.3971577940731173 0.19827573187671929 0 -0.39721082993519219 0.18448993107768991 0 -0.3971577940731173 0.19827573187671929 0 -0.38589476142810619 0.19424352100093389 0 -0.39721082993519219 0.18448993107768991 0 -0.38589476142810619 0.19424352100093389 0 -0.37633455857784293 0.18261391494179069 0 -0.37360736010814782 0.20134128663860251 0 -0.38589476142810619 0.19424352100093389 0 -0.388204088430469 0.2080493245121296 0 -0.37360736010814782 0.20134128663860251 0 -0.3971577940731173 0.19827573187671929 0 -0.38589476142810619 0.19424352100093389 0 -0.388204088430469 0.2080493245121296 0 -0.388204088430469 0.2080493245121296 0 -0.37752279527241261 0.21261086987475841 0 -0.37360736010814782 0.20134128663860251 0 -0.388204088430469 0.2080493245121296 0 -0.39698893960476778 0.22105750592270679 0 -0.38334950790794681 0.2216260941536595 0 -0.388204088430469 0.2080493245121296 0 -0.37752279527241261 0.21261086987475841 0 -0.38334950790794681 0.2216260941536595 0 -0.40693149157881192 0.20854646138297669 0 -0.3971577940731173 0.19827573187671929 0 -0.388204088430469 0.2080493245121296 0 -0.40693149157881192 0.20854646138297669 0 -0.388204088430469 0.2080493245121296 0 -0.39698893960476778 0.22105750592270679 0 -0.41099867150134572 0.22378265931279079 0 -0.40693149157881192 0.20854646138297669 0 -0.39698893960476778 0.22105750592270679 0 -0.41099867150134572 0.22378265931279079 0 -0.39817935363044121 0.2307605800777236 0 -0.39698893960476778 0.22105750592270679 0 -0.41099867150134572 0.22378265931279079 0 -0.39817935363044121 0.2307605800777236 0 -0.40439403923729561 0.237116777479636 0 -0.39817935363044121 0.2307605800777236 0 -0.39698893960476778 0.22105750592270679 0 -0.38938082192181989 0.23429513208400299 0 -0.39698893960476778 0.22105750592270679 0 -0.38334950790794681 0.2216260941536595 0 -0.38938082192181989 0.23429513208400299 0 -0.37752279527241261 0.21261086987475841 0 -0.38334950790794681 0.2216260941536595 0 -0.37349668708843092 0.2226496950895116 0 -0.38334950790794681 0.2216260941536595 0 -0.37780308712422273 0.23309721308500589 0 -0.37349668708843092 0.2226496950895116 0 -0.38334950790794681 0.2216260941536595 0 -0.37780308712422273 0.23309721308500589 0 -0.38938082192181989 0.23429513208400299 0 -0.37780308712422273 0.23309721308500589 0 -0.38938082192181989 0.23429513208400299 0 -0.38455494932564349 0.24416718140159829 0 -0.38938082192181989 0.23429513208400299 0 -0.38455494932564349 0.24416718140159829 0 -0.39556747567899392 0.24292135359640349 0 -0.37780308712422273 0.23309721308500589 0 -0.37552267705158737 0.2431978490864326 0 -0.38455494932564349 0.24416718140159829 0 -0.37552267705158737 0.2431978490864326 0 -0.38455494932564349 0.24416718140159829 0 -0.37675611103540763 0.25409865512553548 0 -0.38455494932564349 0.24416718140159829 0 -0.39556747567899392 0.24292135359640349 0 -0.38900306751682168 0.25733661077056619 0 -0.39556747567899392 0.24292135359640349 0 -0.40570253936436479 0.24856745922560119 0 -0.38900306751682168 0.25733661077056619 0 -0.39817935363044121 0.2307605800777236 0 -0.38938082192181989 0.23429513208400299 0 -0.39556747567899392 0.24292135359640349 0 -0.39817935363044121 0.2307605800777236 0 -0.39556747567899392 0.24292135359640349 0 -0.40439403923729561 0.237116777479636 0 -0.39556747567899392 0.24292135359640349 0 -0.40439403923729561 0.237116777479636 0 -0.40570253936436479 0.24856745922560119 0 -0.40439403923729561 0.237116777479636 0 -0.40570253936436479 0.24856745922560119 0 -0.41854804079657681 0.1335618185962307 0 -0.42914581421791992 0.156979454606339 0 -0.40043471814444209 0.15516303321545699 0 -0.41854804079657681 0.1335618185962307 0 -0.39914528189259102 0.13642314956862331 0 -0.40406865080306442 0.1250183431131778 0 -0.4361514068569779 0.1212930370016405 0 -0.43890233478009338 0.1378395493323826 0 -0.41854804079657681 0.1335618185962307 0 -0.41854804079657681 0.1335618185962307 0 -0.42914581421791992 0.156979454606339 0 -0.43890233478009338 0.1378395493323826 0 -0.41854804079657681 0.1335618185962307 0 -0.42914581421791992 0.156979454606339 0 -0.43974358763926291 0.18039709061644729 0 -0.42914581421791992 0.156979454606339 0 -0.43974358763926291 0.18039709061644729 0 -0.42914581421791992 0.156979454606339 0 -0.41320507520050959 0.17295104721716609 0 -0.43974358763926291 0.18039709061644729 0 -0.41468845130467291 0.19268004053423909 0 -0.41320507520050959 0.17295104721716609 0 -0.41468845130467291 0.19268004053423909 0 -0.41320507520050959 0.17295104721716609 0 -0.39721082993519219 0.18448993107768991 0 -0.42914581421791992 0.156979454606339 0 -0.41320507520050959 0.17295104721716609 0 -0.40043471814444209 0.15516303321545699 0 -0.41320507520050959 0.17295104721716609 0 -0.39020731289493082 0.17075062011690681 0 -0.40043471814444209 0.15516303321545699 0 -0.41320507520050959 0.17295104721716609 0 -0.39721082993519219 0.18448993107768991 0 -0.39020731289493082 0.17075062011690681 0 -0.38589476142810619 0.19424352100093389 0 -0.39721082993519219 0.18448993107768991 0 -0.37633455857784293 0.18261391494179069 0 -0.39721082993519219 0.18448993107768991 0 -0.37633455857784293 0.18261391494179069 0 -0.39020731289493082 0.17075062011690681 0 -0.37604315808934557 0.1616159605326225 0 -0.39020731289493082 0.17075062011690681 0 -0.40043471814444209 0.15516303321545699 0 -0.37633455857784293 0.18261391494179069 0 -0.37604315808934557 0.1616159605326225 0 -0.39020731289493082 0.17075062011690681 0 -0.37604315808934557 0.1616159605326225 0 -0.40043471814444209 0.15516303321545699 0 -0.37471140407559322 0.1435474845347986 0 -0.40043471814444209 0.15516303321545699 0 -0.39914528189259102 0.13642314956862331 0 -0.37471140407559322 0.1435474845347986 0 -0.41854804079657681 0.1335618185962307 0 -0.40043471814444209 0.15516303321545699 0 -0.39914528189259102 0.13642314956862331 0 -0.39063101314785642 0.1199442217017349 0 -0.39914528189259102 0.13642314956862331 0 -0.40406865080306442 0.1250183431131778 0 -0.39063101314785642 0.1199442217017349 0 -0.37471140407559322 0.1435474845347986 0 -0.39063101314785642 0.1199442217017349 0 -0.39914528189259102 0.13642314956862331 0 -0.37471140407559322 0.1435474845347986 0 -0.39063101314785642 0.1199442217017349 0 -0.37471140407559322 0.1435474845347986 0 -0.36716541190589658 0.118616890008602 0 -0.35994195951422209 0.1344452768815545 0 -0.37471140407559322 0.1435474845347986 0 -0.36716541190589658 0.118616890008602 0 -0.35994195951422209 0.1344452768815545 0 -0.36716541190589658 0.118616890008602 0 -0.35352278934268327 0.12307152153672141 0 -0.34641309729257957 0.13731862859844601 0 -0.34013489564456101 0.1359120708212119 0 -0.34492978578452338 0.1096826786703838 0 -0.35994195951422209 0.1344452768815545 0 -0.34641309729257957 0.13731862859844601 0 -0.35352278934268327 0.12307152153672141 0 -0.35994195951422209 0.1344452768815545 0 -0.34641309729257957 0.13731862859844601 0 -0.35789709495435779 0.14967185972920441 0 -0.34641309729257957 0.13731862859844601 0 -0.34789640880063583 0.16495457852650819 0 -0.34475730797662613 0.16425129963789131 0 -0.34641309729257957 0.13731862859844601 0 -0.34789640880063583 0.16495457852650819 0 -0.34641309729257957 0.13731862859844601 0 -0.35789709495435779 0.14967185972920441 0 -0.34789640880063583 0.16495457852650819 0 -0.34641309729257957 0.13731862859844601 0 -0.34475730797662613 0.16425129963789131 0 -0.34013489564456101 0.1359120708212119 0 -0.35994195951422209 0.1344452768815545 0 -0.35789709495435779 0.14967185972920441 0 -0.37471140407559322 0.1435474845347986 0 -0.37471140407559322 0.1435474845347986 0 -0.35879179500333003 0.16715074736786231 0 -0.35789709495435779 0.14967185972920441 0 -0.37471140407559322 0.1435474845347986 0 -0.35879179500333003 0.16715074736786231 0 -0.37604315808934557 0.1616159605326225 0 -0.37471140407559322 0.1435474845347986 0 -0.35879179500333003 0.16715074736786231 0 -0.37604315808934557 0.1616159605326225 0 -0.36770080355277779 0.17295393471821821 0 -0.35879179500333003 0.16715074736786231 0 -0.37633455857784293 0.18261391494179069 0 -0.37604315808934557 0.1616159605326225 0 -0.36770080355277779 0.17295393471821821 0 -0.37633455857784293 0.18261391494179069 0 -0.36024484160731629 0.17922248672973989 0 -0.36412185028301147 0.19234279238731111 0 -0.37633455857784293 0.18261391494179069 0 -0.36770080355277779 0.17295393471821821 0 -0.36024484160731629 0.17922248672973989 0 -0.36770080355277779 0.17295393471821821 0 -0.36024484160731629 0.17922248672973989 0 -0.35879179500333003 0.16715074736786231 0 -0.34475730797662613 0.16425129963789131 0 -0.34937972030869158 0.1925905284545705 0 -0.34475730797662613 0.16425129963789131 0 -0.33955964773429331 0.17429409395644799 0 -0.34937972030869158 0.1925905284545705 0 -0.34789640880063583 0.16495457852650819 0 -0.34937972030869158 0.1925905284545705 0 -0.36024484160731629 0.17922248672973989 0 -0.34789640880063583 0.16495457852650819 0 -0.34937972030869158 0.1925905284545705 0 -0.34789640880063583 0.16495457852650819 0 -0.34475730797662613 0.16425129963789131 0 -0.34937972030869158 0.1925905284545705 0 -0.35789709495435779 0.14967185972920441 0 -0.35879179500333003 0.16715074736786231 0 -0.34789640880063583 0.16495457852650819 0 -0.36024484160731629 0.17922248672973989 0 -0.35879179500333003 0.16715074736786231 0 -0.34789640880063583 0.16495457852650819 0 -0.34475730797662613 0.16425129963789131 0 -0.33718479128260948 0.15937809544746401 0 -0.33738994680948231 0.15124435901621999 0 -0.34475730797662613 0.16425129963789131 0 -0.33718479128260948 0.15937809544746401 0 -0.33813633189250208 0.16634522180797001 0 -0.34475730797662613 0.16425129963789131 0 -0.33813633189250208 0.16634522180797001 0 -0.33955964773429331 0.17429409395644799 0 -0.33813633189250208 0.16634522180797001 0 -0.33104358057647992 0.16745739819007679 0 -0.33955964773429331 0.17429409395644799 0 -0.33718479128260948 0.15937809544746401 0 -0.33813633189250208 0.16634522180797001 0 -0.33104358057647992 0.16745739819007679 0 -0.33718479128260948 0.15937809544746401 0 -0.33104358057647992 0.16745739819007679 0 -0.33026858376101731 0.15190637449176561 0 -0.33104358057647992 0.16745739819007679 0 -0.33403331992976748 0.18227938602527921 0 -0.31962491903722229 0.18594758427241961 0 -0.33955964773429331 0.17429409395644799 0 -0.33403331992976748 0.18227938602527921 0 -0.34937972030869158 0.1925905284545705 0 -0.33104358057647992 0.16745739819007679 0 -0.33955964773429331 0.17429409395644799 0 -0.33403331992976748 0.18227938602527921 0 -0.31962491903722229 0.18594758427241961 0 -0.31796283648197832 0.1633337389314328 0 -0.30596240671843039 0.18080678990447141 0 -0.31962491903722229 0.18594758427241961 0 -0.31796283648197832 0.1633337389314328 0 -0.33104358057647992 0.16745739819007679 0 -0.31962491903722229 0.18594758427241961 0 -0.31796283648197832 0.1633337389314328 0 -0.33104358057647992 0.16745739819007679 0 -0.31796283648197832 0.1633337389314328 0 -0.33026858376101731 0.15190637449176561 0 -0.31796283648197832 0.1633337389314328 0 -0.31630075392673418 0.14071989359044609 0 -0.31796283648197832 0.1633337389314328 0 -0.31630075392673418 0.14071989359044609 0 -0.33026858376101731 0.15190637449176561 0 -0.31630075392673418 0.14071989359044609 0 -0.32855297285770901 0.13997743418302819 0 -0.33026858376101731 0.15190637449176561 0 -0.31630075392673418 0.14071989359044609 0 -0.30835875028686138 0.12836861128214669 0 -0.32196666651361477 0.12487749701900901 0 -0.31630075392673418 0.14071989359044609 0 -0.32855297285770901 0.13997743418302819 0 -0.32196666651361477 0.12487749701900901 0 -0.32855297285770901 0.13997743418302819 0 -0.33106980320980312 0.1246503866679774 0 -0.32196666651361477 0.12487749701900901 0 -0.32855297285770901 0.13997743418302819 0 -0.34013489564456101 0.1359120708212119 0 -0.3346041553825978 0.14477395468276741 0 -0.32855297285770901 0.13997743418302819 0 -0.34013489564456101 0.1359120708212119 0 -0.33106980320980312 0.1246503866679774 0 -0.34475730797662613 0.16425129963789131 0 -0.34013489564456101 0.1359120708212119 0 -0.34013489564456101 0.1359120708212119 0 -0.33738994680948231 0.15124435901621999 0 -0.3346041553825978 0.14477395468276741 0 -0.34475730797662613 0.16425129963789131 0 -0.34013489564456101 0.1359120708212119 0 -0.33738994680948231 0.15124435901621999 0 -0.33718479128260948 0.15937809544746401 0 -0.33738994680948231 0.15124435901621999 0 -0.33026858376101731 0.15190637449176561 0 -0.33738994680948231 0.15124435901621999 0 -0.33026858376101731 0.15190637449176561 0 -0.3346041553825978 0.14477395468276741 0 -0.32855297285770901 0.13997743418302819 0 -0.33026858376101731 0.15190637449176561 0 -0.3346041553825978 0.14477395468276741 0 -0.35208907389890948 0.24306917690434299 0 -0.33787454055877381 0.24529314191448051 0 -0.34142207509263922 0.25572960106260723 0 -0.35208907389890948 0.24306917690434299 0 -0.34508884738596168 0.2342440782649087 0 -0.33787454055877381 0.24529314191448051 0 -0.35689366634974828 0.23865726176967661 0 -0.35926376548055328 0.2486735779402334 0 -0.35208907389890948 0.24306917690434299 0 -0.35926376548055328 0.2486735779402334 0 -0.36665925593476811 0.2402392529692276 0 -0.36723308052532222 0.25309369692869038 0 -0.35689366634974828 0.23865726176967661 0 -0.35926376548055328 0.2486735779402334 0 -0.36665925593476811 0.2402392529692276 0 -0.37552267705158737 0.2431978490864326 0 -0.36665925593476811 0.2402392529692276 0 -0.36723308052532222 0.25309369692869038 0 -0.37780308712422273 0.23309721308500589 0 -0.37552267705158737 0.2431978490864326 0 -0.36665925593476811 0.2402392529692276 0 -0.37780308712422273 0.23309721308500589 0 -0.36665925593476811 0.2402392529692276 0 -0.36843053074319038 0.2307028505946831 0 -0.3637449320256837 0.23462317477255459 0 -0.36665925593476811 0.2402392529692276 0 -0.36843053074319038 0.2307028505946831 0 -0.35689366634974828 0.23865726176967661 0 -0.3637449320256837 0.23462317477255459 0 -0.36304404037139409 0.23042929735762199 0 -0.35689366634974828 0.23865726176967661 0 -0.3637449320256837 0.23462317477255459 0 -0.36665925593476811 0.2402392529692276 0 -0.35689366634974828 0.23865726176967661 0 -0.36304404037139409 0.23042929735762199 0 -0.36041387714694573 0.22521835140317789 0 -0.36304404037139409 0.23042929735762199 0 -0.36843053074319038 0.2307028505946831 0 -0.36573719559140289 0.222944848248018 0 -0.3637449320256837 0.23462317477255459 0 -0.36304404037139409 0.23042929735762199 0 -0.36843053074319038 0.2307028505946831 0 -0.37780308712422273 0.23309721308500589 0 -0.36843053074319038 0.2307028505946831 0 -0.37349668708843092 0.2226496950895116 0 -0.36843053074319038 0.2307028505946831 0 -0.37349668708843092 0.2226496950895116 0 -0.36573719559140289 0.222944848248018 0 -0.37349668708843092 0.2226496950895116 0 -0.36573719559140289 0.222944848248018 0 -0.36813700589141007 0.21491629458094519 0 -0.36304404037139409 0.23042929735762199 0 -0.36573719559140289 0.222944848248018 0 -0.36041387714694573 0.22521835140317789 0 -0.36573719559140289 0.222944848248018 0 -0.36041387714694573 0.22521835140317789 0 -0.36096209089537368 0.21759825830877291 0 -0.36041387714694573 0.22521835140317789 0 -0.35785158193032179 0.22427444164843771 0 -0.36096209089537368 0.21759825830877291 0 -0.35689366634974828 0.23865726176967661 0 -0.35785158193032179 0.22427444164843771 0 -0.35313669332921982 0.21562389511212349 0 -0.35785158193032179 0.22427444164843771 0 -0.35313669332921982 0.21562389511212349 0 -0.36096209089537368 0.21759825830877291 0 -0.35689366634974828 0.23865726176967661 0 -0.35313669332921982 0.21562389511212349 0 -0.35208907389890948 0.24306917690434299 0 -0.34508884738596168 0.2342440782649087 0 -0.35073439710380072 0.2178298526794567 0 -0.34508884738596168 0.2342440782649087 0 -0.35073439710380072 0.2178298526794567 0 -0.33965737798236312 0.2307841415613546 0 -0.35208907389890948 0.24306917690434299 0 -0.35073439710380072 0.2178298526794567 0 -0.35689366634974828 0.23865726176967661 0 -0.35073439710380072 0.2178298526794567 0 -0.35313669332921982 0.21562389511212349 0 -0.35689366634974828 0.23865726176967661 0 -0.35208907389890948 0.24306917690434299 0 -0.35073439710380072 0.2178298526794567 0 -0.35689366634974828 0.23865726176967661 0 -0.36041387714694573 0.22521835140317789 0 -0.35785158193032179 0.22427444164843771 0 -0.35073439710380072 0.2178298526794567 0 -0.34937972030869158 0.1925905284545705 0 -0.35313669332921982 0.21562389511212349 0 -0.36104277081305908 0.20594574517185199 0 -0.34937972030869158 0.1925905284545705 0 -0.35073439710380072 0.2178298526794567 0 -0.35313669332921982 0.21562389511212349 0 -0.34937972030869158 0.1925905284545705 0 -0.35313669332921982 0.21562389511212349 0 -0.34937972030869158 0.1925905284545705 0 -0.35073439710380072 0.2178298526794567 0 -0.34937972030869158 0.1925905284545705 0 -0.34310613959102931 0.2055031457500841 0 -0.35073439710380072 0.2178298526794567 0 -0.34310613959102931 0.2055031457500841 0 -0.34102096872395049 0.21330790674795511 0 -0.35073439710380072 0.2178298526794567 0 -0.34102096872395049 0.21330790674795511 0 -0.34050958406480097 0.2204489809667724 0 -0.35313669332921982 0.21562389511212349 0 -0.36096209089537368 0.21759825830877291 0 -0.36104277081305908 0.20594574517185199 0 -0.36573719559140289 0.222944848248018 0 -0.36096209089537368 0.21759825830877291 0 -0.36813700589141007 0.21491629458094519 0 -0.36096209089537368 0.21759825830877291 0 -0.36813700589141007 0.21491629458094519 0 -0.36104277081305908 0.20594574517185199 0 -0.37752279527241261 0.21261086987475841 0 -0.37349668708843092 0.2226496950895116 0 -0.36813700589141007 0.21491629458094519 0 -0.37752279527241261 0.21261086987475841 0 -0.36813700589141007 0.21491629458094519 0 -0.37360736010814782 0.20134128663860251 0 -0.36813700589141007 0.21491629458094519 0 -0.36104277081305908 0.20594574517185199 0 -0.37360736010814782 0.20134128663860251 0 -0.37633455857784293 0.18261391494179069 0 -0.37360736010814782 0.20134128663860251 0 -0.36412185028301147 0.19234279238731111 0 -0.36104277081305908 0.20594574517185199 0 -0.37360736010814782 0.20134128663860251 0 -0.36412185028301147 0.19234279238731111 0 -0.36024484160731629 0.17922248672973989 0 -0.36412185028301147 0.19234279238731111 0 -0.34937972030869158 0.1925905284545705 0 -0.36104277081305908 0.20594574517185199 0 -0.36412185028301147 0.19234279238731111 0 -0.34937972030869158 0.1925905284545705 0 -0.33403331992976748 0.18227938602527921 0 -0.34937972030869158 0.1925905284545705 0 -0.33132558757267788 0.19645560619981381 0 -0.34937972030869158 0.1925905284545705 0 -0.33132558757267788 0.19645560619981381 0 -0.34310613959102931 0.2055031457500841 0 -0.33132558757267788 0.19645560619981381 0 -0.33206760714527173 0.20694684499318661 0 -0.34310613959102931 0.2055031457500841 0 -0.33403331992976748 0.18227938602527921 0 -0.31962491903722229 0.18594758427241961 0 -0.33132558757267788 0.19645560619981381 0 -0.31962491903722229 0.18594758427241961 0 -0.33132558757267788 0.19645560619981381 0 -0.32128700159246643 0.2085614296134064 0 -0.31962491903722229 0.18594758427241961 0 -0.32128700159246643 0.2085614296134064 0 -0.31094130810426679 0.20146887601233149 0 -0.31962491903722229 0.18594758427241961 0 -0.32128700159246643 0.2085614296134064 0 -0.32128700159246643 0.2085614296134064 0 -0.30991457648112369 0.2265504040794763 0 -0.30833129431909739 0.21334832502430981 0 -0.32128700159246643 0.2085614296134064 0 -0.30833129431909739 0.21334832502430981 0 -0.31094130810426679 0.20146887601233149 0 -0.32128700159246643 0.2085614296134064 0 -0.334517009846864 0.21514148884522391 0 -0.33414886994078158 0.22469785659874761 0 -0.334517009846864 0.21514148884522391 0 -0.33206760714527173 0.20694684499318661 0 -0.34102096872395049 0.21330790674795511 0 -0.33132558757267788 0.19645560619981381 0 -0.32128700159246643 0.2085614296134064 0 -0.33206760714527173 0.20694684499318661 0 -0.32128700159246643 0.2085614296134064 0 -0.334517009846864 0.21514148884522391 0 -0.33206760714527173 0.20694684499318661 0 -0.33206760714527173 0.20694684499318661 0 -0.34310613959102931 0.2055031457500841 0 -0.34102096872395049 0.21330790674795511 0 -0.334517009846864 0.21514148884522391 0 -0.34102096872395049 0.21330790674795511 0 -0.34050958406480097 0.2204489809667724 0 -0.33965737798236312 0.2307841415613546 0 -0.33414886994078158 0.22469785659874761 0 -0.32294908414771051 0.231175274954393 0 -0.34050958406480097 0.2204489809667724 0 -0.33965737798236312 0.2307841415613546 0 -0.33414886994078158 0.22469785659874761 0 -0.334517009846864 0.21514148884522391 0 -0.34050958406480097 0.2204489809667724 0 -0.33414886994078158 0.22469785659874761 0 -0.35073439710380072 0.2178298526794567 0 -0.34050958406480097 0.2204489809667724 0 -0.33965737798236312 0.2307841415613546 0 -0.32128700159246643 0.2085614296134064 0 -0.33414886994078158 0.22469785659874761 0 -0.32294908414771051 0.231175274954393 0 -0.32128700159246643 0.2085614296134064 0 -0.32294908414771051 0.231175274954393 0 -0.32128700159246643 0.2085614296134064 0 -0.32294908414771051 0.231175274954393 0 -0.30991457648112369 0.2265504040794763 0 -0.32294908414771051 0.231175274954393 0 -0.30659471691689572 0.242716670786389 0 -0.30991457648112369 0.2265504040794763 0 -0.32294908414771051 0.231175274954393 0 -0.30659471691689572 0.242716670786389 0 -0.32493898666941562 0.25370598596143412 0 -0.33965737798236312 0.2307841415613546 0 -0.32294908414771051 0.231175274954393 0 -0.33787454055877381 0.24529314191448051 0 -0.32294908414771051 0.231175274954393 0 -0.33787454055877381 0.24529314191448051 0 -0.32493898666941562 0.25370598596143412 0 -0.34508884738596168 0.2342440782649087 0 -0.33965737798236312 0.2307841415613546 0 -0.33787454055877381 0.24529314191448051 0 -0.28392805579818597 0.24584677119781029 0 -0.30659471691689572 0.242716670786389 0 -0.29475597619187288 0.23283261746471121 0 -0.28392805579818597 0.24584677119781029 0 -0.29475597619187288 0.23283261746471121 0 -0.28109078806307641 0.23123665432302171 0 -0.30991457648112369 0.2265504040794763 0 -0.2995127007984647 0.22240216811521779 0 -0.29475597619187288 0.23283261746471121 0 -0.30659471691689572 0.242716670786389 0 -0.30991457648112369 0.2265504040794763 0 -0.29475597619187288 0.23283261746471121 0 -0.30991457648112369 0.2265504040794763 0 -0.2995127007984647 0.22240216811521779 0 -0.30833129431909739 0.21334832502430981 0 -0.2995127007984647 0.22240216811521779 0 -0.29475597619187288 0.23283261746471121 0 -0.28658767146556752 0.2208426317688808 0 -0.29475597619187288 0.23283261746471121 0 -0.28658767146556752 0.2208426317688808 0 -0.28109078806307641 0.23123665432302171 0 -0.28658767146556752 0.2208426317688808 0 -0.28549164962408852 0.20589081089837991 0 -0.27599235506858921 0.213338138612501 0 -0.2995127007984647 0.22240216811521779 0 -0.28658767146556752 0.2208426317688808 0 -0.29782091388006071 0.2077851852193662 0 -0.28658767146556752 0.2208426317688808 0 -0.28549164962408852 0.20589081089837991 0 -0.29782091388006071 0.2077851852193662 0 -0.2995127007984647 0.22240216811521779 0 -0.30833129431909739 0.21334832502430981 0 -0.29782091388006071 0.2077851852193662 0 -0.30833129431909739 0.21334832502430981 0 -0.29782091388006071 0.2077851852193662 0 -0.31094130810426679 0.20146887601233149 0 -0.31094130810426679 0.20146887601233149 0 -0.28918285092023371 0.18809301854234381 0 -0.30596240671843039 0.18080678990447141 0 -0.31094130810426679 0.20146887601233149 0 -0.28918285092023371 0.18809301854234381 0 -0.31962491903722229 0.18594758427241961 0 -0.31094130810426679 0.20146887601233149 0 -0.30596240671843039 0.18080678990447141 0 -0.29782091388006071 0.2077851852193662 0 -0.31094130810426679 0.20146887601233149 0 -0.28918285092023371 0.18809301854234381 0 -0.28549164962408852 0.20589081089837991 0 -0.28918285092023371 0.18809301854234381 0 -0.27469451239495962 0.19856643751398209 0 -0.28549164962408852 0.20589081089837991 0 -0.29782091388006071 0.2077851852193662 0 -0.28918285092023371 0.18809301854234381 0 -0.27469451239495962 0.19856643751398209 0 -0.25846339158769432 0.19477026040294029 0 -0.26742439373620053 0.1747171610723561 0 -0.27469451239495962 0.19856643751398209 0 -0.25846339158769432 0.19477026040294029 0 -0.26373521695980739 0.20854805576629271 0 -0.25846339158769432 0.19477026040294029 0 -0.25264776582176801 0.2054066783297176 0 -0.24512564856919611 0.1966003761625241 0 -0.25846339158769432 0.19477026040294029 0 -0.26373521695980739 0.20854805576629271 0 -0.25264776582176801 0.2054066783297176 0 -0.26373521695980739 0.20854805576629271 0 -0.25264776582176801 0.2054066783297176 0 -0.25326648915379463 0.21765104414027969 0 -0.26373521695980739 0.20854805576629271 0 -0.25326648915379463 0.21765104414027969 0 -0.26696116117740232 0.2188897629996385 0 -0.26373521695980739 0.20854805576629271 0 -0.27599235506858921 0.213338138612501 0 -0.26696116117740232 0.2188897629996385 0 -0.27469451239495962 0.19856643751398209 0 -0.26373521695980739 0.20854805576629271 0 -0.27599235506858921 0.213338138612501 0 -0.28549164962408852 0.20589081089837991 0 -0.27469451239495962 0.19856643751398209 0 -0.27599235506858921 0.213338138612501 0 -0.28658767146556752 0.2208426317688808 0 -0.27599235506858921 0.213338138612501 0 -0.27366575233363138 0.22408994750137051 0 -0.28658767146556752 0.2208426317688808 0 -0.27366575233363138 0.22408994750137051 0 -0.28109078806307641 0.23123665432302171 0 -0.27366575233363138 0.22408994750137051 0 -0.28109078806307641 0.23123665432302171 0 -0.26613842301448931 0.22948780180005629 0 -0.27366575233363138 0.22408994750137051 0 -0.26613842301448931 0.22948780180005629 0 -0.27599235506858921 0.213338138612501 0 -0.27366575233363138 0.22408994750137051 0 -0.26696116117740232 0.2188897629996385 0 -0.27366575233363138 0.22408994750137051 0 -0.26613842301448931 0.22948780180005629 0 -0.26696116117740232 0.2188897629996385 0 -0.25326648915379463 0.21765104414027969 0 -0.26613842301448931 0.22948780180005629 0 -0.25326648915379463 0.21765104414027969 0 -0.26613842301448931 0.22948780180005629 0 -0.26696116117740232 0.2188897629996385 0 -0.26613842301448931 0.22948780180005629 0 -0.25250373055295899 0.22903132158689779 0 -0.2468893326351202 0.24329134098969171 0 -0.25326648915379463 0.21765104414027969 0 -0.26613842301448931 0.22948780180005629 0 -0.25250373055295899 0.22903132158689779 0 -0.26613842301448931 0.22948780180005629 0 -0.2468893326351202 0.24329134098969171 0 -0.26613842301448931 0.22948780180005629 0 -0.26514282027817931 0.24842266601513599 0 -0.2468893326351202 0.24329134098969171 0 -0.28392805579818597 0.24584677119781029 0 -0.26613842301448931 0.22948780180005629 0 -0.26514282027817931 0.24842266601513599 0 -0.28392805579818597 0.24584677119781029 0 -0.26613842301448931 0.22948780180005629 0 -0.28392805579818597 0.24584677119781029 0 -0.28109078806307641 0.23123665432302171 0 -0.26613842301448931 0.22948780180005629 0 -0.29674228528268098 0.14167201189203629 0 -0.29210011904845101 0.16519073176382951 0 -0.2788144627000812 0.14703818685698561 0 -0.29674228528268098 0.14167201189203629 0 -0.2788144627000812 0.14703818685698561 0 -0.2804226891664876 0.12940513594623221 0 -0.29674228528268098 0.14167201189203629 0 -0.2804226891664876 0.12940513594623221 0 -0.29563289833704792 0.1211109261551389 0 -0.29674228528268098 0.14167201189203629 0 -0.30835875028686138 0.12836861128214669 0 -0.29563289833704792 0.1211109261551389 0 -0.31630075392673418 0.14071989359044609 0 -0.29674228528268098 0.14167201189203629 0 -0.30835875028686138 0.12836861128214669 0 -0.31796283648197832 0.1633337389314328 0 -0.31630075392673418 0.14071989359044609 0 -0.29674228528268098 0.14167201189203629 0 -0.31796283648197832 0.1633337389314328 0 -0.30596240671843039 0.18080678990447141 0 -0.29210011904845101 0.16519073176382951 0 -0.31796283648197832 0.1633337389314328 0 -0.29674228528268098 0.14167201189203629 0 -0.29210011904845101 0.16519073176382951 0 -0.28918285092023371 0.18809301854234381 0 -0.30596240671843039 0.18080678990447141 0 -0.29210011904845101 0.16519073176382951 0 -0.28918285092023371 0.18809301854234381 0 -0.29210011904845101 0.16519073176382951 0 -0.26742439373620053 0.1747171610723561 0 -0.29210011904845101 0.16519073176382951 0 -0.26645859331151961 0.15770478106228089 0 -0.2788144627000812 0.14703818685698561 0 -0.29210011904845101 0.16519073176382951 0 -0.26645859331151961 0.15770478106228089 0 -0.26742439373620053 0.1747171610723561 0 -0.28918285092023371 0.18809301854234381 0 -0.27469451239495962 0.19856643751398209 0 -0.26742439373620053 0.1747171610723561 0 -0.28918285092023371 0.18809301854234381 0 -0.26742439373620053 0.1747171610723561 0 -0.25846339158769432 0.19477026040294029 0 -0.26742439373620053 0.1747171610723561 0 -0.2425545525554833 0.18325607046718431 0 -0.26742439373620053 0.1747171610723561 0 -0.24566593655216731 0.1613413036023684 0 -0.2425545525554833 0.18325607046718431 0 -0.26742439373620053 0.1747171610723561 0 -0.24566593655216731 0.1613413036023684 0 -0.26645859331151961 0.15770478106228089 0 -0.26742439373620053 0.1747171610723561 0 -0.24566593655216731 0.1613413036023684 0 -0.26645859331151961 0.15770478106228089 0 -0.26077588748637798 0.14053443996503889 0 -0.24566593655216731 0.1613413036023684 0 -0.26645859331151961 0.15770478106228089 0 -0.2788144627000812 0.14703818685698561 0 -0.26077588748637798 0.14053443996503889 0 -0.2788144627000812 0.14703818685698561 0 -0.2804226891664876 0.12940513594623221 0 -0.26077588748637798 0.14053443996503889 0 -0.2804226891664876 0.12940513594623221 0 -0.26077588748637798 0.14053443996503889 0 -0.26620622488190782 0.1187168322113534 0 -0.26077588748637798 0.14053443996503889 0 -0.25033803458298193 0.12914144363467839 0 -0.2394413917758374 0.14053574488666021 0 -0.26077588748637798 0.14053443996503889 0 -0.25033803458298193 0.12914144363467839 0 -0.26620622488190782 0.1187168322113534 0 -0.25033803458298193 0.12914144363467839 0 -0.25364395357421121 0.10678394025260531 0 -0.26620622488190782 0.1187168322113534 0 -0.25364395357421121 0.10678394025260531 0 -0.26910496068450029 0.10059928658519129 0 -0.26340159681891351 0.087305486383429762 0 -0.25364395357421121 0.10678394025260531 0 -0.26910496068450029 0.10059928658519129 0 -0.26620622488190782 0.1187168322113534 0 -0.26910496068450029 0.10059928658519129 0 -0.28436437631082973 0.10735841859683989 0 -0.28176033911896858 0.090840469038767704 0 -0.26910496068450029 0.10059928658519129 0 -0.26620622488190782 0.1187168322113534 0 -0.28436437631082973 0.10735841859683989 0 -0.2804226891664876 0.12940513594623221 0 -0.26620622488190782 0.1187168322113534 0 -0.28436437631082973 0.10735841859683989 0 -0.2804226891664876 0.12940513594623221 0 -0.29563289833704792 0.1211109261551389 0 -0.28436437631082973 0.10735841859683989 0 -0.29563289833704792 0.1211109261551389 0 -0.28436437631082973 0.10735841859683989 0 -0.30333203744139958 0.1018092028156232 0 -0.28436437631082973 0.10735841859683989 0 -0.30333203744139958 0.1018092028156232 0 -0.29505738772415852 0.092466809089677027 0 -0.28436437631082973 0.10735841859683989 0 -0.29505738772415852 0.092466809089677027 0 -0.28176033911896858 0.090840469038767704 0 -0.30333203744139958 0.1018092028156232 0 -0.31115114737422961 0.1134627277541034 0 -0.31621893882499519 0.096173217231134644 0 -0.29563289833704792 0.1211109261551389 0 -0.30333203744139958 0.1018092028156232 0 -0.31115114737422961 0.1134627277541034 0 -0.30835875028686138 0.12836861128214669 0 -0.29563289833704792 0.1211109261551389 0 -0.31115114737422961 0.1134627277541034 0 -0.2988364877494265 0.069896585727329402 0 -0.3095990562077543 0.082833834969606807 0 -0.31708477734686968 0.066938799678275263 0 -0.2988364877494265 0.069896585727329402 0 -0.30266664287706341 0.054708362279179482 0 -0.31708477734686968 0.066938799678275263 0 -0.2988364877494265 0.069896585727329402 0 -0.28935545939309398 0.062964548691125152 0 -0.30266664287706341 0.054708362279179482 0 -0.30333203744139958 0.1018092028156232 0 -0.3095990562077543 0.082833834969606807 0 -0.31621893882499519 0.096173217231134644 0 -0.30333203744139958 0.1018092028156232 0 -0.3095990562077543 0.082833834969606807 0 -0.29505738772415852 0.092466809089677027 0 -0.3095990562077543 0.082833834969606807 0 -0.29687345717375091 0.081902945336330912 0 -0.29505738772415852 0.092466809089677027 0 -0.2988364877494265 0.069896585727329402 0 -0.3095990562077543 0.082833834969606807 0 -0.29687345717375091 0.081902945336330912 0 -0.29687345717375091 0.081902945336330912 0 -0.28176033911896858 0.090840469038767704 0 -0.2804463735768567 0.075556206852953223 0 -0.29687345717375091 0.081902945336330912 0 -0.29505738772415852 0.092466809089677027 0 -0.28176033911896858 0.090840469038767704 0 -0.2988364877494265 0.069896585727329402 0 -0.28935545939309398 0.062964548691125152 0 -0.2804463735768567 0.075556206852953223 0 -0.2988364877494265 0.069896585727329402 0 -0.29687345717375091 0.081902945336330912 0 -0.2804463735768567 0.075556206852953223 0 -0.28935545939309398 0.062964548691125152 0 -0.28020443427428848 0.065937434716272045 0 -0.28232948387749679 0.060243429622273227 0 -0.28935545939309398 0.062964548691125152 0 -0.28020443427428848 0.065937434716272045 0 -0.2804463735768567 0.075556206852953223 0 -0.2804463735768567 0.075556206852953223 0 -0.26340159681891351 0.087305486383429762 0 -0.26195798501385009 0.070226375813507561 0 -0.28020443427428848 0.065937434716272045 0 -0.26195798501385009 0.070226375813507561 0 -0.2800946942601637 0.055740888585776333 0 -0.28020443427428848 0.065937434716272045 0 -0.2804463735768567 0.075556206852953223 0 -0.26195798501385009 0.070226375813507561 0 -0.26195798501385009 0.070226375813507561 0 -0.2800946942601637 0.055740888585776333 0 -0.26910496068450029 0.10059928658519129 0 -0.28176033911896858 0.090840469038767704 0 -0.26340159681891351 0.087305486383429762 0 -0.28176033911896858 0.090840469038767704 0 -0.2804463735768567 0.075556206852953223 0 -0.26340159681891351 0.087305486383429762 0 -0.26340159681891351 0.087305486383429762 0 -0.26195798501385009 0.070226375813507561 0 -0.24382127576753621 0.084711863041238192 0 -0.25364395357421121 0.10678394025260531 0 -0.26340159681891351 0.087305486383429762 0 -0.24382127576753621 0.084711863041238192 0 -0.26195798501385009 0.070226375813507561 0 -0.24382127576753621 0.084711863041238192 0 -0.26195798501385009 0.070226375813507561 0 -0.26253060434091768 0.04486583530805522 0 -0.24534917185526489 0.049526218608574313 0 -0.26253060434091768 0.04486583530805522 0 -0.25642639863326749 0.02710060176493858 0 -0.24534917185526489 0.049526218608574313 0 -0.26253060434091768 0.04486583530805522 0 -0.27431483662099609 0.037465275048419483 0 -0.25642639863326749 0.02710060176493858 0 -0.26253060434091768 0.04486583530805522 0 -0.27431483662099609 0.037465275048419483 0 -0.2800946942601637 0.055740888585776333 0 -0.26195798501385009 0.070226375813507561 0 -0.26253060434091768 0.04486583530805522 0 -0.2800946942601637 0.055740888585776333 0 -0.28020443427428848 0.065937434716272045 0 -0.2800946942601637 0.055740888585776333 0 -0.28232948387749679 0.060243429622273227 0 -0.26431478179583978 -0.01186883573312463 0 -0.25132042997239518 0.0027134119798401068 0 -0.26646431581863778 0.01029557754540468 0 -0.25132042997239518 0.0027134119798401068 0 -0.25642639863326749 0.02710060176493858 0 -0.26646431581863778 0.01029557754540468 0 -0.27431483662099609 0.037465275048419483 0 -0.25642639863326749 0.02710060176493858 0 -0.27962863155723588 0.021383722316491719 0 -0.25642639863326749 0.02710060176493858 0 -0.27962863155723588 0.021383722316491719 0 -0.26646431581863778 0.01029557754540468 0 -0.2820771903446922 -0.0013122005201030101 0 -0.27962863155723588 0.021383722316491719 0 -0.26646431581863778 0.01029557754540468 0 -0.2820771903446922 -0.0013122005201030101 0 -0.30047775033007851 -0.00039401612408775783 0 -0.29196914664965867 0.01010181790504874 0 -0.2820771903446922 -0.0013122005201030101 0 -0.27962863155723588 0.021383722316491719 0 -0.29196914664965867 0.01010181790504874 0 -0.27962863155723588 0.021383722316491719 0 -0.29196914664965867 0.01010181790504874 0 -0.3056930143666281 0.020729765947894 0 -0.27962863155723588 0.021383722316491719 0 -0.3056930143666281 0.020729765947894 0 -0.2928938543133956 0.038235327266834943 0 -0.3056930143666281 0.020729765947894 0 -0.2928938543133956 0.038235327266834943 0 -0.3056930143666281 0.020729765947894 0 -0.30086997028822832 0.039148022070134687 0 -0.32164524631629432 0.022555155554494829 0 -0.30086997028822832 0.039148022070134687 0 -0.32164524631629432 0.022555155554494829 0 -0.3056930143666281 0.020729765947894 0 -0.31849217441985911 0.0032242046289520012 0 -0.30047775033007851 -0.00039401612408775783 0 -0.3056930143666281 0.020729765947894 0 -0.31849217441985911 0.0032242046289520012 0 -0.30047775033007851 -0.00039401612408775783 0 -0.29196914664965867 0.01010181790504874 0 -0.3056930143666281 0.020729765947894 0 -0.2800946942601637 0.055740888585776333 0 -0.30086997028822832 0.039148022070134687 0 -0.28935545939309398 0.062964548691125152 0 -0.2800946942601637 0.055740888585776333 0 -0.30266664287706341 0.054708362279179482 0 -0.2800946942601637 0.055740888585776333 0 -0.2928938543133956 0.038235327266834943 0 -0.2800946942601637 0.055740888585776333 0 -0.30086997028822832 0.039148022070134687 0 -0.30266664287706341 0.054708362279179482 0 -0.28935545939309398 0.062964548691125152 0 -0.2800946942601637 0.055740888585776333 0 -0.28232948387749679 0.060243429622273227 0 -0.2800946942601637 0.055740888585776333 0 -0.2928938543133956 0.038235327266834943 0 -0.30086997028822832 0.039148022070134687 0 -0.27431483662099609 0.037465275048419483 0 -0.27962863155723588 0.021383722316491719 0 -0.2928938543133956 0.038235327266834943 0 -0.27431483662099609 0.037465275048419483 0 -0.2800946942601637 0.055740888585776333 0 -0.2928938543133956 0.038235327266834943 0 -0.3056930143666281 0.020729765947894 0 -0.2928938543133956 0.038235327266834943 0 -0.30086997028822832 0.039148022070134687 0 -0.30086997028822832 0.039148022070134687 0 -0.30266664287706341 0.054708362279179482 0 -0.3262676586483656 0.050894384371173287 0 -0.30266664287706341 0.054708362279179482 0 -0.3262676586483656 0.050894384371173287 0 -0.31708477734686968 0.066938799678275263 0 -0.3262676586483656 0.050894384371173287 0 -0.32164524631629432 0.022555155554494829 0 -0.30086997028822832 0.039148022070134687 0 -0.3262676586483656 0.050894384371173287 0 -0.32164524631629432 0.022555155554494829 0 -0.3262676586483656 0.050894384371173287 0 -0.32164524631629432 0.022555155554494829 0 -0.34047985126035502 0.026774828886197279 0 -0.3419631627684111 0.054410778814259472 0 -0.34047985126035502 0.026774828886197279 0 -0.3262676586483656 0.050894384371173287 0 -0.3419631627684111 0.054410778814259472 0 -0.34047985126035502 0.026774828886197279 0 -0.3262676586483656 0.050894384371173287 0 -0.3419631627684111 0.054410778814259472 0 -0.33089007098043072 0.079233613187852742 0 -0.3056930143666281 0.020729765947894 0 -0.31849217441985911 0.0032242046289520012 0 -0.32164524631629432 0.022555155554494829 0 -0.31849217441985911 0.0032242046289520012 0 -0.32164524631629432 0.022555155554494829 0 -0.33742136738088668 0.0099550307423931228 0 -0.31849217441985911 0.0032242046289520012 0 -0.32164524631629432 0.022555155554494829 0 -0.32164524631629432 0.022555155554494829 0 -0.33742136738088668 0.0099550307423931228 0 -0.32164524631629432 0.022555155554494829 0 -0.34047985126035502 0.026774828886197279 0 -0.33742136738088668 0.0099550307423931228 0 -0.35319748844548088 -0.0026450940697062141 0 -0.33742136738088668 0.0099550307423931228 0 -0.35319748844548088 -0.0026450940697062141 0 -0.33742136738088668 0.0099550307423931228 0 -0.35568472126330458 0.01398178967161531 0 -0.34047985126035502 0.026774828886197279 0 -0.35568472126330458 0.01398178967161531 0 -0.36050468596179641 0.029201478886372499 0 -0.34047985126035502 0.026774828886197279 0 -0.33742136738088668 0.0099550307423931228 0 -0.35568472126330458 0.01398178967161531 0 -0.35568472126330458 0.01398178967161531 0 -0.36050468596179641 0.029201478886372499 0 -0.37274578052696178 0.01868977009819147 0 -0.37753126207020948 0.034899308803226177 0 -0.36050468596179641 0.029201478886372499 0 -0.37274578052696178 0.01868977009819147 0 -0.35319748844548088 -0.0026450940697062141 0 -0.35568472126330458 0.01398178967161531 0 -0.36979036210562988 0.0025511841975563729 0 -0.35568472126330458 0.01398178967161531 0 -0.37274578052696178 0.01868977009819147 0 -0.36979036210562988 0.0025511841975563729 0 -0.35367539322405089 0.052192583201526178 0 -0.35229578078182711 0.042127528613546239 0 -0.36485581069452189 0.048057973279375742 0 -0.35367539322405089 0.052192583201526178 0 -0.36174043644781612 0.059537200304905107 0 -0.34707042967454638 0.066493871458924422 0 -0.3419631627684111 0.054410778814259472 0 -0.35367539322405089 0.052192583201526178 0 -0.34707042967454638 0.066493871458924422 0 -0.3419631627684111 0.054410778814259472 0 -0.35367539322405089 0.052192583201526178 0 -0.35229578078182711 0.042127528613546239 0 -0.34047985126035502 0.026774828886197279 0 -0.36050468596179641 0.029201478886372499 0 -0.35229578078182711 0.042127528613546239 0 -0.3419631627684111 0.054410778814259472 0 -0.34047985126035502 0.026774828886197279 0 -0.35229578078182711 0.042127528613546239 0 -0.36050468596179641 0.029201478886372499 0 -0.35229578078182711 0.042127528613546239 0 -0.36485581069452189 0.048057973279375742 0 -0.37753126207020948 0.034899308803226177 0 -0.36050468596179641 0.029201478886372499 0 -0.36485581069452189 0.048057973279375742 0 -0.37830855690199738 0.048851891747440382 0 -0.37753126207020948 0.034899308803226177 0 -0.36485581069452189 0.048057973279375742 0 -0.37830855690199738 0.048851891747440382 0 -0.36485581069452189 0.048057973279375742 0 -0.37119345183321822 0.058853827639881867 0 -0.35367539322405089 0.052192583201526178 0 -0.36485581069452189 0.048057973279375742 0 -0.36174043644781612 0.059537200304905107 0 -0.36485581069452189 0.048057973279375742 0 -0.36174043644781612 0.059537200304905107 0 -0.37119345183321822 0.058853827639881867 0 -0.37201358599706058 0.070711840939253895 0 -0.36026946930678239 0.075913175113325196 0 -0.34707042967454638 0.066493871458924422 0 -0.37904886912469499 0.067110231928434197 0 -0.37119345183321822 0.058853827639881867 0 -0.37201358599706058 0.070711840939253895 0 -0.37201358599706058 0.070711840939253895 0 -0.34707042967454638 0.066493871458924422 0 -0.36174043644781612 0.059537200304905107 0 -0.37119345183321822 0.058853827639881867 0 -0.37201358599706058 0.070711840939253895 0 -0.36174043644781612 0.059537200304905107 0 -0.37201358599706058 0.070711840939253895 0 -0.34707042967454638 0.066493871458924422 0 -0.37201358599706058 0.070711840939253895 0 -0.36026946930678239 0.075913175113325196 0 -0.37016311523106599 0.083751267223082917 0 -0.38119130922167832 0.078766060501995444 0 -0.37201358599706058 0.070711840939253895 0 -0.37016311523106599 0.083751267223082917 0 -0.3419631627684111 0.054410778814259472 0 -0.34707042967454638 0.066493871458924422 0 -0.34344647427646718 0.082046728742321648 0 -0.36026946930678239 0.075913175113325196 0 -0.35274187612612162 0.077211514003190262 0 -0.34707042967454638 0.066493871458924422 0 -0.35274187612612162 0.077211514003190262 0 -0.34707042967454638 0.066493871458924422 0 -0.34344647427646718 0.082046728742321648 0 -0.35295667425925747 0.085123838591775802 0 -0.35001973748798287 0.095551702326820934 0 -0.34344647427646718 0.082046728742321648 0 -0.35274187612612162 0.077211514003190262 0 -0.35295667425925747 0.085123838591775802 0 -0.34344647427646718 0.082046728742321648 0 -0.35274187612612162 0.077211514003190262 0 -0.35295667425925747 0.085123838591775802 0 -0.35935833950511731 0.08139738194217451 0 -0.35295667425925747 0.085123838591775802 0 -0.35935833950511731 0.08139738194217451 0 -0.35921694390059838 0.089411865944371699 0 -0.36026946930678239 0.075913175113325196 0 -0.35274187612612162 0.077211514003190262 0 -0.35935833950511731 0.08139738194217451 0 -0.35295667425925747 0.085123838591775802 0 -0.35921694390059838 0.089411865944371699 0 -0.35001973748798287 0.095551702326820934 0 -0.35921694390059838 0.089411865944371699 0 -0.37016311523106599 0.083751267223082917 0 -0.36611800641667808 0.094109198156665408 0 -0.36026946930678239 0.075913175113325196 0 -0.35935833950511731 0.08139738194217451 0 -0.37016311523106599 0.083751267223082917 0 -0.35935833950511731 0.08139738194217451 0 -0.35921694390059838 0.089411865944371699 0 -0.37016311523106599 0.083751267223082917 0 -0.37643332436138899 0.09558572737664002 0 -0.37016311523106599 0.083751267223082917 0 -0.36611800641667808 0.094109198156665408 0 -0.37643332436138899 0.09558572737664002 0 -0.36831342086492491 0.1042920553550029 0 -0.36611800641667808 0.094109198156665408 0 -0.37896648635229202 0.10715504183998489 0 -0.37643332436138899 0.09558572737664002 0 -0.36831342086492491 0.1042920553550029 0 -0.36831342086492491 0.1042920553550029 0 -0.35948680904503588 0.10793893666500461 0 -0.35938862515943509 0.099383552161339872 0 -0.35921694390059838 0.089411865944371699 0 -0.35938862515943509 0.099383552161339872 0 -0.36611800641667808 0.094109198156665408 0 -0.36831342086492491 0.1042920553550029 0 -0.35938862515943509 0.099383552161339872 0 -0.36611800641667808 0.094109198156665408 0 -0.37896648635229202 0.10715504183998489 0 -0.36831342086492491 0.1042920553550029 0 -0.36716541190589658 0.118616890008602 0 -0.36831342086492491 0.1042920553550029 0 -0.35948680904503588 0.10793893666500461 0 -0.36716541190589658 0.118616890008602 0 -0.35948680904503588 0.10793893666500461 0 -0.36716541190589658 0.118616890008602 0 -0.35375916145188291 0.11350041634001019 0 -0.34641309729257957 0.13731862859844601 0 -0.34492978578452338 0.1096826786703838 0 -0.34641309729257957 0.13731862859844601 0 -0.35352278934268327 0.12307152153672141 0 -0.34492978578452338 0.1096826786703838 0 -0.36716541190589658 0.118616890008602 0 -0.35352278934268327 0.12307152153672141 0 -0.35375916145188291 0.11350041634001019 0 -0.35375916145188291 0.11350041634001019 0 -0.34492978578452338 0.1096826786703838 0 -0.35317683324139082 0.10499755452017361 0 -0.35352278934268327 0.12307152153672141 0 -0.35375916145188291 0.11350041634001019 0 -0.34492978578452338 0.1096826786703838 0 -0.34492978578452338 0.1096826786703838 0 -0.35001973748798287 0.095551702326820934 0 -0.34344647427646718 0.082046728742321648 0 -0.34492978578452338 0.1096826786703838 0 -0.34344647427646718 0.082046728742321648 0 -0.35921694390059838 0.089411865944371699 0 -0.35938862515943509 0.099383552161339872 0 -0.35001973748798287 0.095551702326820934 0 -0.35938862515943509 0.099383552161339872 0 -0.35317683324139082 0.10499755452017361 0 -0.35001973748798287 0.095551702326820934 0 -0.35948680904503588 0.10793893666500461 0 -0.35938862515943509 0.099383552161339872 0 -0.35317683324139082 0.10499755452017361 0 -0.35948680904503588 0.10793893666500461 0 -0.35375916145188291 0.11350041634001019 0 -0.35317683324139082 0.10499755452017361 0 -0.34492978578452338 0.1096826786703838 0 -0.35317683324139082 0.10499755452017361 0 -0.35001973748798287 0.095551702326820934 0 -0.33551248331249578 0.10757284200453231 0 -0.32636827877939262 0.096437598311714251 0 -0.33089007098043072 0.079233613187852742 0 -0.34492978578452338 0.1096826786703838 0 -0.33551248331249578 0.10757284200453231 0 -0.34344647427646718 0.082046728742321648 0 -0.34013489564456101 0.1359120708212119 0 -0.33551248331249578 0.10757284200453231 0 -0.33106980320980312 0.1246503866679774 0 -0.33551248331249578 0.10757284200453231 0 -0.33106980320980312 0.1246503866679774 0 -0.3276422557938925 0.11637059862038419 0 -0.34013489564456101 0.1359120708212119 0 -0.33551248331249578 0.10757284200453231 0 -0.34013489564456101 0.1359120708212119 0 -0.34492978578452338 0.1096826786703838 0 -0.33551248331249578 0.10757284200453231 0 -0.33551248331249578 0.10757284200453231 0 -0.3276422557938925 0.11637059862038419 0 -0.32202007013965611 0.108381668790018 0 -0.31115114737422961 0.1134627277541034 0 -0.32196666651361477 0.12487749701900901 0 -0.32202007013965611 0.108381668790018 0 -0.32196666651361477 0.12487749701900901 0 -0.3276422557938925 0.11637059862038419 0 -0.32202007013965611 0.108381668790018 0 -0.33106980320980312 0.1246503866679774 0 -0.32196666651361477 0.12487749701900901 0 -0.3276422557938925 0.11637059862038419 0 -0.30835875028686138 0.12836861128214669 0 -0.31115114737422961 0.1134627277541034 0 -0.32196666651361477 0.12487749701900901 0 -0.31115114737422961 0.1134627277541034 0 -0.32202007013965611 0.108381668790018 0 -0.31621893882499519 0.096173217231134644 0 -0.32636827877939262 0.096437598311714251 0 -0.32202007013965611 0.108381668790018 0 -0.31621893882499519 0.096173217231134644 0 -0.33551248331249578 0.10757284200453231 0 -0.32636827877939262 0.096437598311714251 0 -0.32202007013965611 0.108381668790018 0 -0.32636827877939262 0.096437598311714251 0 -0.3206518095107353 0.086423961441370711 0 -0.33089007098043072 0.079233613187852742 0 -0.3095990562077543 0.082833834969606807 0 -0.31621893882499519 0.096173217231134644 0 -0.3206518095107353 0.086423961441370711 0 -0.32636827877939262 0.096437598311714251 0 -0.31621893882499519 0.096173217231134644 0 -0.3206518095107353 0.086423961441370711 0 -0.3206518095107353 0.086423961441370711 0 -0.3195564285114475 0.078857552319276381 0 -0.33089007098043072 0.079233613187852742 0 -0.3095990562077543 0.082833834969606807 0 -0.3206518095107353 0.086423961441370711 0 -0.3195564285114475 0.078857552319276381 0 -0.3095990562077543 0.082833834969606807 0 -0.3195564285114475 0.078857552319276381 0 -0.31708477734686968 0.066938799678275263 0 -0.3262676586483656 0.050894384371173287 0 -0.31708477734686968 0.066938799678275263 0 -0.33089007098043072 0.079233613187852742 0 -0.3195564285114475 0.078857552319276381 0 -0.31708477734686968 0.066938799678275263 0 -0.33089007098043072 0.079233613187852742 0 -0.3262676586483656 0.050894384371173287 0 -0.33089007098043072 0.079233613187852742 0 -0.3419631627684111 0.054410778814259472 0 -0.34344647427646718 0.082046728742321648 0 -0.3419631627684111 0.054410778814259472 0 -0.34344647427646718 0.082046728742321648 0 -0.33089007098043072 0.079233613187852742 0 -0.33551248331249578 0.10757284200453231 0 -0.34344647427646718 0.082046728742321648 0 -0.33089007098043072 0.079233613187852742 0 -0.33551248331249578 0.10757284200453231 0 -0.33089007098043072 0.079233613187852742 0 -0.38413367002432852 0.48466820949397371 0 -0.39197467039505129 0.46611734068214988 0 -0.41460981883164078 0.48516798004791117 0 -0.3981750166650535 0.50000000000000056 0 -0.38413367002432852 0.48466820949397371 0 -0.41460981883164078 0.48516798004791117 0 -0.3981750166650535 0.50000000000000056 0 -0.38413367002432852 0.48466820949397371 0 -0.37107410569903487 0.5 0 -0.39197467039505129 0.46611734068214988 0 -0.36482960672615539 0.47476559140937902 0 -0.38413367002432852 0.48466820949397371 0 -0.39197467039505129 0.46611734068214988 0 -0.36580706476392733 0.47631646954851292 0 -0.38785270990024268 0.44600589254376838 0 -0.39197467039505129 0.46611734068214988 0 -0.37006527051019528 0.45259743283909409 0 -0.39197467039505129 0.46611734068214988 0 -0.37006527051019528 0.45259743283909409 0 -0.36482960672615539 0.47476559140937902 0 -0.38785270990024268 0.44600589254376838 0 -0.37388199021079188 0.43349662060099697 0 -0.37006527051019528 0.45259743283909409 0 -0.38785270990024268 0.44600589254376838 0 -0.40320620376676342 0.45007503942677379 0 -0.39595691431975 0.42995942871021692 0 -0.38785270990024268 0.44600589254376838 0 -0.40320620376676342 0.45007503942677379 0 -0.39197467039505129 0.46611734068214988 0 -0.40320620376676342 0.45007503942677379 0 -0.39197467039505129 0.46611734068214988 0 -0.41277096383307582 0.46532813801804862 0 -0.40320620376676342 0.45007503942677379 0 -0.42781315099835598 0.44205737320498029 0 -0.39595691431975 0.42995942871021692 0 -0.40320620376676342 0.45007503942677379 0 -0.41277096383307582 0.46532813801804862 0 -0.42781315099835598 0.44205737320498029 0 -0.42781315099835598 0.44205737320498029 0 -0.43466730821188831 0.46706657063262308 0 -0.44460389203804629 0.44806533343805571 0 -0.42781315099835598 0.44205737320498029 0 -0.4310446209982266 0.47033596009582029 0 -0.42781315099835598 0.44205737320498029 0 -0.43466730821188831 0.46706657063262308 0 -0.4310446209982266 0.47033596009582029 0 -0.41277096383307582 0.46532813801804862 0 -0.42781315099835598 0.44205737320498029 0 -0.4310446209982266 0.47033596009582029 0 -0.43466730821188831 0.46706657063262308 0 -0.4310446209982266 0.47033596009582029 0 -0.4310446209982266 0.47033596009582029 0 -0.43443441043131342 0.50000000000000755 0 -0.4447827686264566 0.47926022536349122 0 -0.4310446209982266 0.47033596009582029 0 -0.41460981883164078 0.48516798004791117 0 -0.4310446209982266 0.47033596009582029 0 -0.41460981883164078 0.48516798004791117 0 -0.42409839095234109 0.48887598503593521 0 -0.43466730821188831 0.46706657063262308 0 -0.4310446209982266 0.47033596009582029 0 -0.4447827686264566 0.47926022536349122 0 -0.39197467039505129 0.46611734068214988 0 -0.41277096383307582 0.46532813801804862 0 -0.41460981883164078 0.48516798004791117 0 -0.41277096383307582 0.46532813801804862 0 -0.4310446209982266 0.47033596009582029 0 -0.41460981883164078 0.48516798004791117 0 -0.3981750166650535 0.50000000000000056 0 -0.41460981883164078 0.48516798004791117 0 -0.3981750166650535 0.50000000000000056 0 -0.41460981883164078 0.48516798004791117 0 -0.41630471354818338 0.5 0 -0.41460981883164078 0.48516798004791117 0 -0.41630471354818338 0.5 0 -0.42409839095234109 0.48887598503593521 0 -0.41630471354818338 0.5 0 -0.43443441043131342 0.50000000000000755 0 -0.42409839095234109 0.48887598503593521 0 -0.4310446209982266 0.47033596009582029 0 -0.43443441043131342 0.50000000000000755 0 -0.4310446209982266 0.47033596009582029 0 -0.43443441043131342 0.50000000000000755 0 -0.42409839095234109 0.48887598503593521 0 -0.43443441043131342 0.50000000000000755 0 -0.4447827686264566 0.47926022536349122 0 -0.4595127163698095 0.50000000000000022 0 -0.5 0.5 0 -0.47335596745111108 0.44169355163120572 0 -0.5 0.40038011321019712 0 -0.43466730821188831 0.46706657063262308 0 -0.4447827686264566 0.47926022536349122 0 -0.44899911668232212 0.46303481381032341 0 -0.4447827686264566 0.47926022536349122 0 -0.46015144363500948 0.47359397987248231 0 -0.44899911668232212 0.46303481381032341 0 -0.4447827686264566 0.47926022536349122 0 -0.46015144363500948 0.47359397987248231 0 -0.4595127163698095 0.50000000000000022 0 -0.46015144363500948 0.47359397987248231 0 -0.4595127163698095 0.50000000000000022 0 -0.46015144363500948 0.47359397987248231 0 -0.4595127163698095 0.50000000000000022 0 -0.5 0.5 0 -0.46015144363500948 0.47359397987248231 0 -0.5 0.5 0 -0.47335596745111108 0.44169355163120572 0 -0.46015144363500948 0.47359397987248231 0 -0.47335596745111108 0.44169355163120572 0 -0.46079017090020952 0.44718795974496428 0 -0.46079017090020952 0.44718795974496428 0 -0.44460389203804629 0.44806533343805571 0 -0.45590269758544211 0.43346995798949911 0 -0.47335596745111108 0.44169355163120572 0 -0.46079017090020952 0.44718795974496428 0 -0.45590269758544211 0.43346995798949911 0 -0.46015144363500948 0.47359397987248231 0 -0.46079017090020952 0.44718795974496428 0 -0.44899911668232212 0.46303481381032341 0 -0.46015144363500948 0.47359397987248231 0 -0.46079017090020952 0.44718795974496428 0 -0.43466730821188831 0.46706657063262308 0 -0.44899911668232212 0.46303481381032341 0 -0.44460389203804629 0.44806533343805571 0 -0.42781315099835598 0.44205737320498029 0 -0.44460389203804629 0.44806533343805571 0 -0.44268906624812487 0.42665452579602331 0 -0.46079017090020952 0.44718795974496428 0 -0.44899911668232212 0.46303481381032341 0 -0.44460389203804629 0.44806533343805571 0 -0.44460389203804629 0.44806533343805571 0 -0.44268906624812487 0.42665452579602331 0 -0.45590269758544211 0.43346995798949911 0 -0.44268906624812487 0.42665452579602331 0 -0.45186506472241439 0.42144574071262142 0 -0.45590269758544211 0.43346995798949911 0 -0.44268906624812487 0.42665452579602331 0 -0.45186506472241439 0.42144574071262142 0 -0.44576315445017062 0.40546276927260178 0 -0.44268906624812487 0.42665452579602331 0 -0.44576315445017062 0.40546276927260178 0 -0.42458168099848842 0.41377878631413989 0 -0.46310534060592018 0.42019570979236182 0 -0.47346151536459102 0.41731684507507272 0 -0.46374026742882618 0.39151162716981691 0 -0.45186506472241439 0.42144574071262142 0 -0.46310534060592018 0.42019570979236182 0 -0.44576315445017062 0.40546276927260178 0 -0.47335596745111108 0.44169355163120572 0 -0.46310534060592018 0.42019570979236182 0 -0.45590269758544211 0.43346995798949911 0 -0.45186506472241439 0.42144574071262142 0 -0.46310534060592018 0.42019570979236182 0 -0.45590269758544211 0.43346995798949911 0 -0.47335596745111108 0.44169355163120572 0 -0.46310534060592018 0.42019570979236182 0 -0.47346151536459102 0.41731684507507272 0 -0.47335596745111108 0.44169355163120572 0 -0.47346151536459102 0.41731684507507272 0 -0.5 0.40038011321019712 0 -0.47346151536459102 0.41731684507507272 0 -0.5 0.40038011321019712 0 -0.47533567507008778 0.39330498401591851 0 -0.47346151536459102 0.41731684507507272 0 -0.47533567507008778 0.39330498401591851 0 -0.47346151536459102 0.41731684507507272 0 -0.47533567507008778 0.39330498401591851 0 -0.46374026742882618 0.39151162716981691 0 -0.5 0.40038011321019712 0 -0.47533567507008778 0.39330498401591851 0 -0.47720983477558448 0.36929312295676431 0 -0.47533567507008778 0.39330498401591851 0 -0.47720983477558448 0.36929312295676431 0 -0.47533567507008778 0.39330498401591851 0 -0.46374026742882618 0.39151162716981691 0 -0.47720983477558448 0.36929312295676431 0 -0.46374026742882618 0.39151162716981691 0 -0.45297946443592813 0.37787116286410599 0 -0.46437519425173218 0.36282754454727217 0 -0.46374026742882618 0.39151162716981691 0 -0.45297946443592813 0.37787116286410599 0 -0.44807155782876301 0.39051600802545461 0 -0.46374026742882618 0.39151162716981691 0 -0.46437519425173218 0.36282754454727217 0 -0.46310534060592018 0.42019570979236182 0 -0.46374026742882618 0.39151162716981691 0 -0.46310534060592018 0.42019570979236182 0 -0.46374026742882618 0.39151162716981691 0 -0.44576315445017062 0.40546276927260178 0 -0.46374026742882618 0.39151162716981691 0 -0.44576315445017062 0.40546276927260178 0 -0.44807155782876301 0.39051600802545461 0 -0.44576315445017062 0.40546276927260178 0 -0.44807155782876301 0.39051600802545461 0 -0.43603237714897469 0.39502180629923989 0 -0.45297946443592813 0.37787116286410599 0 -0.44807155782876301 0.39051600802545461 0 -0.44039528146883089 0.37985126846070372 0 -0.44807155782876301 0.39051600802545461 0 -0.44039528146883089 0.37985126846070372 0 -0.43603237714897469 0.39502180629923989 0 -0.44039528146883089 0.37985126846070372 0 -0.42135021099862069 0.38550019942329938 0 -0.43603237714897469 0.39502180629923989 0 -0.44039528146883089 0.37985126846070372 0 -0.42135021099862069 0.38550019942329938 0 -0.43330693618304927 0.36743111704715392 0 -0.42135021099862069 0.38550019942329938 0 -0.3928737426436214 0.38288862872844909 0 -0.41811874099875312 0.35722161253245888 0 -0.42135021099862069 0.38550019942329938 0 -0.42458168099848842 0.41377878631413989 0 -0.40302940150938782 0.40252809503019821 0 -0.44576315445017062 0.40546276927260178 0 -0.43603237714897469 0.39502180629923989 0 -0.42458168099848842 0.41377878631413989 0 -0.42135021099862069 0.38550019942329938 0 -0.42458168099848842 0.41377878631413989 0 -0.42135021099862069 0.38550019942329938 0 -0.43603237714897469 0.39502180629923989 0 -0.42458168099848842 0.41377878631413989 0 -0.42781315099835598 0.44205737320498029 0 -0.42458168099848842 0.41377878631413989 0 -0.39595691431975 0.42995942871021692 0 -0.42781315099835598 0.44205737320498029 0 -0.44268906624812487 0.42665452579602331 0 -0.42458168099848842 0.41377878631413989 0 -0.42781315099835598 0.44205737320498029 0 -0.42458168099848842 0.41377878631413989 0 -0.42458168099848842 0.41377878631413989 0 -0.39595691431975 0.42995942871021692 0 -0.40302940150938782 0.40252809503019821 0 -0.39595691431975 0.42995942871021692 0 -0.38133644129271771 0.41060795377957438 0 -0.40302940150938782 0.40252809503019821 0 -0.39595691431975 0.42995942871021692 0 -0.38133644129271771 0.41060795377957438 0 -0.37388199021079188 0.43349662060099697 0 -0.38785270990024268 0.44600589254376838 0 -0.39595691431975 0.42995942871021692 0 -0.37388199021079188 0.43349662060099697 0 -0.39595691431975 0.42995942871021692 0 -0.38133644129271771 0.41060795377957438 0 -0.38133644129271771 0.41060795377957438 0 -0.3928737426436214 0.38288862872844909 0 -0.36671596826568531 0.39125647884893172 0 -0.3928737426436214 0.38288862872844909 0 -0.37126589511329411 0.37377724987418581 0 -0.36671596826568531 0.39125647884893172 0 -0.42135021099862069 0.38550019942329938 0 -0.3928737426436214 0.38288862872844909 0 -0.40302940150938782 0.40252809503019821 0 -0.38133644129271771 0.41060795377957438 0 -0.3928737426436214 0.38288862872844909 0 -0.40302940150938782 0.40252809503019821 0 -0.39068435811404417 0.36093702398180222 0 -0.39395667907880888 0.34326368506717603 0 -0.41811874099875312 0.35722161253245888 0 -0.3928737426436214 0.38288862872844909 0 -0.39068435811404417 0.36093702398180222 0 -0.41811874099875312 0.35722161253245888 0 -0.3928737426436214 0.38288862872844909 0 -0.39068435811404417 0.36093702398180222 0 -0.37126589511329411 0.37377724987418581 0 -0.39068435811404417 0.36093702398180222 0 -0.37302608715873109 0.35758434449273291 0 -0.37126589511329411 0.37377724987418581 0 -0.39395667907880888 0.34326368506717603 0 -0.37302608715873109 0.35758434449273291 0 -0.39068435811404417 0.36093702398180222 0 -0.39395667907880888 0.34326368506717603 0 -0.37302608715873109 0.35758434449273291 0 -0.37563375498023588 0.33893957100260502 0 -0.39395667907880888 0.34326368506717603 0 -0.37302608715873109 0.35758434449273291 0 -0.37563375498023588 0.33893957100260502 0 -0.3809584867257152 0.31995934924364311 0 -0.39395667907880888 0.34326368506717603 0 -0.3809584867257152 0.31995934924364311 0 -0.40019053093036899 0.31727751782089808 0 -0.39395667907880888 0.34326368506717603 0 -0.40019053093036899 0.31727751782089808 0 -0.39395667907880888 0.34326368506717603 0 -0.414887270998886 0.32894302564161831 0 -0.39395667907880888 0.34326368506717603 0 -0.414887270998886 0.32894302564161831 0 -0.414887270998886 0.32894302564161831 0 -0.41811874099875312 0.35722161253245888 0 -0.39395667907880888 0.34326368506717603 0 -0.414887270998886 0.32894302564161831 0 -0.41811874099875312 0.35722161253245888 0 -0.414887270998886 0.32894302564161831 0 -0.4287524947490482 0.33739992334137159 0 -0.41811874099875312 0.35722161253245888 0 -0.414887270998886 0.32894302564161831 0 -0.42784370751339318 0.3200782636988328 0 -0.41182569378737999 0.30215117016961263 0 -0.414887270998886 0.32894302564161831 0 -0.41182569378737999 0.30215117016961263 0 -0.40019053093036899 0.31727751782089808 0 -0.414887270998886 0.32894302564161831 0 -0.41182569378737999 0.30215117016961263 0 -0.414887270998886 0.32894302564161831 0 -0.42784370751339318 0.3200782636988328 0 -0.42784370751339318 0.3200782636988328 0 -0.44080014402789969 0.3112135017560464 0 -0.414887270998886 0.32894302564161831 0 -0.42784370751339318 0.3200782636988328 0 -0.4287524947490482 0.33739992334137159 0 -0.42784370751339318 0.3200782636988328 0 -0.4287524947490482 0.33739992334137159 0 -0.44455732798665581 0.33082357613192309 0 -0.4287524947490482 0.33739992334137159 0 -0.43835542624755341 0.34993313870202492 0 -0.44455732798665581 0.33082357613192309 0 -0.4287524947490482 0.33739992334137159 0 -0.41811874099875312 0.35722161253245888 0 -0.43835542624755341 0.34993313870202492 0 -0.41811874099875312 0.35722161253245888 0 -0.43330693618304927 0.36743111704715392 0 -0.43835542624755341 0.34993313870202492 0 -0.42135021099862069 0.38550019942329938 0 -0.41811874099875312 0.35722161253245888 0 -0.42135021099862069 0.38550019942329938 0 -0.41811874099875312 0.35722161253245888 0 -0.43330693618304927 0.36743111704715392 0 -0.44039528146883089 0.37985126846070372 0 -0.43330693618304927 0.36743111704715392 0 -0.44831502120148831 0.36464936611728249 0 -0.5 0.40038011321019712 0 -0.47720983477558448 0.36929312295676431 0 -0.5 0.32588146503443682 0 -0.43330693618304927 0.36743111704715392 0 -0.44831502120148831 0.36464936611728249 0 -0.43835542624755341 0.34993313870202492 0 -0.45297946443592813 0.37787116286410599 0 -0.44039528146883089 0.37985126846070372 0 -0.44831502120148831 0.36464936611728249 0 -0.44831502120148831 0.36464936611728249 0 -0.45212261815241361 0.34847541748464589 0 -0.43835542624755341 0.34993313870202492 0 -0.46437519425173218 0.36282754454727217 0 -0.46501012107463818 0.3341434619247271 0 -0.45212261815241361 0.34847541748464589 0 -0.46437519425173218 0.36282754454727217 0 -0.46501012107463818 0.3341434619247271 0 -0.44831502120148831 0.36464936611728249 0 -0.45212261815241361 0.34847541748464589 0 -0.46437519425173218 0.36282754454727217 0 -0.45297946443592813 0.37787116286410599 0 -0.44831502120148831 0.36464936611728249 0 -0.46437519425173218 0.36282754454727217 0 -0.46374026742882618 0.39151162716981691 0 -0.46437519425173218 0.36282754454727217 0 -0.47720983477558448 0.36929312295676431 0 -0.47720983477558448 0.36929312295676431 0 -0.4790839944810813 0.34528126189761021 0 -0.5 0.32588146503443682 0 -0.46437519425173218 0.36282754454727217 0 -0.47720983477558448 0.36929312295676431 0 -0.4790839944810813 0.34528126189761021 0 -0.46437519425173218 0.36282754454727217 0 -0.4790839944810813 0.34528126189761021 0 -0.46501012107463818 0.3341434619247271 0 -0.47720983477558448 0.36929312295676431 0 -0.4790839944810813 0.34528126189761021 0 -0.5 0.32588146503443682 0 -0.48095815418657811 0.32126940083845601 0 -0.48438341280173691 0.2990237851864897 0 -0.4790839944810813 0.34528126189761021 0 -0.5 0.32588146503443682 0 -0.48095815418657811 0.32126940083845601 0 -0.4790839944810813 0.34528126189761021 0 -0.48095815418657811 0.32126940083845601 0 -0.4790839944810813 0.34528126189761021 0 -0.48095815418657811 0.32126940083845601 0 -0.46501012107463818 0.3341434619247271 0 -0.48095815418657811 0.32126940083845601 0 -0.46501012107463818 0.3341434619247271 0 -0.46564504789754418 0.30545937930218209 0 -0.46501012107463818 0.3341434619247271 0 -0.46564504789754418 0.30545937930218209 0 -0.45334860311094782 0.31584311053598302 0 -0.46501012107463818 0.3341434619247271 0 -0.44455732798665581 0.33082357613192309 0 -0.45334860311094782 0.31584311053598302 0 -0.46501012107463818 0.3341434619247271 0 -0.46564504789754418 0.30545937930218209 0 -0.45212261815241361 0.34847541748464589 0 -0.46501012107463818 0.3341434619247271 0 -0.44455732798665581 0.33082357613192309 0 -0.45212261815241361 0.34847541748464589 0 -0.43835542624755341 0.34993313870202492 0 -0.44455732798665581 0.33082357613192309 0 -0.45334860311094782 0.31584311053598302 0 -0.44455732798665581 0.33082357613192309 0 -0.44080014402789969 0.3112135017560464 0 -0.42784370751339318 0.3200782636988328 0 -0.44455732798665581 0.33082357613192309 0 -0.44080014402789969 0.3112135017560464 0 -0.45334860311094782 0.31584311053598302 0 -0.44080014402789969 0.3112135017560464 0 -0.45212090372732222 0.29751224224269018 0 -0.44080014402789969 0.3112135017560464 0 -0.45212090372732222 0.29751224224269018 0 -0.43098419661848369 0.29848737705662681 0 -0.45212090372732222 0.29751224224269018 0 -0.44106680473088589 0.27968718865599468 0 -0.43098419661848369 0.29848737705662681 0 -0.45212090372732222 0.29751224224269018 0 -0.46878861662768212 0.293945894508436 0 -0.46620416538631942 0.27832296974934079 0 -0.45212090372732222 0.29751224224269018 0 -0.46620416538631942 0.27832296974934079 0 -0.44106680473088589 0.27968718865599468 0 -0.45334860311094782 0.31584311053598302 0 -0.45212090372732222 0.29751224224269018 0 -0.46564504789754418 0.30545937930218209 0 -0.45212090372732222 0.29751224224269018 0 -0.46564504789754418 0.30545937930218209 0 -0.46878861662768212 0.293945894508436 0 -0.48095815418657811 0.32126940083845601 0 -0.46564504789754418 0.30545937930218209 0 -0.47422271850004488 0.30257989257828583 0 -0.48095815418657811 0.32126940083845601 0 -0.48283231389207593 0.29725753977930192 0 -0.48095815418657811 0.32126940083845601 0 -0.48283231389207593 0.29725753977930192 0 -0.48438341280173691 0.2990237851864897 0 -0.48095815418657811 0.32126940083845601 0 -0.48283231389207593 0.29725753977930192 0 -0.47422271850004488 0.30257989257828583 0 -0.5 0.32588146503443682 0 -0.48438341280173691 0.2990237851864897 0 -0.5 0.27058277969487637 0 -0.48283231389207593 0.29725753977930192 0 -0.48438341280173691 0.2990237851864897 0 -0.48283231389207593 0.29725753977930192 0 -0.47422271850004488 0.30257989257828583 0 -0.46878861662768212 0.293945894508436 0 -0.46564504789754418 0.30545937930218209 0 -0.47422271850004488 0.30257989257828583 0 -0.46878861662768212 0.293945894508436 0 -0.48283231389207593 0.29725753977930192 0 -0.46620416538631942 0.27832296974934079 0 -0.4832665619079245 0.29169392479429618 0 -0.48272378290968532 0.2745465744653578 0 -0.46620416538631942 0.27832296974934079 0 -0.48283231389207593 0.29725753977930192 0 -0.46878861662768212 0.293945894508436 0 -0.46620416538631942 0.27832296974934079 0 -0.48283231389207593 0.29725753977930192 0 -0.4832665619079245 0.29169392479429618 0 -0.46620416538631942 0.27832296974934079 0 -0.48283231389207593 0.29725753977930192 0 -0.4832665619079245 0.29169392479429618 0 -0.48438341280173691 0.2990237851864897 0 -0.48283231389207593 0.29725753977930192 0 -0.4832665619079245 0.29169392479429618 0 -0.4832665619079245 0.29169392479429618 0 -0.48438341280173691 0.2990237851864897 0 -0.5 0.27058277969487637 0 -0.48510068849613291 0.2464952989699998 0 -0.5 0.27058277969487637 0 -0.47736829551405641 0.25971614189080378 0 -0.4832665619079245 0.29169392479429618 0 -0.5 0.27058277969487637 0 -0.48272378290968532 0.2745465744653578 0 -0.5 0.27058277969487637 0 -0.48272378290968532 0.2745465744653578 0 -0.47736829551405641 0.25971614189080378 0 -0.48272378290968532 0.2745465744653578 0 -0.47736829551405641 0.25971614189080378 0 -0.46620416538631942 0.27832296974934079 0 -0.48510068849613291 0.2464952989699998 0 -0.4662317729600568 0.24711617116125539 0 -0.47736829551405641 0.25971614189080378 0 -0.4662317729600568 0.24711617116125539 0 -0.47736829551405641 0.25971614189080378 0 -0.44957601688056159 0.25938839971938082 0 -0.47736829551405641 0.25971614189080378 0 -0.46620416538631942 0.27832296974934079 0 -0.44957601688056159 0.25938839971938082 0 -0.46620416538631942 0.27832296974934079 0 -0.44957601688056159 0.25938839971938082 0 -0.46620416538631942 0.27832296974934079 0 -0.44106680473088589 0.27968718865599468 0 -0.44957601688056159 0.25938839971938082 0 -0.44106680473088589 0.27968718865599468 0 -0.44957601688056159 0.25938839971938082 0 -0.42702456861835142 0.26373592368695459 0 -0.43294786837480398 0.2404538296894207 0 -0.44957601688056159 0.25938839971938082 0 -0.42702456861835142 0.26373592368695459 0 -0.43294786837480398 0.2404538296894207 0 -0.40570253936436479 0.24856745922560119 0 -0.42702456861835142 0.26373592368695459 0 -0.40570253936436479 0.24856745922560119 0 -0.40876411657587441 0.27535931469760672 0 -0.40570253936436479 0.24856745922560119 0 -0.42702456861835142 0.26373592368695459 0 -0.40876411657587441 0.27535931469760672 0 -0.42702456861835142 0.26373592368695459 0 -0.40876411657587441 0.27535931469760672 0 -0.42393307606619501 0.28388419485335897 0 -0.44106680473088589 0.27968718865599468 0 -0.42702456861835142 0.26373592368695459 0 -0.42393307606619501 0.28388419485335897 0 -0.44106680473088589 0.27968718865599468 0 -0.42393307606619501 0.28388419485335897 0 -0.43098419661848369 0.29848737705662681 0 -0.42393307606619501 0.28388419485335897 0 -0.43098419661848369 0.29848737705662681 0 -0.41182569378737999 0.30215117016961263 0 -0.42784370751339318 0.3200782636988328 0 -0.44080014402789969 0.3112135017560464 0 -0.43098419661848369 0.29848737705662681 0 -0.42784370751339318 0.3200782636988328 0 -0.43098419661848369 0.29848737705662681 0 -0.41182569378737999 0.30215117016961263 0 -0.40876411657587441 0.27535931469760672 0 -0.42393307606619501 0.28388419485335897 0 -0.41182569378737999 0.30215117016961263 0 -0.40876411657587441 0.27535931469760672 0 -0.41182569378737999 0.30215117016961263 0 -0.40876411657587441 0.27535931469760672 0 -0.41182569378737999 0.30215117016961263 0 -0.38942632587964537 0.29641120061531351 0 -0.40876411657587441 0.27535931469760672 0 -0.38942632587964537 0.29641120061531351 0 -0.38778179087320769 0.27529621765694001 0 -0.40019053093036899 0.31727751782089808 0 -0.41182569378737999 0.30215117016961263 0 -0.38942632587964537 0.29641120061531351 0 -0.3809584867257152 0.31995934924364311 0 -0.38942632587964537 0.29641120061531351 0 -0.36990774782730562 0.30465198401604282 0 -0.3809584867257152 0.31995934924364311 0 -0.40019053093036899 0.31727751782089808 0 -0.38942632587964537 0.29641120061531351 0 -0.38942632587964537 0.29641120061531351 0 -0.38778179087320769 0.27529621765694001 0 -0.37124129201382 0.2841753332327091 0 -0.38942632587964537 0.29641120061531351 0 -0.37124129201382 0.2841753332327091 0 -0.36990774782730562 0.30465198401604282 0 -0.38778179087320769 0.27529621765694001 0 -0.37230359566927929 0.26610576231553251 0 -0.37124129201382 0.2841753332327091 0 -0.38778179087320769 0.27529621765694001 0 -0.38900306751682168 0.25733661077056619 0 -0.37230359566927929 0.26610576231553251 0 -0.38900306751682168 0.25733661077056619 0 -0.37230359566927929 0.26610576231553251 0 -0.37675611103540763 0.25409865512553548 0 -0.38900306751682168 0.25733661077056619 0 -0.37230359566927929 0.26610576231553251 0 -0.38455494932564349 0.24416718140159829 0 -0.37675611103540763 0.25409865512553548 0 -0.38900306751682168 0.25733661077056619 0 -0.40570253936436479 0.24856745922560119 0 -0.40876411657587441 0.27535931469760672 0 -0.38900306751682168 0.25733661077056619 0 -0.40570253936436479 0.24856745922560119 0 -0.38900306751682168 0.25733661077056619 0 -0.40876411657587441 0.27535931469760672 0 -0.38778179087320769 0.27529621765694001 0 -0.38900306751682168 0.25733661077056619 0 -0.35344375069401829 0.26830850112922933 0 -0.35479842748912699 0.29354782535411539 0 -0.33783775680192157 0.27023153782616838 0 -0.35344375069401829 0.26830850112922933 0 -0.35479842748912699 0.29354782535411539 0 -0.35926376548055328 0.2486735779402334 0 -0.35208907389890948 0.24306917690434299 0 -0.35344375069401829 0.26830850112922933 0 -0.35208907389890948 0.24306917690434299 0 -0.35344375069401829 0.26830850112922933 0 -0.34142207509263922 0.25572960106260723 0 -0.35208907389890948 0.24306917690434299 0 -0.35344375069401829 0.26830850112922933 0 -0.35344375069401829 0.26830850112922933 0 -0.33783775680192157 0.27023153782616838 0 -0.34142207509263922 0.25572960106260723 0 -0.35344375069401829 0.26830850112922933 0 -0.36723308052532222 0.25309369692869038 0 -0.37230359566927929 0.26610576231553251 0 -0.35926376548055328 0.2486735779402334 0 -0.35344375069401829 0.26830850112922933 0 -0.36723308052532222 0.25309369692869038 0 -0.37552267705158737 0.2431978490864326 0 -0.37675611103540763 0.25409865512553548 0 -0.36723308052532222 0.25309369692869038 0 -0.37675611103540763 0.25409865512553548 0 -0.36723308052532222 0.25309369692869038 0 -0.37230359566927929 0.26610576231553251 0 -0.35344375069401829 0.26830850112922933 0 -0.37230359566927929 0.26610576231553251 0 -0.37124129201382 0.2841753332327091 0 -0.37124129201382 0.2841753332327091 0 -0.36990774782730562 0.30465198401604282 0 -0.35479842748912699 0.29354782535411539 0 -0.35344375069401829 0.26830850112922933 0 -0.37124129201382 0.2841753332327091 0 -0.35479842748912699 0.29354782535411539 0 -0.36990774782730562 0.30465198401604282 0 -0.35479842748912699 0.29354782535411539 0 -0.35615310428423591 0.31878714957900162 0 -0.35479842748912699 0.29354782535411539 0 -0.35615310428423591 0.31878714957900162 0 -0.35479842748912699 0.29354782535411539 0 -0.33790089425573833 0.30106400074382289 0 -0.35615310428423591 0.31878714957900162 0 -0.35479842748912699 0.29354782535411539 0 -0.32994760687178648 0.28429515218691809 0 -0.33783775680192157 0.27023153782616838 0 -0.35479842748912699 0.29354782535411539 0 -0.32994760687178648 0.28429515218691809 0 -0.33790089425573833 0.30106400074382289 0 -0.33790089425573833 0.30106400074382289 0 -0.31376474629655843 0.30225304786416751 0 -0.33257481532433891 0.31836647764434117 0 -0.32994760687178648 0.28429515218691809 0 -0.33790089425573833 0.30106400074382289 0 -0.31376474629655843 0.30225304786416751 0 -0.32994760687178648 0.28429515218691809 0 -0.31376474629655843 0.30225304786416751 0 -0.30745975664346697 0.28108303278283259 0 -0.32994760687178648 0.28429515218691809 0 -0.32025265357816562 0.27050697347699348 0 -0.30745975664346697 0.28108303278283259 0 -0.32994760687178648 0.28429515218691809 0 -0.32025265357816562 0.27050697347699348 0 -0.33783775680192157 0.27023153782616838 0 -0.33783775680192157 0.27023153782616838 0 -0.34142207509263922 0.25572960106260723 0 -0.32493898666941562 0.25370598596143412 0 -0.33787454055877381 0.24529314191448051 0 -0.34142207509263922 0.25572960106260723 0 -0.32493898666941562 0.25370598596143412 0 -0.32025265357816562 0.27050697347699348 0 -0.32493898666941562 0.25370598596143412 0 -0.3017176885818823 0.26220574059556451 0 -0.32025265357816562 0.27050697347699348 0 -0.33783775680192157 0.27023153782616838 0 -0.32493898666941562 0.25370598596143412 0 -0.28392805579818597 0.24584677119781029 0 -0.30659471691689572 0.242716670786389 0 -0.3017176885818823 0.26220574059556451 0 -0.30659471691689572 0.242716670786389 0 -0.32493898666941562 0.25370598596143412 0 -0.3017176885818823 0.26220574059556451 0 -0.32025265357816562 0.27050697347699348 0 -0.3017176885818823 0.26220574059556451 0 -0.30745975664346697 0.28108303278283259 0 -0.3017176885818823 0.26220574059556451 0 -0.30745975664346697 0.28108303278283259 0 -0.28581088023419748 0.27213864639403801 0 -0.28392805579818597 0.24584677119781029 0 -0.3017176885818823 0.26220574059556451 0 -0.28392805579818597 0.24584677119781029 0 -0.3017176885818823 0.26220574059556451 0 -0.28581088023419748 0.27213864639403801 0 -0.28392805579818597 0.24584677119781029 0 -0.28581088023419748 0.27213864639403801 0 -0.26655259030946182 0.26726307071448002 0 -0.28392805579818597 0.24584677119781029 0 -0.26514282027817931 0.24842266601513599 0 -0.26655259030946182 0.26726307071448002 0 -0.28581088023419748 0.27213864639403801 0 -0.26655259030946182 0.26726307071448002 0 -0.26709784128719349 0.28662765883125513 0 -0.26655259030946182 0.26726307071448002 0 -0.26709784128719349 0.28662765883125513 0 -0.24190471242523851 0.27972751922608308 0 -0.26655259030946182 0.26726307071448002 0 -0.24943129659764751 0.26000894523212309 0 -0.24190471242523851 0.27972751922608308 0 -0.26514282027817931 0.24842266601513599 0 -0.26655259030946182 0.26726307071448002 0 -0.24943129659764751 0.26000894523212309 0 -0.26514282027817931 0.24842266601513599 0 -0.24943129659764751 0.26000894523212309 0 -0.2468893326351202 0.24329134098969171 0 -0.25616918259472732 0.30236015827283808 0 -0.26709784128719349 0.28662765883125513 0 -0.24190471242523851 0.27972751922608308 0 -0.28581088023419748 0.27213864639403801 0 -0.26709784128719349 0.28662765883125513 0 -0.29016097772449478 0.2935014559625142 0 -0.26709784128719349 0.28662765883125513 0 -0.27491611994182802 0.30516871221215541 0 -0.29016097772449478 0.2935014559625142 0 -0.25616918259472732 0.30236015827283808 0 -0.27491611994182802 0.30516871221215541 0 -0.27043365276421599 0.32499279731959319 0 -0.25616918259472732 0.30236015827283808 0 -0.26709784128719349 0.28662765883125513 0 -0.27491611994182802 0.30516871221215541 0 -0.27491611994182802 0.30516871221215541 0 -0.29016097772449478 0.2935014559625142 0 -0.29169578744288521 0.31398791816734961 0 -0.30745975664346697 0.28108303278283259 0 -0.28581088023419748 0.27213864639403801 0 -0.29016097772449478 0.2935014559625142 0 -0.31376474629655843 0.30225304786416751 0 -0.30745975664346697 0.28108303278283259 0 -0.29016097772449478 0.2935014559625142 0 -0.31376474629655843 0.30225304786416751 0 -0.29016097772449478 0.2935014559625142 0 -0.29169578744288521 0.31398791816734961 0 -0.31376474629655843 0.30225304786416751 0 -0.31074538478735791 0.32738191455196902 0 -0.29169578744288521 0.31398791816734961 0 -0.31074538478735791 0.32738191455196902 0 -0.29170910681836448 0.3316805874579164 0 -0.29169578744288521 0.31398791816734961 0 -0.31074538478735791 0.32738191455196902 0 -0.30097258616365841 0.34441487088432199 0 -0.31556783578130437 0.34561409599239279 0 -0.31074538478735791 0.32738191455196902 0 -0.29170910681836448 0.3316805874579164 0 -0.30097258616365841 0.34441487088432199 0 -0.29170910681836448 0.3316805874579164 0 -0.28469812293370489 0.34762543636634829 0 -0.30097258616365841 0.34441487088432199 0 -0.29170910681836448 0.3316805874579164 0 -0.27043365276421599 0.32499279731959319 0 -0.28469812293370489 0.34762543636634829 0 -0.29170910681836448 0.3316805874579164 0 -0.29169578744288521 0.31398791816734961 0 -0.27043365276421599 0.32499279731959319 0 -0.27491611994182802 0.30516871221215541 0 -0.29169578744288521 0.31398791816734961 0 -0.27043365276421599 0.32499279731959319 0 -0.27043365276421599 0.32499279731959319 0 -0.26243222306204511 0.35090504016953772 0 -0.28469812293370489 0.34762543636634829 0 -0.27043365276421599 0.32499279731959319 0 -0.28469812293370489 0.34762543636634829 0 -0.27043365276421599 0.32499279731959319 0 -0.25002058798003007 0.3320526588471332 0 -0.26243222306204511 0.35090504016953772 0 -0.25616918259472732 0.30236015827283808 0 -0.27043365276421599 0.32499279731959319 0 -0.25616918259472732 0.30236015827283808 0 -0.27043365276421599 0.32499279731959319 0 -0.25002058798003007 0.3320526588471332 0 -0.25717133997193298 0.37426095615225607 0 -0.26243222306204511 0.35090504016953772 0 -0.27169383631612543 0.36953364855257259 0 -0.25717133997193298 0.37426095615225607 0 -0.26243222306204511 0.35090504016953772 0 -0.24481421723968019 0.36490975255658048 0 -0.27524778858216448 0.35766291394235578 0 -0.28324842690769031 0.36508823660180101 0 -0.28469812293370489 0.34762543636634829 0 -0.26243222306204511 0.35090504016953772 0 -0.27524778858216448 0.35766291394235578 0 -0.27169383631612543 0.36953364855257259 0 -0.26243222306204511 0.35090504016953772 0 -0.27524778858216448 0.35766291394235578 0 -0.28469812293370489 0.34762543636634829 0 -0.27524778858216448 0.35766291394235578 0 -0.27169383631612543 0.36953364855257259 0 -0.28324842690769031 0.36508823660180101 0 -0.27169383631612543 0.36953364855257259 0 -0.28324842690769031 0.36508823660180101 0 -0.28209338532393202 0.38222600668133688 0 -0.28324842690769031 0.36508823660180101 0 -0.28469812293370489 0.34762543636634829 0 -0.29896259310319367 0.37025807541310352 0 -0.28324842690769031 0.36508823660180101 0 -0.29896259310319367 0.37025807541310352 0 -0.28209338532393202 0.38222600668133688 0 -0.28469812293370489 0.34762543636634829 0 -0.29896259310319367 0.37025807541310352 0 -0.28469812293370489 0.34762543636634829 0 -0.30097258616365841 0.34441487088432199 0 -0.29896259310319367 0.37025807541310352 0 -0.30097258616365841 0.34441487088432199 0 -0.30971140611047582 0.35873879640362499 0 -0.29896259310319367 0.37025807541310352 0 -0.30097258616365841 0.34441487088432199 0 -0.29896259310319367 0.37025807541310352 0 -0.30097258616365841 0.34441487088432199 0 -0.30971140611047582 0.35873879640362499 0 -0.31556783578130437 0.34561409599239279 0 -0.30971140611047582 0.35873879640362499 0 -0.29896259310319367 0.37025807541310352 0 -0.31229554397435733 0.37005867265250031 0 -0.29896259310319367 0.37025807541310352 0 -0.31229554397435733 0.37005867265250031 0 -0.30732872976294823 0.38353215772995369 0 -0.31229554397435733 0.37005867265250031 0 -0.32118050234516199 0.36201264788746418 0 -0.32091897818789411 0.37757395005697603 0 -0.30971140611047582 0.35873879640362499 0 -0.31229554397435733 0.37005867265250031 0 -0.32118050234516199 0.36201264788746418 0 -0.32118050234516199 0.36201264788746418 0 -0.33508210951592582 0.36870163953731322 0 -0.32091897818789411 0.37757395005697603 0 -0.33508210951592582 0.36870163953731322 0 -0.35209549523865291 0.37190500391828912 0 -0.33393211710626841 0.38433234248782061 0 -0.32118050234516199 0.36201264788746418 0 -0.33508210951592582 0.36870163953731322 0 -0.33321476088078839 0.35466849371962073 0 -0.33508210951592582 0.36870163953731322 0 -0.33321476088078839 0.35466849371962073 0 -0.34577529297467657 0.36353966338233001 0 -0.33321476088078839 0.35466849371962073 0 -0.34577529297467657 0.36353966338233001 0 -0.34447532111727192 0.34884924989517158 0 -0.33321476088078839 0.35466849371962073 0 -0.33003563329740881 0.33925758124412497 0 -0.34447532111727192 0.34884924989517158 0 -0.32118050234516199 0.36201264788746418 0 -0.33321476088078839 0.35466849371962073 0 -0.31556783578130437 0.34561409599239279 0 -0.30971140611047582 0.35873879640362499 0 -0.32118050234516199 0.36201264788746418 0 -0.31556783578130437 0.34561409599239279 0 -0.33321476088078839 0.35466849371962073 0 -0.31556783578130437 0.34561409599239279 0 -0.33003563329740881 0.33925758124412497 0 -0.31074538478735791 0.32738191455196902 0 -0.33257481532433891 0.31836647764434117 0 -0.33003563329740881 0.33925758124412497 0 -0.31074538478735791 0.32738191455196902 0 -0.31556783578130437 0.34561409599239279 0 -0.33003563329740881 0.33925758124412497 0 -0.31376474629655843 0.30225304786416751 0 -0.31074538478735791 0.32738191455196902 0 -0.33257481532433891 0.31836647764434117 0 -0.33790089425573833 0.30106400074382289 0 -0.33257481532433891 0.31836647764434117 0 -0.35615310428423591 0.31878714957900162 0 -0.33257481532433891 0.31836647764434117 0 -0.33003563329740881 0.33925758124412497 0 -0.34490357793898208 0.33379293979876401 0 -0.33003563329740881 0.33925758124412497 0 -0.34490357793898208 0.33379293979876401 0 -0.34447532111727192 0.34884924989517158 0 -0.34490357793898208 0.33379293979876401 0 -0.34447532111727192 0.34884924989517158 0 -0.35750778107934472 0.34402647380388779 0 -0.35615310428423591 0.31878714957900162 0 -0.35750778107934472 0.34402647380388779 0 -0.34490357793898208 0.33379293979876401 0 -0.35615310428423591 0.31878714957900162 0 -0.35750778107934472 0.34402647380388779 0 -0.33257481532433891 0.31836647764434117 0 -0.34490357793898208 0.33379293979876401 0 -0.35615310428423591 0.31878714957900162 0 -0.3809584867257152 0.31995934924364311 0 -0.36990774782730562 0.30465198401604282 0 -0.35615310428423591 0.31878714957900162 0 -0.37563375498023588 0.33893957100260502 0 -0.3809584867257152 0.31995934924364311 0 -0.35615310428423591 0.31878714957900162 0 -0.37563375498023588 0.33893957100260502 0 -0.35615310428423591 0.31878714957900162 0 -0.35750778107934472 0.34402647380388779 0 -0.37563375498023588 0.33893957100260502 0 -0.37302608715873109 0.35758434449273291 0 -0.35750778107934472 0.34402647380388779 0 -0.37302608715873109 0.35758434449273291 0 -0.35750778107934472 0.34402647380388779 0 -0.35541488053243109 0.35781034742230239 0 -0.37302608715873109 0.35758434449273291 0 -0.35209549523865291 0.37190500391828912 0 -0.35541488053243109 0.35781034742230239 0 -0.37302608715873109 0.35758434449273291 0 -0.37126589511329411 0.37377724987418581 0 -0.35209549523865291 0.37190500391828912 0 -0.37302608715873109 0.35758434449273291 0 -0.35209549523865291 0.37190500391828912 0 -0.33508210951592582 0.36870163953731322 0 -0.35209549523865291 0.37190500391828912 0 -0.34577529297467657 0.36353966338233001 0 -0.35209549523865291 0.37190500391828912 0 -0.34577529297467657 0.36353966338233001 0 -0.35209549523865291 0.37190500391828912 0 -0.34577529297467657 0.36353966338233001 0 -0.35541488053243109 0.35781034742230239 0 -0.34577529297467657 0.36353966338233001 0 -0.34447532111727192 0.34884924989517158 0 -0.35541488053243109 0.35781034742230239 0 -0.34447532111727192 0.34884924989517158 0 -0.35750778107934472 0.34402647380388779 0 -0.35541488053243109 0.35781034742230239 0 -0.35026082972236822 0.40458613969335172 0 -0.34862050747833878 0.38874946299455448 0 -0.33552343261133938 0.40009846525415782 0 -0.35026082972236822 0.40458613969335172 0 -0.34862050747833878 0.38874946299455448 0 -0.36671596826568531 0.39125647884893172 0 -0.35209549523865291 0.37190500391828912 0 -0.34862050747833878 0.38874946299455448 0 -0.33393211710626841 0.38433234248782061 0 -0.35209549523865291 0.37190500391828912 0 -0.34862050747833878 0.38874946299455448 0 -0.36671596826568531 0.39125647884893172 0 -0.35209549523865291 0.37190500391828912 0 -0.36671596826568531 0.39125647884893172 0 -0.37126589511329411 0.37377724987418581 0 -0.35209549523865291 0.37190500391828912 0 -0.36671596826568531 0.39125647884893172 0 -0.38133644129271771 0.41060795377957438 0 -0.36671596826568531 0.39125647884893172 0 -0.35026082972236822 0.40458613969335172 0 -0.36671596826568531 0.39125647884893172 0 -0.36333227490387549 0.41594406858258898 0 -0.38133644129271771 0.41060795377957438 0 -0.36671596826568531 0.39125647884893172 0 -0.36333227490387549 0.41594406858258898 0 -0.38133644129271771 0.41060795377957438 0 -0.36333227490387549 0.41594406858258898 0 -0.37388199021079188 0.43349662060099697 0 -0.36333227490387549 0.41594406858258898 0 -0.37388199021079188 0.43349662060099697 0 -0.35906691460358248 0.43302642702751659 0 -0.36333227490387549 0.41594406858258898 0 -0.35906691460358248 0.43302642702751659 0 -0.35160825139420282 0.41805423523185442 0 -0.35906691460358248 0.43302642702751659 0 -0.34586475289765162 0.42738691828786168 0 -0.34964894770477822 0.45067928662270329 0 -0.35906691460358248 0.43302642702751659 0 -0.34586475289765162 0.42738691828786168 0 -0.35160825139420282 0.41805423523185442 0 -0.35026082972236822 0.40458613969335172 0 -0.36333227490387549 0.41594406858258898 0 -0.35160825139420282 0.41805423523185442 0 -0.34586475289765162 0.42738691828786168 0 -0.35160825139420282 0.41805423523185442 0 -0.33955069738530769 0.4144169953609998 0 -0.35026082972236822 0.40458613969335172 0 -0.35160825139420282 0.41805423523185442 0 -0.33955069738530769 0.4144169953609998 0 -0.35026082972236822 0.40458613969335172 0 -0.33955069738530769 0.4144169953609998 0 -0.33552343261133938 0.40009846525415782 0 -0.33446828868340289 0.42659298183602629 0 -0.325081577553051 0.41169961094141633 0 -0.33955069738530769 0.4144169953609998 0 -0.33446828868340289 0.42659298183602629 0 -0.325081577553051 0.41169961094141633 0 -0.33955069738530769 0.4144169953609998 0 -0.325081577553051 0.41169961094141633 0 -0.33552343261133938 0.40009846525415782 0 -0.33446828868340289 0.42659298183602629 0 -0.32353211865850812 0.43458959004027897 0 -0.33054677899099522 0.44587833955602901 0 -0.34586475289765162 0.42738691828786168 0 -0.33446828868340289 0.42659298183602629 0 -0.34964894770477822 0.45067928662270329 0 -0.34586475289765162 0.42738691828786168 0 -0.33446828868340289 0.42659298183602629 0 -0.34586475289765162 0.42738691828786168 0 -0.33955069738530769 0.4144169953609998 0 -0.33446828868340289 0.42659298183602629 0 -0.33446828868340289 0.42659298183602629 0 -0.31463215430362917 0.42521109444957261 0 -0.33446828868340289 0.42659298183602629 0 -0.31463215430362917 0.42521109444957261 0 -0.32353211865850812 0.43458959004027897 0 -0.31463215430362917 0.42521109444957261 0 -0.32353211865850812 0.43458959004027897 0 -0.30632691414132052 0.4383163993433048 0 -0.325081577553051 0.41169961094141633 0 -0.31576873897388319 0.39675968105735149 0 -0.30808160252936673 0.4121977433748496 0 -0.31463215430362917 0.42521109444957261 0 -0.325081577553051 0.41169961094141633 0 -0.30808160252936673 0.4121977433748496 0 -0.33446828868340289 0.42659298183602629 0 -0.31463215430362917 0.42521109444957261 0 -0.325081577553051 0.41169961094141633 0 -0.325081577553051 0.41169961094141633 0 -0.31576873897388319 0.39675968105735149 0 -0.33552343261133938 0.40009846525415782 0 -0.325081577553051 0.41169961094141633 0 -0.31576873897388319 0.39675968105735149 0 -0.34862050747833878 0.38874946299455448 0 -0.33552343261133938 0.40009846525415782 0 -0.33393211710626841 0.38433234248782061 0 -0.31576873897388319 0.39675968105735149 0 -0.33552343261133938 0.40009846525415782 0 -0.33393211710626841 0.38433234248782061 0 -0.35209549523865291 0.37190500391828912 0 -0.33393211710626841 0.38433234248782061 0 -0.33508210951592582 0.36870163953731322 0 -0.33393211710626841 0.38433234248782061 0 -0.32091897818789411 0.37757395005697603 0 -0.31576873897388319 0.39675968105735149 0 -0.32091897818789411 0.37757395005697603 0 -0.30732872976294823 0.38353215772995369 0 -0.31576873897388319 0.39675968105735149 0 -0.33393211710626841 0.38433234248782061 0 -0.31576873897388319 0.39675968105735149 0 -0.33393211710626841 0.38433234248782061 0 -0.32091897818789411 0.37757395005697603 0 -0.31229554397435733 0.37005867265250031 0 -0.32091897818789411 0.37757395005697603 0 -0.30732872976294823 0.38353215772995369 0 -0.29896259310319367 0.37025807541310352 0 -0.30732872976294823 0.38353215772995369 0 -0.29700674132229032 0.39540516601558717 0 -0.29896259310319367 0.37025807541310352 0 -0.29700674132229032 0.39540516601558717 0 -0.31576873897388319 0.39675968105735149 0 -0.30732872976294823 0.38353215772995369 0 -0.29896259310319367 0.37025807541310352 0 -0.30732872976294823 0.38353215772995369 0 -0.29700674132229032 0.39540516601558717 0 -0.30259284054109448 0.40478096048040529 0 -0.29641605771867308 0.41403951143914192 0 -0.31576873897388319 0.39675968105735149 0 -0.29700674132229032 0.39540516601558717 0 -0.30259284054109448 0.40478096048040529 0 -0.31576873897388319 0.39675968105735149 0 -0.30732872976294823 0.38353215772995369 0 -0.29700674132229032 0.39540516601558717 0 -0.31576873897388319 0.39675968105735149 0 -0.30259284054109448 0.40478096048040529 0 -0.30808160252936673 0.4121977433748496 0 -0.29700674132229032 0.39540516601558717 0 -0.28209338532393202 0.38222600668133688 0 -0.27839968129949771 0.4031848713431353 0 -0.29896259310319367 0.37025807541310352 0 -0.29700674132229032 0.39540516601558717 0 -0.28209338532393202 0.38222600668133688 0 -0.27169383631612543 0.36953364855257259 0 -0.28209338532393202 0.38222600668133688 0 -0.26324903299479457 0.38988604216182182 0 -0.27839968129949771 0.4031848713431353 0 -0.26324903299479457 0.38988604216182182 0 -0.26044543261494202 0.40722350202507612 0 -0.28209338532393202 0.38222600668133688 0 -0.27839968129949771 0.4031848713431353 0 -0.26324903299479457 0.38988604216182182 0 -0.26324903299479457 0.38988604216182182 0 -0.26044543261494202 0.40722350202507612 0 -0.24448809762487089 0.40050868906775772 0 -0.25717133997193298 0.37426095615225607 0 -0.26324903299479457 0.38988604216182182 0 -0.24074374520667241 0.38242687998337299 0 -0.25717133997193298 0.37426095615225607 0 -0.27169383631612543 0.36953364855257259 0 -0.26324903299479457 0.38988604216182182 0 -0.25382358621835049 0.43542260228310259 0 -0.27015352040741047 0.42211248350195679 0 -0.2459368307481366 0.42042542405070832 0 -0.27015352040741047 0.42211248350195679 0 -0.2459368307481366 0.42042542405070832 0 -0.26044543261494202 0.40722350202507612 0 -0.2459368307481366 0.42042542405070832 0 -0.24448809762487089 0.40050868906775772 0 -0.26044543261494202 0.40722350202507612 0 -0.27015352040741047 0.42211248350195679 0 -0.2459368307481366 0.42042542405070832 0 -0.27839968129949771 0.4031848713431353 0 -0.26044543261494202 0.40722350202507612 0 -0.27015352040741047 0.42211248350195679 0 -0.27839968129949771 0.4031848713431353 0 -0.27015352040741047 0.42211248350195679 0 -0.2950508895413867 0.42055225661807089 0 -0.25382358621835049 0.43542260228310259 0 -0.27015352040741047 0.42211248350195679 0 -0.27451598641054692 0.44016370142941202 0 -0.27015352040741047 0.42211248350195679 0 -0.28251112199335982 0.43211478794536817 0 -0.27451598641054692 0.44016370142941202 0 -0.28251112199335982 0.43211478794536817 0 -0.29479601992385501 0.42382920706312738 0 -0.29069111349206073 0.44135124015641658 0 -0.29479601992385501 0.42382920706312738 0 -0.29069111349206073 0.44135124015641658 0 -0.27015352040741047 0.42211248350195679 0 -0.28251112199335982 0.43211478794536817 0 -0.29479601992385501 0.42382920706312738 0 -0.27015352040741047 0.42211248350195679 0 -0.29479601992385501 0.42382920706312738 0 -0.27015352040741047 0.42211248350195679 0 -0.29479601992385501 0.42382920706312738 0 -0.2950508895413867 0.42055225661807089 0 -0.29479601992385501 0.42382920706312738 0 -0.2950508895413867 0.42055225661807089 0 -0.29700674132229032 0.39540516601558717 0 -0.2950508895413867 0.42055225661807089 0 -0.29641605771867308 0.41403951143914192 0 -0.29700674132229032 0.39540516601558717 0 -0.27839968129949771 0.4031848713431353 0 -0.2950508895413867 0.42055225661807089 0 -0.29700674132229032 0.39540516601558717 0 -0.2950508895413867 0.42055225661807089 0 -0.2950508895413867 0.42055225661807089 0 -0.29641605771867308 0.41403951143914192 0 -0.31463215430362917 0.42521109444957261 0 -0.2950508895413867 0.42055225661807089 0 -0.30808160252936673 0.4121977433748496 0 -0.30259284054109448 0.40478096048040529 0 -0.29641605771867308 0.41403951143914192 0 -0.30808160252936673 0.4121977433748496 0 -0.2950508895413867 0.42055225661807089 0 -0.29641605771867308 0.41403951143914192 0 -0.30808160252936673 0.4121977433748496 0 -0.31463215430362917 0.42521109444957261 0 -0.29479601992385501 0.42382920706312738 0 -0.2950508895413867 0.42055225661807089 0 -0.31463215430362917 0.42521109444957261 0 -0.29479601992385501 0.42382920706312738 0 -0.30632691414132052 0.4383163993433048 0 -0.29479601992385501 0.42382920706312738 0 -0.30632691414132052 0.4383163993433048 0 -0.29069111349206073 0.44135124015641658 0 -0.31463215430362917 0.42521109444957261 0 -0.29479601992385501 0.42382920706312738 0 -0.30632691414132052 0.4383163993433048 0 -0.3106014077299023 0.45452137664490028 0 -0.31918078655937843 0.44538174228416588 0 -0.30632691414132052 0.4383163993433048 0 -0.29796494780926752 0.45236230629258078 0 -0.3106014077299023 0.45452137664490028 0 -0.30632691414132052 0.4383163993433048 0 -0.29796494780926752 0.45236230629258078 0 -0.29069111349206073 0.44135124015641658 0 -0.3106014077299023 0.45452137664490028 0 -0.30192672627001949 0.46374394226332799 0 -0.31684143562260331 0.46858494716702748 0 -0.30192672627001949 0.46374394226332799 0 -0.31684143562260331 0.46858494716702748 0 -0.29796494780926752 0.45236230629258078 0 -0.3106014077299023 0.45452137664490028 0 -0.30192672627001949 0.46374394226332799 0 -0.28701201691743577 0.45890293735962839 0 -0.28352738281579593 0.4755269213664215 0 -0.30192672627001949 0.46374394226332799 0 -0.28701201691743577 0.45890293735962839 0 -0.30030559437380339 0.47420586516231239 0 -0.30192672627001949 0.46374394226332799 0 -0.28701201691743577 0.45890293735962839 0 -0.29796494780926752 0.45236230629258078 0 -0.30192672627001949 0.46374394226332799 0 -0.28701201691743577 0.45890293735962839 0 -0.28701201691743577 0.45890293735962839 0 -0.29069111349206073 0.44135124015641658 0 -0.28701201691743577 0.45890293735962839 0 -0.29069111349206073 0.44135124015641658 0 -0.27451598641054692 0.44016370142941202 0 -0.29796494780926752 0.45236230629258078 0 -0.28701201691743577 0.45890293735962839 0 -0.29069111349206073 0.44135124015641658 0 -0.28251112199335982 0.43211478794536817 0 -0.29069111349206073 0.44135124015641658 0 -0.27451598641054692 0.44016370142941202 0 -0.28701201691743577 0.45890293735962839 0 -0.27451598641054692 0.44016370142941202 0 -0.2629045594346644 0.45107815732999917 0 -0.28701201691743577 0.45890293735962839 0 -0.2629045594346644 0.45107815732999917 0 -0.28701201691743577 0.45890293735962839 0 -0.27023974482395158 0.46466667776273851 0 -0.28352738281579593 0.4755269213664215 0 -0.28701201691743577 0.45890293735962839 0 -0.27023974482395158 0.46466667776273851 0 -0.2629045594346644 0.45107815732999917 0 -0.27023974482395158 0.46466667776273851 0 -0.2629045594346644 0.45107815732999917 0 -0.2489120775907421 0.45611132706247232 0 -0.27023974482395158 0.46466667776273851 0 -0.24576275637927339 0.47027392540463459 0 -0.2489120775907421 0.45611132706247232 0 -0.25382358621835049 0.43542260228310259 0 -0.2629045594346644 0.45107815732999917 0 -0.2387971019518931 0.44325337730036979 0 -0.2629045594346644 0.45107815732999917 0 -0.2387971019518931 0.44325337730036979 0 -0.2629045594346644 0.45107815732999917 0 -0.2387971019518931 0.44325337730036979 0 -0.2489120775907421 0.45611132706247232 0 -0.25382358621835049 0.43542260228310259 0 -0.27451598641054692 0.44016370142941202 0 -0.2629045594346644 0.45107815732999917 0 -0.26267046183496029 0.5 0 -0.26550391405888962 0.48189416376756322 0 -0.24740973726578031 0.48747235416832729 0 -0.26550391405888962 0.48189416376756322 0 -0.24576275637927339 0.47027392540463459 0 -0.24740973726578031 0.48747235416832729 0 -0.27023974482395158 0.46466667776273851 0 -0.26550391405888962 0.48189416376756322 0 -0.24576275637927339 0.47027392540463459 0 -0.27023974482395158 0.46466667776273851 0 -0.26550391405888962 0.48189416376756322 0 -0.28352738281579593 0.4755269213664215 0 -0.26550391405888962 0.48189416376756322 0 -0.28004274871415491 0.49215090537321432 0 -0.28352738281579593 0.4755269213664215 0 -0.26267046183496029 0.5 0 -0.26550391405888962 0.48189416376756322 0 -0.28004274871415491 0.49215090537321432 0 -0.26267046183496029 0.5 0 -0.28004274871415491 0.49215090537321432 0 -0.28977137280097909 0.5 0 -0.28004274871415491 0.49215090537321432 0 -0.29422506909847679 0.48481709335143458 0 -0.28977137280097909 0.5 0 -0.29422506909847679 0.48481709335143458 0 -0.28977137280097909 0.5 0 -0.30059562840125281 0.49523014277448563 0 -0.29422506909847679 0.48481709335143458 0 -0.28352738281579593 0.4755269213664215 0 -0.30030559437380339 0.47420586516231239 0 -0.28004274871415491 0.49215090537321432 0 -0.29422506909847679 0.48481709335143458 0 -0.28352738281579593 0.4755269213664215 0 -0.28701201691743577 0.45890293735962839 0 -0.28352738281579593 0.4755269213664215 0 -0.30030559437380339 0.47420586516231239 0 -0.28004274871415491 0.49215090537321432 0 -0.28352738281579593 0.4755269213664215 0 -0.30192672627001949 0.46374394226332799 0 -0.30030559437380339 0.47420586516231239 0 -0.31684143562260331 0.46858494716702748 0 -0.30030559437380339 0.47420586516231239 0 -0.3087338265938282 0.48140676030859753 0 -0.31684143562260331 0.46858494716702748 0 -0.29422506909847679 0.48481709335143458 0 -0.30030559437380339 0.47420586516231239 0 -0.3087338265938282 0.48140676030859753 0 -0.28977137280097909 0.5 0 -0.30059562840125281 0.49523014277448563 0 -0.31687228376699761 0.5 0 -0.3087338265938282 0.48140676030859753 0 -0.30059562840125281 0.49523014277448563 0 -0.32200695450955369 0.48840862565278359 0 -0.30059562840125281 0.49523014277448563 0 -0.32200695450955369 0.48840862565278359 0 -0.29422506909847679 0.48481709335143458 0 -0.3087338265938282 0.48140676030859753 0 -0.30059562840125281 0.49523014277448563 0 -0.30059562840125281 0.49523014277448563 0 -0.31687228376699761 0.5 0 -0.32200695450955369 0.48840862565278359 0 -0.31687228376699761 0.5 0 -0.32200695450955369 0.48840862565278359 0 -0.33307541777069588 0.49179723018598798 0 -0.32200695450955369 0.48840862565278359 0 -0.34341828061785462 0.48158710853108161 0 -0.32200695450955369 0.48840862565278359 0 -0.33307541777069588 0.49179723018598798 0 -0.34341828061785462 0.48158710853108161 0 -0.33307541777069588 0.49179723018598798 0 -0.34341828061785462 0.48158710853108161 0 -0.34397319473301619 0.5 0 -0.31687228376699761 0.5 0 -0.33307541777069588 0.49179723018598798 0 -0.34397319473301619 0.5 0 -0.32200695450955369 0.48840862565278359 0 -0.34341828061785462 0.48158710853108161 0 -0.32987443399239552 0.47516769423785971 0 -0.34341828061785462 0.48158710853108161 0 -0.32987443399239552 0.47516769423785971 0 -0.34602126269748001 0.46829680282094799 0 -0.32987443399239552 0.47516769423785971 0 -0.31870391104731738 0.47862303310617538 0 -0.31684143562260331 0.46858494716702748 0 -0.32200695450955369 0.48840862565278359 0 -0.32987443399239552 0.47516769423785971 0 -0.31870391104731738 0.47862303310617538 0 -0.3087338265938282 0.48140676030859753 0 -0.32200695450955369 0.48840862565278359 0 -0.31870391104731738 0.47862303310617538 0 -0.3087338265938282 0.48140676030859753 0 -0.31870391104731738 0.47862303310617538 0 -0.31684143562260331 0.46858494716702748 0 -0.31684143562260331 0.46858494716702748 0 -0.32297313966047753 0.4563916054492167 0 -0.33347739267942988 0.46163483110378051 0 -0.32987443399239552 0.47516769423785971 0 -0.31684143562260331 0.46858494716702748 0 -0.33347739267942988 0.46163483110378051 0 -0.3106014077299023 0.45452137664490028 0 -0.31684143562260331 0.46858494716702748 0 -0.32297313966047753 0.4563916054492167 0 -0.32353211865850812 0.43458959004027897 0 -0.30632691414132052 0.4383163993433048 0 -0.31918078655937843 0.44538174228416588 0 -0.3106014077299023 0.45452137664490028 0 -0.32297313966047753 0.4563916054492167 0 -0.31918078655937843 0.44538174228416588 0 -0.32297313966047753 0.4563916054492167 0 -0.31918078655937843 0.44538174228416588 0 -0.33054677899099522 0.44587833955602901 0 -0.32353211865850812 0.43458959004027897 0 -0.31918078655937843 0.44538174228416588 0 -0.33054677899099522 0.44587833955602901 0 -0.33054677899099522 0.44587833955602901 0 -0.33347739267942988 0.46163483110378051 0 -0.34964894770477822 0.45067928662270329 0 -0.33446828868340289 0.42659298183602629 0 -0.34964894770477822 0.45067928662270329 0 -0.33446828868340289 0.42659298183602629 0 -0.33054677899099522 0.44587833955602901 0 -0.34964894770477822 0.45067928662270329 0 -0.32297313966047753 0.4563916054492167 0 -0.33054677899099522 0.44587833955602901 0 -0.33347739267942988 0.46163483110378051 0 -0.33347739267942988 0.46163483110378051 0 -0.34602126269748001 0.46829680282094799 0 -0.34964894770477822 0.45067928662270329 0 -0.32987443399239552 0.47516769423785971 0 -0.33347739267942988 0.46163483110378051 0 -0.34602126269748001 0.46829680282094799 0 -0.34964894770477822 0.45067928662270329 0 -0.36482960672615539 0.47476559140937902 0 -0.34602126269748001 0.46829680282094799 0 -0.34964894770477822 0.45067928662270329 0 -0.36482960672615539 0.47476559140937902 0 -0.37388199021079188 0.43349662060099697 0 -0.35906691460358248 0.43302642702751659 0 -0.37006527051019528 0.45259743283909409 0 -0.35906691460358248 0.43302642702751659 0 -0.34964894770477822 0.45067928662270329 0 -0.37006527051019528 0.45259743283909409 0 -0.34964894770477822 0.45067928662270329 0 -0.37006527051019528 0.45259743283909409 0 -0.36482960672615539 0.47476559140937902 0 -0.39197467039505129 0.46611734068214988 0 -0.36580706476392733 0.47631646954851292 0 -0.36482960672615539 0.47476559140937902 0 -0.38413367002432852 0.48466820949397371 0 -0.36580706476392733 0.47631646954851292 0 -0.36922226322768142 0.48798439540463678 0 -0.36580706476392733 0.47631646954851292 0 -0.36482960672615539 0.47476559140937902 0 -0.36580706476392733 0.47631646954851292 0 -0.36011621247549508 0.48220740160321018 0 -0.36922226322768142 0.48798439540463678 0 -0.36580706476392733 0.47631646954851292 0 -0.36482960672615539 0.47476559140937902 0 -0.36011621247549508 0.48220740160321018 0 -0.38413367002432852 0.48466820949397371 0 -0.36922226322768142 0.48798439540463678 0 -0.37107410569903487 0.5 0 -0.36922226322768142 0.48798439540463678 0 -0.37107410569903487 0.5 0 -0.35730384704185653 0.49038344312244059 0 -0.36011621247549508 0.48220740160321018 0 -0.36922226322768142 0.48798439540463678 0 -0.35730384704185653 0.49038344312244059 0 -0.34341828061785462 0.48158710853108161 0 -0.36011621247549508 0.48220740160321018 0 -0.35730384704185653 0.49038344312244059 0 -0.37107410569903487 0.5 0 -0.35730384704185653 0.49038344312244059 0 -0.34397319473301619 0.5 0 -0.34341828061785462 0.48158710853108161 0 -0.35730384704185653 0.49038344312244059 0 -0.34397319473301619 0.5 0 -0.34341828061785462 0.48158710853108161 0 -0.36482960672615539 0.47476559140937902 0 -0.36011621247549508 0.48220740160321018 0 -0.34341828061785462 0.48158710853108161 0 -0.34602126269748001 0.46829680282094799 0 -0.36482960672615539 0.47476559140937902 0 -0.34341828061785462 0.48158710853108161 0 -0.36482960672615539 0.47476559140937902 0 -0.14108182703901029 0.47856052106912539 0 -0.15218575011213231 0.48928026053456308 0 -0.15838645381207381 0.47784012782054008 0 -0.14108182703901029 0.47856052106912539 0 -0.15141758041572639 0.46790752156545012 0 -0.15838645381207381 0.47784012782054008 0 -0.14108182703901029 0.47856052106912539 0 -0.15218575011213231 0.48928026053456308 0 -0.14103512141071931 0.48261116844817892 0 -0.14108182703901029 0.47856052106912539 0 -0.15218575011213231 0.48928026053456308 0 -0.14103512141071931 0.48261116844817892 0 -0.14108182703901029 0.47856052106912539 0 -0.15218575011213231 0.48928026053456308 0 -0.14247376316698551 0.5 0 -0.1632896731852537 0.50000000000000155 0 -0.15218575011213231 0.48928026053456308 0 -0.14247376316698551 0.5 0 -0.14194011071192181 0.49099964735320722 0 -0.14103512141071931 0.48261116844817892 0 -0.15218575011213231 0.48928026053456308 0 -0.14194011071192181 0.49099964735320722 0 -0.14247376316698551 0.5 0 -0.13206580815784999 0.49210716043008701 0 -0.1216578531487173 0.50000000000000155 0 -0.13206580815784999 0.49210716043008701 0 -0.1215246548466888 0.48036061179670092 0 -0.1216578531487173 0.50000000000000155 0 -0.14103512141071931 0.48261116844817892 0 -0.13206580815784999 0.49210716043008701 0 -0.1215246548466888 0.48036061179670092 0 -0.14103512141071931 0.48261116844817892 0 -0.14194011071192181 0.49099964735320722 0 -0.13206580815784999 0.49210716043008701 0 -0.14247376316698551 0.5 0 -0.14194011071192181 0.49099964735320722 0 -0.13206580815784999 0.49210716043008701 0 -0.14103512141071931 0.48261116844817892 0 -0.14108182703901029 0.47856052106912539 0 -0.1215246548466888 0.48036061179670092 0 -0.14108182703901029 0.47856052106912539 0 -0.11987972175203609 0.45809198546251739 0 -0.1215246548466888 0.48036061179670092 0 -0.14108182703901029 0.47856052106912539 0 -0.14131813266979709 0.45806640035822538 0 -0.11987972175203609 0.45809198546251739 0 -0.14108182703901029 0.47856052106912539 0 -0.11987972175203609 0.45809198546251739 0 -0.12509104342100061 0.44188941827772182 0 -0.14131813266979709 0.45806640035822538 0 -0.11987972175203609 0.45809198546251739 0 -0.12509104342100061 0.44188941827772182 0 -0.14155443830058789 0.43757227964732542 0 -0.14131813266979709 0.45806640035822538 0 -0.14155443830058789 0.43757227964732542 0 -0.1590732886589914 0.44456462379371309 0 -0.14157918638415079 0.43542594817740249 0 -0.1590732886589914 0.44456462379371309 0 -0.1665175895587078 0.4467511244817659 0 -0.14157918638415079 0.43542594817740249 0 -0.1665175895587078 0.4467511244817659 0 -0.15486041744653839 0.43233395996053492 0 -0.14157918638415079 0.43542594817740249 0 -0.14155443830058789 0.43757227964732542 0 -0.14890115189103559 0.44846787442591368 0 -0.1590732886589914 0.44456462379371309 0 -0.1665175895587078 0.4467511244817659 0 -0.14157918638415079 0.43542594817740249 0 -0.14155443830058789 0.43757227964732542 0 -0.14890115189103559 0.44846787442591368 0 -0.14131813266979709 0.45806640035822538 0 -0.14155443830058789 0.43757227964732542 0 -0.1590732886589914 0.44456462379371309 0 -0.14155443830058789 0.43757227964732542 0 -0.14131813266979709 0.45806640035822538 0 -0.14890115189103559 0.44846787442591368 0 -0.15489186999573309 0.45643812449532861 0 -0.1590732886589914 0.44456462379371309 0 -0.14108182703901029 0.47856052106912539 0 -0.14131813266979709 0.45806640035822538 0 -0.14108182703901029 0.47856052106912539 0 -0.14131813266979709 0.45806640035822538 0 -0.15141758041572639 0.46790752156545012 0 -0.14890115189103559 0.44846787442591368 0 -0.14131813266979709 0.45806640035822538 0 -0.15489186999573309 0.45643812449532861 0 -0.14131813266979709 0.45806640035822538 0 -0.15489186999573309 0.45643812449532861 0 -0.15141758041572639 0.46790752156545012 0 -0.15489186999573309 0.45643812449532861 0 -0.15141758041572639 0.46790752156545012 0 -0.1637083375647361 0.46571847743475431 0 -0.15489186999573309 0.45643812449532861 0 -0.1637083375647361 0.46571847743475431 0 -0.16576602081972819 0.45650349861697093 0 -0.1637083375647361 0.46571847743475431 0 -0.1745644688617857 0.46423929942095737 0 -0.17520348646433229 0.47613194070040032 0 -0.1637083375647361 0.46571847743475431 0 -0.16576602081972819 0.45650349861697093 0 -0.1745644688617857 0.46423929942095737 0 -0.1590732886589914 0.44456462379371309 0 -0.17659213901739471 0.45155696794010108 0 -0.1590732886589914 0.44456462379371309 0 -0.1665175895587078 0.4467511244817659 0 -0.17659213901739471 0.45155696794010108 0 -0.16576602081972819 0.45650349861697093 0 -0.1590732886589914 0.44456462379371309 0 -0.17659213901739471 0.45155696794010108 0 -0.1665175895587078 0.4467511244817659 0 -0.1659354897241099 0.43449929542802312 0 -0.15486041744653839 0.43233395996053492 0 -0.15489186999573309 0.45643812449532861 0 -0.16576602081972819 0.45650349861697093 0 -0.1590732886589914 0.44456462379371309 0 -0.1665175895587078 0.4467511244817659 0 -0.1740586998674569 0.43899754936367941 0 -0.1659354897241099 0.43449929542802312 0 -0.1740586998674569 0.43899754936367941 0 -0.17659213901739471 0.45155696794010108 0 -0.1868590329817707 0.43357197228301869 0 -0.1665175895587078 0.4467511244817659 0 -0.1740586998674569 0.43899754936367941 0 -0.17659213901739471 0.45155696794010108 0 -0.1745644688617857 0.46423929942095737 0 -0.18738907724301901 0.4651958722260251 0 -0.17520348646433229 0.47613194070040032 0 -0.17659213901739471 0.45155696794010108 0 -0.1745644688617857 0.46423929942095737 0 -0.18738907724301901 0.4651958722260251 0 -0.16576602081972819 0.45650349861697093 0 -0.17659213901739471 0.45155696794010108 0 -0.1745644688617857 0.46423929942095737 0 -0.17520348646433229 0.47613194070040032 0 -0.17737148462513211 0.4885994124146576 0 -0.1949767913905355 0.48049775525153071 0 -0.18738907724301901 0.4651958722260251 0 -0.17520348646433229 0.47613194070040032 0 -0.1949767913905355 0.48049775525153071 0 -0.17520348646433229 0.47613194070040032 0 -0.1660045063390565 0.48636736612135473 0 -0.17737148462513211 0.4885994124146576 0 -0.17520348646433229 0.47613194070040032 0 -0.15838645381207381 0.47784012782054008 0 -0.1660045063390565 0.48636736612135473 0 -0.1637083375647361 0.46571847743475431 0 -0.17520348646433229 0.47613194070040032 0 -0.15838645381207381 0.47784012782054008 0 -0.15141758041572639 0.46790752156545012 0 -0.1637083375647361 0.46571847743475431 0 -0.15838645381207381 0.47784012782054008 0 -0.15218575011213231 0.48928026053456308 0 -0.1632896731852537 0.50000000000000155 0 -0.15218575011213231 0.48928026053456308 0 -0.15838645381207381 0.47784012782054008 0 -0.1660045063390565 0.48636736612135473 0 -0.15218575011213231 0.48928026053456308 0 -0.1632896731852537 0.50000000000000155 0 -0.1660045063390565 0.48636736612135473 0 -0.1632896731852537 0.50000000000000155 0 -0.1660045063390565 0.48636736612135473 0 -0.17737148462513211 0.4885994124146576 0 -0.1632896731852537 0.50000000000000155 0 -0.18738296574648311 0.5 0 -0.17737148462513211 0.4885994124146576 0 -0.18738296574648311 0.5 0 -0.17737148462513211 0.4885994124146576 0 -0.1949767913905355 0.48049775525153071 0 -0.18738296574648311 0.5 0 -0.1949767913905355 0.48049775525153071 0 -0.21147625830771241 0.5 0 -0.1949767913905355 0.48049775525153071 0 -0.2193327115732171 0.47785732409434201 0 -0.2030958722774939 0.45571464818868052 0 -0.1949767913905355 0.48049775525153071 0 -0.21147625830771241 0.5 0 -0.2193327115732171 0.47785732409434201 0 -0.21147625830771241 0.5 0 -0.2193327115732171 0.47785732409434201 0 -0.23556955086894171 0.50000000000000278 0 -0.2193327115732171 0.47785732409434201 0 -0.24740973726578031 0.48747235416832729 0 -0.23556955086894171 0.50000000000000278 0 -0.2193327115732171 0.47785732409434201 0 -0.23556955086894171 0.50000000000000278 0 -0.2193327115732171 0.47785732409434201 0 -0.24576275637927339 0.47027392540463459 0 -0.24740973726578031 0.48747235416832729 0 -0.26267046183496029 0.5 0 -0.24740973726578031 0.48747235416832729 0 -0.23556955086894171 0.50000000000000278 0 -0.2387971019518931 0.44325337730036979 0 -0.2489120775907421 0.45611132706247232 0 -0.22784244863720851 0.45419089524536999 0 -0.24576275637927339 0.47027392540463459 0 -0.2489120775907421 0.45611132706247232 0 -0.22784244863720851 0.45419089524536999 0 -0.2193327115732171 0.47785732409434201 0 -0.24576275637927339 0.47027392540463459 0 -0.22784244863720851 0.45419089524536999 0 -0.2387971019518931 0.44325337730036979 0 -0.22784244863720851 0.45419089524536999 0 -0.22695118484456259 0.43760496865691229 0 -0.22784244863720851 0.45419089524536999 0 -0.22695118484456259 0.43760496865691229 0 -0.21077827595677989 0.43843038173964088 0 -0.2387971019518931 0.44325337730036979 0 -0.22695118484456259 0.43760496865691229 0 -0.23717077667227929 0.4322920750106754 0 -0.22784244863720851 0.45419089524536999 0 -0.21077827595677989 0.43843038173964088 0 -0.2030958722774939 0.45571464818868052 0 -0.2193327115732171 0.47785732409434201 0 -0.22784244863720851 0.45419089524536999 0 -0.2030958722774939 0.45571464818868052 0 -0.2193327115732171 0.47785732409434201 0 -0.2030958722774939 0.45571464818868052 0 -0.18738907724301901 0.4651958722260251 0 -0.1949767913905355 0.48049775525153071 0 -0.2030958722774939 0.45571464818868052 0 -0.17659213901739471 0.45155696794010108 0 -0.18738907724301901 0.4651958722260251 0 -0.2030958722774939 0.45571464818868052 0 -0.17659213901739471 0.45155696794010108 0 -0.2030958722774939 0.45571464818868052 0 -0.1868590329817707 0.43357197228301869 0 -0.21077827595677989 0.43843038173964088 0 -0.2030958722774939 0.45571464818868052 0 -0.1868590329817707 0.43357197228301869 0 -0.2030958722774939 0.45571464818868052 0 -0.1868590329817707 0.43357197228301869 0 -0.21077827595677989 0.43843038173964088 0 -0.20038953475864499 0.42285930103310698 0 -0.1868590329817707 0.43357197228301869 0 -0.20038953475864499 0.42285930103310698 0 -0.18865851951403981 0.41114723081592358 0 -0.1868590329817707 0.43357197228301869 0 -0.20038953475864499 0.42285930103310698 0 -0.18865851951403981 0.41114723081592358 0 -0.20316386533702549 0.40742415296633488 0 -0.20038953475864499 0.42285930103310698 0 -0.20316386533702549 0.40742415296633488 0 -0.22016732100465239 0.41985811398850509 0 -0.20316386533702549 0.40742415296633488 0 -0.22016732100465239 0.41985811398850509 0 -0.21769018938602511 0.40540249138439582 0 -0.20316386533702549 0.40742415296633488 0 -0.22016732100465239 0.41985811398850509 0 -0.21077827595677989 0.43843038173964088 0 -0.20038953475864499 0.42285930103310698 0 -0.22016732100465239 0.41985811398850509 0 -0.22695118484456259 0.43760496865691229 0 -0.22016732100465239 0.41985811398850509 0 -0.23717077667227929 0.4322920750106754 0 -0.22695118484456259 0.43760496865691229 0 -0.21077827595677989 0.43843038173964088 0 -0.22016732100465239 0.41985811398850509 0 -0.22016732100465239 0.41985811398850509 0 -0.23358788463652869 0.41983625247023992 0 -0.23717077667227929 0.4322920750106754 0 -0.22016732100465239 0.41985811398850509 0 -0.23717077667227929 0.4322920750106754 0 -0.22016732100465239 0.41985811398850509 0 -0.23115288141678619 0.40759276862782062 0 -0.21769018938602511 0.40540249138439582 0 -0.22016732100465239 0.41985811398850509 0 -0.23115288141678619 0.40759276862782062 0 -0.23358788463652869 0.41983625247023992 0 -0.23115288141678619 0.40759276862782062 0 -0.2459368307481366 0.42042542405070832 0 -0.24448809762487089 0.40050868906775772 0 -0.23115288141678619 0.40759276862782062 0 -0.23358788463652869 0.41983625247023992 0 -0.2459368307481366 0.42042542405070832 0 -0.25382358621835049 0.43542260228310259 0 -0.2459368307481366 0.42042542405070832 0 -0.23717077667227929 0.4322920750106754 0 -0.25382358621835049 0.43542260228310259 0 -0.2387971019518931 0.44325337730036979 0 -0.23717077667227929 0.4322920750106754 0 -0.23358788463652869 0.41983625247023992 0 -0.2459368307481366 0.42042542405070832 0 -0.23717077667227929 0.4322920750106754 0 -0.26324903299479457 0.38988604216182182 0 -0.24074374520667241 0.38242687998337299 0 -0.24448809762487089 0.40050868906775772 0 -0.24074374520667241 0.38242687998337299 0 -0.24448809762487089 0.40050868906775772 0 -0.22634736018434309 0.39356380059118778 0 -0.23115288141678619 0.40759276862782062 0 -0.24448809762487089 0.40050868906775772 0 -0.22634736018434309 0.39356380059118778 0 -0.23115288141678619 0.40759276862782062 0 -0.22634736018434309 0.39356380059118778 0 -0.21769018938602511 0.40540249138439582 0 -0.24074374520667241 0.38242687998337299 0 -0.22634736018434309 0.39356380059118778 0 -0.21798062289891881 0.38062313327343511 0 -0.24074374520667241 0.38242687998337299 0 -0.21798062289891881 0.38062313327343511 0 -0.22441740966967141 0.36662202833489849 0 -0.21798062289891881 0.38062313327343511 0 -0.2053182195646632 0.38898911660535768 0 -0.20402060209966261 0.36833430411321649 0 -0.22634736018434309 0.39356380059118778 0 -0.21798062289891881 0.38062313327343511 0 -0.2053182195646632 0.38898911660535768 0 -0.22634736018434309 0.39356380059118778 0 -0.2053182195646632 0.38898911660535768 0 -0.21769018938602511 0.40540249138439582 0 -0.20316386533702549 0.40742415296633488 0 -0.2053182195646632 0.38898911660535768 0 -0.21769018938602511 0.40540249138439582 0 -0.20316386533702549 0.40742415296633488 0 -0.2053182195646632 0.38898911660535768 0 -0.18616040966939809 0.39499019194416529 0 -0.20316386533702549 0.40742415296633488 0 -0.18616040966939809 0.39499019194416529 0 -0.18865851951403981 0.41114723081592358 0 -0.20316386533702549 0.40742415296633488 0 -0.18616040966939809 0.39499019194416529 0 -0.2053182195646632 0.38898911660535768 0 -0.1927326532436788 0.38193994064591369 0 -0.18616040966939809 0.39499019194416529 0 -0.2053182195646632 0.38898911660535768 0 -0.1927326532436788 0.38193994064591369 0 -0.20402060209966261 0.36833430411321649 0 -0.1927326532436788 0.38193994064591369 0 -0.18374665136976759 0.37937871402705908 0 -0.18616040966939809 0.39499019194416529 0 -0.1744309637910503 0.37769149803556362 0 -0.1642142843906749 0.3789418502636645 0 -0.1838985270783616 0.39091510453828221 0 -0.1642142843906749 0.3789418502636645 0 -0.18616040966939809 0.39499019194416529 0 -0.1838985270783616 0.39091510453828221 0 -0.1927326532436788 0.38193994064591369 0 -0.18374665136976759 0.37937871402705908 0 -0.18362379452965399 0.37004657989153639 0 -0.18374665136976759 0.37937871402705908 0 -0.1744309637910503 0.37769149803556362 0 -0.1838985270783616 0.39091510453828221 0 -0.1642142843906749 0.3789418502636645 0 -0.18616040966939809 0.39499019194416529 0 -0.18374665136976759 0.37937871402705908 0 -0.1744309637910503 0.37769149803556362 0 -0.18362379452965399 0.37004657989153639 0 -0.18374665136976759 0.37937871402705908 0 -0.18616040966939809 0.39499019194416529 0 -0.18374665136976759 0.37937871402705908 0 -0.1838985270783616 0.39091510453828221 0 -0.18374665136976759 0.37937871402705908 0 -0.18616040966939809 0.39499019194416529 0 -0.1838985270783616 0.39091510453828221 0 -0.1642142843906749 0.3789418502636645 0 -0.1639919076143399 0.3974747808383628 0 -0.1489802686125267 0.38257497248127392 0 -0.1642142843906749 0.3789418502636645 0 -0.1639919076143399 0.3974747808383628 0 -0.18616040966939809 0.39499019194416529 0 -0.1744309637910503 0.37769149803556362 0 -0.1642142843906749 0.3789418502636645 0 -0.15874130784498061 0.37213542046662212 0 -0.1639919076143399 0.3974747808383628 0 -0.17750104491285451 0.40432040146684922 0 -0.17119334285363949 0.41366940226894577 0 -0.18865851951403981 0.41114723081592358 0 -0.18616040966939809 0.39499019194416529 0 -0.18865851951403981 0.41114723081592358 0 -0.17750104491285451 0.40432040146684922 0 -0.18616040966939809 0.39499019194416529 0 -0.1639919076143399 0.3974747808383628 0 -0.17750104491285451 0.40432040146684922 0 -0.18616040966939809 0.39499019194416529 0 -0.18865851951403981 0.41114723081592358 0 -0.17750104491285451 0.40432040146684922 0 -0.17119334285363949 0.41366940226894577 0 -0.18865851951403981 0.41114723081592358 0 -0.17459283461559361 0.42601523789076512 0 -0.17119334285363949 0.41366940226894577 0 -0.18865851951403981 0.41114723081592358 0 -0.1868590329817707 0.43357197228301869 0 -0.17459283461559361 0.42601523789076512 0 -0.1740586998674569 0.43899754936367941 0 -0.1868590329817707 0.43357197228301869 0 -0.17459283461559361 0.42601523789076512 0 -0.1740586998674569 0.43899754936367941 0 -0.17459283461559361 0.42601523789076512 0 -0.1659354897241099 0.43449929542802312 0 -0.17459283461559361 0.42601523789076512 0 -0.1659354897241099 0.43449929542802312 0 -0.16085192275254509 0.42420597718500008 0 -0.1659354897241099 0.43449929542802312 0 -0.16085192275254509 0.42420597718500008 0 -0.15486041744653839 0.43233395996053492 0 -0.1639919076143399 0.3974747808383628 0 -0.17119334285363949 0.41366940226894577 0 -0.1558060921739825 0.41026488178479492 0 -0.17459283461559361 0.42601523789076512 0 -0.16085192275254509 0.42420597718500008 0 -0.17119334285363949 0.41366940226894577 0 -0.16085192275254509 0.42420597718500008 0 -0.17119334285363949 0.41366940226894577 0 -0.1558060921739825 0.41026488178479492 0 -0.1558060921739825 0.41026488178479492 0 -0.1418117271851779 0.41525834053060801 0 -0.14204426798620681 0.39509073288381358 0 -0.16085192275254509 0.42420597718500008 0 -0.1558060921739825 0.41026488178479492 0 -0.1418117271851779 0.41525834053060801 0 -0.1418117271851779 0.41525834053060801 0 -0.14157918638415079 0.43542594817740249 0 -0.16085192275254509 0.42420597718500008 0 -0.1418117271851779 0.41525834053060801 0 -0.15486041744653839 0.43233395996053492 0 -0.1418117271851779 0.41525834053060801 0 -0.15486041744653839 0.43233395996053492 0 -0.14157918638415079 0.43542594817740249 0 -0.14155443830058789 0.43757227964732542 0 -0.14157918638415079 0.43542594817740249 0 -0.14155443830058789 0.43757227964732542 0 -0.14157918638415079 0.43542594817740249 0 -0.12025274126089 0.42574105579372712 0 -0.14155443830058789 0.43757227964732542 0 -0.1161249595423428 0.42742254588607831 0 -0.14157918638415079 0.43542594817740249 0 -0.12025274126089 0.42574105579372712 0 -0.1418117271851779 0.41525834053060801 0 -0.14157918638415079 0.43542594817740249 0 -0.12025274126089 0.42574105579372712 0 -0.14155443830058789 0.43757227964732542 0 -0.12025274126089 0.42574105579372712 0 -0.1161249595423428 0.42742254588607831 0 -0.12509104342100061 0.44188941827772182 0 -0.14155443830058789 0.43757227964732542 0 -0.1161249595423428 0.42742254588607831 0 -0.1418117271851779 0.41525834053060801 0 -0.1277268958593005 0.40709158096490278 0 -0.12025274126089 0.42574105579372712 0 -0.1418117271851779 0.41525834053060801 0 -0.1277268958593005 0.40709158096490278 0 -0.14204426798620681 0.39509073288381358 0 -0.1277268958593005 0.40709158096490278 0 -0.14204426798620681 0.39509073288381358 0 -0.1224972888069677 0.39405447109156733 0 -0.13238272395945991 0.37847398983736519 0 -0.1224972888069677 0.39405447109156733 0 -0.13238272395945991 0.37847398983736519 0 -0.14204426798620681 0.39509073288381358 0 -0.1224972888069677 0.39405447109156733 0 -0.13238272395945991 0.37847398983736519 0 -0.1489802686125267 0.38257497248127392 0 -0.14204426798620681 0.39509073288381358 0 -0.1639919076143399 0.3974747808383628 0 -0.1558060921739825 0.41026488178479492 0 -0.14204426798620681 0.39509073288381358 0 -0.1639919076143399 0.3974747808383628 0 -0.1489802686125267 0.38257497248127392 0 -0.14204426798620681 0.39509073288381358 0 -0.1418117271851779 0.41525834053060801 0 -0.14204426798620681 0.39509073288381358 0 -0.15552397359905151 0.35856797270850038 0 -0.1422681591119519 0.36289350858316322 0 -0.15574239997404821 0.34165669361972989 0 -0.1422681591119519 0.36289350858316322 0 -0.15574239997404821 0.34165669361972989 0 -0.13774544015442541 0.3595862213862932 0 -0.1344905665345571 0.34689990383467079 0 -0.15574239997404821 0.34165669361972989 0 -0.1422681591119519 0.36289350858316322 0 -0.13774544015442541 0.3595862213862932 0 -0.15574239997404821 0.34165669361972989 0 -0.1642142843906749 0.3789418502636645 0 -0.1422681591119519 0.36289350858316322 0 -0.13238272395945991 0.37847398983736519 0 -0.1489802686125267 0.38257497248127392 0 -0.1422681591119519 0.36289350858316322 0 -0.1642142843906749 0.3789418502636645 0 -0.1422681591119519 0.36289350858316322 0 -0.15874130784498061 0.37213542046662212 0 -0.1642142843906749 0.3789418502636645 0 -0.1489802686125267 0.38257497248127392 0 -0.1422681591119519 0.36289350858316322 0 -0.15552397359905151 0.35856797270850038 0 -0.1422681591119519 0.36289350858316322 0 -0.15874130784498061 0.37213542046662212 0 -0.1422681591119519 0.36289350858316322 0 -0.13774544015442541 0.3595862213862932 0 -0.12881796099468981 0.36725667352730101 0 -0.13238272395945991 0.37847398983736519 0 -0.12881796099468981 0.36725667352730101 0 -0.114951385737499 0.37611001703161828 0 -0.1422681591119519 0.36289350858316322 0 -0.13774544015442541 0.3595862213862932 0 -0.13238272395945991 0.37847398983736519 0 -0.1422681591119519 0.36289350858316322 0 -0.13238272395945991 0.37847398983736519 0 -0.1422681591119519 0.36289350858316322 0 -0.12881796099468981 0.36725667352730101 0 -0.13774544015442541 0.3595862213862932 0 -0.12881796099468981 0.36725667352730101 0 -0.13085154266849261 0.35745626259395852 0 -0.12881796099468981 0.36725667352730101 0 -0.13085154266849261 0.35745626259395852 0 -0.1223522029902982 0.35608225162756879 0 -0.13085154266849261 0.35745626259395852 0 -0.1344905665345571 0.34689990383467079 0 -0.1223522029902982 0.35608225162756879 0 -0.1344905665345571 0.34689990383467079 0 -0.1215793900664241 0.33965542352680428 0 -0.1223522029902982 0.35608225162756879 0 -0.13774544015442541 0.3595862213862932 0 -0.13085154266849261 0.35745626259395852 0 -0.1344905665345571 0.34689990383467079 0 -0.13871584827508379 0.32805163350527011 0 -0.1213981112161233 0.32606083512094008 0 -0.1215793900664241 0.33965542352680428 0 -0.1344905665345571 0.34689990383467079 0 -0.13871584827508379 0.32805163350527011 0 -0.1215793900664241 0.33965542352680428 0 -0.13871584827508379 0.32805163350527011 0 -0.122665507124936 0.30739316482981133 0 -0.1213981112161233 0.32606083512094008 0 -0.13871584827508379 0.32805163350527011 0 -0.1433184724342442 0.30536206331891741 0 -0.122665507124936 0.30739316482981133 0 -0.13871584827508379 0.32805163350527011 0 -0.1692166408361446 0.32041987865629651 0 -0.1433184724342442 0.30536206331891741 0 -0.1344905665345571 0.34689990383467079 0 -0.13871584827508379 0.32805163350527011 0 -0.15574239997404821 0.34165669361972989 0 -0.13871584827508379 0.32805163350527011 0 -0.15574239997404821 0.34165669361972989 0 -0.1692166408361446 0.32041987865629651 0 -0.15574239997404821 0.34165669361972989 0 -0.16882657531294051 0.33343050367394028 0 -0.16727942812343491 0.34541839291957183 0 -0.16882657531294051 0.33343050367394028 0 -0.1740652221397718 0.31676208059972089 0 -0.17253785706623809 0.33742704001517521 0 -0.15574239997404821 0.34165669361972989 0 -0.1692166408361446 0.32041987865629651 0 -0.15574239997404821 0.34165669361972989 0 -0.16882657531294051 0.33343050367394028 0 -0.1692166408361446 0.32041987865629651 0 -0.17253785706623809 0.33742704001517521 0 -0.17248005025835489 0.34536210115862542 0 -0.16727942812343491 0.34541839291957183 0 -0.16882657531294051 0.33343050367394028 0 -0.17253785706623809 0.33742704001517521 0 -0.16727942812343491 0.34541839291957183 0 -0.16882657531294051 0.33343050367394028 0 -0.1692166408361446 0.32041987865629651 0 -0.1740652221397718 0.31676208059972089 0 -0.18300185264204469 0.32280423575908729 0 -0.1740652221397718 0.31676208059972089 0 -0.17819295282042311 0.34345902717413063 0 -0.18300185264204469 0.32280423575908729 0 -0.1740652221397718 0.31676208059972089 0 -0.18269088169824049 0.29918306369286279 0 -0.18300185264204469 0.32280423575908729 0 -0.17819295282042311 0.34345902717413063 0 -0.18331282358584941 0.34642540782531189 0 -0.1740652221397718 0.31676208059972089 0 -0.17819295282042311 0.34345902717413063 0 -0.1740652221397718 0.31676208059972089 0 -0.17253785706623809 0.33742704001517521 0 -0.17819295282042311 0.34345902717413063 0 -0.18300185264204469 0.32280423575908729 0 -0.18331282358584941 0.34642540782531189 0 -0.17253785706623809 0.33742704001517521 0 -0.17819295282042311 0.34345902717413063 0 -0.17248005025835489 0.34536210115862542 0 -0.17819295282042311 0.34345902717413063 0 -0.17266476351591969 0.35237730914779941 0 -0.18362379452965399 0.37004657989153639 0 -0.17819295282042311 0.34345902717413063 0 -0.18331282358584941 0.34642540782531189 0 -0.18362379452965399 0.37004657989153639 0 -0.17819295282042311 0.34345902717413063 0 -0.18362379452965399 0.37004657989153639 0 -0.18331282358584941 0.34642540782531189 0 -0.18362379452965399 0.37004657989153639 0 -0.19396205315185269 0.35773027909378607 0 -0.18331282358584941 0.34642540782531189 0 -0.18362379452965399 0.37004657989153639 0 -0.17819295282042311 0.34345902717413063 0 -0.17266476351591969 0.35237730914779941 0 -0.17248005025835489 0.34536210115862542 0 -0.17266476351591969 0.35237730914779941 0 -0.16727942812343491 0.34541839291957183 0 -0.16404697378228 0.35342911006401911 0 -0.15552397359905151 0.35856797270850038 0 -0.15574239997404821 0.34165669361972989 0 -0.16404697378228 0.35342911006401911 0 -0.17266476351591969 0.35237730914779941 0 -0.17248005025835489 0.34536210115862542 0 -0.16727942812343491 0.34541839291957183 0 -0.17266476351591969 0.35237730914779941 0 -0.1697011683865553 0.35883091161224728 0 -0.16404697378228 0.35342911006401911 0 -0.1697011683865553 0.35883091161224728 0 -0.16404697378228 0.35342911006401911 0 -0.1633701090946704 0.36372338037626623 0 -0.15552397359905151 0.35856797270850038 0 -0.16404697378228 0.35342911006401911 0 -0.1633701090946704 0.36372338037626623 0 -0.15574239997404821 0.34165669361972989 0 -0.16727942812343491 0.34541839291957183 0 -0.16404697378228 0.35342911006401911 0 -0.15874130784498061 0.37213542046662212 0 -0.18362379452965399 0.37004657989153639 0 -0.15874130784498061 0.37213542046662212 0 -0.1633701090946704 0.36372338037626623 0 -0.18362379452965399 0.37004657989153639 0 -0.15552397359905151 0.35856797270850038 0 -0.15874130784498061 0.37213542046662212 0 -0.1633701090946704 0.36372338037626623 0 -0.17266476351591969 0.35237730914779941 0 -0.1697011683865553 0.35883091161224728 0 -0.18362379452965399 0.37004657989153639 0 -0.1697011683865553 0.35883091161224728 0 -0.1633701090946704 0.36372338037626623 0 -0.18362379452965399 0.37004657989153639 0 -0.1744309637910503 0.37769149803556362 0 -0.15874130784498061 0.37213542046662212 0 -0.18362379452965399 0.37004657989153639 0 -0.18374665136976759 0.37937871402705908 0 -0.18362379452965399 0.37004657989153639 0 -0.1927326532436788 0.38193994064591369 0 -0.18362379452965399 0.37004657989153639 0 -0.20402060209966261 0.36833430411321649 0 -0.18362379452965399 0.37004657989153639 0 -0.20402060209966261 0.36833430411321649 0 -0.18362379452965399 0.37004657989153639 0 -0.19396205315185269 0.35773027909378607 0 -0.20402060209966261 0.36833430411321649 0 -0.19396205315185269 0.35773027909378607 0 -0.208999317395312 0.3446492875548014 0 -0.20402060209966261 0.36833430411321649 0 -0.18331282358584941 0.34642540782531189 0 -0.19396205315185269 0.35773027909378607 0 -0.208999317395312 0.3446492875548014 0 -0.208999317395312 0.3446492875548014 0 -0.20402060209966261 0.36833430411321649 0 -0.22441740966967141 0.36662202833489849 0 -0.20402060209966261 0.36833430411321649 0 -0.22441740966967141 0.36662202833489849 0 -0.21798062289891881 0.38062313327343511 0 -0.20402060209966261 0.36833430411321649 0 -0.22441740966967141 0.36662202833489849 0 -0.208999317395312 0.3446492875548014 0 -0.23479591562654789 0.35148704487088239 0 -0.2313273246892763 0.33558392302215828 0 -0.208999317395312 0.3446492875548014 0 -0.22441740966967141 0.36662202833489849 0 -0.23479591562654789 0.35148704487088239 0 -0.25002058798003007 0.3320526588471332 0 -0.26243222306204511 0.35090504016953772 0 -0.23479591562654789 0.35148704487088239 0 -0.26243222306204511 0.35090504016953772 0 -0.23479591562654789 0.35148704487088239 0 -0.24481421723968019 0.36490975255658048 0 -0.22441740966967141 0.36662202833489849 0 -0.24481421723968019 0.36490975255658048 0 -0.24074374520667241 0.38242687998337299 0 -0.22441740966967141 0.36662202833489849 0 -0.24481421723968019 0.36490975255658048 0 -0.22441740966967141 0.36662202833489849 0 -0.23479591562654789 0.35148704487088239 0 -0.24481421723968019 0.36490975255658048 0 -0.25717133997193298 0.37426095615225607 0 -0.24074374520667241 0.38242687998337299 0 -0.24481421723968019 0.36490975255658048 0 -0.25616918259472732 0.30236015827283808 0 -0.25002058798003007 0.3320526588471332 0 -0.23403114015321011 0.31709209002172778 0 -0.25002058798003007 0.3320526588471332 0 -0.23479591562654789 0.35148704487088239 0 -0.2313273246892763 0.33558392302215828 0 -0.25002058798003007 0.3320526588471332 0 -0.2313273246892763 0.33558392302215828 0 -0.23403114015321011 0.31709209002172778 0 -0.208999317395312 0.3446492875548014 0 -0.2313273246892763 0.33558392302215828 0 -0.21850591254547599 0.32628872173457818 0 -0.23403114015321011 0.31709209002172778 0 -0.21850591254547599 0.32628872173457818 0 -0.21603293622121081 0.30879617143541382 0 -0.2313273246892763 0.33558392302215828 0 -0.23403114015321011 0.31709209002172778 0 -0.21850591254547599 0.32628872173457818 0 -0.21850591254547599 0.32628872173457818 0 -0.20213884426837089 0.32532213663878978 0 -0.21603293622121081 0.30879617143541382 0 -0.20213884426837089 0.32532213663878978 0 -0.19725183072938909 0.30509230858372249 0 -0.21603293622121081 0.30879617143541382 0 -0.208999317395312 0.3446492875548014 0 -0.21850591254547599 0.32628872173457818 0 -0.20213884426837089 0.32532213663878978 0 -0.18331282358584941 0.34642540782531189 0 -0.208999317395312 0.3446492875548014 0 -0.20213884426837089 0.32532213663878978 0 -0.18300185264204469 0.32280423575908729 0 -0.18331282358584941 0.34642540782531189 0 -0.20213884426837089 0.32532213663878978 0 -0.18300185264204469 0.32280423575908729 0 -0.20213884426837089 0.32532213663878978 0 -0.19725183072938909 0.30509230858372249 0 -0.19725183072938909 0.30509230858372249 0 -0.1906964717749009 0.28656541518329992 0 -0.18269088169824049 0.29918306369286279 0 -0.18300185264204469 0.32280423575908729 0 -0.19725183072938909 0.30509230858372249 0 -0.18269088169824049 0.29918306369286279 0 -0.19725183072938909 0.30509230858372249 0 -0.1906964717749009 0.28656541518329992 0 -0.20894999777156681 0.28788282879288141 0 -0.1906964717749009 0.28656541518329992 0 -0.20894999777156681 0.28788282879288141 0 -0.19560748054403571 0.27391850694798181 0 -0.19725183072938909 0.30509230858372249 0 -0.20894999777156681 0.28788282879288141 0 -0.21603293622121081 0.30879617143541382 0 -0.20894999777156681 0.28788282879288141 0 -0.21603293622121081 0.30879617143541382 0 -0.23010937568771669 0.29589673977315029 0 -0.23403114015321011 0.31709209002172778 0 -0.21603293622121081 0.30879617143541382 0 -0.23010937568771669 0.29589673977315029 0 -0.20894999777156681 0.28788282879288141 0 -0.23010937568771669 0.29589673977315029 0 -0.2234747025956966 0.27824585991597089 0 -0.23010937568771669 0.29589673977315029 0 -0.24190471242523851 0.27972751922608308 0 -0.2234747025956966 0.27824585991597089 0 -0.25616918259472732 0.30236015827283808 0 -0.24190471242523851 0.27972751922608308 0 -0.25616918259472732 0.30236015827283808 0 -0.23010937568771669 0.29589673977315029 0 -0.24190471242523851 0.27972751922608308 0 -0.25616918259472732 0.30236015827283808 0 -0.23403114015321011 0.31709209002172778 0 -0.23010937568771669 0.29589673977315029 0 -0.24943129659764751 0.26000894523212309 0 -0.24190471242523851 0.27972751922608308 0 -0.22764024225575111 0.25709488017932702 0 -0.22764024225575111 0.25709488017932702 0 -0.2468893326351202 0.24329134098969171 0 -0.24943129659764751 0.26000894523212309 0 -0.22764024225575111 0.25709488017932702 0 -0.2468893326351202 0.24329134098969171 0 -0.24190471242523851 0.27972751922608308 0 -0.22764024225575111 0.25709488017932702 0 -0.24190471242523851 0.27972751922608308 0 -0.2234747025956966 0.27824585991597089 0 -0.22764024225575111 0.25709488017932702 0 -0.2234747025956966 0.27824585991597089 0 -0.22764024225575111 0.25709488017932702 0 -0.20876918483820989 0.27062733160841262 0 -0.22764024225575111 0.25709488017932702 0 -0.21239874098331929 0.25437807278244762 0 -0.20876918483820989 0.27062733160841262 0 -0.22764024225575111 0.25709488017932702 0 -0.20876918483820989 0.27062733160841262 0 -0.21239874098331929 0.25437807278244762 0 -0.20876918483820989 0.27062733160841262 0 -0.2025020270240801 0.26019521754276942 0 -0.21239874098331929 0.25437807278244762 0 -0.2025020270240801 0.26019521754276942 0 -0.2046840695697589 0.2451395929661444 0 -0.20894999777156681 0.28788282879288141 0 -0.2234747025956966 0.27824585991597089 0 -0.20876918483820989 0.27062733160841262 0 -0.20894999777156681 0.28788282879288141 0 -0.20876918483820989 0.27062733160841262 0 -0.19560748054403571 0.27391850694798181 0 -0.19560748054403571 0.27391850694798181 0 -0.18940688912330481 0.25610334311205268 0 -0.18232207730982461 0.27116889680334472 0 -0.20876918483820989 0.27062733160841262 0 -0.19560748054403571 0.27391850694798181 0 -0.2025020270240801 0.26019521754276942 0 -0.1906964717749009 0.28656541518329992 0 -0.19560748054403571 0.27391850694798181 0 -0.18232207730982461 0.27116889680334472 0 -0.19560748054403571 0.27391850694798181 0 -0.2025020270240801 0.26019521754276942 0 -0.18940688912330481 0.25610334311205268 0 -0.2025020270240801 0.26019521754276942 0 -0.18940688912330481 0.25610334311205268 0 -0.2046840695697589 0.2451395929661444 0 -0.18940688912330481 0.25610334311205268 0 -0.17508206900779469 0.25918785244088571 0 -0.18195408303730121 0.23534357450296481 0 -0.18940688912330481 0.25610334311205268 0 -0.17508206900779469 0.25918785244088571 0 -0.18232207730982461 0.27116889680334472 0 -0.16225317791305921 0.25358582624422438 0 -0.1601147340924314 0.27132493958040771 0 -0.14746997276257359 0.25293699741112718 0 -0.17508206900779469 0.25918785244088571 0 -0.16225317791305921 0.25358582624422438 0 -0.1601147340924314 0.27132493958040771 0 -0.1601147340924314 0.27132493958040771 0 -0.18232207730982461 0.27116889680334472 0 -0.1715163911286523 0.28419500503467149 0 -0.17508206900779469 0.25918785244088571 0 -0.1601147340924314 0.27132493958040771 0 -0.18232207730982461 0.27116889680334472 0 -0.1906964717749009 0.28656541518329992 0 -0.18232207730982461 0.27116889680334472 0 -0.18269088169824049 0.29918306369286279 0 -0.18232207730982461 0.27116889680334472 0 -0.18269088169824049 0.29918306369286279 0 -0.1715163911286523 0.28419500503467149 0 -0.18232207730982461 0.27116889680334472 0 -0.18269088169824049 0.29918306369286279 0 -0.1906964717749009 0.28656541518329992 0 -0.18269088169824049 0.29918306369286279 0 -0.18300185264204469 0.32280423575908729 0 -0.18269088169824049 0.29918306369286279 0 -0.1692166408361446 0.32041987865629651 0 -0.18269088169824049 0.29918306369286279 0 -0.1692166408361446 0.32041987865629651 0 -0.1740652221397718 0.31676208059972089 0 -0.18269088169824049 0.29918306369286279 0 -0.1692166408361446 0.32041987865629651 0 -0.16093787141411231 0.2951031200620709 0 -0.1433184724342442 0.30536206331891741 0 -0.1692166408361446 0.32041987865629651 0 -0.18269088169824049 0.29918306369286279 0 -0.16093787141411231 0.2951031200620709 0 -0.18269088169824049 0.29918306369286279 0 -0.1715163911286523 0.28419500503467149 0 -0.16093787141411231 0.2951031200620709 0 -0.1601147340924314 0.27132493958040771 0 -0.1715163911286523 0.28419500503467149 0 -0.16093787141411231 0.2951031200620709 0 -0.1601147340924314 0.27132493958040771 0 -0.16093787141411231 0.2951031200620709 0 -0.140940242444347 0.28770890845956881 0 -0.16093787141411231 0.2951031200620709 0 -0.140940242444347 0.28770890845956881 0 -0.16093787141411231 0.2951031200620709 0 -0.140940242444347 0.28770890845956881 0 -0.1433184724342442 0.30536206331891741 0 -0.1433184724342442 0.30536206331891741 0 -0.12743472451084159 0.29349567440048657 0 -0.122665507124936 0.30739316482981133 0 -0.140940242444347 0.28770890845956881 0 -0.1433184724342442 0.30536206331891741 0 -0.12743472451084159 0.29349567440048657 0 -0.140940242444347 0.28770890845956881 0 -0.1209426134745812 0.28031469685706822 0 -0.140940242444347 0.28770890845956881 0 -0.12743472451084159 0.29349567440048657 0 -0.1209426134745812 0.28031469685706822 0 -0.140940242444347 0.28770890845956881 0 -0.12748957136376979 0.2697364722205553 0 -0.1209426134745812 0.28031469685706822 0 -0.140940242444347 0.28770890845956881 0 -0.1385418352730507 0.26582091200169278 0 -0.12748957136376979 0.2697364722205553 0 -0.1385418352730507 0.26582091200169278 0 -0.1252623291810667 0.25912953992318971 0 -0.13357218109292621 0.2499317644564327 0 -0.1385418352730507 0.26582091200169278 0 -0.14746997276257359 0.25293699741112718 0 -0.13357218109292621 0.2499317644564327 0 -0.1385418352730507 0.26582091200169278 0 -0.12748957136376979 0.2697364722205553 0 -0.1252623291810667 0.25912953992318971 0 -0.1252623291810667 0.25912953992318971 0 -0.13357218109292621 0.2499317644564327 0 -0.1213089330464012 0.24626659804535689 0 -0.1601147340924314 0.27132493958040771 0 -0.1385418352730507 0.26582091200169278 0 -0.14746997276257359 0.25293699741112718 0 -0.1601147340924314 0.27132493958040771 0 -0.140940242444347 0.28770890845956881 0 -0.1385418352730507 0.26582091200169278 0 -0.095230237001734636 0.27080743213428882 0 -0.101831548476812 0.26048951589785008 0 -0.1165241005361865 0.26558405137515151 0 -0.095230237001734636 0.27080743213428882 0 -0.1209426134745812 0.28031469685706822 0 -0.095230237001734636 0.27080743213428882 0 -0.101831548476812 0.26048951589785008 0 -0.101831548476812 0.26048951589785008 0 -0.112097455783086 0.24444379951602521 0 -0.096974545082976191 0.25880538532589209 0 -0.101831548476812 0.26048951589785008 0 -0.112097455783086 0.24444379951602521 0 -0.095230237001734636 0.27080743213428882 0 -0.096974545082976191 0.25880538532589209 0 -0.101831548476812 0.26048951589785008 0 -0.096974545082976191 0.25880538532589209 0 -0.101831548476812 0.26048951589785008 0 -0.101831548476812 0.26048951589785008 0 -0.1165241005361865 0.26558405137515151 0 -0.101831548476812 0.26048951589785008 0 -0.11521273165378559 0.25497892835963998 0 -0.112097455783086 0.24444379951602521 0 -0.101831548476812 0.26048951589785008 0 -0.1165241005361865 0.26558405137515151 0 -0.11521273165378559 0.25497892835963998 0 -0.1252623291810667 0.25912953992318971 0 -0.11521273165378559 0.25497892835963998 0 -0.1213089330464012 0.24626659804535689 0 -0.12748957136376979 0.2697364722205553 0 -0.1252623291810667 0.25912953992318971 0 -0.1165241005361865 0.26558405137515151 0 -0.1252623291810667 0.25912953992318971 0 -0.1165241005361865 0.26558405137515151 0 -0.11521273165378559 0.25497892835963998 0 -0.12748957136376979 0.2697364722205553 0 -0.1165241005361865 0.26558405137515151 0 -0.11826192468166601 0.27279143104315778 0 -0.095230237001734636 0.27080743213428882 0 -0.1165241005361865 0.26558405137515151 0 -0.11826192468166601 0.27279143104315778 0 -0.095230237001734636 0.27080743213428882 0 -0.11826192468166601 0.27279143104315778 0 -0.1209426134745812 0.28031469685706822 0 -0.12748957136376979 0.2697364722205553 0 -0.11826192468166601 0.27279143104315778 0 -0.1209426134745812 0.28031469685706822 0 -0.1209426134745812 0.28031469685706822 0 -0.099156256926613839 0.29556062278638268 0 -0.12743472451084159 0.29349567440048657 0 -0.1209426134745812 0.28031469685706822 0 -0.099156256926613839 0.29556062278638268 0 -0.12743472451084159 0.29349567440048657 0 -0.122665507124936 0.30739316482981133 0 -0.099156256926613839 0.29556062278638268 0 -0.1041414057358224 0.31201579539373148 0 -0.099156256926613839 0.29556062278638268 0 -0.091673901452025128 0.31746800270450398 0 -0.122665507124936 0.30739316482981133 0 -0.1041414057358224 0.31201579539373148 0 -0.099156256926613839 0.29556062278638268 0 -0.095230237001734636 0.27080743213428882 0 -0.1209426134745812 0.28031469685706822 0 -0.099156256926613839 0.29556062278638268 0 -0.081993310338176556 0.29149688165626692 0 -0.071574905525993715 0.28647654560898889 0 -0.088307373389434785 0.26824767274871397 0 -0.095230237001734636 0.27080743213428882 0 -0.099156256926613839 0.29556062278638268 0 -0.081993310338176556 0.29149688165626692 0 -0.099156256926613839 0.29556062278638268 0 -0.0773699003786468 0.31080654871569757 0 -0.091673901452025128 0.31746800270450398 0 -0.099156256926613839 0.29556062278638268 0 -0.0773699003786468 0.31080654871569757 0 -0.081993310338176556 0.29149688165626692 0 -0.0773699003786468 0.31080654871569757 0 -0.099156256926613839 0.29556062278638268 0 -0.081993310338176556 0.29149688165626692 0 -0.0773699003786468 0.31080654871569757 0 -0.081993310338176556 0.29149688165626692 0 -0.0773699003786468 0.31080654871569757 0 -0.07000108740115632 0.31024084673351238 0 -0.081993310338176556 0.29149688165626692 0 -0.07000108740115632 0.31024084673351238 0 -0.07082691849754412 0.29686868922251758 0 -0.081993310338176556 0.29149688165626692 0 -0.07000108740115632 0.31024084673351238 0 -0.06406362287003417 0.30105685935529619 0 -0.07000108740115632 0.31024084673351238 0 -0.07082691849754412 0.29686868922251758 0 -0.06406362287003417 0.30105685935529619 0 -0.07000108740115632 0.31024084673351238 0 -0.05903493703298672 0.30842013861035528 0 -0.081993310338176556 0.29149688165626692 0 -0.071574905525993715 0.28647654560898889 0 -0.07082691849754412 0.29686868922251758 0 -0.071574905525993715 0.28647654560898889 0 -0.07082691849754412 0.29686868922251758 0 -0.064150197611200194 0.29028153745804169 0 -0.06406362287003417 0.30105685935529619 0 -0.07082691849754412 0.29686868922251758 0 -0.064150197611200194 0.29028153745804169 0 -0.071574905525993715 0.28647654560898889 0 -0.064150197611200194 0.29028153745804169 0 -0.066272470786091969 0.27951596978905408 0 -0.066272470786091969 0.27951596978905408 0 -0.064867048676514966 0.26815492676469338 0 -0.075116873927680253 0.27479103085629453 0 -0.066272470786091969 0.27951596978905408 0 -0.064867048676514966 0.26815492676469338 0 -0.056753075498150757 0.28085207326825551 0 -0.064867048676514966 0.26815492676469338 0 -0.075116873927680253 0.27479103085629453 0 -0.074399806026204385 0.26466482186588819 0 -0.075116873927680253 0.27479103085629453 0 -0.079975847673146208 0.26885948770409202 0 -0.074399806026204385 0.26466482186588819 0 -0.071574905525993715 0.28647654560898889 0 -0.066272470786091969 0.27951596978905408 0 -0.075116873927680253 0.27479103085629453 0 -0.095230237001734636 0.27080743213428882 0 -0.081993310338176556 0.29149688165626692 0 -0.095230237001734636 0.27080743213428882 0 -0.081993310338176556 0.29149688165626692 0 -0.088307373389434785 0.26824767274871397 0 -0.071574905525993715 0.28647654560898889 0 -0.088307373389434785 0.26824767274871397 0 -0.071574905525993715 0.28647654560898889 0 -0.075116873927680253 0.27479103085629453 0 -0.088307373389434785 0.26824767274871397 0 -0.079975847673146208 0.26885948770409202 0 -0.084329260359261832 0.26677674789216088 0 -0.074399806026204385 0.26466482186588819 0 -0.075116873927680253 0.27479103085629453 0 -0.079975847673146208 0.26885948770409202 0 -0.088307373389434785 0.26824767274871397 0 -0.079975847673146208 0.26885948770409202 0 -0.084329260359261832 0.26677674789216088 0 -0.088307373389434785 0.26824767274871397 0 -0.095230237001734636 0.27080743213428882 0 -0.096974545082976191 0.25880538532589209 0 -0.088307373389434785 0.26824767274871397 0 -0.084329260359261832 0.26677674789216088 0 -0.088307373389434785 0.26824767274871397 0 -0.095230237001734636 0.27080743213428882 0 -0.088307373389434785 0.26824767274871397 0 -0.096974545082976191 0.25880538532589209 0 -0.073553522625709841 0.25068431627396631 0 -0.088715331182393942 0.2449718195011524 0 -0.096974545082976191 0.25880538532589209 0 -0.084329260359261832 0.26677674789216088 0 -0.073553522625709841 0.25068431627396631 0 -0.096974545082976191 0.25880538532589209 0 -0.073553522625709841 0.25068431627396631 0 -0.096974545082976191 0.25880538532589209 0 -0.088307373389434785 0.26824767274871397 0 -0.096974545082976191 0.25880538532589209 0 -0.084329260359261832 0.26677674789216088 0 -0.088307373389434785 0.26824767274871397 0 -0.084329260359261832 0.26677674789216088 0 -0.073553522625709841 0.25068431627396631 0 -0.074399806026204385 0.26466482186588819 0 -0.064867048676514966 0.26815492676469338 0 -0.073553522625709841 0.25068431627396631 0 -0.050450936449665702 0.26047062327699849 0 -0.064867048676514966 0.26815492676469338 0 -0.073553522625709841 0.25068431627396631 0 -0.074399806026204385 0.26466482186588819 0 -0.073553522625709841 0.25068431627396631 0 -0.050450936449665702 0.26047062327699849 0 -0.050132500168443887 0.2425632472220397 0 -0.064867048676514966 0.26815492676469338 0 -0.050450936449665702 0.26047062327699849 0 -0.056753075498150757 0.28085207326825551 0 -0.050450936449665702 0.26047062327699849 0 -0.056753075498150757 0.28085207326825551 0 -0.041567118232982071 0.28155035039042642 0 -0.050450936449665702 0.26047062327699849 0 -0.032664289439585513 0.26886008103247921 0 -0.041567118232982071 0.28155035039042642 0 -0.032664289439585513 0.26886008103247921 0 -0.025724023578003428 0.28484302527062832 0 -0.041567118232982071 0.28155035039042642 0 -0.050450936449665702 0.26047062327699849 0 -0.032664289439585513 0.26886008103247921 0 -0.029881977245259539 0.25372898958001938 0 -0.050450936449665702 0.26047062327699849 0 -0.029881977245259539 0.25372898958001938 0 -0.050132500168443887 0.2425632472220397 0 -0.029881977245259539 0.25372898958001938 0 -0.019473314891880141 0.26767922737850353 0 -0.0082457657602449386 0.25246627485226031 0 -0.032664289439585513 0.26886008103247921 0 -0.029881977245259539 0.25372898958001938 0 -0.019473314891880141 0.26767922737850353 0 -0.019473314891880141 0.26767922737850353 0 -0.0042610585373493576 0.2771562680236046 0 -0.025724023578003428 0.28484302527062832 0 -0.032664289439585513 0.26886008103247921 0 -0.019473314891880141 0.26767922737850353 0 -0.025724023578003428 0.28484302527062832 0 -0.019473314891880141 0.26767922737850353 0 -0.0042610585373493576 0.2771562680236046 0 -0.0082457657602449386 0.25246627485226031 0 -0.0042610585373493576 0.2771562680236046 0 -0.0082457657602449386 0.25246627485226031 0 0.0071094060709509964 0.26564087220093879 0 -0.0069555348311276686 0.31079851600377723 0 -0.00058836015198596755 0.32088344941533808 0 0.0054341821912287152 0.30403492879740468 0 -0.013098506886936411 0.29875518722530359 0 -0.0069555348311276686 0.31079851600377723 0 0.0054341821912287152 0.30403492879740468 0 -0.013098506886936411 0.29875518722530359 0 -0.0069555348311276686 0.31079851600377723 0 -0.020687787070248039 0.31403805852116051 0 -0.0042610585373493576 0.2771562680236046 0 -0.013098506886936411 0.29875518722530359 0 -0.025724023578003428 0.28484302527062832 0 -0.0042610585373493576 0.2771562680236046 0 -0.013098506886936411 0.29875518722530359 0 0.0054341821912287152 0.30403492879740468 0 -0.013098506886936411 0.29875518722530359 0 -0.025724023578003428 0.28484302527062832 0 -0.02904570801181227 0.30414560716861699 0 -0.013098506886936411 0.29875518722530359 0 -0.02904570801181227 0.30414560716861699 0 -0.020687787070248039 0.31403805852116051 0 -0.02904570801181227 0.30414560716861699 0 -0.034308890996313193 0.31619803717231232 0 -0.020687787070248039 0.31403805852116051 0 -0.02904570801181227 0.30414560716861699 0 -0.04581664775108537 0.30961879620062571 0 -0.039958169045478269 0.29575445567546388 0 -0.02904570801181227 0.30414560716861699 0 -0.04581664775108537 0.30961879620062571 0 -0.034308890996313193 0.31619803717231232 0 -0.025724023578003428 0.28484302527062832 0 -0.02904570801181227 0.30414560716861699 0 -0.039958169045478269 0.29575445567546388 0 -0.025724023578003428 0.28484302527062832 0 -0.039958169045478269 0.29575445567546388 0 -0.041567118232982071 0.28155035039042642 0 -0.039958169045478269 0.29575445567546388 0 -0.041567118232982071 0.28155035039042642 0 -0.055410192489386563 0.29691908750413831 0 -0.056753075498150757 0.28085207326825551 0 -0.041567118232982071 0.28155035039042642 0 -0.055410192489386563 0.29691908750413831 0 -0.064150197611200194 0.29028153745804169 0 -0.056753075498150757 0.28085207326825551 0 -0.055410192489386563 0.29691908750413831 0 -0.06406362287003417 0.30105685935529619 0 -0.064150197611200194 0.29028153745804169 0 -0.055410192489386563 0.29691908750413831 0 -0.064150197611200194 0.29028153745804169 0 -0.066272470786091969 0.27951596978905408 0 -0.056753075498150757 0.28085207326825551 0 -0.04581664775108537 0.30961879620062571 0 -0.055410192489386563 0.29691908750413831 0 -0.05903493703298672 0.30842013861035528 0 -0.04581664775108537 0.30961879620062571 0 -0.039958169045478269 0.29575445567546388 0 -0.055410192489386563 0.29691908750413831 0 -0.06406362287003417 0.30105685935529619 0 -0.055410192489386563 0.29691908750413831 0 -0.05903493703298672 0.30842013861035528 0 -0.04581664775108537 0.30961879620062571 0 -0.05999398685661865 0.32296608029812152 0 -0.042756171354298787 0.3224483405388896 0 -0.05999398685661865 0.32296608029812152 0 -0.04261807333459134 0.33512561188054663 0 -0.042756171354298787 0.3224483405388896 0 -0.04581664775108537 0.30961879620062571 0 -0.05903493703298672 0.30842013861035528 0 -0.05999398685661865 0.32296608029812152 0 -0.05999398685661865 0.32296608029812152 0 -0.056804034856699187 0.33429177223338907 0 -0.04261807333459134 0.33512561188054663 0 -0.056804034856699187 0.33429177223338907 0 -0.046192251460743447 0.34598703554363702 0 -0.071259793987160716 0.33632540193228971 0 -0.046192251460743447 0.34598703554363702 0 -0.071259793987160716 0.33632540193228971 0 -0.05999398685661865 0.32296608029812152 0 -0.04261807333459134 0.33512561188054663 0 -0.05999398685661865 0.32296608029812152 0 -0.056804034856699187 0.33429177223338907 0 -0.064831017760781137 0.32924814232959693 0 -0.056804034856699187 0.33429177223338907 0 -0.04261807333459134 0.33512561188054663 0 -0.046192251460743447 0.34598703554363702 0 -0.04261807333459134 0.33512561188054663 0 -0.034276320251641283 0.34282206612864702 0 -0.046192251460743447 0.34598703554363702 0 -0.04261807333459134 0.33512561188054663 0 -0.034276320251641283 0.34282206612864702 0 -0.031043257832885369 0.32833317714284199 0 -0.04261807333459134 0.33512561188054663 0 -0.042756171354298787 0.3224483405388896 0 -0.031043257832885369 0.32833317714284199 0 -0.04581664775108537 0.30961879620062571 0 -0.042756171354298787 0.3224483405388896 0 -0.034308890996313193 0.31619803717231232 0 -0.042756171354298787 0.3224483405388896 0 -0.034308890996313193 0.31619803717231232 0 -0.031043257832885369 0.32833317714284199 0 -0.020687787070248039 0.31403805852116051 0 -0.031043257832885369 0.32833317714284199 0 -0.01426308592107553 0.32709781564023149 0 -0.034308890996313193 0.31619803717231232 0 -0.020687787070248039 0.31403805852116051 0 -0.031043257832885369 0.32833317714284199 0 -0.025032962324117471 0.33875149869244531 0 -0.01426308592107553 0.32709781564023149 0 -0.014716180493599089 0.34442071988127893 0 -0.031043257832885369 0.32833317714284199 0 -0.025032962324117471 0.33875149869244531 0 -0.01426308592107553 0.32709781564023149 0 -0.034276320251641283 0.34282206612864702 0 -0.025032962324117471 0.33875149869244531 0 -0.023787543000920942 0.34541073846433867 0 -0.034276320251641283 0.34282206612864702 0 -0.031043257832885369 0.32833317714284199 0 -0.025032962324117471 0.33875149869244531 0 -0.025032962324117471 0.33875149869244531 0 -0.014716180493599089 0.34442071988127893 0 -0.023787543000920942 0.34541073846433867 0 -0.0025616559074486049 0.3329031852911295 0 -0.01426308592107553 0.32709781564023149 0 -0.014716180493599089 0.34442071988127893 0 -0.0025616559074486049 0.3329031852911295 0 -0.002583240235104544 0.34489224502179239 0 -0.014716180493599089 0.34442071988127893 0 -0.0069555348311276686 0.31079851600377723 0 -0.020687787070248039 0.31403805852116051 0 -0.01426308592107553 0.32709781564023149 0 -0.0025616559074486049 0.3329031852911295 0 -0.00058836015198596755 0.32088344941533808 0 -0.01426308592107553 0.32709781564023149 0 -0.0069555348311276686 0.31079851600377723 0 -0.00058836015198596755 0.32088344941533808 0 -0.01426308592107553 0.32709781564023149 0 -0.012102714267097759 0.36590539057294968 0 -0.001064505034491721 0.37161458349227261 0 0.0039428335920915006 0.36531030276633031 0 -0.021124708934325921 0.35564866915498361 0 0.0039428335920915006 0.36531030276633031 0 -0.001064505034491721 0.37161458349227261 0 -0.017677659244944521 0.37122807787390621 0 -0.017803283764421592 0.37921609746689411 0 -0.012102714267097759 0.36590539057294968 0 -0.001064505034491721 0.37161458349227261 0 -0.017677659244944521 0.37122807787390621 0 -0.012102714267097759 0.36590539057294968 0 -0.021124708934325921 0.35564866915498361 0 0.0039428335920915006 0.36531030276633031 0 -0.0064988099748367559 0.35299106404641623 0 -0.021124708934325921 0.35564866915498361 0 0.0039428335920915006 0.36531030276633031 0 -0.0064988099748367559 0.35299106404641623 0 -0.002583240235104544 0.34489224502179239 0 0.0032447233134405931 0.35422125060834359 0 -0.0064988099748367559 0.35299106404641623 0 -0.002583240235104544 0.34489224502179239 0 -0.014716180493599089 0.34442071988127893 0 -0.0064988099748367559 0.35299106404641623 0 -0.014716180493599089 0.34442071988127893 0 -0.021124708934325921 0.35564866915498361 0 -0.021124708934325921 0.35564866915498361 0 -0.03312405361854439 0.36059385714354403 0 -0.039104805720823227 0.35618275869992938 0 -0.014716180493599089 0.34442071988127893 0 -0.021124708934325921 0.35564866915498361 0 -0.023787543000920942 0.34541073846433867 0 -0.034276320251641283 0.34282206612864702 0 -0.021124708934325921 0.35564866915498361 0 -0.023787543000920942 0.34541073846433867 0 -0.021124708934325921 0.35564866915498361 0 -0.0246585823330631 0.36616539344166837 0 -0.03312405361854439 0.36059385714354403 0 -0.0246585823330631 0.36616539344166837 0 -0.033447590357386023 0.36570071259042941 0 -0.03312405361854439 0.36059385714354403 0 -0.012102714267097759 0.36590539057294968 0 -0.021124708934325921 0.35564866915498361 0 -0.0246585823330631 0.36616539344166837 0 -0.017677659244944521 0.37122807787390621 0 -0.032897312064139907 0.37411907212457252 0 -0.017803283764421592 0.37921609746689411 0 -0.012102714267097759 0.36590539057294968 0 -0.0246585823330631 0.36616539344166837 0 -0.017677659244944521 0.37122807787390621 0 -0.0246585823330631 0.36616539344166837 0 -0.017677659244944521 0.37122807787390621 0 -0.032897312064139907 0.37411907212457252 0 -0.0246585823330631 0.36616539344166837 0 -0.032897312064139907 0.37411907212457252 0 -0.0246585823330631 0.36616539344166837 0 -0.032897312064139907 0.37411907212457252 0 -0.033447590357386023 0.36570071259042941 0 -0.032897312064139907 0.37411907212457252 0 -0.059723517795068168 0.36506026769318489 0 -0.032897312064139907 0.37411907212457252 0 -0.033447590357386023 0.36570071259042941 0 -0.04311041341379776 0.36192452765193173 0 -0.032897312064139907 0.37411907212457252 0 -0.046925961112427347 0.36446589286881009 0 -0.059723517795068168 0.36506026769318489 0 -0.032897312064139907 0.37411907212457252 0 -0.049098878804771373 0.3725140996878949 0 -0.043775979817191349 0.37615739516056462 0 -0.03312405361854439 0.36059385714354403 0 -0.04311041341379776 0.36192452765193173 0 -0.039104805720823227 0.35618275869992938 0 -0.033447590357386023 0.36570071259042941 0 -0.03312405361854439 0.36059385714354403 0 -0.04311041341379776 0.36192452765193173 0 -0.032897312064139907 0.37411907212457252 0 -0.04311041341379776 0.36192452765193173 0 -0.046925961112427347 0.36446589286881009 0 -0.034276320251641283 0.34282206612864702 0 -0.021124708934325921 0.35564866915498361 0 -0.046192251460743447 0.34598703554363702 0 -0.021124708934325921 0.35564866915498361 0 -0.039104805720823227 0.35618275869992938 0 -0.046192251460743447 0.34598703554363702 0 -0.021124708934325921 0.35564866915498361 0 -0.046192251460743447 0.34598703554363702 0 -0.039104805720823227 0.35618275869992938 0 -0.046192251460743447 0.34598703554363702 0 -0.051972601176704672 0.35675970400555063 0 -0.04311041341379776 0.36192452765193173 0 -0.039104805720823227 0.35618275869992938 0 -0.051972601176704672 0.35675970400555063 0 -0.046192251460743447 0.34598703554363702 0 -0.066911938965716039 0.35448421406914471 0 -0.071259793987160716 0.33632540193228971 0 -0.046192251460743447 0.34598703554363702 0 -0.051972601176704672 0.35675970400555063 0 -0.066911938965716039 0.35448421406914471 0 -0.051972601176704672 0.35675970400555063 0 -0.059723517795068168 0.36506026769318489 0 -0.066911938965716039 0.35448421406914471 0 -0.032897312064139907 0.37411907212457252 0 -0.049098878804771373 0.3725140996878949 0 -0.059723517795068168 0.36506026769318489 0 -0.049098878804771373 0.3725140996878949 0 -0.056089193364373929 0.37273715424054699 0 -0.050724207312953518 0.37700173675436199 0 -0.051972601176704672 0.35675970400555063 0 -0.046925961112427347 0.36446589286881009 0 -0.059723517795068168 0.36506026769318489 0 -0.04311041341379776 0.36192452765193173 0 -0.051972601176704672 0.35675970400555063 0 -0.046925961112427347 0.36446589286881009 0 -0.049098878804771373 0.3725140996878949 0 -0.059723517795068168 0.36506026769318489 0 -0.056089193364373929 0.37273715424054699 0 -0.059723517795068168 0.36506026769318489 0 -0.056089193364373929 0.37273715424054699 0 -0.062564083944274151 0.37264302620600032 0 -0.062075486208271788 0.37468365416042188 0 -0.062564083944274151 0.37264302620600032 0 -0.062075486208271788 0.37468365416042188 0 -0.062564083944274151 0.37264302620600032 0 -0.064607287490063475 0.3752877934920828 0 -0.069626031180744216 0.37451783031500979 0 -0.079039419043354958 0.3748493973737258 0 -0.082597891671162132 0.35089307241393791 0 -0.062564083944274151 0.37264302620600032 0 -0.066911938965716039 0.35448421406914471 0 -0.062564083944274151 0.37264302620600032 0 -0.069626031180744216 0.37451783031500979 0 -0.064607287490063475 0.3752877934920828 0 -0.062564083944274151 0.37264302620600032 0 -0.069626031180744216 0.37451783031500979 0 -0.082597891671162132 0.35089307241393791 0 -0.062564083944274151 0.37264302620600032 0 -0.082597891671162132 0.35089307241393791 0 -0.059723517795068168 0.36506026769318489 0 -0.062564083944274151 0.37264302620600032 0 -0.066911938965716039 0.35448421406914471 0 -0.090941745129797052 0.36956363188929697 0 -0.082597891671162132 0.35089307241393791 0 -0.097939085056313616 0.35825468271447503 0 -0.079039419043354958 0.3748493973737258 0 -0.090941745129797052 0.36956363188929697 0 -0.082597891671162132 0.35089307241393791 0 -0.082597891671162132 0.35089307241393791 0 -0.097939085056313616 0.35825468271447503 0 -0.099795521962392192 0.34663223796478099 0 -0.066911938965716039 0.35448421406914471 0 -0.071259793987160716 0.33632540193228971 0 -0.082597891671162132 0.35089307241393791 0 -0.066911938965716039 0.35448421406914471 0 -0.079003984513522238 0.34200566120660753 0 -0.066911938965716039 0.35448421406914471 0 -0.071259793987160716 0.33632540193228971 0 -0.079003984513522238 0.34200566120660753 0 -0.062564083944274151 0.37264302620600032 0 -0.082597891671162132 0.35089307241393791 0 -0.066911938965716039 0.35448421406914471 0 -0.056804034856699187 0.33429177223338907 0 -0.064831017760781137 0.32924814232959693 0 -0.071259793987160716 0.33632540193228971 0 -0.071259793987160716 0.33632540193228971 0 -0.079659291821908368 0.33308803351003258 0 -0.071259793987160716 0.33632540193228971 0 -0.079003984513522238 0.34200566120660753 0 -0.079659291821908368 0.33308803351003258 0 -0.0773699003786468 0.31080654871569757 0 -0.07000108740115632 0.31024084673351238 0 -0.05999398685661865 0.32296608029812152 0 -0.0773699003786468 0.31080654871569757 0 -0.071259793987160716 0.33632540193228971 0 -0.0773699003786468 0.31080654871569757 0 -0.071259793987160716 0.33632540193228971 0 -0.079659291821908368 0.33308803351003258 0 -0.0773699003786468 0.31080654871569757 0 -0.05999398685661865 0.32296608029812152 0 -0.0773699003786468 0.31080654871569757 0 -0.064831017760781137 0.32924814232959693 0 -0.071259793987160716 0.33632540193228971 0 -0.0773699003786468 0.31080654871569757 0 -0.05999398685661865 0.32296608029812152 0 -0.064831017760781137 0.32924814232959693 0 -0.07000108740115632 0.31024084673351238 0 -0.05903493703298672 0.30842013861035528 0 -0.05999398685661865 0.32296608029812152 0 -0.091673901452025128 0.31746800270450398 0 -0.079659291821908368 0.33308803351003258 0 -0.1026316993980491 0.32914311862187462 0 -0.0773699003786468 0.31080654871569757 0 -0.091673901452025128 0.31746800270450398 0 -0.079659291821908368 0.33308803351003258 0 -0.082597891671162132 0.35089307241393791 0 -0.1026316993980491 0.32914311862187462 0 -0.082597891671162132 0.35089307241393791 0 -0.079003984513522238 0.34200566120660753 0 -0.1026316993980491 0.32914311862187462 0 -0.079003984513522238 0.34200566120660753 0 -0.079659291821908368 0.33308803351003258 0 -0.1026316993980491 0.32914311862187462 0 -0.082597891671162132 0.35089307241393791 0 -0.1026316993980491 0.32914311862187462 0 -0.099795521962392192 0.34663223796478099 0 -0.1026316993980491 0.32914311862187462 0 -0.11309959964963499 0.35023802862820708 0 -0.099795521962392192 0.34663223796478099 0 -0.1041414057358224 0.31201579539373148 0 -0.091673901452025128 0.31746800270450398 0 -0.1026316993980491 0.32914311862187462 0 -0.122665507124936 0.30739316482981133 0 -0.1041414057358224 0.31201579539373148 0 -0.1026316993980491 0.32914311862187462 0 -0.122665507124936 0.30739316482981133 0 -0.1026316993980491 0.32914311862187462 0 -0.1213981112161233 0.32606083512094008 0 -0.122665507124936 0.30739316482981133 0 -0.1026316993980491 0.32914311862187462 0 -0.1026316993980491 0.32914311862187462 0 -0.1215793900664241 0.33965542352680428 0 -0.11309959964963499 0.35023802862820708 0 -0.1026316993980491 0.32914311862187462 0 -0.1213981112161233 0.32606083512094008 0 -0.1215793900664241 0.33965542352680428 0 -0.1215793900664241 0.33965542352680428 0 -0.11309959964963499 0.35023802862820708 0 -0.1223522029902982 0.35608225162756879 0 -0.11309959964963499 0.35023802862820708 0 -0.1223522029902982 0.35608225162756879 0 -0.1091573093543224 0.361674516205302 0 -0.12881796099468981 0.36725667352730101 0 -0.1223522029902982 0.35608225162756879 0 -0.11881971476920231 0.36528086459794751 0 -0.12881796099468981 0.36725667352730101 0 -0.11881971476920231 0.36528086459794751 0 -0.114951385737499 0.37611001703161828 0 -0.11881971476920231 0.36528086459794751 0 -0.1091573093543224 0.361674516205302 0 -0.114951385737499 0.37611001703161828 0 -0.1223522029902982 0.35608225162756879 0 -0.11881971476920231 0.36528086459794751 0 -0.1091573093543224 0.361674516205302 0 -0.1091573093543224 0.361674516205302 0 -0.1012990589455684 0.36953412384373102 0 -0.097939085056313616 0.35825468271447503 0 -0.1091573093543224 0.361674516205302 0 -0.1012990589455684 0.36953412384373102 0 -0.114951385737499 0.37611001703161828 0 -0.090941745129797052 0.36956363188929697 0 -0.1012990589455684 0.36953412384373102 0 -0.098890550417286477 0.38099249480062602 0 -0.090941745129797052 0.36956363188929697 0 -0.1012990589455684 0.36953412384373102 0 -0.097939085056313616 0.35825468271447503 0 -0.11309959964963499 0.35023802862820708 0 -0.097939085056313616 0.35825468271447503 0 -0.099795521962392192 0.34663223796478099 0 -0.11309959964963499 0.35023802862820708 0 -0.1091573093543224 0.361674516205302 0 -0.097939085056313616 0.35825468271447503 0 -0.094424665366596924 0.39634464281418252 0 -0.11202845405726 0.40531330452479791 0 -0.098926296137628822 0.41605616341005208 0 -0.1085605322944487 0.39079571404043828 0 -0.094424665366596924 0.39634464281418252 0 -0.11202845405726 0.40531330452479791 0 -0.1085605322944487 0.39079571404043828 0 -0.098890550417286477 0.38099249480062602 0 -0.114951385737499 0.37611001703161828 0 -0.1085605322944487 0.39079571404043828 0 -0.094424665366596924 0.39634464281418252 0 -0.098890550417286477 0.38099249480062602 0 -0.1012990589455684 0.36953412384373102 0 -0.098890550417286477 0.38099249480062602 0 -0.114951385737499 0.37611001703161828 0 -0.1085605322944487 0.39079571404043828 0 -0.114951385737499 0.37611001703161828 0 -0.1224972888069677 0.39405447109156733 0 -0.13238272395945991 0.37847398983736519 0 -0.114951385737499 0.37611001703161828 0 -0.1224972888069677 0.39405447109156733 0 -0.1277268958593005 0.40709158096490278 0 -0.1224972888069677 0.39405447109156733 0 -0.11202845405726 0.40531330452479791 0 -0.1085605322944487 0.39079571404043828 0 -0.1224972888069677 0.39405447109156733 0 -0.11202845405726 0.40531330452479791 0 -0.11202845405726 0.40531330452479791 0 -0.12025274126089 0.42574105579372712 0 -0.098926296137628822 0.41605616341005208 0 -0.12025274126089 0.42574105579372712 0 -0.098926296137628822 0.41605616341005208 0 -0.1277268958593005 0.40709158096490278 0 -0.11202845405726 0.40531330452479791 0 -0.12025274126089 0.42574105579372712 0 -0.12025274126089 0.42574105579372712 0 -0.1161249595423428 0.42742254588607831 0 -0.098926296137628822 0.41605616341005208 0 -0.12509104342100061 0.44188941827772182 0 -0.1161249595423428 0.42742254588607831 0 -0.098677616465060528 0.43762344985591101 0 -0.1161249595423428 0.42742254588607831 0 -0.090695480784097504 0.41727281212483158 0 -0.1161249595423428 0.42742254588607831 0 -0.090695480784097504 0.41727281212483158 0 -0.098677616465060528 0.43762344985591101 0 -0.1161249595423428 0.42742254588607831 0 -0.098926296137628822 0.41605616341005208 0 -0.090695480784097504 0.41727281212483158 0 -0.098926296137628822 0.41605616341005208 0 -0.077599851014367602 0.40637127102637732 0 -0.094424665366596924 0.39634464281418252 0 -0.098926296137628822 0.41605616341005208 0 -0.077599851014367602 0.40637127102637732 0 -0.098926296137628822 0.41605616341005208 0 -0.090695480784097504 0.41727281212483158 0 -0.077599851014367602 0.40637127102637732 0 -0.090695480784097504 0.41727281212483158 0 -0.077599851014367602 0.40637127102637732 0 -0.077475511178084946 0.4171549142493044 0 -0.077475511178084946 0.4171549142493044 0 -0.098677616465060528 0.43762344985591101 0 -0.090695480784097504 0.41727281212483158 0 -0.077475511178084946 0.4171549142493044 0 -0.098677616465060528 0.43762344985591101 0 -0.077475511178084946 0.4171549142493044 0 -0.078698858269308614 0.44343419105434712 0 -0.098677616465060528 0.43762344985591101 0 -0.077475511178084946 0.4171549142493044 0 -0.059178928229814701 0.4365201208845606 0 -0.055106871557328428 0.42305161159228227 0 -0.077475511178084946 0.4171549142493044 0 -0.059178928229814701 0.4365201208845606 0 -0.078698858269308614 0.44343419105434712 0 -0.077475511178084946 0.4171549142493044 0 -0.056273405891107527 0.39668637864269979 0 -0.077599851014367602 0.40637127102637732 0 -0.077475511178084946 0.4171549142493044 0 -0.056273405891107527 0.39668637864269979 0 -0.077599851014367602 0.40637127102637732 0 -0.056273405891107527 0.39668637864269979 0 -0.077599851014367602 0.40637127102637732 0 -0.078331801269405671 0.3911923311589619 0 -0.056273405891107527 0.39668637864269979 0 -0.094424665366596924 0.39634464281418252 0 -0.077599851014367602 0.40637127102637732 0 -0.078331801269405671 0.3911923311589619 0 -0.094424665366596924 0.39634464281418252 0 -0.078331801269405671 0.3911923311589619 0 -0.087166581823546807 0.38268142547449258 0 -0.079039419043354958 0.3748493973737258 0 -0.078331801269405671 0.3911923311589619 0 -0.087166581823546807 0.38268142547449258 0 -0.090941745129797052 0.36956363188929697 0 -0.098890550417286477 0.38099249480062602 0 -0.087166581823546807 0.38268142547449258 0 -0.094424665366596924 0.39634464281418252 0 -0.098890550417286477 0.38099249480062602 0 -0.087166581823546807 0.38268142547449258 0 -0.079039419043354958 0.3748493973737258 0 -0.090941745129797052 0.36956363188929697 0 -0.087166581823546807 0.38268142547449258 0 -0.078331801269405671 0.3911923311589619 0 -0.070241768304658683 0.38125320512289401 0 -0.062400115896225239 0.38328565763688038 0 -0.078331801269405671 0.3911923311589619 0 -0.047880784994249512 0.38858413326022379 0 -0.069626031180744216 0.37451783031500979 0 -0.079039419043354958 0.3748493973737258 0 -0.070241768304658683 0.38125320512289401 0 -0.078331801269405671 0.3911923311589619 0 -0.062400115896225239 0.38328565763688038 0 -0.047880784994249512 0.38858413326022379 0 -0.079039419043354958 0.3748493973737258 0 -0.078331801269405671 0.3911923311589619 0 -0.070241768304658683 0.38125320512289401 0 -0.070241768304658683 0.38125320512289401 0 -0.064210651178174066 0.37904237845721811 0 -0.062400115896225239 0.38328565763688038 0 -0.069626031180744216 0.37451783031500979 0 -0.070241768304658683 0.38125320512289401 0 -0.064210651178174066 0.37904237845721811 0 -0.069626031180744216 0.37451783031500979 0 -0.064210651178174066 0.37904237845721811 0 -0.064607287490063475 0.3752877934920828 0 -0.062075486208271788 0.37468365416042188 0 -0.064210651178174066 0.37904237845721811 0 -0.064607287490063475 0.3752877934920828 0 -0.062075486208271788 0.37468365416042188 0 -0.064210651178174066 0.37904237845721811 0 -0.059083848751135488 0.37840884602566088 0 -0.059083848751135488 0.37840884602566088 0 -0.062400115896225239 0.38328565763688038 0 -0.054293362626053041 0.38162223819359442 0 -0.062075486208271788 0.37468365416042188 0 -0.062564083944274151 0.37264302620600032 0 -0.059083848751135488 0.37840884602566088 0 -0.062564083944274151 0.37264302620600032 0 -0.054293362626053041 0.38162223819359442 0 -0.062564083944274151 0.37264302620600032 0 -0.059083848751135488 0.37840884602566088 0 -0.054293362626053041 0.38162223819359442 0 -0.056089193364373929 0.37273715424054699 0 -0.062564083944274151 0.37264302620600032 0 -0.054293362626053041 0.38162223819359442 0 -0.059083848751135488 0.37840884602566088 0 -0.054293362626053041 0.38162223819359442 0 -0.064210651178174066 0.37904237845721811 0 -0.059083848751135488 0.37840884602566088 0 -0.062400115896225239 0.38328565763688038 0 -0.062400115896225239 0.38328565763688038 0 -0.047880784994249512 0.38858413326022379 0 -0.054293362626053041 0.38162223819359442 0 -0.047880784994249512 0.38858413326022379 0 -0.054293362626053041 0.38162223819359442 0 -0.047880784994249512 0.38858413326022379 0 -0.054293362626053041 0.38162223819359442 0 -0.046254793771615982 0.3870143995575549 0 -0.047836657145122599 0.38128015361824008 0 -0.054293362626053041 0.38162223819359442 0 -0.046254793771615982 0.3870143995575549 0 -0.054293362626053041 0.38162223819359442 0 -0.046254793771615982 0.3870143995575549 0 -0.047880784994249512 0.38858413326022379 0 -0.046254793771615982 0.3870143995575549 0 -0.056089193364373929 0.37273715424054699 0 -0.050724207312953518 0.37700173675436199 0 -0.054293362626053041 0.38162223819359442 0 -0.049098878804771373 0.3725140996878949 0 -0.050724207312953518 0.37700173675436199 0 -0.043775979817191349 0.37615739516056462 0 -0.047836657145122599 0.38128015361824008 0 -0.050724207312953518 0.37700173675436199 0 -0.043775979817191349 0.37615739516056462 0 -0.047836657145122599 0.38128015361824008 0 -0.050724207312953518 0.37700173675436199 0 -0.054293362626053041 0.38162223819359442 0 -0.078331801269405671 0.3911923311589619 0 -0.047880784994249512 0.38858413326022379 0 -0.056273405891107527 0.39668637864269979 0 -0.047880784994249512 0.38858413326022379 0 -0.056273405891107527 0.39668637864269979 0 -0.045094078598563243 0.39160955589403151 0 -0.056273405891107527 0.39668637864269979 0 -0.048342871606355781 0.40097934792702961 0 -0.045094078598563243 0.39160955589403151 0 -0.047880784994249512 0.38858413326022379 0 -0.056273405891107527 0.39668637864269979 0 -0.056273405891107527 0.39668637864269979 0 -0.045094078598563243 0.39160955589403151 0 -0.056273405891107527 0.39668637864269979 0 -0.048342871606355781 0.40097934792702961 0 -0.051161828253680347 0.40954535298997258 0 -0.04342775431262437 0.39341862168501102 0 -0.028839939204686131 0.40925606551247828 0 -0.042973684961738069 0.41592643291826231 0 -0.048342871606355781 0.40097934792702961 0 -0.04342775431262437 0.39341862168501102 0 -0.042973684961738069 0.41592643291826231 0 -0.041701311968281377 0.39006881248802111 0 -0.02243782954129785 0.40299049140363558 0 -0.041701311968281377 0.39006881248802111 0 -0.03457878247319518 0.38683428693719679 0 -0.02243782954129785 0.40299049140363558 0 -0.04342775431262437 0.39341862168501102 0 -0.041701311968281377 0.39006881248802111 0 -0.02243782954129785 0.40299049140363558 0 -0.04342775431262437 0.39341862168501102 0 -0.028839939204686131 0.40925606551247828 0 -0.04342775431262437 0.39341862168501102 0 -0.042973684961738069 0.41592643291826231 0 -0.04342775431262437 0.39341862168501102 0 -0.02243782954129785 0.40299049140363558 0 -0.028839939204686131 0.40925606551247828 0 -0.048342871606355781 0.40097934792702961 0 -0.04342775431262437 0.39341862168501102 0 -0.045094078598563243 0.39160955589403151 0 -0.04342775431262437 0.39341862168501102 0 -0.045094078598563243 0.39160955589403151 0 -0.043479046219812342 0.39087612776318198 0 -0.04342775431262437 0.39341862168501102 0 -0.043479046219812342 0.39087612776318198 0 -0.045094078598563243 0.39160955589403151 0 -0.043479046219812342 0.39087612776318198 0 -0.045094078598563243 0.39160955589403151 0 -0.043479046219812342 0.39087612776318198 0 -0.045172553619539632 0.38973569244798251 0 -0.04342775431262437 0.39341862168501102 0 -0.045094078598563243 0.39160955589403151 0 -0.04342775431262437 0.39341862168501102 0 -0.043479046219812342 0.39087612776318198 0 -0.041701311968281377 0.39006881248802111 0 -0.047836657145122599 0.38128015361824008 0 -0.043775979817191349 0.37615739516056462 0 -0.043608491196287617 0.38445965616034072 0 -0.043775979817191349 0.37615739516056462 0 -0.043608491196287617 0.38445965616034072 0 -0.032897312064139907 0.37411907212457252 0 -0.043775979817191349 0.37615739516056462 0 -0.043608491196287617 0.38445965616034072 0 -0.047836657145122599 0.38128015361824008 0 -0.043608491196287617 0.38445965616034072 0 -0.046254793771615982 0.3870143995575549 0 -0.043542573639619581 0.38772713043400647 0 -0.041701311968281377 0.39006881248802111 0 -0.03457878247319518 0.38683428693719679 0 -0.043608491196287617 0.38445965616034072 0 -0.043542573639619581 0.38772713043400647 0 -0.03457878247319518 0.38683428693719679 0 -0.043608491196287617 0.38445965616034072 0 -0.046254793771615982 0.3870143995575549 0 -0.043608491196287617 0.38445965616034072 0 -0.046254793771615982 0.3870143995575549 0 -0.043542573639619581 0.38772713043400647 0 -0.043608491196287617 0.38445965616034072 0 -0.043542573639619581 0.38772713043400647 0 -0.047880784994249512 0.38858413326022379 0 -0.045094078598563243 0.39160955589403151 0 -0.047880784994249512 0.38858413326022379 0 -0.045094078598563243 0.39160955589403151 0 -0.045172553619539632 0.38973569244798251 0 -0.047880784994249512 0.38858413326022379 0 -0.045172553619539632 0.38973569244798251 0 -0.046254793771615982 0.3870143995575549 0 -0.045172553619539632 0.38973569244798251 0 -0.046254793771615982 0.3870143995575549 0 -0.043542573639619581 0.38772713043400647 0 -0.046254793771615982 0.3870143995575549 0 -0.043542573639619581 0.38772713043400647 0 -0.043479046219812342 0.39087612776318198 0 -0.045172553619539632 0.38973569244798251 0 -0.043542573639619581 0.38772713043400647 0 -0.043479046219812342 0.39087612776318198 0 -0.043542573639619581 0.38772713043400647 0 -0.043542573639619581 0.38772713043400647 0 -0.041701311968281377 0.39006881248802111 0 -0.043479046219812342 0.39087612776318198 0 -0.043542573639619581 0.38772713043400647 0 -0.041701311968281377 0.39006881248802111 0 -0.043479046219812342 0.39087612776318198 0 -0.041701311968281377 0.39006881248802111 0 -0.043542573639619581 0.38772713043400647 0 -0.03457878247319518 0.38683428693719679 0 -0.041701311968281377 0.39006881248802111 0 -0.03457878247319518 0.38683428693719679 0 -0.032897312064139907 0.37411907212457252 0 -0.043608491196287617 0.38445965616034072 0 -0.032897312064139907 0.37411907212457252 0 -0.043608491196287617 0.38445965616034072 0 -0.03457878247319518 0.38683428693719679 0 -0.03457878247319518 0.38683428693719679 0 -0.017803283764421592 0.37921609746689411 0 -0.03457878247319518 0.38683428693719679 0 -0.017803283764421592 0.37921609746689411 0 -0.019390911734903489 0.38532149046890818 0 -0.032897312064139907 0.37411907212457252 0 -0.017803283764421592 0.37921609746689411 0 -0.032897312064139907 0.37411907212457252 0 -0.03457878247319518 0.38683428693719679 0 -0.017803283764421592 0.37921609746689411 0 -0.03457878247319518 0.38683428693719679 0 -0.019390911734903489 0.38532149046890818 0 -0.019390911734903489 0.38532149046890818 0 -0.02243782954129785 0.40299049140363558 0 -0.0064316016559190746 0.3999483233353413 0 -0.03457878247319518 0.38683428693719679 0 -0.019390911734903489 0.38532149046890818 0 -0.02243782954129785 0.40299049140363558 0 -0.0064316016559190746 0.3999483233353413 0 -0.0042030409966118051 0.38380869400061962 0 0.010437450069317761 0.40463061763750507 0 -0.001064505034491721 0.37161458349227261 0 -0.017803283764421592 0.37921609746689411 0 -0.001064505034491721 0.37161458349227261 0 -0.017803283764421592 0.37921609746689411 0 -0.0042030409966118051 0.38380869400061962 0 -0.019390911734903489 0.38532149046890818 0 -0.0064316016559190746 0.3999483233353413 0 -0.0042030409966118051 0.38380869400061962 0 -0.017803283764421592 0.37921609746689411 0 -0.0042030409966118051 0.38380869400061962 0 -0.017803283764421592 0.37921609746689411 0 -0.019390911734903489 0.38532149046890818 0 -0.0042030409966118051 0.38380869400061962 0 -0.019390911734903489 0.38532149046890818 0 -0.0042030409966118051 0.38380869400061962 0 -0.014252124096747171 0.42509350933994478 0 0.0048617880261327502 0.44584476697033082 0 -0.014252124096747171 0.42509350933994478 0 -0.010454900682288101 0.44126855924159908 0 0.0048617880261327502 0.44584476697033082 0 -0.014252124096747171 0.42509350933994478 0 -0.0026301228576318379 0.42717885202372191 0 0.0048617880261327502 0.44584476697033082 0 -0.014252124096747171 0.42509350933994478 0 -0.0026301228576318379 0.42717885202372191 0 -0.003174347114314008 0.41591217031924949 0 -0.02243782954129785 0.40299049140363558 0 -0.0064316016559190746 0.3999483233353413 0 -0.003174347114314008 0.41591217031924949 0 -0.02243782954129785 0.40299049140363558 0 -0.003174347114314008 0.41591217031924949 0 -0.02243782954129785 0.40299049140363558 0 -0.014252124096747171 0.42509350933994478 0 -0.003174347114314008 0.41591217031924949 0 -0.014252124096747171 0.42509350933994478 0 -0.003174347114314008 0.41591217031924949 0 -0.014252124096747171 0.42509350933994478 0 -0.028839939204686131 0.40925606551247828 0 -0.02243782954129785 0.40299049140363558 0 -0.014252124096747171 0.42509350933994478 0 -0.028839939204686131 0.40925606551247828 0 -0.014252124096747171 0.42509350933994478 0 -0.028839939204686131 0.40925606551247828 0 -0.022470349574322469 0.43190483207895858 0 -0.014252124096747171 0.42509350933994478 0 -0.022470349574322469 0.43190483207895858 0 -0.010454900682288101 0.44126855924159908 0 -0.014252124096747171 0.42509350933994478 0 -0.022470349574322469 0.43190483207895858 0 -0.022470349574322469 0.43190483207895858 0 -0.010454900682288101 0.44126855924159908 0 -0.022470349574322469 0.43190483207895858 0 -0.042646571141636773 0.43214117214318359 0 -0.04231945732153318 0.44835591136810488 0 -0.022470349574322469 0.43190483207895858 0 -0.042646571141636773 0.43214117214318359 0 -0.042973684961738069 0.41592643291826231 0 -0.042646571141636773 0.43214117214318359 0 -0.042973684961738069 0.41592643291826231 0 -0.022470349574322469 0.43190483207895858 0 -0.042973684961738069 0.41592643291826231 0 -0.028839939204686131 0.40925606551247828 0 -0.022470349574322469 0.43190483207895858 0 -0.042973684961738069 0.41592643291826231 0 -0.077475511178084946 0.4171549142493044 0 -0.051161828253680347 0.40954535298997258 0 -0.055106871557328428 0.42305161159228227 0 -0.077475511178084946 0.4171549142493044 0 -0.056273405891107527 0.39668637864269979 0 -0.051161828253680347 0.40954535298997258 0 -0.048342871606355781 0.40097934792702961 0 -0.042973684961738069 0.41592643291826231 0 -0.051161828253680347 0.40954535298997258 0 -0.042973684961738069 0.41592643291826231 0 -0.051161828253680347 0.40954535298997258 0 -0.042973684961738069 0.41592643291826231 0 -0.051161828253680347 0.40954535298997258 0 -0.055106871557328428 0.42305161159228227 0 -0.042646571141636773 0.43214117214318359 0 -0.059178928229814701 0.4365201208845606 0 -0.055106871557328428 0.42305161159228227 0 -0.042646571141636773 0.43214117214318359 0 -0.042973684961738069 0.41592643291826231 0 -0.055106871557328428 0.42305161159228227 0 -0.042646571141636773 0.43214117214318359 0 -0.059178928229814701 0.4365201208845606 0 -0.049245987713513212 0.44319563894678482 0 -0.059178928229814701 0.4365201208845606 0 -0.050742244958162368 0.46439359559444437 0 -0.049245987713513212 0.44319563894678482 0 -0.050742244958162368 0.46439359559444437 0 -0.044608833217136261 0.45025336211807931 0 -0.059178928229814701 0.4365201208845606 0 -0.050742244958162368 0.46439359559444437 0 -0.065484051744298263 0.4513847118260722 0 -0.059178928229814701 0.4365201208845606 0 -0.049245987713513212 0.44319563894678482 0 -0.050742244958162368 0.46439359559444437 0 -0.050742244958162368 0.46439359559444437 0 -0.061707257777874093 0.47273252787991399 0 -0.073231504917427276 0.46237159316971249 0 -0.050742244958162368 0.46439359559444437 0 -0.073231504917427276 0.46237159316971249 0 -0.0419800222431604 0.46518140433549732 0 -0.04231945732153318 0.44835591136810488 0 -0.025697431038521311 0.45487791879973932 0 -0.0419800222431604 0.46518140433549732 0 -0.04231945732153318 0.44835591136810488 0 -0.0419800222431604 0.46518140433549732 0 -0.044608833217136261 0.45025336211807931 0 -0.04231945732153318 0.44835591136810488 0 -0.050742244958162368 0.46439359559444437 0 -0.0419800222431604 0.46518140433549732 0 -0.050742244958162368 0.46439359559444437 0 -0.0419800222431604 0.46518140433549732 0 -0.044608833217136261 0.45025336211807931 0 -0.022470349574322469 0.43190483207895858 0 -0.04231945732153318 0.44835591136810488 0 -0.042646571141636773 0.43214117214318359 0 -0.049245987713513212 0.44319563894678482 0 -0.04231945732153318 0.44835591136810488 0 -0.042646571141636773 0.43214117214318359 0 -0.04231945732153318 0.44835591136810488 0 -0.049245987713513212 0.44319563894678482 0 -0.044608833217136261 0.45025336211807931 0 -0.04231945732153318 0.44835591136810488 0 -0.044608833217136261 0.45025336211807931 0 -0.04231945732153318 0.44835591136810488 0 -0.022470349574322469 0.43190483207895858 0 -0.04231945732153318 0.44835591136810488 0 -0.022362297003099281 0.44511471557515531 0 -0.04231945732153318 0.44835591136810488 0 -0.022362297003099281 0.44511471557515531 0 -0.025697431038521311 0.45487791879973932 0 -0.022470349574322469 0.43190483207895858 0 -0.022362297003099281 0.44511471557515531 0 -0.010454900682288101 0.44126855924159908 0 -0.022362297003099281 0.44511471557515531 0 -0.025697431038521311 0.45487791879973932 0 -0.01311544116488466 0.453963754661173 0 -0.0419800222431604 0.46518140433549732 0 -0.025697431038521311 0.45487791879973932 0 -0.01345201465746383 0.46774634869629322 0 -0.0419800222431604 0.46518140433549732 0 -0.01345201465746383 0.46774634869629322 0 -0.025697431038521311 0.45487791879973932 0 -0.01311544116488466 0.453963754661173 0 -0.01345201465746383 0.46774634869629322 0 -0.0094095992007081283 0.46654139838691122 0 -0.010427957625441169 0.46801824073108461 0 0.0053167838454733218 0.46943384557929257 0 -0.0094095992007081283 0.46654139838691122 0 0.0015605482097463411 0.45063228640423969 0 -0.010427957625441169 0.46801824073108461 0 0.0053167838454733218 0.46943384557929257 0 -0.0094095992007081283 0.46654139838691122 0 0.0080738590363113663 0.46132998490476868 0 -0.01311544116488466 0.453963754661173 0 -0.0094095992007081283 0.46654139838691122 0 0.0015605482097463411 0.45063228640423969 0 -0.01311544116488466 0.453963754661173 0 -0.01345201465746383 0.46774634869629322 0 -0.0094095992007081283 0.46654139838691122 0 -0.01345201465746383 0.46774634869629322 0 -0.010427957625441169 0.46801824073108461 0 -0.01345201465746383 0.46774634869629322 0 -0.0094095992007081283 0.46654139838691122 0 -0.01345201465746383 0.46774634869629322 0 -0.0094095992007081283 0.46654139838691122 0 -0.010427957625441169 0.46801824073108461 0 -0.0094095992007081283 0.46654139838691122 0 -0.010427957625441169 0.46801824073108461 0 -0.01311544116488466 0.453963754661173 0 -0.010454900682288101 0.44126855924159908 0 0.0015605482097463411 0.45063228640423969 0 -0.010454900682288101 0.44126855924159908 0 0.0048617880261327502 0.44584476697033082 0 0.0015605482097463411 0.45063228640423969 0 -0.010454900682288101 0.44126855924159908 0 0.0015605482097463411 0.45063228640423969 0 -0.022362297003099281 0.44511471557515531 0 -0.01311544116488466 0.453963754661173 0 -0.010454900682288101 0.44126855924159908 0 -0.0067005321321746969 0.5 0 -0.003880604538310756 0.48346324919380129 0 -0.021454488019086362 0.48400912036554289 0 -0.01345201465746383 0.46774634869629322 0 -0.010427957625441169 0.46801824073108461 0 -0.021454488019086362 0.48400912036554289 0 -0.010427957625441169 0.46801824073108461 0 -0.003880604538310756 0.48346324919380129 0 -0.021454488019086362 0.48400912036554289 0 -0.010427957625441169 0.46801824073108461 0 -0.001026908195020756 0.47486914558720472 0 0.0053167838454733218 0.46943384557929257 0 -0.010427957625441169 0.46801824073108461 0 -0.003880604538310756 0.48346324919380129 0 -0.001026908195020756 0.47486914558720472 0 -0.010427957625441169 0.46801824073108461 0 -0.021454488019086362 0.48400912036554289 0 -0.01345201465746383 0.46774634869629322 0 -0.021454488019086362 0.48400912036554289 0 -0.032447842195153342 0.48378293317924542 0 -0.01345201465746383 0.46774634869629322 0 -0.032447842195153342 0.48378293317924542 0 -0.041758062999807367 0.47618372532725728 0 -0.01345201465746383 0.46774634869629322 0 -0.041758062999807367 0.47618372532725728 0 -0.021454488019086362 0.48400912036554289 0 -0.032481018412731863 0.50000000000000089 0 -0.033555046977316587 0.49207813668870121 0 -0.021454488019086362 0.48400912036554289 0 -0.032481018412731863 0.50000000000000089 0 -0.021454488019086362 0.48400912036554289 0 -0.033555046977316587 0.49207813668870121 0 -0.032447842195153342 0.48378293317924542 0 -0.0067005321321746969 0.5 0 -0.021454488019086362 0.48400912036554289 0 -0.032481018412731863 0.50000000000000089 0 -0.033555046977316587 0.49207813668870121 0 -0.039964975186860582 0.49999999999999872 0 -0.042139887415076342 0.49281443204190178 0 -0.032481018412731863 0.50000000000000089 0 -0.033555046977316587 0.49207813668870121 0 -0.039964975186860582 0.49999999999999872 0 -0.042139887415076342 0.49281443204190178 0 -0.041758062999807367 0.47618372532725728 0 -0.033555046977316587 0.49207813668870121 0 -0.042139887415076342 0.49281443204190178 0 -0.032447842195153342 0.48378293317924542 0 -0.042139887415076342 0.49281443204190178 0 -0.046725468384182907 0.47766439368476649 0 -0.039964975186860582 0.49999999999999872 0 -0.042139887415076342 0.49281443204190178 0 -0.053580454847170257 0.49193017513362319 0 -0.039964975186860582 0.49999999999999872 0 -0.042139887415076342 0.49281443204190178 0 -0.042139887415076342 0.49281443204190178 0 -0.046725468384182907 0.47766439368476649 0 -0.041758062999807367 0.47618372532725728 0 -0.0419800222431604 0.46518140433549732 0 -0.01345201465746383 0.46774634869629322 0 -0.041758062999807367 0.47618372532725728 0 -0.042139887415076342 0.49281443204190178 0 -0.032447842195153342 0.48378293317924542 0 -0.041758062999807367 0.47618372532725728 0 -0.046725468384182907 0.47766439368476649 0 -0.041758062999807367 0.47618372532725728 0 -0.0419800222431604 0.46518140433549732 0 -0.046725468384182907 0.47766439368476649 0 -0.041758062999807367 0.47618372532725728 0 -0.050742244958162368 0.46439359559444437 0 -0.0419800222431604 0.46518140433549732 0 -0.046725468384182907 0.47766439368476649 0 -0.0419800222431604 0.46518140433549732 0 -0.041758062999807367 0.47618372532725728 0 -0.046725468384182907 0.47766439368476649 0 -0.061707257777874093 0.47273252787991399 0 -0.071702929972361051 0.48510959578984503 0 -0.046725468384182907 0.47766439368476649 0 -0.071702929972361051 0.48510959578984503 0 -0.050742244958162368 0.46439359559444437 0 -0.046725468384182907 0.47766439368476649 0 -0.061707257777874093 0.47273252787991399 0 -0.050742244958162368 0.46439359559444437 0 -0.046725468384182907 0.47766439368476649 0 -0.046725468384182907 0.47766439368476649 0 -0.053580454847170257 0.49193017513362319 0 -0.071702929972361051 0.48510959578984503 0 -0.039964975186860582 0.49999999999999872 0 -0.053580454847170257 0.49193017513362319 0 -0.067195934507479516 0.5 0 -0.042139887415076342 0.49281443204190178 0 -0.046725468384182907 0.47766439368476649 0 -0.053580454847170257 0.49193017513362319 0 -0.053580454847170257 0.49193017513362319 0 -0.067195934507479516 0.5 0 -0.071702929972361051 0.48510959578984503 0 -0.067195934507479516 0.5 0 -0.071702929972361051 0.48510959578984503 0 -0.094426893828098324 0.5 0 -0.071702929972361051 0.48510959578984503 0 -0.096680391560538939 0.49255479789492401 0 -0.071702929972361051 0.48510959578984503 0 -0.094426893828098324 0.5 0 -0.096680391560538939 0.49255479789492401 0 -0.071702929972361051 0.48510959578984503 0 -0.094342239683345888 0.46564946071770819 0 -0.096680391560538939 0.49255479789492401 0 -0.071702929972361051 0.48510959578984503 0 -0.073231504917427276 0.46237159316971249 0 -0.094342239683345888 0.46564946071770819 0 -0.061707257777874093 0.47273252787991399 0 -0.071702929972361051 0.48510959578984503 0 -0.073231504917427276 0.46237159316971249 0 -0.050742244958162368 0.46439359559444437 0 -0.073231504917427276 0.46237159316971249 0 -0.065484051744298263 0.4513847118260722 0 -0.059178928229814701 0.4365201208845606 0 -0.065484051744298263 0.4513847118260722 0 -0.078698858269308614 0.44343419105434712 0 -0.073231504917427276 0.46237159316971249 0 -0.065484051744298263 0.4513847118260722 0 -0.078698858269308614 0.44343419105434712 0 -0.078698858269308614 0.44343419105434712 0 -0.094342239683345888 0.46564946071770819 0 -0.098677616465060528 0.43762344985591101 0 -0.073231504917427276 0.46237159316971249 0 -0.078698858269308614 0.44343419105434712 0 -0.094342239683345888 0.46564946071770819 0 -0.094342239683345888 0.46564946071770819 0 -0.098677616465060528 0.43762344985591101 0 -0.11987972175203609 0.45809198546251739 0 -0.098677616465060528 0.43762344985591101 0 -0.11987972175203609 0.45809198546251739 0 -0.12509104342100061 0.44188941827772182 0 -0.098677616465060528 0.43762344985591101 0 -0.11987972175203609 0.45809198546251739 0 -0.094342239683345888 0.46564946071770819 0 -0.11987972175203609 0.45809198546251739 0 -0.1215246548466888 0.48036061179670092 0 -0.1215246548466888 0.48036061179670092 0 -0.1216578531487173 0.50000000000000155 0 -0.096680391560538939 0.49255479789492401 0 -0.1216578531487173 0.50000000000000155 0 -0.094426893828098324 0.5 0 -0.096680391560538939 0.49255479789492401 0 -0.1216578531487173 0.50000000000000155 0 -0.096680391560538939 0.49255479789492401 0 -0.094342239683345888 0.46564946071770819 0 -0.1215246548466888 0.48036061179670092 0 -0.096680391560538939 0.49255479789492401 0 -0.16310986573530631 0.084156321085019567 0 -0.17544541039362899 0.09436804860009354 0 -0.15783765240444911 0.096274401630791262 0 -0.16310986573530631 0.084156321085019567 0 -0.15783765240444911 0.096274401630791262 0 -0.16310986573530631 0.084156321085019567 0 -0.1657815390990264 0.070802932860687437 0 -0.15463431661472629 0.07014553381523804 0 -0.16310986573530631 0.084156321085019567 0 -0.1657815390990264 0.070802932860687437 0 -0.17966236107341149 0.074300518116336353 0 -0.1657815390990264 0.070802932860687437 0 -0.17966236107341149 0.074300518116336353 0 -0.1657196129726615 0.054609358426155781 0 -0.1657815390990264 0.070802932860687437 0 -0.15463431661472629 0.07014553381523804 0 -0.1657196129726615 0.054609358426155781 0 -0.17966236107341149 0.074300518116336353 0 -0.1657196129726615 0.054609358426155781 0 -0.19326118210642521 0.060262893486061127 0 -0.17966236107341149 0.074300518116336353 0 -0.1657196129726615 0.054609358426155781 0 -0.16310986573530631 0.084156321085019567 0 -0.17966236107341149 0.074300518116336353 0 -0.17544541039362899 0.09436804860009354 0 -0.17966236107341149 0.074300518116336353 0 -0.17544541039362899 0.09436804860009354 0 -0.19360510917416149 0.093991677806516877 0 -0.17966236107341149 0.074300518116336353 0 -0.19360510917416149 0.093991677806516877 0 -0.17544541039362899 0.09436804860009354 0 -0.18934336527218601 0.1087413065502997 0 -0.19360510917416149 0.093991677806516877 0 -0.17544541039362899 0.09436804860009354 0 -0.16911410870225951 0.1087440664115976 0 -0.18934336527218601 0.1087413065502997 0 -0.18039056500006781 0.12121373119240569 0 -0.16911410870225951 0.1087440664115976 0 -0.18934336527218601 0.1087413065502997 0 -0.18039056500006781 0.12121373119240569 0 -0.16911410870225951 0.1087440664115976 0 -0.18039056500006781 0.12121373119240569 0 -0.16911410870225951 0.1087440664115976 0 -0.15507510040999009 0.1056512286087255 0 -0.18039056500006781 0.12121373119240569 0 -0.15507510040999009 0.1056512286087255 0 -0.1628447509754036 0.1248738178506951 0 -0.15507510040999009 0.1056512286087255 0 -0.15358711882774939 0.11801712706942639 0 -0.18039056500006781 0.12121373119240569 0 -0.1628447509754036 0.1248738178506951 0 -0.15507510040999009 0.1056512286087255 0 -0.17544541039362899 0.09436804860009354 0 -0.16911410870225951 0.1087440664115976 0 -0.15783765240444911 0.096274401630791262 0 -0.16911410870225951 0.1087440664115976 0 -0.15783765240444911 0.096274401630791262 0 -0.16911410870225951 0.1087440664115976 0 -0.15783765240444911 0.096274401630791262 0 -0.15507510040999009 0.1056512286087255 0 -0.15783765240444911 0.096274401630791262 0 -0.14455303356647331 0.096744639073681929 0 -0.15139402388202119 0.11108495737684999 0 -0.14455303356647331 0.096744639073681929 0 -0.15139402388202119 0.11108495737684999 0 -0.12991930243541749 0.1020465165188278 0 -0.15783765240444911 0.096274401630791262 0 -0.15507510040999009 0.1056512286087255 0 -0.15139402388202119 0.11108495737684999 0 -0.15783765240444911 0.096274401630791262 0 -0.15139402388202119 0.11108495737684999 0 -0.15139402388202119 0.11108495737684999 0 -0.12991930243541749 0.1020465165188278 0 -0.14495039535959489 0.12589551312290931 0 -0.1628447509754036 0.1248738178506951 0 -0.15358711882774939 0.11801712706942639 0 -0.14495039535959489 0.12589551312290931 0 -0.15358711882774939 0.11801712706942639 0 -0.15139402388202119 0.11108495737684999 0 -0.14495039535959489 0.12589551312290931 0 -0.15507510040999009 0.1056512286087255 0 -0.15358711882774939 0.11801712706942639 0 -0.15139402388202119 0.11108495737684999 0 -0.15139402388202119 0.11108495737684999 0 -0.14495039535959489 0.12589551312290931 0 -0.12991930243541749 0.1020465165188278 0 -0.14495039535959489 0.12589551312290931 0 -0.12991930243541749 0.1020465165188278 0 -0.14495039535959489 0.12589551312290931 0 -0.13028426483969929 0.13221647237215789 0 -0.14455303356647331 0.096744639073681929 0 -0.12991930243541749 0.1020465165188278 0 -0.13683438329036771 0.088098653177494879 0 -0.12991930243541749 0.1020465165188278 0 -0.13683438329036771 0.088098653177494879 0 -0.1248370695698198 0.083226530136874921 0 -0.13683438329036771 0.088098653177494879 0 -0.13729578978526799 0.073558919561796721 0 -0.1248370695698198 0.083226530136874921 0 -0.13683438329036771 0.088098653177494879 0 -0.14756672109485969 0.08491666059629295 0 -0.13729578978526799 0.073558919561796721 0 -0.14455303356647331 0.096744639073681929 0 -0.13683438329036771 0.088098653177494879 0 -0.14756672109485969 0.08491666059629295 0 -0.14756672109485969 0.08491666059629295 0 -0.13729578978526799 0.073558919561796721 0 -0.16310986573530631 0.084156321085019567 0 -0.14756672109485969 0.08491666059629295 0 -0.15463431661472629 0.07014553381523804 0 -0.16310986573530631 0.084156321085019567 0 -0.15783765240444911 0.096274401630791262 0 -0.14756672109485969 0.08491666059629295 0 -0.15783765240444911 0.096274401630791262 0 -0.14756672109485969 0.08491666059629295 0 -0.15783765240444911 0.096274401630791262 0 -0.14455303356647331 0.096744639073681929 0 -0.14756672109485969 0.08491666059629295 0 -0.14756672109485969 0.08491666059629295 0 -0.15463431661472629 0.07014553381523804 0 -0.13729578978526799 0.073558919561796721 0 -0.15463431661472629 0.07014553381523804 0 -0.13729578978526799 0.073558919561796721 0 -0.14428807100988511 0.057223156242914672 0 -0.13729578978526799 0.073558919561796721 0 -0.1311901693420546 0.060374133793646992 0 -0.14428807100988511 0.057223156242914672 0 -0.13729578978526799 0.073558919561796721 0 -0.12498233095038511 0.069533312171706482 0 -0.1248370695698198 0.083226530136874921 0 -0.13729578978526799 0.073558919561796721 0 -0.1311901693420546 0.060374133793646992 0 -0.12498233095038511 0.069533312171706482 0 -0.1311901693420546 0.060374133793646992 0 -0.1304591025064194 0.044551821316570157 0 -0.1169815729820268 0.057446916627697332 0 -0.1311901693420546 0.060374133793646992 0 -0.1304591025064194 0.044551821316570157 0 -0.14428807100988511 0.057223156242914672 0 -0.1304591025064194 0.044551821316570157 0 -0.1338093633065561 0.031702984145267947 0 -0.14718764802187309 0.041237794311798179 0 -0.1304591025064194 0.044551821316570157 0 -0.1338093633065561 0.031702984145267947 0 -0.120950474974805 0.030974477430810402 0 -0.14718764802187309 0.041237794311798179 0 -0.14507935476777459 0.024735833563247479 0 -0.16332082262574071 0.033969476032413119 0 -0.1338093633065561 0.031702984145267947 0 -0.14718764802187309 0.041237794311798179 0 -0.14507935476777459 0.024735833563247479 0 -0.1304591025064194 0.044551821316570157 0 -0.14718764802187309 0.041237794311798179 0 -0.14428807100988511 0.057223156242914672 0 -0.15463431661472629 0.07014553381523804 0 -0.14428807100988511 0.057223156242914672 0 -0.1657196129726615 0.054609358426155781 0 -0.14718764802187309 0.041237794311798179 0 -0.14428807100988511 0.057223156242914672 0 -0.1657196129726615 0.054609358426155781 0 -0.1273771369441013 0.0023450629401116992 0 -0.12537023626190849 0.01701499410391356 0 -0.14358534871595791 0.0085390787577918573 0 -0.14275634286812811 -0.006203461430080404 0 -0.1273771369441013 0.0023450629401116992 0 -0.14358534871595791 0.0085390787577918573 0 -0.1338093633065561 0.031702984145267947 0 -0.12537023626190849 0.01701499410391356 0 -0.14507935476777459 0.024735833563247479 0 -0.12537023626190849 0.01701499410391356 0 -0.14507935476777459 0.024735833563247479 0 -0.14358534871595791 0.0085390787577918573 0 -0.1338093633065561 0.031702984145267947 0 -0.12537023626190849 0.01701499410391356 0 -0.120950474974805 0.030974477430810402 0 -0.14507935476777459 0.024735833563247479 0 -0.14358534871595791 0.0085390787577918573 0 -0.1631610812614456 0.0141265482177085 0 -0.15796117991031841 -0.00029962151665172479 0 -0.14358534871595791 0.0085390787577918573 0 -0.1631610812614456 0.0141265482177085 0 -0.14275634286812811 -0.006203461430080404 0 -0.15796117991031841 -0.00029962151665172479 0 -0.14358534871595791 0.0085390787577918573 0 -0.15796117991031841 -0.00029962151665172479 0 -0.17967452986780849 -0.0030086181600807401 0 -0.1631610812614456 0.0141265482177085 0 -0.1631610812614456 0.0141265482177085 0 -0.18063081477410151 0.02444866588981499 0 -0.16332082262574071 0.033969476032413119 0 -0.14507935476777459 0.024735833563247479 0 -0.1631610812614456 0.0141265482177085 0 -0.16332082262574071 0.033969476032413119 0 -0.17967452986780849 -0.0030086181600807401 0 -0.1631610812614456 0.0141265482177085 0 -0.18063081477410151 0.02444866588981499 0 -0.17967452986780849 -0.0030086181600807401 0 -0.18063081477410151 0.02444866588981499 0 -0.19591489879339791 0.012499298725408061 0 -0.1657196129726615 0.054609358426155781 0 -0.16332082262574071 0.033969476032413119 0 -0.1853408533429271 0.041769259974547668 0 -0.14718764802187309 0.041237794311798179 0 -0.1657196129726615 0.054609358426155781 0 -0.16332082262574071 0.033969476032413119 0 -0.18063081477410151 0.02444866588981499 0 -0.16332082262574071 0.033969476032413119 0 -0.1853408533429271 0.041769259974547668 0 -0.1657196129726615 0.054609358426155781 0 -0.1853408533429271 0.041769259974547668 0 -0.19326118210642521 0.060262893486061127 0 -0.1853408533429271 0.041769259974547668 0 -0.19326118210642521 0.060262893486061127 0 -0.20638984228336041 0.047204147208118788 0 -0.18063081477410151 0.02444866588981499 0 -0.1853408533429271 0.041769259974547668 0 -0.2003712226561333 0.029120430419108619 0 -0.1853408533429271 0.041769259974547668 0 -0.20638984228336041 0.047204147208118788 0 -0.2003712226561333 0.029120430419108619 0 -0.20638984228336041 0.047204147208118788 0 -0.2003712226561333 0.029120430419108619 0 -0.21890969838457369 0.03387481538926377 0 -0.20638984228336041 0.047204147208118788 0 -0.2248274879423891 0.050626958701997932 0 -0.21890969838457369 0.03387481538926377 0 -0.20638984228336041 0.047204147208118788 0 -0.2248274879423891 0.050626958701997932 0 -0.21240822864659401 0.064474545157398255 0 -0.19326118210642521 0.060262893486061127 0 -0.20638984228336041 0.047204147208118788 0 -0.21240822864659401 0.064474545157398255 0 -0.17967452986780849 -0.0030086181600807401 0 -0.20680301002479959 -0.0020434230711429339 0 -0.19591489879339791 0.012499298725408061 0 -0.18063081477410151 0.02444866588981499 0 -0.19591489879339791 0.012499298725408061 0 -0.2003712226561333 0.029120430419108619 0 -0.2003712226561333 0.029120430419108619 0 -0.2150412283584397 0.01492639532749848 0 -0.21890969838457369 0.03387481538926377 0 -0.19591489879339791 0.012499298725408061 0 -0.2003712226561333 0.029120430419108619 0 -0.2150412283584397 0.01492639532749848 0 -0.20680301002479959 -0.0020434230711429339 0 -0.19591489879339791 0.012499298725408061 0 -0.2150412283584397 0.01492639532749848 0 -0.20680301002479959 -0.0020434230711429339 0 -0.2150412283584397 0.01492639532749848 0 -0.22850437187820721 0.00061554774341724197 0 -0.2150412283584397 0.01492639532749848 0 -0.22850437187820721 0.00061554774341724197 0 -0.23416676111704099 0.01917273774715204 0 -0.23416676111704099 0.01917273774715204 0 -0.21890969838457369 0.03387481538926377 0 -0.23451298379830759 0.036058925104307242 0 -0.2150412283584397 0.01492639532749848 0 -0.23416676111704099 0.01917273774715204 0 -0.21890969838457369 0.03387481538926377 0 -0.25132042997239518 0.0027134119798401068 0 -0.25642639863326749 0.02710060176493858 0 -0.23416676111704099 0.01917273774715204 0 -0.25642639863326749 0.02710060176493858 0 -0.23416676111704099 0.01917273774715204 0 -0.23451298379830759 0.036058925104307242 0 -0.25132042997239518 0.0027134119798401068 0 -0.22850437187820721 0.00061554774341724197 0 -0.23416676111704099 0.01917273774715204 0 -0.2248274879423891 0.050626958701997932 0 -0.234130504556473 0.067172247096954504 0 -0.21240822864659401 0.064474545157398255 0 -0.2248274879423891 0.050626958701997932 0 -0.21890969838457369 0.03387481538926377 0 -0.23451298379830759 0.036058925104307242 0 -0.25642639863326749 0.02710060176493858 0 -0.23451298379830759 0.036058925104307242 0 -0.24534917185526489 0.049526218608574313 0 -0.2248274879423891 0.050626958701997932 0 -0.23451298379830759 0.036058925104307242 0 -0.24534917185526489 0.049526218608574313 0 -0.26195798501385009 0.070226375813507561 0 -0.24534917185526489 0.049526218608574313 0 -0.234130504556473 0.067172247096954504 0 -0.2248274879423891 0.050626958701997932 0 -0.24534917185526489 0.049526218608574313 0 -0.234130504556473 0.067172247096954504 0 -0.26195798501385009 0.070226375813507561 0 -0.24382127576753621 0.084711863041238192 0 -0.234130504556473 0.067172247096954504 0 -0.24382127576753621 0.084711863041238192 0 -0.22568456652122221 0.099197350268968809 0 -0.24382127576753621 0.084711863041238192 0 -0.221160002309051 0.081738136999685213 0 -0.22568456652122221 0.099197350268968809 0 -0.221160002309051 0.081738136999685213 0 -0.20949418686790969 0.097522886253834359 0 -0.22568456652122221 0.099197350268968809 0 -0.24382127576753621 0.084711863041238192 0 -0.221160002309051 0.081738136999685213 0 -0.234130504556473 0.067172247096954504 0 -0.221160002309051 0.081738136999685213 0 -0.234130504556473 0.067172247096954504 0 -0.21240822864659401 0.064474545157398255 0 -0.221160002309051 0.081738136999685213 0 -0.21240822864659401 0.064474545157398255 0 -0.19789508720454749 0.077516785054754192 0 -0.221160002309051 0.081738136999685213 0 -0.19789508720454749 0.077516785054754192 0 -0.20949418686790969 0.097522886253834359 0 -0.17966236107341149 0.074300518116336353 0 -0.19789508720454749 0.077516785054754192 0 -0.19360510917416149 0.093991677806516877 0 -0.19789508720454749 0.077516785054754192 0 -0.19360510917416149 0.093991677806516877 0 -0.20949418686790969 0.097522886253834359 0 -0.19326118210642521 0.060262893486061127 0 -0.21240822864659401 0.064474545157398255 0 -0.19789508720454749 0.077516785054754192 0 -0.17966236107341149 0.074300518116336353 0 -0.19326118210642521 0.060262893486061127 0 -0.19789508720454749 0.077516785054754192 0 -0.20040659369392541 0.1193864456313013 0 -0.18934336527218601 0.1087413065502997 0 -0.2075478572749084 0.11368283749669961 0 -0.18039056500006781 0.12121373119240569 0 -0.20040659369392541 0.1193864456313013 0 -0.18934336527218601 0.1087413065502997 0 -0.19360510917416149 0.093991677806516877 0 -0.2075478572749084 0.11368283749669961 0 -0.18934336527218601 0.1087413065502997 0 -0.19360510917416149 0.093991677806516877 0 -0.2075478572749084 0.11368283749669961 0 -0.19360510917416149 0.093991677806516877 0 -0.20949418686790969 0.097522886253834359 0 -0.2075478572749084 0.11368283749669961 0 -0.2075478572749084 0.11368283749669961 0 -0.22568456652122221 0.099197350268968809 0 -0.20949418686790969 0.097522886253834359 0 -0.2075478572749084 0.11368283749669961 0 -0.22568456652122221 0.099197350268968809 0 -0.2075478572749084 0.11368283749669961 0 -0.22488407219564061 0.1186598638475915 0 -0.22370276663374011 0.1364982034250237 0 -0.20040659369392541 0.1193864456313013 0 -0.2075478572749084 0.11368283749669961 0 -0.20214902218410111 0.13458958866239301 0 -0.20040659369392541 0.1193864456313013 0 -0.2075478572749084 0.11368283749669961 0 -0.2075478572749084 0.11368283749669961 0 -0.22488407219564061 0.1186598638475915 0 -0.22568456652122221 0.099197350268968809 0 -0.22488407219564061 0.1186598638475915 0 -0.23975573915859391 0.1186480270080747 0 -0.23562440086935879 0.12869665656040569 0 -0.22488407219564061 0.1186598638475915 0 -0.22568456652122221 0.099197350268968809 0 -0.23888908650362611 0.1045060591559635 0 -0.24382127576753621 0.084711863041238192 0 -0.22568456652122221 0.099197350268968809 0 -0.23888908650362611 0.1045060591559635 0 -0.25364395357421121 0.10678394025260531 0 -0.24382127576753621 0.084711863041238192 0 -0.23888908650362611 0.1045060591559635 0 -0.25033803458298193 0.12914144363467839 0 -0.25364395357421121 0.10678394025260531 0 -0.23975573915859391 0.1186480270080747 0 -0.22488407219564061 0.1186598638475915 0 -0.23888908650362611 0.1045060591559635 0 -0.23975573915859391 0.1186480270080747 0 -0.25364395357421121 0.10678394025260531 0 -0.23888908650362611 0.1045060591559635 0 -0.23975573915859391 0.1186480270080747 0 -0.25033803458298193 0.12914144363467839 0 -0.23975573915859391 0.1186480270080747 0 -0.23562440086935879 0.12869665656040569 0 -0.25033803458298193 0.12914144363467839 0 -0.2394413917758374 0.14053574488666021 0 -0.23562440086935879 0.12869665656040569 0 -0.2394413917758374 0.14053574488666021 0 -0.23562440086935879 0.12869665656040569 0 -0.22370276663374011 0.1364982034250237 0 -0.22488407219564061 0.1186598638475915 0 -0.23562440086935879 0.12869665656040569 0 -0.22370276663374011 0.1364982034250237 0 -0.2394413917758374 0.14053574488666021 0 -0.22370276663374011 0.1364982034250237 0 -0.22390747936813421 0.14796544613238069 0 -0.22390747936813421 0.14796544613238069 0 -0.22774584105848089 0.15976823357977049 0 -0.2168312664826515 0.15850745189495519 0 -0.2394413917758374 0.14053574488666021 0 -0.22390747936813421 0.14796544613238069 0 -0.24566593655216731 0.1613413036023684 0 -0.22390747936813421 0.14796544613238069 0 -0.24566593655216731 0.1613413036023684 0 -0.26077588748637798 0.14053443996503889 0 -0.2394413917758374 0.14053574488666021 0 -0.24566593655216731 0.1613413036023684 0 -0.24566593655216731 0.1613413036023684 0 -0.2425545525554833 0.18325607046718431 0 -0.22457868183097049 0.171258732689378 0 -0.2425545525554833 0.18325607046718431 0 -0.2235130486054053 0.18492553164669809 0 -0.22457868183097049 0.171258732689378 0 -0.2425545525554833 0.18325607046718431 0 -0.2235130486054053 0.18492553164669809 0 -0.2315679775879351 0.19375458513227489 0 -0.2235130486054053 0.18492553164669809 0 -0.22457868183097049 0.171258732689378 0 -0.209750232499154 0.17791844316711489 0 -0.24566593655216731 0.1613413036023684 0 -0.22774584105848089 0.15976823357977049 0 -0.22457868183097049 0.171258732689378 0 -0.22390747936813421 0.14796544613238069 0 -0.24566593655216731 0.1613413036023684 0 -0.22774584105848089 0.15976823357977049 0 -0.22774584105848089 0.15976823357977049 0 -0.22457868183097049 0.171258732689378 0 -0.2168312664826515 0.15850745189495519 0 -0.2168312664826515 0.15850745189495519 0 -0.21186753860838101 0.16733255095299371 0 -0.20758447520558959 0.15683863127083711 0 -0.22457868183097049 0.171258732689378 0 -0.2168312664826515 0.15850745189495519 0 -0.21186753860838101 0.16733255095299371 0 -0.21186753860838101 0.16733255095299371 0 -0.209750232499154 0.17791844316711489 0 -0.20173639765426299 0.1643971743801825 0 -0.21186753860838101 0.16733255095299371 0 -0.20758447520558959 0.15683863127083711 0 -0.20173639765426299 0.1643971743801825 0 -0.20758447520558959 0.15683863127083711 0 -0.20173639765426299 0.1643971743801825 0 -0.20024290349544879 0.15519061181074151 0 -0.22457868183097049 0.171258732689378 0 -0.21186753860838101 0.16733255095299371 0 -0.209750232499154 0.17791844316711489 0 -0.19610042498268601 0.17522502183351021 0 -0.19038698318195549 0.16711234260031069 0 -0.17752183765376101 0.1775748035498933 0 -0.19610042498268601 0.17522502183351021 0 -0.19785886193094021 0.18900131099286041 0 -0.17752183765376101 0.1775748035498933 0 -0.19785886193094021 0.18900131099286041 0 -0.17752183765376101 0.1775748035498933 0 -0.209750232499154 0.17791844316711489 0 -0.19610042498268601 0.17522502183351021 0 -0.19785886193094021 0.18900131099286041 0 -0.209750232499154 0.17791844316711489 0 -0.19610042498268601 0.17522502183351021 0 -0.20173639765426299 0.1643971743801825 0 -0.20173639765426299 0.1643971743801825 0 -0.1927705130470404 0.15866088515044 0 -0.20024290349544879 0.15519061181074151 0 -0.19610042498268601 0.17522502183351021 0 -0.20173639765426299 0.1643971743801825 0 -0.19038698318195549 0.16711234260031069 0 -0.20173639765426299 0.1643971743801825 0 -0.19038698318195549 0.16711234260031069 0 -0.1927705130470404 0.15866088515044 0 -0.19038698318195549 0.16711234260031069 0 -0.1927705130470404 0.15866088515044 0 -0.18413510522225521 0.16259499244525211 0 -0.1927705130470404 0.15866088515044 0 -0.19507878308752141 0.1486405391940768 0 -0.1852646507768699 0.1545619776798173 0 -0.19507878308752141 0.1486405391940768 0 -0.18706065072040501 0.14468661846275019 0 -0.1852646507768699 0.1545619776798173 0 -0.19507878308752141 0.1486405391940768 0 -0.20024290349544879 0.15519061181074151 0 -0.20390252305447459 0.15036513687703029 0 -0.1927705130470404 0.15866088515044 0 -0.19507878308752141 0.1486405391940768 0 -0.20024290349544879 0.15519061181074151 0 -0.19507878308752141 0.1486405391940768 0 -0.202312374299252 0.1441640524023215 0 -0.19563802519160789 0.13807458821396759 0 -0.19507878308752141 0.1486405391940768 0 -0.202312374299252 0.1441640524023215 0 -0.20390252305447459 0.15036513687703029 0 -0.19507878308752141 0.1486405391940768 0 -0.19563802519160789 0.13807458821396759 0 -0.18706065072040501 0.14468661846275019 0 -0.18039056500006781 0.12121373119240569 0 -0.20214902218410111 0.13458958866239301 0 -0.18039056500006781 0.12121373119240569 0 -0.20040659369392541 0.1193864456313013 0 -0.20214902218410111 0.13458958866239301 0 -0.18039056500006781 0.12121373119240569 0 -0.19563802519160789 0.13807458821396759 0 -0.20214902218410111 0.13458958866239301 0 -0.18039056500006781 0.12121373119240569 0 -0.19563802519160789 0.13807458821396759 0 -0.202312374299252 0.1441640524023215 0 -0.19563802519160789 0.13807458821396759 0 -0.20214902218410111 0.13458958866239301 0 -0.2075478572749084 0.11368283749669961 0 -0.22370276663374011 0.1364982034250237 0 -0.20214902218410111 0.13458958866239301 0 -0.2075478572749084 0.11368283749669961 0 -0.22370276663374011 0.1364982034250237 0 -0.22370276663374011 0.1364982034250237 0 -0.22390747936813421 0.14796544613238069 0 -0.20214902218410111 0.13458958866239301 0 -0.22390747936813421 0.14796544613238069 0 -0.20214902218410111 0.13458958866239301 0 -0.22390747936813421 0.14796544613238069 0 -0.20214902218410111 0.13458958866239301 0 -0.20948943058945241 0.14863997276184041 0 -0.22390747936813421 0.14796544613238069 0 -0.2168312664826515 0.15850745189495519 0 -0.20948943058945241 0.14863997276184041 0 -0.2168312664826515 0.15850745189495519 0 -0.20758447520558959 0.15683863127083711 0 -0.20948943058945241 0.14863997276184041 0 -0.20758447520558959 0.15683863127083711 0 -0.20948943058945241 0.14863997276184041 0 -0.20390252305447459 0.15036513687703029 0 -0.20758447520558959 0.15683863127083711 0 -0.20024290349544879 0.15519061181074151 0 -0.20390252305447459 0.15036513687703029 0 -0.202312374299252 0.1441640524023215 0 -0.20214902218410111 0.13458958866239301 0 -0.20948943058945241 0.14863997276184041 0 -0.202312374299252 0.1441640524023215 0 -0.20948943058945241 0.14863997276184041 0 -0.20390252305447459 0.15036513687703029 0 -0.22764024225575111 0.25709488017932702 0 -0.2151106411052526 0.2372148610219694 0 -0.22764024225575111 0.25709488017932702 0 -0.2283272457552897 0.2411225242229286 0 -0.2468893326351202 0.24329134098969171 0 -0.22764024225575111 0.25709488017932702 0 -0.2283272457552897 0.2411225242229286 0 -0.2151106411052526 0.2372148610219694 0 -0.2283272457552897 0.2411225242229286 0 -0.22236430254422471 0.22707510271615991 0 -0.2151106411052526 0.2372148610219694 0 -0.2283272457552897 0.2411225242229286 0 -0.2468893326351202 0.24329134098969171 0 -0.2329273297721271 0.2301735095518313 0 -0.25250373055295899 0.22903132158689779 0 -0.2468893326351202 0.24329134098969171 0 -0.24260825180894061 0.22311859240920151 0 -0.2468893326351202 0.24329134098969171 0 -0.24260825180894061 0.22311859240920151 0 -0.2329273297721271 0.2301735095518313 0 -0.25326648915379463 0.21765104414027969 0 -0.25250373055295899 0.22903132158689779 0 -0.24260825180894061 0.22311859240920151 0 -0.24260825180894061 0.22311859240920151 0 -0.23239639752576971 0.22100751879425451 0 -0.2329273297721271 0.2301735095518313 0 -0.23239639752576971 0.22100751879425451 0 -0.2329273297721271 0.2301735095518313 0 -0.22236430254422471 0.22707510271615991 0 -0.2283272457552897 0.2411225242229286 0 -0.2329273297721271 0.2301735095518313 0 -0.22236430254422471 0.22707510271615991 0 -0.23239639752576971 0.22100751879425451 0 -0.22236430254422471 0.22707510271615991 0 -0.2228431611521535 0.2155973608413651 0 -0.2228431611521535 0.2155973608413651 0 -0.2385329104852989 0.2118543258787943 0 -0.21819588620811961 0.20042781843582741 0 -0.2385329104852989 0.2118543258787943 0 -0.21819588620811961 0.20042781843582741 0 -0.23239639752576971 0.22100751879425451 0 -0.2228431611521535 0.2155973608413651 0 -0.2385329104852989 0.2118543258787943 0 -0.2385329104852989 0.2118543258787943 0 -0.24039455529309961 0.2058142864805034 0 -0.21819588620811961 0.20042781843582741 0 -0.24260825180894061 0.22311859240920151 0 -0.23239639752576971 0.22100751879425451 0 -0.2385329104852989 0.2118543258787943 0 -0.25326648915379463 0.21765104414027969 0 -0.24039455529309961 0.2058142864805034 0 -0.25326648915379463 0.21765104414027969 0 -0.2385329104852989 0.2118543258787943 0 -0.24039455529309961 0.2058142864805034 0 -0.25326648915379463 0.21765104414027969 0 -0.24260825180894061 0.22311859240920151 0 -0.2385329104852989 0.2118543258787943 0 -0.25264776582176801 0.2054066783297176 0 -0.25326648915379463 0.21765104414027969 0 -0.24039455529309961 0.2058142864805034 0 -0.25846339158769432 0.19477026040294029 0 -0.2425545525554833 0.18325607046718431 0 -0.24512564856919611 0.1966003761625241 0 -0.24039455529309961 0.2058142864805034 0 -0.24512564856919611 0.1966003761625241 0 -0.2315679775879351 0.19375458513227489 0 -0.25264776582176801 0.2054066783297176 0 -0.24039455529309961 0.2058142864805034 0 -0.24512564856919611 0.1966003761625241 0 -0.2425545525554833 0.18325607046718431 0 -0.24512564856919611 0.1966003761625241 0 -0.2315679775879351 0.19375458513227489 0 -0.24039455529309961 0.2058142864805034 0 -0.2315679775879351 0.19375458513227489 0 -0.21819588620811961 0.20042781843582741 0 -0.2235130486054053 0.18492553164669809 0 -0.2315679775879351 0.19375458513227489 0 -0.21819588620811961 0.20042781843582741 0 -0.21819588620811961 0.20042781843582741 0 -0.19785886193094021 0.18900131099286041 0 -0.2235130486054053 0.18492553164669809 0 -0.209750232499154 0.17791844316711489 0 -0.21819588620811961 0.20042781843582741 0 -0.209750232499154 0.17791844316711489 0 -0.21819588620811961 0.20042781843582741 0 -0.19785886193094021 0.18900131099286041 0 -0.21819588620811961 0.20042781843582741 0 -0.20376966825666501 0.2022924765927995 0 -0.19785886193094021 0.18900131099286041 0 -0.19785886193094021 0.18900131099286041 0 -0.19005143880425829 0.1974548227072519 0 -0.17752183765376101 0.1775748035498933 0 -0.20376966825666501 0.2022924765927995 0 -0.19785886193094021 0.18900131099286041 0 -0.19005143880425829 0.1974548227072519 0 -0.19005143880425829 0.1974548227072519 0 -0.187650486280975 0.21451757224245291 0 -0.20258103995475549 0.21733484186461069 0 -0.19005143880425829 0.1974548227072519 0 -0.20258103995475549 0.21733484186461069 0 -0.20376966825666501 0.2022924765927995 0 -0.19005143880425829 0.1974548227072519 0 -0.20258103995475549 0.21733484186461069 0 -0.2228431611521535 0.2155973608413651 0 -0.21819588620811961 0.20042781843582741 0 -0.20258103995475549 0.21733484186461069 0 -0.21819588620811961 0.20042781843582741 0 -0.20376966825666501 0.2022924765927995 0 -0.20258103995475549 0.21733484186461069 0 -0.20258103995475549 0.21733484186461069 0 -0.19839606398960871 0.22991008851962841 0 -0.2151106411052526 0.2372148610219694 0 -0.22236430254422471 0.22707510271615991 0 -0.2228431611521535 0.2155973608413651 0 -0.20258103995475549 0.21733484186461069 0 -0.22236430254422471 0.22707510271615991 0 -0.20258103995475549 0.21733484186461069 0 -0.2151106411052526 0.2372148610219694 0 -0.20258103995475549 0.21733484186461069 0 -0.2151106411052526 0.2372148610219694 0 -0.187650486280975 0.21451757224245291 0 -0.20258103995475549 0.21733484186461069 0 -0.19839606398960871 0.22991008851962841 0 -0.187650486280975 0.21451757224245291 0 -0.19839606398960871 0.22991008851962841 0 -0.18195408303730121 0.23534357450296481 0 -0.18940688912330481 0.25610334311205268 0 -0.2046840695697589 0.2451395929661444 0 -0.18195408303730121 0.23534357450296481 0 -0.2046840695697589 0.2451395929661444 0 -0.18195408303730121 0.23534357450296481 0 -0.19839606398960871 0.22991008851962841 0 -0.2046840695697589 0.2451395929661444 0 -0.18195408303730121 0.23534357450296481 0 -0.21239874098331929 0.25437807278244762 0 -0.2046840695697589 0.2451395929661444 0 -0.2151106411052526 0.2372148610219694 0 -0.19839606398960871 0.22991008851962841 0 -0.2046840695697589 0.2451395929661444 0 -0.2151106411052526 0.2372148610219694 0 -0.22764024225575111 0.25709488017932702 0 -0.21239874098331929 0.25437807278244762 0 -0.2151106411052526 0.2372148610219694 0 -0.16225317791305921 0.25358582624422438 0 -0.18195408303730121 0.23534357450296481 0 -0.155242522585569 0.24016045739440639 0 -0.17508206900779469 0.25918785244088571 0 -0.16225317791305921 0.25358582624422438 0 -0.18195408303730121 0.23534357450296481 0 -0.187650486280975 0.21451757224245291 0 -0.18195408303730121 0.23534357450296481 0 -0.17144823439391829 0.2141895330645725 0 -0.18195408303730121 0.23534357450296481 0 -0.15922409650484359 0.2255475560397853 0 -0.18195408303730121 0.23534357450296481 0 -0.15922409650484359 0.2255475560397853 0 -0.155242522585569 0.24016045739440639 0 -0.18195408303730121 0.23534357450296481 0 -0.15922409650484359 0.2255475560397853 0 -0.17144823439391829 0.2141895330645725 0 -0.15922409650484359 0.2255475560397853 0 -0.15900733689739069 0.21062159977010589 0 -0.17144823439391829 0.2141895330645725 0 -0.15900733689739069 0.21062159977010589 0 -0.1653418357915476 0.2018213455952054 0 -0.15361129879784891 0.20139719057542019 0 -0.17144823439391829 0.2141895330645725 0 -0.17723797391968729 0.20390802022475071 0 -0.1653418357915476 0.2018213455952054 0 -0.15900733689739069 0.21062159977010589 0 -0.17144823439391829 0.2141895330645725 0 -0.1653418357915476 0.2018213455952054 0 -0.187650486280975 0.21451757224245291 0 -0.17144823439391829 0.2141895330645725 0 -0.17723797391968729 0.20390802022475071 0 -0.19005143880425829 0.1974548227072519 0 -0.187650486280975 0.21451757224245291 0 -0.17723797391968729 0.20390802022475071 0 -0.19005143880425829 0.1974548227072519 0 -0.17169787432773731 0.19155682751427069 0 -0.17752183765376101 0.1775748035498933 0 -0.19005143880425829 0.1974548227072519 0 -0.17723797391968729 0.20390802022475071 0 -0.17169787432773731 0.19155682751427069 0 -0.19005143880425829 0.1974548227072519 0 -0.17752183765376101 0.1775748035498933 0 -0.17169787432773731 0.19155682751427069 0 -0.1653418357915476 0.2018213455952054 0 -0.15791164184663151 0.19274793286901881 0 -0.17723797391968729 0.20390802022475071 0 -0.17169787432773731 0.19155682751427069 0 -0.1653418357915476 0.2018213455952054 0 -0.1653418357915476 0.2018213455952054 0 -0.15791164184663151 0.19274793286901881 0 -0.15361129879784891 0.20139719057542019 0 -0.17169787432773731 0.19155682751427069 0 -0.15791164184663151 0.19274793286901881 0 -0.16134243263699979 0.18146195783717889 0 -0.15791164184663151 0.19274793286901881 0 -0.15361129879784891 0.20139719057542019 0 -0.14754997702249989 0.19123102061556399 0 -0.15791164184663151 0.19274793286901881 0 -0.14754997702249989 0.19123102061556399 0 -0.15378055215212841 0.1853342336718547 0 -0.15361129879784891 0.20139719057542019 0 -0.144337775963609 0.20069921068637719 0 -0.14754997702249989 0.19123102061556399 0 -0.14754997702249989 0.19123102061556399 0 -0.13411435042981179 0.19106266128805069 0 -0.1463292802833521 0.18023770330257241 0 -0.144337775963609 0.20069921068637719 0 -0.14754997702249989 0.19123102061556399 0 -0.13411435042981179 0.19106266128805069 0 -0.13411435042981179 0.19106266128805069 0 -0.12967955466007261 0.2074258594294596 0 -0.1235431789710726 0.1969801993001162 0 -0.13411435042981179 0.19106266128805069 0 -0.13770187294137159 0.2043383794177894 0 -0.12967955466007261 0.2074258594294596 0 -0.144337775963609 0.20069921068637719 0 -0.13411435042981179 0.19106266128805069 0 -0.13770187294137159 0.2043383794177894 0 -0.13770187294137159 0.2043383794177894 0 -0.13855706597983281 0.21350408889879899 0 -0.14247480998137141 0.20718589651263181 0 -0.1364941099723872 0.21575153757660309 0 -0.120958802369795 0.22183359367242919 0 -0.11894773722242739 0.20818951851535461 0 -0.12967955466007261 0.2074258594294596 0 -0.1364941099723872 0.21575153757660309 0 -0.11894773722242739 0.20818951851535461 0 -0.13770187294137159 0.2043383794177894 0 -0.12967955466007261 0.2074258594294596 0 -0.13855706597983281 0.21350408889879899 0 -0.1364941099723872 0.21575153757660309 0 -0.11894773722242739 0.20818951851535461 0 -0.12967955466007261 0.2074258594294596 0 -0.1364941099723872 0.21575153757660309 0 -0.13855706597983281 0.21350408889879899 0 -0.1364941099723872 0.21575153757660309 0 -0.13855706597983281 0.21350408889879899 0 -0.15922409650484359 0.2255475560397853 0 -0.1364941099723872 0.21575153757660309 0 -0.13855706597983281 0.21350408889879899 0 -0.15922409650484359 0.2255475560397853 0 -0.13855706597983281 0.21350408889879899 0 -0.14930252504067221 0.21020190704756139 0 -0.13855706597983281 0.21350408889879899 0 -0.14247480998137141 0.20718589651263181 0 -0.14930252504067221 0.21020190704756139 0 -0.144337775963609 0.20069921068637719 0 -0.14247480998137141 0.20718589651263181 0 -0.14930252504067221 0.21020190704756139 0 -0.144337775963609 0.20069921068637719 0 -0.13770187294137159 0.2043383794177894 0 -0.14247480998137141 0.20718589651263181 0 -0.15900733689739069 0.21062159977010589 0 -0.15361129879784891 0.20139719057542019 0 -0.14930252504067221 0.21020190704756139 0 -0.15361129879784891 0.20139719057542019 0 -0.144337775963609 0.20069921068637719 0 -0.14930252504067221 0.21020190704756139 0 -0.15922409650484359 0.2255475560397853 0 -0.15900733689739069 0.21062159977010589 0 -0.14930252504067221 0.21020190704756139 0 -0.15922409650484359 0.2255475560397853 0 -0.13635804662702189 0.23039018670563211 0 -0.14207867318260539 0.23889574066385899 0 -0.15922409650484359 0.2255475560397853 0 -0.1364941099723872 0.21575153757660309 0 -0.13635804662702189 0.23039018670563211 0 -0.15922409650484359 0.2255475560397853 0 -0.1364941099723872 0.21575153757660309 0 -0.1364941099723872 0.21575153757660309 0 -0.13635804662702189 0.23039018670563211 0 -0.11673432752768111 0.2372784614512472 0 -0.1364941099723872 0.21575153757660309 0 -0.11673432752768111 0.2372784614512472 0 -0.13635804662702189 0.23039018670563211 0 -0.12961957513534 0.23973743310435161 0 -0.11673432752768111 0.2372784614512472 0 -0.13635804662702189 0.23039018670563211 0 -0.12961957513534 0.23973743310435161 0 -0.14207867318260539 0.23889574066385899 0 -0.12961957513534 0.23973743310435161 0 -0.13357218109292621 0.2499317644564327 0 -0.1213089330464012 0.24626659804535689 0 -0.12961957513534 0.23973743310435161 0 -0.13357218109292621 0.2499317644564327 0 -0.14207867318260539 0.23889574066385899 0 -0.14746997276257359 0.25293699741112718 0 -0.13357218109292621 0.2499317644564327 0 -0.14207867318260539 0.23889574066385899 0 -0.15922409650484359 0.2255475560397853 0 -0.14207867318260539 0.23889574066385899 0 -0.155242522585569 0.24016045739440639 0 -0.14746997276257359 0.25293699741112718 0 -0.14207867318260539 0.23889574066385899 0 -0.155242522585569 0.24016045739440639 0 -0.16225317791305921 0.25358582624422438 0 -0.14746997276257359 0.25293699741112718 0 -0.155242522585569 0.24016045739440639 0 -0.166988808872575 0.14091924592242799 0 -0.1736883691443292 0.1501381655411517 0 -0.1666646902223726 0.16034837340756511 0 -0.166988808872575 0.14091924592242799 0 -0.1666646902223726 0.16034837340756511 0 -0.15580754279098399 0.143121943265237 0 -0.1666646902223726 0.16034837340756511 0 -0.1549726550285947 0.15674585516748279 0 -0.15580754279098399 0.143121943265237 0 -0.1666646902223726 0.16034837340756511 0 -0.15580754279098399 0.143121943265237 0 -0.1628447509754036 0.1248738178506951 0 -0.166988808872575 0.14091924592242799 0 -0.17824709647023271 0.1379937977022469 0 -0.1628447509754036 0.1248738178506951 0 -0.166988808872575 0.14091924592242799 0 -0.15580754279098399 0.143121943265237 0 -0.18039056500006781 0.12121373119240569 0 -0.1628447509754036 0.1248738178506951 0 -0.17824709647023271 0.1379937977022469 0 -0.19563802519160789 0.13807458821396759 0 -0.17824709647023271 0.1379937977022469 0 -0.18706065072040501 0.14468661846275019 0 -0.18039056500006781 0.12121373119240569 0 -0.19563802519160789 0.13807458821396759 0 -0.17824709647023271 0.1379937977022469 0 -0.17824709647023271 0.1379937977022469 0 -0.18706065072040501 0.14468661846275019 0 -0.1811623126986891 0.14793864394101769 0 -0.166988808872575 0.14091924592242799 0 -0.17824709647023271 0.1379937977022469 0 -0.1736883691443292 0.1501381655411517 0 -0.17824709647023271 0.1379937977022469 0 -0.1811623126986891 0.14793864394101769 0 -0.1736883691443292 0.1501381655411517 0 -0.1811623126986891 0.14793864394101769 0 -0.1736883691443292 0.1501381655411517 0 -0.17666515903818969 0.15970684649729899 0 -0.1811623126986891 0.14793864394101769 0 -0.1852646507768699 0.1545619776798173 0 -0.17666515903818969 0.15970684649729899 0 -0.18706065072040501 0.14468661846275019 0 -0.1811623126986891 0.14793864394101769 0 -0.1852646507768699 0.1545619776798173 0 -0.17752183765376101 0.1775748035498933 0 -0.1666646902223726 0.16034837340756511 0 -0.1927705130470404 0.15866088515044 0 -0.1852646507768699 0.1545619776798173 0 -0.18413510522225521 0.16259499244525211 0 -0.17666515903818969 0.15970684649729899 0 -0.17752183765376101 0.1775748035498933 0 -0.1666646902223726 0.16034837340756511 0 -0.1852646507768699 0.1545619776798173 0 -0.18413510522225521 0.16259499244525211 0 -0.17666515903818969 0.15970684649729899 0 -0.18413510522225521 0.16259499244525211 0 -0.17666515903818969 0.15970684649729899 0 -0.17752183765376101 0.1775748035498933 0 -0.19038698318195549 0.16711234260031069 0 -0.18413510522225521 0.16259499244525211 0 -0.17752183765376101 0.1775748035498933 0 -0.1736883691443292 0.1501381655411517 0 -0.17666515903818969 0.15970684649729899 0 -0.1666646902223726 0.16034837340756511 0 -0.17169787432773731 0.19155682751427069 0 -0.17752183765376101 0.1775748035498933 0 -0.16134243263699979 0.18146195783717889 0 -0.17752183765376101 0.1775748035498933 0 -0.160166055014445 0.16782332876165751 0 -0.17752183765376101 0.1775748035498933 0 -0.16134243263699979 0.18146195783717889 0 -0.160166055014445 0.16782332876165751 0 -0.16134243263699979 0.18146195783717889 0 -0.160166055014445 0.16782332876165751 0 -0.1543363168372556 0.17604552304072019 0 -0.16134243263699979 0.18146195783717889 0 -0.15378055215212841 0.1853342336718547 0 -0.1543363168372556 0.17604552304072019 0 -0.15791164184663151 0.19274793286901881 0 -0.16134243263699979 0.18146195783717889 0 -0.15378055215212841 0.1853342336718547 0 -0.17752183765376101 0.1775748035498933 0 -0.1666646902223726 0.16034837340756511 0 -0.160166055014445 0.16782332876165751 0 -0.1666646902223726 0.16034837340756511 0 -0.160166055014445 0.16782332876165751 0 -0.1549726550285947 0.15674585516748279 0 -0.160166055014445 0.16782332876165751 0 -0.1549726550285947 0.15674585516748279 0 -0.14281027237512919 0.15807185397342149 0 -0.160166055014445 0.16782332876165751 0 -0.14281027237512919 0.15807185397342149 0 -0.160166055014445 0.16782332876165751 0 -0.1483000089644074 0.1706867490983929 0 -0.14281027237512919 0.15807185397342149 0 -0.160166055014445 0.16782332876165751 0 -0.1483000089644074 0.1706867490983929 0 -0.1543363168372556 0.17604552304072019 0 -0.1483000089644074 0.1706867490983929 0 -0.14281027237512919 0.15807185397342149 0 -0.13856119746919621 0.1732320213376258 0 -0.14754997702249989 0.19123102061556399 0 -0.15378055215212841 0.1853342336718547 0 -0.1463292802833521 0.18023770330257241 0 -0.15378055215212841 0.1853342336718547 0 -0.1543363168372556 0.17604552304072019 0 -0.1463292802833521 0.18023770330257241 0 -0.1483000089644074 0.1706867490983929 0 -0.1543363168372556 0.17604552304072019 0 -0.1463292802833521 0.18023770330257241 0 -0.1483000089644074 0.1706867490983929 0 -0.1463292802833521 0.18023770330257241 0 -0.13856119746919621 0.1732320213376258 0 -0.13411435042981179 0.19106266128805069 0 -0.13856119746919621 0.1732320213376258 0 -0.12609153575556739 0.16924223779836581 0 -0.13411435042981179 0.19106266128805069 0 -0.12609153575556739 0.16924223779836581 0 -0.1152399272795421 0.1851742901109647 0 -0.13411435042981179 0.19106266128805069 0 -0.1463292802833521 0.18023770330257241 0 -0.13856119746919621 0.1732320213376258 0 -0.14281027237512919 0.15807185397342149 0 -0.12609153575556739 0.16924223779836581 0 -0.135520965557581 0.14756887546063741 0 -0.12609153575556739 0.16924223779836581 0 -0.135520965557581 0.14756887546063741 0 -0.14281027237512919 0.15807185397342149 0 -0.13856119746919621 0.1732320213376258 0 -0.12609153575556739 0.16924223779836581 0 -0.135520965557581 0.14756887546063741 0 -0.13028426483969929 0.13221647237215789 0 -0.1192914655824909 0.15059360814623801 0 -0.12609153575556739 0.16924223779836581 0 -0.135520965557581 0.14756887546063741 0 -0.1192914655824909 0.15059360814623801 0 -0.1549726550285947 0.15674585516748279 0 -0.14281027237512919 0.15807185397342149 0 -0.14652630769324659 0.14708303210739521 0 -0.14281027237512919 0.15807185397342149 0 -0.135520965557581 0.14756887546063741 0 -0.14652630769324659 0.14708303210739521 0 -0.1549726550285947 0.15674585516748279 0 -0.14652630769324659 0.14708303210739521 0 -0.15580754279098399 0.143121943265237 0 -0.1628447509754036 0.1248738178506951 0 -0.15580754279098399 0.143121943265237 0 -0.14495039535959489 0.12589551312290931 0 -0.135520965557581 0.14756887546063741 0 -0.14652630769324659 0.14708303210739521 0 -0.14495039535959489 0.12589551312290931 0 -0.15580754279098399 0.143121943265237 0 -0.14495039535959489 0.12589551312290931 0 -0.14652630769324659 0.14708303210739521 0 -0.15580754279098399 0.143121943265237 0 -0.14495039535959489 0.12589551312290931 0 -0.135520965557581 0.14756887546063741 0 -0.14495039535959489 0.12589551312290931 0 -0.135520965557581 0.14756887546063741 0 -0.14495039535959489 0.12589551312290931 0 -0.13028426483969929 0.13221647237215789 0 -0.13028426483969929 0.13221647237215789 0 -0.1131006250587715 0.12959615498317961 0 -0.1192914655824909 0.15059360814623801 0 -0.1131006250587715 0.12959615498317961 0 -0.10078539792307099 0.15464240809582361 0 -0.092802426943272898 0.12960292979422991 0 -0.1131006250587715 0.12959615498317961 0 -0.10078539792307099 0.15464240809582361 0 -0.1192914655824909 0.15059360814623801 0 -0.10078539792307099 0.15464240809582361 0 -0.1192914655824909 0.15059360814623801 0 -0.10897534263953949 0.16967833346669081 0 -0.12609153575556739 0.16924223779836581 0 -0.1192914655824909 0.15059360814623801 0 -0.10897534263953949 0.16967833346669081 0 -0.12609153575556739 0.16924223779836581 0 -0.1152399272795421 0.1851742901109647 0 -0.10897534263953949 0.16967833346669081 0 -0.1152399272795421 0.1851742901109647 0 -0.098409264142157865 0.1851788001203086 0 -0.10897534263953949 0.16967833346669081 0 -0.098409264142157865 0.1851788001203086 0 -0.10897534263953949 0.16967833346669081 0 -0.082277471490505807 0.17420718144711089 0 -0.10078539792307099 0.15464240809582361 0 -0.10897534263953949 0.16967833346669081 0 -0.082277471490505807 0.17420718144711089 0 -0.10078539792307099 0.15464240809582361 0 -0.082277471490505807 0.17420718144711089 0 -0.082277471490505807 0.17420718144711089 0 -0.065615427061545384 0.16058384892905991 0 -0.074642854581774637 0.14147916649728479 0 -0.10078539792307099 0.15464240809582361 0 -0.082277471490505807 0.17420718144711089 0 -0.074642854581774637 0.14147916649728479 0 -0.098409264142157865 0.1851788001203086 0 -0.082277471490505807 0.17420718144711089 0 -0.084152214828733252 0.19620669612267311 0 -0.082277471490505807 0.17420718144711089 0 -0.063769545057940663 0.19377195479839809 0 -0.082277471490505807 0.17420718144711089 0 -0.063769545057940663 0.19377195479839809 0 -0.051824687549248197 0.17345858692208871 0 -0.082277471490505807 0.17420718144711089 0 -0.065615427061545384 0.16058384892905991 0 -0.051824687549248197 0.17345858692208871 0 -0.074642854581774637 0.14147916649728479 0 -0.055186524828957063 0.1281687789626855 0 -0.07438317581125764 0.1124407737129243 0 -0.074642854581774637 0.14147916649728479 0 -0.092802426943272898 0.12960292979422991 0 -0.07438317581125764 0.1124407737129243 0 -0.10078539792307099 0.15464240809582361 0 -0.074642854581774637 0.14147916649728479 0 -0.092802426943272898 0.12960292979422991 0 -0.10058650277722481 0.24229521027045481 0 -0.11673432752768111 0.2372784614512472 0 -0.1053270170515283 0.2324499666522013 0 -0.096974545082976191 0.25880538532589209 0 -0.10058650277722481 0.24229521027045481 0 -0.088715331182393942 0.2449718195011524 0 -0.096974545082976191 0.25880538532589209 0 -0.10058650277722481 0.24229521027045481 0 -0.11673432752768111 0.2372784614512472 0 -0.096974545082976191 0.25880538532589209 0 -0.112097455783086 0.24444379951602521 0 -0.11673432752768111 0.2372784614512472 0 -0.096974545082976191 0.25880538532589209 0 -0.11673432752768111 0.2372784614512472 0 -0.10058650277722481 0.24229521027045481 0 -0.091983872440322634 0.23323291704093771 0 -0.088715331182393942 0.2449718195011524 0 -0.10058650277722481 0.24229521027045481 0 -0.1053270170515283 0.2324499666522013 0 -0.091983872440322634 0.23323291704093771 0 -0.11521273165378559 0.25497892835963998 0 -0.112097455783086 0.24444379951602521 0 -0.1213089330464012 0.24626659804535689 0 -0.112097455783086 0.24444379951602521 0 -0.1213089330464012 0.24626659804535689 0 -0.11673432752768111 0.2372784614512472 0 -0.12961957513534 0.23973743310435161 0 -0.1213089330464012 0.24626659804535689 0 -0.11673432752768111 0.2372784614512472 0 -0.11673432752768111 0.2372784614512472 0 -0.111977792011399 0.2261119040305537 0 -0.1053270170515283 0.2324499666522013 0 -0.1364941099723872 0.21575153757660309 0 -0.11673432752768111 0.2372784614512472 0 -0.120958802369795 0.22183359367242919 0 -0.11673432752768111 0.2372784614512472 0 -0.120958802369795 0.22183359367242919 0 -0.111977792011399 0.2261119040305537 0 -0.120958802369795 0.22183359367242919 0 -0.111977792011399 0.2261119040305537 0 -0.11263418842693861 0.21654350143059611 0 -0.111977792011399 0.2261119040305537 0 -0.1027476190553803 0.22153268259517769 0 -0.11263418842693861 0.21654350143059611 0 -0.1027476190553803 0.22153268259517769 0 -0.088008266818085573 0.21525264443096179 0 -0.091983872440322634 0.23323291704093771 0 -0.111977792011399 0.2261119040305537 0 -0.1027476190553803 0.22153268259517769 0 -0.1053270170515283 0.2324499666522013 0 -0.1027476190553803 0.22153268259517769 0 -0.1053270170515283 0.2324499666522013 0 -0.091983872440322634 0.23323291704093771 0 -0.1027476190553803 0.22153268259517769 0 -0.1014013644724687 0.20062749945410349 0 -0.088008266818085573 0.21525264443096179 0 -0.1027476190553803 0.22153268259517769 0 -0.11263418842693861 0.21654350143059611 0 -0.1014013644724687 0.20062749945410349 0 -0.11263418842693861 0.21654350143059611 0 -0.11894773722242739 0.20818951851535461 0 -0.1014013644724687 0.20062749945410349 0 -0.11894773722242739 0.20818951851535461 0 -0.1014013644724687 0.20062749945410349 0 -0.120958802369795 0.22183359367242919 0 -0.11263418842693861 0.21654350143059611 0 -0.11894773722242739 0.20818951851535461 0 -0.12967955466007261 0.2074258594294596 0 -0.11894773722242739 0.20818951851535461 0 -0.1235431789710726 0.1969801993001162 0 -0.11894773722242739 0.20818951851535461 0 -0.1235431789710726 0.1969801993001162 0 -0.1014013644724687 0.20062749945410349 0 -0.13411435042981179 0.19106266128805069 0 -0.1152399272795421 0.1851742901109647 0 -0.1235431789710726 0.1969801993001162 0 -0.1152399272795421 0.1851742901109647 0 -0.1235431789710726 0.1969801993001162 0 -0.1014013644724687 0.20062749945410349 0 -0.1152399272795421 0.1851742901109647 0 -0.098409264142157865 0.1851788001203086 0 -0.1014013644724687 0.20062749945410349 0 -0.098409264142157865 0.1851788001203086 0 -0.1014013644724687 0.20062749945410349 0 -0.084152214828733252 0.19620669612267311 0 -0.084152214828733252 0.19620669612267311 0 -0.063769545057940663 0.19377195479839809 0 -0.072142849724606259 0.2099260872470029 0 -0.082277471490505807 0.17420718144711089 0 -0.084152214828733252 0.19620669612267311 0 -0.063769545057940663 0.19377195479839809 0 -0.072142849724606259 0.2099260872470029 0 -0.088008266818085573 0.21525264443096179 0 -0.068407602306599244 0.22780678473085289 0 -0.084152214828733252 0.19620669612267311 0 -0.072142849724606259 0.2099260872470029 0 -0.088008266818085573 0.21525264443096179 0 -0.1014013644724687 0.20062749945410349 0 -0.084152214828733252 0.19620669612267311 0 -0.088008266818085573 0.21525264443096179 0 -0.091983872440322634 0.23323291704093771 0 -0.068407602306599244 0.22780678473085289 0 -0.080478212985736569 0.23984126859451149 0 -0.088008266818085573 0.21525264443096179 0 -0.091983872440322634 0.23323291704093771 0 -0.068407602306599244 0.22780678473085289 0 -0.073553522625709841 0.25068431627396631 0 -0.068407602306599244 0.22780678473085289 0 -0.080478212985736569 0.23984126859451149 0 -0.073553522625709841 0.25068431627396631 0 -0.068407602306599244 0.22780678473085289 0 -0.050132500168443887 0.2425632472220397 0 -0.073553522625709841 0.25068431627396631 0 -0.080478212985736569 0.23984126859451149 0 -0.088715331182393942 0.2449718195011524 0 -0.091983872440322634 0.23323291704093771 0 -0.080478212985736569 0.23984126859451149 0 -0.088715331182393942 0.2449718195011524 0 -0.050132500168443887 0.2425632472220397 0 -0.026711477711177899 0.23444217817011309 0 -0.029881977245259539 0.25372898958001938 0 -0.050132500168443887 0.2425632472220397 0 -0.026711477711177899 0.23444217817011309 0 -0.050132500168443887 0.2425632472220397 0 -0.042100384295285467 0.22888272761933071 0 -0.026711477711177899 0.23444217817011309 0 -0.073553522625709841 0.25068431627396631 0 -0.050132500168443887 0.2425632472220397 0 -0.068407602306599244 0.22780678473085289 0 -0.050132500168443887 0.2425632472220397 0 -0.042100384295285467 0.22888272761933071 0 -0.068407602306599244 0.22780678473085289 0 -0.042100384295285467 0.22888272761933071 0 -0.045261618625375449 0.21333672814968549 0 -0.045261618625375449 0.21333672814968549 0 -0.02675369219281019 0.23290150150097291 0 -0.045261618625375449 0.21333672814968549 0 -0.02772339752401377 0.22169904798743939 0 -0.02675369219281019 0.23290150150097291 0 -0.042100384295285467 0.22888272761933071 0 -0.045261618625375449 0.21333672814968549 0 -0.02675369219281019 0.23290150150097291 0 -0.042100384295285467 0.22888272761933071 0 -0.02675369219281019 0.23290150150097291 0 -0.026711477711177899 0.23444217817011309 0 -0.045261618625375449 0.21333672814968549 0 -0.025983012380334781 0.2115930184476672 0 -0.02772339752401377 0.22169904798743939 0 -0.045261618625375449 0.21333672814968549 0 -0.029252980350323681 0.1977376245802884 0 -0.025983012380334781 0.2115930184476672 0 -0.063769545057940663 0.19377195479839809 0 -0.045261618625375449 0.21333672814968549 0 -0.063769545057940663 0.19377195479839809 0 -0.072142849724606259 0.2099260872470029 0 -0.045261618625375449 0.21333672814968549 0 -0.072142849724606259 0.2099260872470029 0 -0.068407602306599244 0.22780678473085289 0 -0.045261618625375449 0.21333672814968549 0 -0.063769545057940663 0.19377195479839809 0 -0.045261618625375449 0.21333672814968549 0 -0.041349789320347038 0.18749549167170951 0 -0.029252980350323681 0.1977376245802884 0 -0.041349789320347038 0.18749549167170951 0 -0.02440704960050057 0.1813667693045137 0 -0.045261618625375449 0.21333672814968549 0 -0.029252980350323681 0.1977376245802884 0 -0.041349789320347038 0.18749549167170951 0 -0.029252980350323681 0.1977376245802884 0 -0.01949536222664228 0.1923427933584827 0 -0.02440704960050057 0.1813667693045137 0 -0.029252980350323681 0.1977376245802884 0 -0.019383630886315679 0.20246845033521829 0 -0.01949536222664228 0.1923427933584827 0 -0.019383630886315679 0.20246845033521829 0 -0.01949536222664228 0.1923427933584827 0 -0.011799668219416901 0.19617813045667529 0 -0.01949536222664228 0.1923427933584827 0 -0.011799668219416901 0.19617813045667529 0 -0.0099503170468955675 0.185467411183286 0 -0.0047591026019954026 0.19332022418589959 0 -0.011799668219416901 0.19617813045667529 0 -0.0099503170468955675 0.185467411183286 0 -0.0047591026019954026 0.19332022418589959 0 -0.003081975793268537 0.18782002811878001 0 -0.0099503170468955675 0.185467411183286 0 -0.0047591026019954026 0.19332022418589959 0 -2.3422743153838069e-05 0.1988005567515452 0 0.0015327128313205251 0.1915709431207247 0 -0.0047591026019954026 0.19332022418589959 0 -0.003081975793268537 0.18782002811878001 0 0.0015327128313205251 0.1915709431207247 0 -2.3422743153838069e-05 0.1988005567515452 0 -0.0064134676939889088 0.1997865992100484 0 -0.0042090490499692894 0.20625736901624969 0 -0.0047591026019954026 0.19332022418589959 0 -2.3422743153838069e-05 0.1988005567515452 0 -0.0064134676939889088 0.1997865992100484 0 -0.0047591026019954026 0.19332022418589959 0 -0.0064134676939889088 0.1997865992100484 0 -0.011799668219416901 0.19617813045667529 0 -0.019383630886315679 0.20246845033521829 0 -0.011799668219416901 0.19617813045667529 0 -0.01127609585540912 0.20437671563987239 0 -0.0064134676939889088 0.1997865992100484 0 -0.011799668219416901 0.19617813045667529 0 -0.01127609585540912 0.20437671563987239 0 -0.019383630886315679 0.20246845033521829 0 -0.01127609585540912 0.20437671563987239 0 -0.015975625416527989 0.21106072298800291 0 -0.0098363755348389904 0.2097806401996784 0 -0.01127609585540912 0.20437671563987239 0 -0.015975625416527989 0.21106072298800291 0 -0.0098363755348389904 0.2097806401996784 0 -0.01127609585540912 0.20437671563987239 0 -0.0042090490499692894 0.20625736901624969 0 -0.0042090490499692894 0.20625736901624969 0 0.00083142932333707279 0.21381627434491049 0 0.0029581381265264858 0.20519393183106241 0 -0.0064134676939889088 0.1997865992100484 0 -0.01127609585540912 0.20437671563987239 0 -0.0042090490499692894 0.20625736901624969 0 -0.0098363755348389904 0.2097806401996784 0 -0.0042090490499692894 0.20625736901624969 0 -0.0060196598873338584 0.21321125444391051 0 -2.3422743153838069e-05 0.1988005567515452 0 -0.0042090490499692894 0.20625736901624969 0 0.0029581381265264858 0.20519393183106241 0 -0.0055559642639475869 0.21913689448513271 0 0.0001093474821353509 0.22215689039817851 0 0.00083142932333707279 0.21381627434491049 0 -0.0060196598873338584 0.21321125444391051 0 -0.0055559642639475869 0.21913689448513271 0 0.00083142932333707279 0.21381627434491049 0 -0.0042090490499692894 0.20625736901624969 0 -0.0060196598873338584 0.21321125444391051 0 0.00083142932333707279 0.21381627434491049 0 -0.0060196598873338584 0.21321125444391051 0 -0.01091493828254137 0.21625783395607551 0 -0.0055559642639475869 0.21913689448513271 0 -0.01091493828254137 0.21625783395607551 0 -0.015975625416527989 0.21106072298800291 0 -0.017588491814277241 0.22188462813269769 0 -0.0098363755348389904 0.2097806401996784 0 -0.0060196598873338584 0.21321125444391051 0 -0.01091493828254137 0.21625783395607551 0 -0.0098363755348389904 0.2097806401996784 0 -0.01091493828254137 0.21625783395607551 0 -0.015975625416527989 0.21106072298800291 0 -0.015975625416527989 0.21106072298800291 0 -0.025983012380334781 0.2115930184476672 0 -0.017588491814277241 0.22188462813269769 0 -0.019383630886315679 0.20246845033521829 0 -0.015975625416527989 0.21106072298800291 0 -0.025983012380334781 0.2115930184476672 0 -0.029252980350323681 0.1977376245802884 0 -0.019383630886315679 0.20246845033521829 0 -0.025983012380334781 0.2115930184476672 0 -0.025983012380334781 0.2115930184476672 0 -0.02772339752401377 0.22169904798743939 0 -0.017588491814277241 0.22188462813269769 0 -0.02772339752401377 0.22169904798743939 0 -0.02675369219281019 0.23290150150097291 0 -0.022352419066048221 0.22652947853539249 0 -0.02675369219281019 0.23290150150097291 0 -0.017344094733091689 0.22963273652046001 0 -0.01246950101347712 0.23792538229425519 0 -0.02675369219281019 0.23290150150097291 0 -0.017344094733091689 0.22963273652046001 0 -0.022352419066048221 0.22652947853539249 0 -0.017344094733091689 0.22963273652046001 0 -0.017588491814277241 0.22188462813269769 0 -0.01350500053265637 0.2263729039251991 0 -0.017344094733091689 0.22963273652046001 0 -0.022352419066048221 0.22652947853539249 0 -0.017588491814277241 0.22188462813269769 0 -0.02772339752401377 0.22169904798743939 0 -0.022352419066048221 0.22652947853539249 0 -0.017588491814277241 0.22188462813269769 0 -0.01091493828254137 0.21625783395607551 0 -0.017588491814277241 0.22188462813269769 0 -0.01009356448405245 0.2229710377255022 0 -0.017588491814277241 0.22188462813269769 0 -0.01350500053265637 0.2263729039251991 0 -0.01009356448405245 0.2229710377255022 0 -0.01091493828254137 0.21625783395607551 0 -0.01009356448405245 0.2229710377255022 0 -0.0055559642639475869 0.21913689448513271 0 -0.01009356448405245 0.2229710377255022 0 -0.0055559642639475869 0.21913689448513271 0 -0.0046023563546483629 0.22639127835839259 0 -0.0055559642639475869 0.21913689448513271 0 -0.0046023563546483629 0.22639127835839259 0 0.0001093474821353509 0.22215689039817851 0 -0.0046023563546483629 0.22639127835839259 0 0.0010433620948100131 0.23240638127880581 0 0.0001093474821353509 0.22215689039817851 0 -0.0046023563546483629 0.22639127835839259 0 -0.0089938510992040935 0.23100321332213661 0 0.0010433620948100131 0.23240638127880581 0 -0.017344094733091689 0.22963273652046001 0 -0.0089938510992040935 0.23100321332213661 0 -0.01246950101347712 0.23792538229425519 0 -0.01009356448405245 0.2229710377255022 0 -0.0046023563546483629 0.22639127835839259 0 -0.0089938510992040935 0.23100321332213661 0 -0.017344094733091689 0.22963273652046001 0 -0.01350500053265637 0.2263729039251991 0 -0.0089938510992040935 0.23100321332213661 0 -0.01350500053265637 0.2263729039251991 0 -0.01009356448405245 0.2229710377255022 0 -0.0089938510992040935 0.23100321332213661 0 -0.0089938510992040935 0.23100321332213661 0 -0.001965278602122185 0.24182690426762959 0 0.0010433620948100131 0.23240638127880581 0 -0.0089938510992040935 0.23100321332213661 0 -0.01246950101347712 0.23792538229425519 0 -0.001965278602122185 0.24182690426762959 0 -0.0082457657602449386 0.25246627485226031 0 -0.01246950101347712 0.23792538229425519 0 -0.001965278602122185 0.24182690426762959 0 -0.0082457657602449386 0.25246627485226031 0 -0.02675369219281019 0.23290150150097291 0 -0.01246950101347712 0.23792538229425519 0 -0.029881977245259539 0.25372898958001938 0 -0.0082457657602449386 0.25246627485226031 0 -0.026711477711177899 0.23444217817011309 0 -0.0082457657602449386 0.25246627485226031 0 -0.02675369219281019 0.23290150150097291 0 -0.026711477711177899 0.23444217817011309 0 -0.0082457657602449386 0.25246627485226031 0 -0.02675369219281019 0.23290150150097291 0 -0.046893106203257602 0.1507880314475378 0 -0.033582854738693747 0.16530128627528251 0 -0.03096555907766051 0.14775731769023701 0 -0.035508455794597132 0.13046501110523001 0 -0.046893106203257602 0.1507880314475378 0 -0.03096555907766051 0.14775731769023701 0 -0.035508455794597132 0.13046501110523001 0 -0.046893106203257602 0.1507880314475378 0 -0.035508455794597132 0.13046501110523001 0 -0.055186524828957063 0.1281687789626855 0 -0.046893106203257602 0.1507880314475378 0 -0.035508455794597132 0.13046501110523001 0 -0.055186524828957063 0.1281687789626855 0 -0.04045215309894238 0.1165912735558266 0 -0.074642854581774637 0.14147916649728479 0 -0.055186524828957063 0.1281687789626855 0 -0.046893106203257602 0.1507880314475378 0 -0.065615427061545384 0.16058384892905991 0 -0.074642854581774637 0.14147916649728479 0 -0.046893106203257602 0.1507880314475378 0 -0.065615427061545384 0.16058384892905991 0 -0.046893106203257602 0.1507880314475378 0 -0.051824687549248197 0.17345858692208871 0 -0.063769545057940663 0.19377195479839809 0 -0.051824687549248197 0.17345858692208871 0 -0.041349789320347038 0.18749549167170951 0 -0.041349789320347038 0.18749549167170951 0 -0.033582854738693747 0.16530128627528251 0 -0.02440704960050057 0.1813667693045137 0 -0.051824687549248197 0.17345858692208871 0 -0.041349789320347038 0.18749549167170951 0 -0.033582854738693747 0.16530128627528251 0 -0.046893106203257602 0.1507880314475378 0 -0.051824687549248197 0.17345858692208871 0 -0.033582854738693747 0.16530128627528251 0 -0.033582854738693747 0.16530128627528251 0 -0.022139091883514501 0.16815071126606429 0 -0.02440704960050057 0.1813667693045137 0 -0.033582854738693747 0.16530128627528251 0 -0.022139091883514501 0.16815071126606429 0 -0.016648491277264341 0.15771365056650341 0 -0.033582854738693747 0.16530128627528251 0 -0.016648491277264341 0.15771365056650341 0 -0.03096555907766051 0.14775731769023701 0 -0.022139091883514501 0.16815071126606429 0 -0.02440704960050057 0.1813667693045137 0 -0.01283771780100665 0.17547196173435681 0 -0.01949536222664228 0.1923427933584827 0 -0.02440704960050057 0.1813667693045137 0 -0.0099503170468955675 0.185467411183286 0 -0.02440704960050057 0.1813667693045137 0 -0.0099503170468955675 0.185467411183286 0 -0.01283771780100665 0.17547196173435681 0 -0.0099503170468955675 0.185467411183286 0 -0.01283771780100665 0.17547196173435681 0 -0.00450206117857799 0.17688747855202069 0 -0.01283771780100665 0.17547196173435681 0 -0.00450206117857799 0.17688747855202069 0 -0.0026654791677323511 0.16604552865166611 0 -0.00450206117857799 0.17688747855202069 0 -0.0026654791677323511 0.16604552865166611 0 0.0024081860720475369 0.17557227428335351 0 -0.00450206117857799 0.17688747855202069 0 0.00053502205069707774 0.18188021690744111 0 0.0024081860720475369 0.17557227428335351 0 -0.0099503170468955675 0.185467411183286 0 -0.00450206117857799 0.17688747855202069 0 0.00053502205069707774 0.18188021690744111 0 -0.003081975793268537 0.18782002811878001 0 -0.0099503170468955675 0.185467411183286 0 0.00053502205069707774 0.18188021690744111 0 -0.022139091883514501 0.16815071126606429 0 -0.016648491277264341 0.15771365056650341 0 -0.0026654791677323511 0.16604552865166611 0 -0.022139091883514501 0.16815071126606429 0 -0.01283771780100665 0.17547196173435681 0 -0.0026654791677323511 0.16604552865166611 0 -0.016648491277264341 0.15771365056650341 0 -0.0026654791677323511 0.16604552865166611 0 0.00151890392611572 0.15456094484017679 0 -0.016648491277264341 0.15771365056650341 0 -0.0026654791677323511 0.16604552865166611 0 -0.0082797250895681185 0.13474448294352481 0 0.00151890392611572 0.15456094484017679 0 -0.016648491277264341 0.15771365056650341 0 -0.0082797250895681185 0.13474448294352481 0 0.00151890392611572 0.15456094484017679 0 -0.016648491277264341 0.15771365056650341 0 -0.03096555907766051 0.14775731769023701 0 -0.022194887374489752 0.13451860905663129 0 -0.016648491277264341 0.15771365056650341 0 -0.022194887374489752 0.13451860905663129 0 -0.0082797250895681185 0.13474448294352481 0 -0.035508455794597132 0.13046501110523001 0 -0.03096555907766051 0.14775731769023701 0 -0.022194887374489752 0.13451860905663129 0 -0.035508455794597132 0.13046501110523001 0 -0.022194887374489752 0.13451860905663129 0 -0.02222625157844095 0.1227088344756834 0 -0.022194887374489752 0.13451860905663129 0 -0.012678773622269129 0.1213748672570316 0 -0.02222625157844095 0.1227088344756834 0 -0.022194887374489752 0.13451860905663129 0 -0.0082797250895681185 0.13474448294352481 0 -0.012678773622269129 0.1213748672570316 0 -0.0082797250895681185 0.13474448294352481 0 -0.012678773622269129 0.1213748672570316 0 0.0010393500416724941 0.12595831854165979 0 -0.012678773622269129 0.1213748672570316 0 -0.0069683050282923539 0.11495619240176071 0 0.0010393500416724941 0.12595831854165979 0 -0.0069683050282923539 0.11495619240176071 0 0.00039794405216867472 0.112072386291362 0 0.0010393500416724941 0.12595831854165979 0 -0.012678773622269129 0.1213748672570316 0 -0.012248850971573841 0.1125208075020822 0 -0.01744198128355802 0.11503771634109559 0 -0.012678773622269129 0.1213748672570316 0 -0.012248850971573841 0.1125208075020822 0 -0.0069683050282923539 0.11495619240176071 0 -0.012248850971573841 0.1125208075020822 0 -0.0069683050282923539 0.11495619240176071 0 -0.0083997351711877014 0.10895079227570641 0 -0.0069683050282923539 0.11495619240176071 0 -0.0083997351711877014 0.10895079227570641 0 0.00039794405216867472 0.112072386291362 0 -0.011506603279544361 0.087618711973773578 0 0.0058206420146291954 0.1114089238878985 0 0.00039794405216867472 0.112072386291362 0 -0.015837719346710199 0.095350294128549784 0 -0.011506603279544361 0.087618711973773578 0 0.00039794405216867472 0.112072386291362 0 -0.011506603279544361 0.087618711973773578 0 0.0058206420146291954 0.1114089238878985 0 -0.015837719346710199 0.095350294128549784 0 0.00039794405216867472 0.112072386291362 0 -0.0083997351711877014 0.10895079227570641 0 -0.015837719346710199 0.095350294128549784 0 0.00039794405216867472 0.112072386291362 0 -0.011506603279544361 0.087618711973773578 0 0.0017142141577850001 0.096485027642689541 0 0.0058206420146291954 0.1114089238878985 0 -0.0083997351711877014 0.10895079227570641 0 -0.013221823848225379 0.1065091018144344 0 -0.015837719346710199 0.095350294128549784 0 -0.012248850971573841 0.1125208075020822 0 -0.0083997351711877014 0.10895079227570641 0 -0.013221823848225379 0.1065091018144344 0 -0.012248850971573841 0.1125208075020822 0 -0.013221823848225379 0.1065091018144344 0 -0.017997844109414411 0.1087655018954708 0 -0.017997844109414411 0.1087655018954708 0 -0.015837719346710199 0.095350294128549784 0 -0.024123805385937312 0.11014199076292169 0 -0.013221823848225379 0.1065091018144344 0 -0.017997844109414411 0.1087655018954708 0 -0.015837719346710199 0.095350294128549784 0 -0.024123805385937312 0.11014199076292169 0 -0.032300333499350402 0.090057470672271281 0 -0.015837719346710199 0.095350294128549784 0 -0.024123805385937312 0.11014199076292169 0 -0.032300333499350402 0.090057470672271281 0 -0.015837719346710199 0.095350294128549784 0 -0.024123805385937312 0.11014199076292169 0 -0.035508455794597132 0.13046501110523001 0 -0.024123805385937312 0.11014199076292169 0 -0.023307159817290739 0.1121479686184283 0 -0.035508455794597132 0.13046501110523001 0 -0.02222625157844095 0.1227088344756834 0 -0.023307159817290739 0.1121479686184283 0 -0.035508455794597132 0.13046501110523001 0 -0.024123805385937312 0.11014199076292169 0 -0.024123805385937312 0.11014199076292169 0 -0.023307159817290739 0.1121479686184283 0 -0.012678773622269129 0.1213748672570316 0 -0.02222625157844095 0.1227088344756834 0 -0.01744198128355802 0.11503771634109559 0 -0.02222625157844095 0.1227088344756834 0 -0.01744198128355802 0.11503771634109559 0 -0.023307159817290739 0.1121479686184283 0 -0.012248850971573841 0.1125208075020822 0 -0.017997844109414411 0.1087655018954708 0 -0.01744198128355802 0.11503771634109559 0 -0.017997844109414411 0.1087655018954708 0 -0.024123805385937312 0.11014199076292169 0 -0.023307159817290739 0.1121479686184283 0 -0.017997844109414411 0.1087655018954708 0 -0.01744198128355802 0.11503771634109559 0 -0.023307159817290739 0.1121479686184283 0 -0.0046988296279310846 0.075465987257500103 0 -0.004471055932428975 0.061346262570306953 0 0.0079626054049135586 0.052863747179962457 0 -0.0093767874180366029 0.073051079923104223 0 -0.014915188529848109 0.07157527628023079 0 -0.011506603279544361 0.087618711973773578 0 -0.0096267601800840239 0.066065855624376196 0 -0.01690032334888349 0.065021557104339434 0 -0.015766095144715799 0.059221925757037469 0 -0.0096267601800840239 0.066065855624376196 0 -0.014915188529848109 0.07157527628023079 0 -0.01690032334888349 0.065021557104339434 0 -0.0096267601800840239 0.066065855624376196 0 -0.0093767874180366029 0.073051079923104223 0 -0.014915188529848109 0.07157527628023079 0 -0.0096267601800840239 0.066065855624376196 0 -0.0046988296279310846 0.075465987257500103 0 -0.004471055932428975 0.061346262570306953 0 -0.0046988296279310846 0.075465987257500103 0 -0.0093767874180366029 0.073051079923104223 0 -0.0096267601800840239 0.066065855624376196 0 -0.0046988296279310846 0.075465987257500103 0 -0.0093767874180366029 0.073051079923104223 0 -0.0046988296279310846 0.075465987257500103 0 -0.011506603279544361 0.087618711973773578 0 -0.0046988296279310846 0.075465987257500103 0 -0.0093767874180366029 0.073051079923104223 0 -0.011506603279544361 0.087618711973773578 0 -0.0046988296279310846 0.075465987257500103 0 -0.011506603279544361 0.087618711973773578 0 0.00056903788424511365 0.086682396089073327 0 -0.011506603279544361 0.087618711973773578 0 0.00056903788424511365 0.086682396089073327 0 0.0017142141577850001 0.096485027642689541 0 -0.015837719346710199 0.095350294128549784 0 -0.011506603279544361 0.087618711973773578 0 -0.011506603279544361 0.087618711973773578 0 -0.028157290479737571 0.082661622355085798 0 -0.027165468422692102 0.066119176775560506 0 -0.015837719346710199 0.095350294128549784 0 -0.011506603279544361 0.087618711973773578 0 -0.028157290479737571 0.082661622355085798 0 -0.015837719346710199 0.095350294128549784 0 -0.028157290479737571 0.082661622355085798 0 -0.032300333499350402 0.090057470672271281 0 -0.015837719346710199 0.095350294128549784 0 -0.028157290479737571 0.082661622355085798 0 -0.014915188529848109 0.07157527628023079 0 -0.011506603279544361 0.087618711973773578 0 -0.027165468422692102 0.066119176775560506 0 -0.011506603279544361 0.087618711973773578 0 -0.027165468422692102 0.066119176775560506 0 -0.027165468422692102 0.066119176775560506 0 -0.01690032334888349 0.065021557104339434 0 -0.021155304748881689 0.062203044053262727 0 -0.014915188529848109 0.07157527628023079 0 -0.027165468422692102 0.066119176775560506 0 -0.01690032334888349 0.065021557104339434 0 -0.027165468422692102 0.066119176775560506 0 -0.040476861612764189 0.069972950581621118 0 -0.047888547298180387 0.051767161035057033 0 -0.028157290479737571 0.082661622355085798 0 -0.027165468422692102 0.066119176775560506 0 -0.040476861612764189 0.069972950581621118 0 -0.040476861612764189 0.069972950581621118 0 -0.049934811086014087 0.07186746235717667 0 -0.047859912164240369 0.063897566148078455 0 -0.028157290479737571 0.082661622355085798 0 -0.040476861612764189 0.069972950581621118 0 -0.040476861612764189 0.069972950581621118 0 -0.032300333499350402 0.090057470672271281 0 -0.028157290479737571 0.082661622355085798 0 -0.040476861612764189 0.069972950581621118 0 -0.032300333499350402 0.090057470672271281 0 -0.032300333499350402 0.090057470672271281 0 -0.052294403454901703 0.081174947256086191 0 -0.05578440732887191 0.096170589739797752 0 -0.040476861612764189 0.069972950581621118 0 -0.032300333499350402 0.090057470672271281 0 -0.052294403454901703 0.081174947256086191 0 -0.052294403454901703 0.081174947256086191 0 -0.05578440732887191 0.096170589739797752 0 -0.071620526940906107 0.087533684005701329 0 -0.052294403454901703 0.081174947256086191 0 -0.071620526940906107 0.087533684005701329 0 -0.062515526400001881 0.068377579792855414 0 -0.040476861612764189 0.069972950581621118 0 -0.052294403454901703 0.081174947256086191 0 -0.049934811086014087 0.07186746235717667 0 -0.052294403454901703 0.081174947256086191 0 -0.049934811086014087 0.07186746235717667 0 -0.062515526400001881 0.068377579792855414 0 -0.049934811086014087 0.07186746235717667 0 -0.052204780428632629 0.062945341387988421 0 -0.062515526400001881 0.068377579792855414 0 -0.052204780428632629 0.062945341387988421 0 -0.062515526400001881 0.068377579792855414 0 -0.055379183454653792 0.058514889464143828 0 -0.049934811086014087 0.07186746235717667 0 -0.052204780428632629 0.062945341387988421 0 -0.047859912164240369 0.063897566148078455 0 -0.024123805385937312 0.11014199076292169 0 -0.04045215309894238 0.1165912735558266 0 -0.041170092212669533 0.1046411265361262 0 -0.035508455794597132 0.13046501110523001 0 -0.024123805385937312 0.11014199076292169 0 -0.04045215309894238 0.1165912735558266 0 -0.04045215309894238 0.1165912735558266 0 -0.041170092212669533 0.1046411265361262 0 -0.052159737415513489 0.1112025467171566 0 -0.032300333499350402 0.090057470672271281 0 -0.041170092212669533 0.1046411265361262 0 -0.05578440732887191 0.096170589739797752 0 -0.024123805385937312 0.11014199076292169 0 -0.032300333499350402 0.090057470672271281 0 -0.041170092212669533 0.1046411265361262 0 -0.05578440732887191 0.096170589739797752 0 -0.052159737415513489 0.1112025467171566 0 -0.07438317581125764 0.1124407737129243 0 -0.041170092212669533 0.1046411265361262 0 -0.05578440732887191 0.096170589739797752 0 -0.052159737415513489 0.1112025467171566 0 -0.055186524828957063 0.1281687789626855 0 -0.04045215309894238 0.1165912735558266 0 -0.052159737415513489 0.1112025467171566 0 -0.055186524828957063 0.1281687789626855 0 -0.052159737415513489 0.1112025467171566 0 -0.07438317581125764 0.1124407737129243 0 -0.092802426943272898 0.12960292979422991 0 -0.07438317581125764 0.1124407737129243 0 -0.10110008134148971 0.1098561456819369 0 -0.07438317581125764 0.1124407737129243 0 -0.086834659998143784 0.098004038152668241 0 -0.10110008134148971 0.1098561456819369 0 -0.07438317581125764 0.1124407737129243 0 -0.086834659998143784 0.098004038152668241 0 -0.071620526940906107 0.087533684005701329 0 -0.05578440732887191 0.096170589739797752 0 -0.07438317581125764 0.1124407737129243 0 -0.071620526940906107 0.087533684005701329 0 -0.071620526940906107 0.087533684005701329 0 -0.062515526400001881 0.068377579792855414 0 -0.077633089280774809 0.070659037798975324 0 -0.062515526400001881 0.068377579792855414 0 -0.077633089280774809 0.070659037798975324 0 -0.069862538744371955 0.057777113150521288 0 -0.077633089280774809 0.070659037798975324 0 -0.081860045586377939 0.060182951188062161 0 -0.069862538744371955 0.057777113150521288 0 -0.077633089280774809 0.070659037798975324 0 -0.09054666164713164 0.067286880848174316 0 -0.081860045586377939 0.060182951188062161 0 -0.077633089280774809 0.070659037798975324 0 -0.09054666164713164 0.067286880848174316 0 -0.091096470542610469 0.082323341280698709 0 -0.071620526940906107 0.087533684005701329 0 -0.077633089280774809 0.070659037798975324 0 -0.091096470542610469 0.082323341280698709 0 -0.086834659998143784 0.098004038152668241 0 -0.071620526940906107 0.087533684005701329 0 -0.091096470542610469 0.082323341280698709 0 -0.086834659998143784 0.098004038152668241 0 -0.091096470542610469 0.082323341280698709 0 -0.1074822184466613 0.088136729408796272 0 -0.091096470542610469 0.082323341280698709 0 -0.1074822184466613 0.088136729408796272 0 -0.10104646070399111 0.074349611526457776 0 -0.1074822184466613 0.088136729408796272 0 -0.10104646070399111 0.074349611526457776 0 -0.1134486320906168 0.071653759806922179 0 -0.09054666164713164 0.067286880848174316 0 -0.10104646070399111 0.074349611526457776 0 -0.1026583207929353 0.062347346287697412 0 -0.09054666164713164 0.067286880848174316 0 -0.091096470542610469 0.082323341280698709 0 -0.10104646070399111 0.074349611526457776 0 -0.10104646070399111 0.074349611526457776 0 -0.1134486320906168 0.071653759806922179 0 -0.1026583207929353 0.062347346287697412 0 -0.1134486320906168 0.071653759806922179 0 -0.1169815729820268 0.057446916627697332 0 -0.1026583207929353 0.062347346287697412 0 -0.1134486320906168 0.071653759806922179 0 -0.12498233095038511 0.069533312171706482 0 -0.1248370695698198 0.083226530136874921 0 -0.1134486320906168 0.071653759806922179 0 -0.12498233095038511 0.069533312171706482 0 -0.1169815729820268 0.057446916627697332 0 -0.1074822184466613 0.088136729408796272 0 -0.1134486320906168 0.071653759806922179 0 -0.1248370695698198 0.083226530136874921 0 -0.12991930243541749 0.1020465165188278 0 -0.1074822184466613 0.088136729408796272 0 -0.1248370695698198 0.083226530136874921 0 -0.12991930243541749 0.1020465165188278 0 -0.1074822184466613 0.088136729408796272 0 -0.10110008134148971 0.1098561456819369 0 -0.12991930243541749 0.1020465165188278 0 -0.1131006250587715 0.12959615498317961 0 -0.10110008134148971 0.1098561456819369 0 -0.12991930243541749 0.1020465165188278 0 -0.13028426483969929 0.13221647237215789 0 -0.1131006250587715 0.12959615498317961 0 -0.1131006250587715 0.12959615498317961 0 -0.092802426943272898 0.12960292979422991 0 -0.10110008134148971 0.1098561456819369 0 -0.086834659998143784 0.098004038152668241 0 -0.1074822184466613 0.088136729408796272 0 -0.10110008134148971 0.1098561456819369 0 -0.1061587232064081 0.029080734372794698 0 -0.094449021505079139 0.018227913303066591 0 -0.1094215753963574 0.0115277712725063 0 -0.1061587232064081 0.029080734372794698 0 -0.094924595462104619 0.030399760044886301 0 -0.094449021505079139 0.018227913303066591 0 -0.094449021505079139 0.018227913303066591 0 -0.097507665945787692 0.0040820149966005574 0 -0.1094215753963574 0.0115277712725063 0 -0.097507665945787692 0.0040820149966005574 0 -0.1058521268010089 0.00073384547527136773 0 -0.1094215753963574 0.0115277712725063 0 -0.1152652699767374 -0.0044733142422073097 0 -0.1273771369441013 0.0023450629401116992 0 -0.1094215753963574 0.0115277712725063 0 -0.1152652699767374 -0.0044733142422073097 0 -0.1058521268010089 0.00073384547527136773 0 -0.1094215753963574 0.0115277712725063 0 -0.1273771369441013 0.0023450629401116992 0 -0.12537023626190849 0.01701499410391356 0 -0.1094215753963574 0.0115277712725063 0 -0.12537023626190849 0.01701499410391356 0 -0.1094215753963574 0.0115277712725063 0 -0.1154752524598698 0.02214949429500624 0 -0.12537023626190849 0.01701499410391356 0 -0.1154752524598698 0.02214949429500624 0 -0.120950474974805 0.030974477430810402 0 -0.1061587232064081 0.029080734372794698 0 -0.1094215753963574 0.0115277712725063 0 -0.1154752524598698 0.02214949429500624 0 -0.1061587232064081 0.029080734372794698 0 -0.1154752524598698 0.02214949429500624 0 -0.120950474974805 0.030974477430810402 0 -0.1304591025064194 0.044551821316570157 0 -0.120950474974805 0.030974477430810402 0 -0.112428546201817 0.041955624634692393 0 -0.1061587232064081 0.029080734372794698 0 -0.120950474974805 0.030974477430810402 0 -0.112428546201817 0.041955624634692393 0 -0.1304591025064194 0.044551821316570157 0 -0.112428546201817 0.041955624634692393 0 -0.1169815729820268 0.057446916627697332 0 -0.1311901693420546 0.060374133793646992 0 -0.12498233095038511 0.069533312171706482 0 -0.1169815729820268 0.057446916627697332 0 -0.112428546201817 0.041955624634692393 0 -0.1169815729820268 0.057446916627697332 0 -0.10210071185166431 0.050014029354961582 0 -0.1169815729820268 0.057446916627697332 0 -0.1026583207929353 0.062347346287697412 0 -0.10210071185166431 0.050014029354961582 0 -0.10210071185166431 0.050014029354961582 0 -0.091201579857211959 0.041080799774458047 0 -0.091131717688311603 0.055225201160547438 0 -0.1026583207929353 0.062347346287697412 0 -0.10210071185166431 0.050014029354961582 0 -0.091131717688311603 0.055225201160547438 0 -0.09054666164713164 0.067286880848174316 0 -0.1026583207929353 0.062347346287697412 0 -0.091131717688311603 0.055225201160547438 0 -0.1061587232064081 0.029080734372794698 0 -0.112428546201817 0.041955624634692393 0 -0.1016080011228369 0.039407166226836883 0 -0.112428546201817 0.041955624634692393 0 -0.10210071185166431 0.050014029354961582 0 -0.1016080011228369 0.039407166226836883 0 -0.10210071185166431 0.050014029354961582 0 -0.1016080011228369 0.039407166226836883 0 -0.091201579857211959 0.041080799774458047 0 -0.1061587232064081 0.029080734372794698 0 -0.094924595462104619 0.030399760044886301 0 -0.1016080011228369 0.039407166226836883 0 -0.094924595462104619 0.030399760044886301 0 -0.1016080011228369 0.039407166226836883 0 -0.091201579857211959 0.041080799774458047 0 -0.094924595462104619 0.030399760044886301 0 -0.091201579857211959 0.041080799774458047 0 -0.083613433652756419 0.02825823648094046 0 -0.091201579857211959 0.041080799774458047 0 -0.080163505572120847 0.038728335950810322 0 -0.0801262205712997 0.049966522982092462 0 -0.091201579857211959 0.041080799774458047 0 -0.080163505572120847 0.038728335950810322 0 -0.083613433652756419 0.02825823648094046 0 -0.080163505572120847 0.038728335950810322 0 -0.075199828102842814 0.032505994045140242 0 -0.083613433652756419 0.02825823648094046 0 -0.09054666164713164 0.067286880848174316 0 -0.091131717688311603 0.055225201160547438 0 -0.081860045586377939 0.060182951188062161 0 -0.091201579857211959 0.041080799774458047 0 -0.091131717688311603 0.055225201160547438 0 -0.0801262205712997 0.049966522982092462 0 -0.091131717688311603 0.055225201160547438 0 -0.0801262205712997 0.049966522982092462 0 -0.081860045586377939 0.060182951188062161 0 -0.0801262205712997 0.049966522982092462 0 -0.069862538744371955 0.057777113150521288 0 -0.06901267431079619 0.039797487593251017 0 -0.069862538744371955 0.057777113150521288 0 -0.06901267431079619 0.039797487593251017 0 -0.058907879691800273 0.050969475640674493 0 -0.062515526400001881 0.068377579792855414 0 -0.069862538744371955 0.057777113150521288 0 -0.058907879691800273 0.050969475640674493 0 -0.0801262205712997 0.049966522982092462 0 -0.081860045586377939 0.060182951188062161 0 -0.069862538744371955 0.057777113150521288 0 -0.06901267431079619 0.039797487593251017 0 -0.068009698875697827 0.023239916155559141 0 -0.055300232983598208 0.033561371488493641 0 -0.075199828102842814 0.032505994045140242 0 -0.06901267431079619 0.039797487593251017 0 -0.068009698875697827 0.023239916155559141 0 -0.080163505572120847 0.038728335950810322 0 -0.075199828102842814 0.032505994045140242 0 -0.06901267431079619 0.039797487593251017 0 -0.080163505572120847 0.038728335950810322 0 -0.0801262205712997 0.049966522982092462 0 -0.06901267431079619 0.039797487593251017 0 -0.068009698875697827 0.023239916155559141 0 -0.066123158358303874 0.0069763394170788487 0 -0.055300232983598208 0.033561371488493641 0 -0.068009698875697827 0.023239916155559141 0 -0.083613433652756419 0.02825823648094046 0 -0.080050012301679602 0.015705407900093959 0 -0.068009698875697827 0.023239916155559141 0 -0.080050012301679602 0.015705407900093959 0 -0.07274845615251338 0.0135364418571977 0 -0.075199828102842814 0.032505994045140242 0 -0.068009698875697827 0.023239916155559141 0 -0.083613433652756419 0.02825823648094046 0 -0.094449021505079139 0.018227913303066591 0 -0.083613433652756419 0.02825823648094046 0 -0.080050012301679602 0.015705407900093959 0 -0.094924595462104619 0.030399760044886301 0 -0.094449021505079139 0.018227913303066591 0 -0.083613433652756419 0.02825823648094046 0 -0.089124004628701792 -0.0040277377021705899 0 -0.097507665945787692 0.0040820149966005574 0 -0.086098134196158846 0.0059583430860626887 0 -0.094449021505079139 0.018227913303066591 0 -0.080050012301679602 0.015705407900093959 0 -0.086098134196158846 0.0059583430860626887 0 -0.094449021505079139 0.018227913303066591 0 -0.097507665945787692 0.0040820149966005574 0 -0.086098134196158846 0.0059583430860626887 0 -0.080050012301679602 0.015705407900093959 0 -0.086098134196158846 0.0059583430860626887 0 -0.076810955074372203 0.0082241039560588727 0 -0.079764572027605563 -0.001208843295517239 0 -0.086098134196158846 0.0059583430860626887 0 -0.076810955074372203 0.0082241039560588727 0 -0.079764572027605563 -0.001208843295517239 0 -0.089124004628701792 -0.0040277377021705899 0 -0.086098134196158846 0.0059583430860626887 0 -0.079764572027605563 -0.001208843295517239 0 -0.076810955074372203 0.0082241039560588727 0 -0.066123158358303874 0.0069763394170788487 0 -0.068009698875697827 0.023239916155559141 0 -0.07274845615251338 0.0135364418571977 0 -0.066123158358303874 0.0069763394170788487 0 -0.076810955074372203 0.0082241039560588727 0 -0.07274845615251338 0.0135364418571977 0 -0.066123158358303874 0.0069763394170788487 0 -0.080050012301679602 0.015705407900093959 0 -0.076810955074372203 0.0082241039560588727 0 -0.07274845615251338 0.0135364418571977 0 -0.047617207273071643 -0.0035118018543059538 0 -0.059664616745900671 -0.0040500510012267867 0 -0.050798470683601923 0.01183886002179501 0 -0.059664616745900671 -0.0040500510012267867 0 -0.066123158358303874 0.0069763394170788487 0 -0.050798470683601923 0.01183886002179501 0 -0.059664616745900671 -0.0040500510012267867 0 -0.050798470683601923 0.01183886002179501 0 -0.047617207273071643 -0.0035118018543059538 0 -0.050798470683601923 0.01183886002179501 0 -0.050798470683601923 0.01183886002179501 0 -0.055300232983598208 0.033561371488493641 0 -0.04692109718252771 0.035386244484329407 0 -0.066123158358303874 0.0069763394170788487 0 -0.055300232983598208 0.033561371488493641 0 -0.066123158358303874 0.0069763394170788487 0 -0.050798470683601923 0.01183886002179501 0 -0.055300232983598208 0.033561371488493641 0 -0.050798470683601923 0.01183886002179501 0 -0.055300232983598208 0.033561371488493641 0 -0.050798470683601923 0.01183886002179501 0 -0.034391162446891957 0.018187238464497092 0 -0.037793901381418679 0.035144188298954319 0 -0.034391162446891957 0.018187238464497092 0 -0.037793901381418679 0.035144188298954319 0 -0.022455882408961961 0.026825405924253771 0 -0.050798470683601923 0.01183886002179501 0 -0.037793901381418679 0.035144188298954319 0 -0.050798470683601923 0.01183886002179501 0 -0.04692109718252771 0.035386244484329407 0 -0.037793901381418679 0.035144188298954319 0 -0.050798470683601923 0.01183886002179501 0 -0.034391162446891957 0.018187238464497092 0 -0.03671052455766443 0.0037031618858211421 0 -0.034391162446891957 0.018187238464497092 0 -0.03671052455766443 0.0037031618858211421 0 -0.022890364083827771 0.01081673007749915 0 -0.047617207273071643 -0.0035118018543059538 0 -0.050798470683601923 0.01183886002179501 0 -0.03671052455766443 0.0037031618858211421 0 -0.062515526400001881 0.068377579792855414 0 -0.058907879691800273 0.050969475640674493 0 -0.062515526400001881 0.068377579792855414 0 -0.055379183454653792 0.058514889464143828 0 -0.058907879691800273 0.050969475640674493 0 -0.052204780428632629 0.062945341387988421 0 -0.047859912164240369 0.063897566148078455 0 -0.047888547298180387 0.051767161035057033 0 -0.052204780428632629 0.062945341387988421 0 -0.055379183454653792 0.058514889464143828 0 -0.047888547298180387 0.051767161035057033 0 -0.055379183454653792 0.058514889464143828 0 -0.058907879691800273 0.050969475640674493 0 -0.047888547298180387 0.051767161035057033 0 -0.06901267431079619 0.039797487593251017 0 -0.058907879691800273 0.050969475640674493 0 -0.055300232983598208 0.033561371488493641 0 -0.047888547298180387 0.051767161035057033 0 -0.055300232983598208 0.033561371488493641 0 -0.04692109718252771 0.035386244484329407 0 -0.058907879691800273 0.050969475640674493 0 -0.047888547298180387 0.051767161035057033 0 -0.055300232983598208 0.033561371488493641 0 -0.047888547298180387 0.051767161035057033 0 -0.055300232983598208 0.033561371488493641 0 -0.058907879691800273 0.050969475640674493 0 -0.055300232983598208 0.033561371488493641 0 -0.037793901381418679 0.035144188298954319 0 -0.024789332079235359 0.058449516576113518 0 -0.047888547298180387 0.051767161035057033 0 -0.04692109718252771 0.035386244484329407 0 -0.042824333565839388 0.044619641577347061 0 -0.037793901381418679 0.035144188298954319 0 -0.042824333565839388 0.044619641577347061 0 -0.024789332079235359 0.058449516576113518 0 -0.04692109718252771 0.035386244484329407 0 -0.037793901381418679 0.035144188298954319 0 -0.042824333565839388 0.044619641577347061 0 -0.027165468422692102 0.066119176775560506 0 -0.047888547298180387 0.051767161035057033 0 -0.042824333565839388 0.044619641577347061 0 -0.040476861612764189 0.069972950581621118 0 -0.047859912164240369 0.063897566148078455 0 -0.047888547298180387 0.051767161035057033 0 -0.040476861612764189 0.069972950581621118 0 -0.047888547298180387 0.051767161035057033 0 -0.027165468422692102 0.066119176775560506 0 -0.042824333565839388 0.044619641577347061 0 -0.027165468422692102 0.066119176775560506 0 -0.042824333565839388 0.044619641577347061 0 -0.024789332079235359 0.058449516576113518 0 -0.015766095144715799 0.059221925757037469 0 -0.024789332079235359 0.058449516576113518 0 -0.0190365636870411 0.05257699221554326 0 -0.015766095144715799 0.059221925757037469 0 -0.021155304748881689 0.062203044053262727 0 -0.024789332079235359 0.058449516576113518 0 -0.01690032334888349 0.065021557104339434 0 -0.015766095144715799 0.059221925757037469 0 -0.021155304748881689 0.062203044053262727 0 -0.027165468422692102 0.066119176775560506 0 -0.021155304748881689 0.062203044053262727 0 -0.024789332079235359 0.058449516576113518 0 -0.024789332079235359 0.058449516576113518 0 -0.0190365636870411 0.05257699221554326 0 -0.02501616098884394 0.043295095323351421 0 -0.0190365636870411 0.05257699221554326 0 -0.02501616098884394 0.043295095323351421 0 -0.010574666535369299 0.049341431205670631 0 -0.037793901381418679 0.035144188298954319 0 -0.024789332079235359 0.058449516576113518 0 -0.02501616098884394 0.043295095323351421 0 -0.037793901381418679 0.035144188298954319 0 -0.02501616098884394 0.043295095323351421 0 -0.022455882408961961 0.026825405924253771 0 -0.02501616098884394 0.043295095323351421 0 -0.01174883101074616 0.035626247072063598 0 -0.022455882408961961 0.026825405924253771 0 -0.02501616098884394 0.043295095323351421 0 -0.01174883101074616 0.035626247072063598 0 -0.010574666535369299 0.049341431205670631 0 -0.01174883101074616 0.035626247072063598 0 -0.010574666535369299 0.049341431205670631 0 0.0050554059078342702 0.036817447586302399 0 -0.010574666535369299 0.049341431205670631 0 -0.004471055932428975 0.061346262570306953 0 0.0079626054049135586 0.052863747179962457 0 -0.015766095144715799 0.059221925757037469 0 -0.0190365636870411 0.05257699221554326 0 -0.010574666535369299 0.049341431205670631 0 -0.015766095144715799 0.059221925757037469 0 -0.010574666535369299 0.049341431205670631 0 -0.004471055932428975 0.061346262570306953 0 -0.0096267601800840239 0.066065855624376196 0 -0.015766095144715799 0.059221925757037469 0 -0.004471055932428975 0.061346262570306953 0 -0.025670282478897081 -0.0054027298625421993 0 -0.03671052455766443 0.0037031618858211421 0 -0.022890364083827771 0.01081673007749915 0 -0.025670282478897081 -0.0054027298625421993 0 -0.022890364083827771 0.01081673007749915 0 -0.010105069976996849 0.0023765649732562961 0 -0.022890364083827771 0.01081673007749915 0 -0.022455882408961961 0.026825405924253771 0 -0.0028948745420432241 0.01788293630915707 0 -0.034391162446891957 0.018187238464497092 0 -0.022890364083827771 0.01081673007749915 0 -0.022455882408961961 0.026825405924253771 0 -0.01174883101074616 0.035626247072063598 0 -0.022455882408961961 0.026825405924253771 0 -0.0028948745420432241 0.01788293630915707 0 -0.01174883101074616 0.035626247072063598 0 -0.0028948745420432241 0.01788293630915707 0 0.0050554059078342702 0.036817447586302399 0 -0.022890364083827771 0.01081673007749915 0 -0.0028948745420432241 0.01788293630915707 0 -0.010105069976996849 0.0023765649732562961 0 -0.0028948745420432241 0.01788293630915707 0 -0.010105069976996849 0.0023765649732562961 0 0.0047038114401232534 -0.001040937293712483 0 -0.0028948745420432241 0.01788293630915707 0 0.020415517075116841 0.0076517724901667356 0 0.0047038114401232534 -0.001040937293712483 0 -0.0028948745420432241 0.01788293630915707 0 0.020342672512877309 0.02491627604112644 0 0.020415517075116841 0.0076517724901667356 0 -0.0028948745420432241 0.01788293630915707 0 0.020342672512877309 0.02491627604112644 0 0.0050554059078342702 0.036817447586302399 0 0.020342672512877309 0.02491627604112644 0 0.020415517075116841 0.0076517724901667356 0 0.04034715667016759 0.018897687307637179 0 0.020342672512877309 0.02491627604112644 0 0.02507841675544124 0.048354097280414877 0 0.04034715667016759 0.018897687307637179 0 0.0079626054049135586 0.052863747179962457 0 0.02507841675544124 0.048354097280414877 0 0.010722424996073881 0.068121568230846891 0 -0.010574666535369299 0.049341431205670631 0 0.0079626054049135586 0.052863747179962457 0 0.0050554059078342702 0.036817447586302399 0 0.0079626054049135586 0.052863747179962457 0 0.0050554059078342702 0.036817447586302399 0 0.02507841675544124 0.048354097280414877 0 0.020342672512877309 0.02491627604112644 0 0.0050554059078342702 0.036817447586302399 0 0.02507841675544124 0.048354097280414877 0 0.02507841675544124 0.048354097280414877 0 0.050251726499931808 0.044842678424317363 0 0.039807943620716157 0.068946520475498749 0 0.050251726499931808 0.044842678424317363 0 0.039807943620716157 0.068946520475498749 0 0.02507841675544124 0.048354097280414877 0 0.050251726499931808 0.044842678424317363 0 0.04034715667016759 0.018897687307637179 0 0.050251726499931808 0.044842678424317363 0 0.060695509379147472 0.02073883637313596 0 0.066628286533047365 0.040173783681243101 0 0.050251726499931808 0.044842678424317363 0 0.060695509379147472 0.02073883637313596 0 0.050251726499931808 0.044842678424317363 0 0.066628286533047365 0.040173783681243101 0 0.063756980967503582 0.059761195325569103 0 0.050251726499931808 0.044842678424317363 0 0.063756980967503582 0.059761195325569103 0 0.039807943620716157 0.068946520475498749 0 0.020415517075116841 0.0076517724901667356 0 0.04034715667016759 0.018897687307637179 0 0.039787151186370009 -0.0039594854922263374 0 0.04034715667016759 0.018897687307637179 0 0.053306813386582982 0.0056008818424343951 0 0.039787151186370009 -0.0039594854922263374 0 0.050251726499931808 0.044842678424317363 0 0.04034715667016759 0.018897687307637179 0 0.060695509379147472 0.02073883637313596 0 0.04034715667016759 0.018897687307637179 0 0.060695509379147472 0.02073883637313596 0 0.053306813386582982 0.0056008818424343951 0 0.060695509379147472 0.02073883637313596 0 0.053306813386582982 0.0056008818424343951 0 0.065940651683257009 0.0024831850618150888 0 0.060695509379147472 0.02073883637313596 0 0.065940651683257009 0.0024831850618150888 0 0.07992851590561921 0.0082161523869754144 0 0.065940651683257009 0.0024831850618150888 0 0.07992851590561921 0.0082161523869754144 0 0.074177093133044117 -0.010507922444979889 0 0.07992851590561921 0.0082161523869754144 0 0.1009244284881298 0.0078078577834924806 0 0.09649789417263642 -0.0037639840011086311 0 0.07992851590561921 0.0082161523869754144 0 0.1009244284881298 0.0078078577834924806 0 0.09893654195113713 0.02570505514797651 0 0.07992851590561921 0.0082161523869754144 0 0.08516149451907469 0.032589503251719387 0 0.07992851590561921 0.0082161523869754144 0 0.08516149451907469 0.032589503251719387 0 0.09893654195113713 0.02570505514797651 0 0.060695509379147472 0.02073883637313596 0 0.07992851590561921 0.0082161523869754144 0 0.08516149451907469 0.032589503251719387 0 0.060695509379147472 0.02073883637313596 0 0.066628286533047365 0.040173783681243101 0 0.08516149451907469 0.032589503251719387 0 0.066628286533047365 0.040173783681243101 0 0.076734924211177571 0.049535316522237388 0 0.08516149451907469 0.032589503251719387 0 0.066628286533047365 0.040173783681243101 0 0.063756980967503582 0.059761195325569103 0 0.076734924211177571 0.049535316522237388 0 0.063756980967503582 0.059761195325569103 0 0.076734924211177571 0.049535316522237388 0 0.078896317813284711 0.063130005487330554 0 0.076734924211177571 0.049535316522237388 0 0.090394473132530156 0.056962854116463339 0 0.078896317813284711 0.063130005487330554 0 0.090394473132530156 0.056962854116463339 0 0.08516149451907469 0.032589503251719387 0 0.076734924211177571 0.049535316522237388 0 0.090394473132530156 0.056962854116463339 0 0.08516149451907469 0.032589503251719387 0 0.090394473132530156 0.056962854116463339 0 0.08516149451907469 0.032589503251719387 0 0.096764564946639139 0.043178279343160431 0 0.08516149451907469 0.032589503251719387 0 0.096764564946639139 0.043178279343160431 0 0.09893654195113713 0.02570505514797651 0 0.096764564946639139 0.043178279343160431 0 0.10666951487556919 0.040720151324231749 0 0.09893654195113713 0.02570505514797651 0 0.096764564946639139 0.043178279343160431 0 0.10666951487556919 0.040720151324231749 0 0.10388747543703999 0.053358399551525167 0 0.10666951487556919 0.040720151324231749 0 0.1142736493139349 0.03087626799389703 0 0.09893654195113713 0.02570505514797651 0 0.10388747543703999 0.053358399551525167 0 0.11892469151436 0.060175562481194378 0 0.096340815718618328 0.066677421107029802 0 0.090394473132530156 0.056962854116463339 0 0.10388747543703999 0.053358399551525167 0 0.096340815718618328 0.066677421107029802 0 0.090394473132530156 0.056962854116463339 0 0.096764564946639139 0.043178279343160431 0 0.10388747543703999 0.053358399551525167 0 0.10666951487556919 0.040720151324231749 0 0.10388747543703999 0.053358399551525167 0 0.1137328545953389 0.049471119462924477 0 0.1137328545953389 0.049471119462924477 0 0.11892469151436 0.060175562481194378 0 0.12367169586596689 0.04413069599522032 0 0.10388747543703999 0.053358399551525167 0 0.1137328545953389 0.049471119462924477 0 0.11892469151436 0.060175562481194378 0 0.10666951487556919 0.040720151324231749 0 0.12367169586596689 0.04413069599522032 0 0.1142736493139349 0.03087626799389703 0 0.12367169586596689 0.04413069599522032 0 0.1142736493139349 0.03087626799389703 0 0.13034027439662041 0.028127834929059549 0 0.10666951487556919 0.040720151324231749 0 0.1137328545953389 0.049471119462924477 0 0.12367169586596689 0.04413069599522032 0 0.1142736493139349 0.03087626799389703 0 0.111750219480381 0.015697602572997061 0 0.13034027439662041 0.028127834929059549 0 0.11917198148314 0.002581966002757949 0 0.13034027439662041 0.028127834929059549 0 0.111750219480381 0.015697602572997061 0 0.11917198148314 0.002581966002757949 0 0.13034027439662041 0.028127834929059549 0 0.11917198148314 0.002581966002757949 0 0.1309849453148588 0.01811654968683717 0 0.1228376310831711 -0.00076623140119310329 0 0.11917198148314 0.002581966002757949 0 0.1228376310831711 -0.00076623140119310329 0 0.11917198148314 0.002581966002757949 0 0.1133629416093747 0.002418872237081233 0 0.1105415625726717 -0.0014271332550589229 0 0.11917198148314 0.002581966002757949 0 0.1133629416093747 0.002418872237081233 0 0.11092652002007269 0.0067640166461111727 0 0.1133629416093747 0.002418872237081233 0 0.1078625722471533 0.0022823866337398822 0 0.1105415625726717 -0.0014271332550589229 0 0.1133629416093747 0.002418872237081233 0 0.11092652002007269 0.0067640166461111727 0 0.1078625722471533 0.0022823866337398822 0 0.111750219480381 0.015697602572997061 0 0.11917198148314 0.002581966002757949 0 0.11092652002007269 0.0067640166461111727 0 0.111750219480381 0.015697602572997061 0 0.11092652002007269 0.0067640166461111727 0 0.1009244284881298 0.0078078577834924806 0 0.1078625722471533 0.0022823866337398822 0 0.1009244284881298 0.0078078577834924806 0 0.1039166904039584 -0.0028966343462391718 0 0.11092652002007269 0.0067640166461111727 0 0.1078625722471533 0.0022823866337398822 0 0.1009244284881298 0.0078078577834924806 0 0.1009244284881298 0.0078078577834924806 0 0.1039166904039584 -0.0028966343462391718 0 0.09649789417263642 -0.0037639840011086311 0 0.111750219480381 0.015697602572997061 0 0.1009244284881298 0.0078078577834924806 0 0.09893654195113713 0.02570505514797651 0 0.1142736493139349 0.03087626799389703 0 0.111750219480381 0.015697602572997061 0 0.09893654195113713 0.02570505514797651 0 0.10086043035944101 0.1057095558459509 0 0.088353675930770217 0.1090445403681379 0 0.098136173783193614 0.12855261503670501 0 0.10086043035944101 0.1057095558459509 0 0.11707998843366239 0.12090166170324231 0 0.098136173783193614 0.12855261503670501 0 0.10086043035944101 0.1057095558459509 0 0.11707998843366239 0.12090166170324231 0 0.12018819637303869 0.10164151191590461 0 0.11707998843366239 0.12090166170324231 0 0.12018819637303869 0.10164151191590461 0 0.1368974078767736 0.107501873099266 0 0.10086043035944101 0.1057095558459509 0 0.12018819637303869 0.10164151191590461 0 0.11039993896964689 0.089589601033300492 0 0.12018819637303869 0.10164151191590461 0 0.1225478872688979 0.090713611373926736 0 0.11039993896964689 0.089589601033300492 0 0.1225478872688979 0.090713611373926736 0 0.1210037722340596 0.082520495593825793 0 0.11039993896964689 0.089589601033300492 0 0.1210037722340596 0.082520495593825793 0 0.11039993896964689 0.089589601033300492 0 0.1079674466630436 0.07575227550831827 0 0.1243405792371938 0.066503547411893488 0 0.1152310018430296 0.068591719667449438 0 0.13121537104960351 0.072689189806444385 0 0.1152310018430296 0.068591719667449438 0 0.1079674466630436 0.07575227550831827 0 0.13121537104960351 0.072689189806444385 0 0.11892469151436 0.060175562481194378 0 0.1152310018430296 0.068591719667449438 0 0.096340815718618328 0.066677421107029802 0 0.1210037722340596 0.082520495593825793 0 0.1079674466630436 0.07575227550831827 0 0.13121537104960351 0.072689189806444385 0 0.1079674466630436 0.07575227550831827 0 0.13121537104960351 0.072689189806444385 0 0.11892469151436 0.060175562481194378 0 0.1243405792371938 0.066503547411893488 0 0.1152310018430296 0.068591719667449438 0 0.090394473132530156 0.056962854116463339 0 0.096340815718618328 0.066677421107029802 0 0.095627451745985609 0.081336204981207194 0 0.11892469151436 0.060175562481194378 0 0.096340815718618328 0.066677421107029802 0 0.1152310018430296 0.068591719667449438 0 0.1079674466630436 0.07575227550831827 0 0.096340815718618328 0.066677421107029802 0 0.1079674466630436 0.07575227550831827 0 0.096340815718618328 0.066677421107029802 0 0.095627451745985609 0.081336204981207194 0 0.10086043035944101 0.1057095558459509 0 0.095627451745985609 0.081336204981207194 0 0.10086043035944101 0.1057095558459509 0 0.095627451745985609 0.081336204981207194 0 0.085469831166676849 0.087436677031336632 0 0.10086043035944101 0.1057095558459509 0 0.11039993896964689 0.089589601033300492 0 0.095627451745985609 0.081336204981207194 0 0.11039993896964689 0.089589601033300492 0 0.1079674466630436 0.07575227550831827 0 0.095627451745985609 0.081336204981207194 0 0.095627451745985609 0.081336204981207194 0 0.085469831166676849 0.087436677031336632 0 0.085588317529406169 0.073238424790440806 0 0.085469831166676849 0.087436677031336632 0 0.085588317529406169 0.073238424790440806 0 0.076873554133312927 0.079435143693455501 0 0.085469831166676849 0.087436677031336632 0 0.070098818600398835 0.095008337279511162 0 0.081838863589211913 0.097859807548057495 0 0.085588317529406169 0.073238424790440806 0 0.078896317813284711 0.063130005487330554 0 0.076873554133312927 0.079435143693455501 0 0.090394473132530156 0.056962854116463339 0 0.095627451745985609 0.081336204981207194 0 0.090394473132530156 0.056962854116463339 0 0.095627451745985609 0.081336204981207194 0 0.085588317529406169 0.073238424790440806 0 0.090394473132530156 0.056962854116463339 0 0.085588317529406169 0.073238424790440806 0 0.078896317813284711 0.063130005487330554 0 0.063756980967503582 0.059761195325569103 0 0.076873554133312927 0.079435143693455501 0 0.058428932400687923 0.080576723114904505 0 0.063756980967503582 0.059761195325569103 0 0.078896317813284711 0.063130005487330554 0 0.076873554133312927 0.079435143693455501 0 0.076873554133312927 0.079435143693455501 0 0.070098818600398835 0.095008337279511162 0 0.058428932400687923 0.080576723114904505 0 0.085469831166676849 0.087436677031336632 0 0.076873554133312927 0.079435143693455501 0 0.070098818600398835 0.095008337279511162 0 0.076873554133312927 0.079435143693455501 0 0.070098818600398835 0.095008337279511162 0 0.070098818600398835 0.095008337279511162 0 0.063324083067484813 0.1105815308655668 0 0.056772327777908818 0.093355456469435216 0 0.070098818600398835 0.095008337279511162 0 0.073686861685182473 0.1058294153104071 0 0.063324083067484813 0.1105815308655668 0 0.070098818600398835 0.095008337279511162 0 0.063324083067484813 0.1105815308655668 0 0.070098818600398835 0.095008337279511162 0 0.073686861685182473 0.1058294153104071 0 0.081838863589211913 0.097859807548057495 0 0.10086043035944101 0.1057095558459509 0 0.088353675930770217 0.1090445403681379 0 0.081838863589211913 0.097859807548057495 0 0.10086043035944101 0.1057095558459509 0 0.085469831166676849 0.087436677031336632 0 0.081838863589211913 0.097859807548057495 0 0.073686861685182473 0.1058294153104071 0 0.081838863589211913 0.097859807548057495 0 0.081058066011519173 0.11973636453468819 0 0.081838863589211913 0.097859807548057495 0 0.081058066011519173 0.11973636453468819 0 0.088353675930770217 0.1090445403681379 0 0.081838863589211913 0.097859807548057495 0 0.081058066011519173 0.11973636453468819 0 0.081058066011519173 0.11973636453468819 0 0.098136173783193614 0.12855261503670501 0 0.088353675930770217 0.1090445403681379 0 0.081058066011519173 0.11973636453468819 0 0.098136173783193614 0.12855261503670501 0 0.081058066011519173 0.11973636453468819 0 0.063324083067484813 0.1105815308655668 0 0.068402942841081005 0.12865021266463919 0 0.081058066011519173 0.11973636453468819 0 0.063324083067484813 0.1105815308655668 0 0.073686861685182473 0.1058294153104071 0 0.081058066011519173 0.11973636453468819 0 0.063324083067484813 0.1105815308655668 0 0.063324083067484813 0.1105815308655668 0 0.047212646671147621 0.11637508280246631 0 0.046344121904492837 0.10181594669612309 0 0.063324083067484813 0.1105815308655668 0 0.047212646671147621 0.11637508280246631 0 0.054704645729867107 0.1303951701743557 0 0.063324083067484813 0.1105815308655668 0 0.054704645729867107 0.1303951701743557 0 0.068402942841081005 0.12865021266463919 0 0.063324083067484813 0.1105815308655668 0 0.054704645729867107 0.1303951701743557 0 0.063324083067484813 0.1105815308655668 0 0.046344121904492837 0.10181594669612309 0 0.056772327777908818 0.093355456469435216 0 0.063324083067484813 0.1105815308655668 0 0.046344121904492837 0.10181594669612309 0 0.046344121904492837 0.10181594669612309 0 0.056772327777908818 0.093355456469435216 0 0.045320775007697253 0.087378911453508054 0 0.046344121904492837 0.10181594669612309 0 0.0293641607415005 0.093050362526680058 0 0.027539824430943272 0.097260859315675907 0 0.046344121904492837 0.10181594669612309 0 0.0293641607415005 0.093050362526680058 0 0.046344121904492837 0.10181594669612309 0 0.045320775007697253 0.087378911453508054 0 0.0293641607415005 0.093050362526680058 0 0.046344121904492837 0.10181594669612309 0 0.034802580128522533 0.108370238657299 0 0.027539824430943272 0.097260859315675907 0 0.047212646671147621 0.11637508280246631 0 0.046344121904492837 0.10181594669612309 0 0.034802580128522533 0.108370238657299 0 0.034802580128522533 0.108370238657299 0 0.02295827912300942 0.1143792008990337 0 0.036209801575650402 0.12755429465012871 0 0.047212646671147621 0.11637508280246631 0 0.054704645729867107 0.1303951701743557 0 0.036209801575650402 0.12755429465012871 0 0.047212646671147621 0.11637508280246631 0 0.034802580128522533 0.108370238657299 0 0.036209801575650402 0.12755429465012871 0 0.063756980967503582 0.059761195325569103 0 0.058428932400687923 0.080576723114904505 0 0.039807943620716157 0.068946520475498749 0 0.058428932400687923 0.080576723114904505 0 0.045320775007697253 0.087378911453508054 0 0.039807943620716157 0.068946520475498749 0 0.070098818600398835 0.095008337279511162 0 0.058428932400687923 0.080576723114904505 0 0.056772327777908818 0.093355456469435216 0 0.058428932400687923 0.080576723114904505 0 0.056772327777908818 0.093355456469435216 0 0.045320775007697253 0.087378911453508054 0 0.039807943620716157 0.068946520475498749 0 0.02523443473854358 0.074793540318702806 0 0.0293641607415005 0.093050362526680058 0 0.045320775007697253 0.087378911453508054 0 0.039807943620716157 0.068946520475498749 0 0.0293641607415005 0.093050362526680058 0 0.039807943620716157 0.068946520475498749 0 0.0293641607415005 0.093050362526680058 0 0.02507841675544124 0.048354097280414877 0 0.039807943620716157 0.068946520475498749 0 0.02523443473854358 0.074793540318702806 0 0.02523443473854358 0.074793540318702806 0 0.01233266555678463 0.084258174892090337 0 0.010722424996073881 0.068121568230846891 0 0.02507841675544124 0.048354097280414877 0 0.02523443473854358 0.074793540318702806 0 0.010722424996073881 0.068121568230846891 0 0.0293641607415005 0.093050362526680058 0 0.01233266555678463 0.084258174892090337 0 0.0293641607415005 0.093050362526680058 0 0.01233266555678463 0.084258174892090337 0 0.019584721545335231 0.095933386042030777 0 0.02523443473854358 0.074793540318702806 0 0.0293641607415005 0.093050362526680058 0 0.01233266555678463 0.084258174892090337 0 -0.0046988296279310846 0.075465987257500103 0 0.01233266555678463 0.084258174892090337 0 -0.0046988296279310846 0.075465987257500103 0 0.00056903788424511365 0.086682396089073327 0 0.01233266555678463 0.084258174892090337 0 0.01233266555678463 0.084258174892090337 0 0.019584721545335231 0.095933386042030777 0 0.0096773837387348072 0.094713106344260181 0 0.00056903788424511365 0.086682396089073327 0 0.0096773837387348072 0.094713106344260181 0 0.0017142141577850001 0.096485027642689541 0 0.00056903788424511365 0.086682396089073327 0 0.01233266555678463 0.084258174892090337 0 0.0096773837387348072 0.094713106344260181 0 -0.0046988296279310846 0.075465987257500103 0 0.0079626054049135586 0.052863747179962457 0 -0.0046988296279310846 0.075465987257500103 0 0.01233266555678463 0.084258174892090337 0 0.010722424996073881 0.068121568230846891 0 -0.0046988296279310846 0.075465987257500103 0 0.0079626054049135586 0.052863747179962457 0 0.010722424996073881 0.068121568230846891 0 0.02295827912300942 0.1143792008990337 0 0.016633607451047409 0.12879447845417449 0 0.036209801575650402 0.12755429465012871 0 0.02295827912300942 0.1143792008990337 0 0.02320798257890765 0.1047443639128517 0 0.017264926825327171 0.1093249123190818 0 0.02295827912300942 0.1143792008990337 0 0.017264926825327171 0.1093249123190818 0 0.01360187540002143 0.11722717171449371 0 0.02295827912300942 0.1143792008990337 0 0.01360187540002143 0.11722717171449371 0 0.016633607451047409 0.12879447845417449 0 0.034802580128522533 0.108370238657299 0 0.027539824430943272 0.097260859315675907 0 0.02320798257890765 0.1047443639128517 0 0.034802580128522533 0.108370238657299 0 0.02295827912300942 0.1143792008990337 0 0.02320798257890765 0.1047443639128517 0 0.0293641607415005 0.093050362526680058 0 0.027539824430943272 0.097260859315675907 0 0.019584721545335231 0.095933386042030777 0 0.027539824430943272 0.097260859315675907 0 0.019584721545335231 0.095933386042030777 0 0.02320798257890765 0.1047443639128517 0 0.0293641607415005 0.093050362526680058 0 0.027539824430943272 0.097260859315675907 0 0.019584721545335231 0.095933386042030777 0 0.02320798257890765 0.1047443639128517 0 0.01504081682007688 0.10253598369847031 0 0.02320798257890765 0.1047443639128517 0 0.017264926825327171 0.1093249123190818 0 0.01504081682007688 0.10253598369847031 0 0.0088228464681819972 0.10238366970120689 0 0.01151568020462046 0.1077378413705596 0 0.0058206420146291954 0.1114089238878985 0 0.017264926825327171 0.1093249123190818 0 0.01504081682007688 0.10253598369847031 0 0.01151568020462046 0.1077378413705596 0 0.01504081682007688 0.10253598369847031 0 0.0088228464681819972 0.10238366970120689 0 0.01151568020462046 0.1077378413705596 0 0.019584721545335231 0.095933386042030777 0 0.01504081682007688 0.10253598369847031 0 0.0096773837387348072 0.094713106344260181 0 0.01504081682007688 0.10253598369847031 0 0.0088228464681819972 0.10238366970120689 0 0.0096773837387348072 0.094713106344260181 0 0.0088228464681819972 0.10238366970120689 0 0.0096773837387348072 0.094713106344260181 0 0.0017142141577850001 0.096485027642689541 0 0.0088228464681819972 0.10238366970120689 0 0.0017142141577850001 0.096485027642689541 0 0.0058206420146291954 0.1114089238878985 0 0.0058206420146291954 0.1114089238878985 0 0.00039794405216867472 0.112072386291362 0 0.01360187540002143 0.11722717171449371 0 0.00039794405216867472 0.112072386291362 0 0.016633607451047409 0.12879447845417449 0 0.00039794405216867472 0.112072386291362 0 0.01360187540002143 0.11722717171449371 0 0.016633607451047409 0.12879447845417449 0 0.00039794405216867472 0.112072386291362 0 0.0010393500416724941 0.12595831854165979 0 0.016633607451047409 0.12879447845417449 0 0.01151568020462046 0.1077378413705596 0 0.0058206420146291954 0.1114089238878985 0 0.01360187540002143 0.11722717171449371 0 0.017264926825327171 0.1093249123190818 0 0.01151568020462046 0.1077378413705596 0 0.01360187540002143 0.11722717171449371 0 -0.0082797250895681185 0.13474448294352481 0 0.0010393500416724941 0.12595831854165979 0 0.01291562537333717 0.14373886088149129 0 0.0010393500416724941 0.12595831854165979 0 0.016633607451047409 0.12879447845417449 0 0.01291562537333717 0.14373886088149129 0 0.016633607451047409 0.12879447845417449 0 0.030096440749716711 0.14309687622970299 0 0.036209801575650402 0.12755429465012871 0 0.016633607451047409 0.12879447845417449 0 0.030096440749716711 0.14309687622970299 0 0.01291562537333717 0.14373886088149129 0 0.030096440749716711 0.14309687622970299 0 0.01291562537333717 0.14373886088149129 0 0.026789162612504271 0.15663130254031199 0 0.01291562537333717 0.14373886088149129 0 0.015650655317666261 0.15865613344587939 0 0.026789162612504271 0.15663130254031199 0 0.01291562537333717 0.14373886088149129 0 0.00151890392611572 0.15456094484017679 0 0.015650655317666261 0.15865613344587939 0 -0.0082797250895681185 0.13474448294352481 0 0.01291562537333717 0.14373886088149129 0 0.00151890392611572 0.15456094484017679 0 0.00151890392611572 0.15456094484017679 0 0.01131753294179963 0.17437740673682869 0 0.00151890392611572 0.15456094484017679 0 0.012386788017382491 0.1641388541230504 0 0.01131753294179963 0.17437740673682869 0 -0.0026654791677323511 0.16604552865166611 0 0.00151890392611572 0.15456094484017679 0 0.01131753294179963 0.17437740673682869 0 -0.0026654791677323511 0.16604552865166611 0 0.01131753294179963 0.17437740673682869 0 0.012386788017382491 0.1641388541230504 0 0.01131753294179963 0.17437740673682869 0 0.021060059883948341 0.16896093146931659 0 0.00151890392611572 0.15456094484017679 0 0.012386788017382491 0.1641388541230504 0 0.015650655317666261 0.15865613344587939 0 0.0072367552089822543 0.1840346549744645 0 0.003085550936940849 0.18695469644268639 0 0.007927604969267173 0.18944813828794729 0 0.0072367552089822543 0.1840346549744645 0 0.003085550936940849 0.18695469644268639 0 0.00053502205069707774 0.18188021690744111 0 -0.003081975793268537 0.18782002811878001 0 0.003085550936940849 0.18695469644268639 0 0.00053502205069707774 0.18188021690744111 0 0.0072367552089822543 0.1840346549744645 0 0.00053502205069707774 0.18188021690744111 0 0.0082701590199136289 0.17900500476799119 0 -0.0026654791677323511 0.16604552865166611 0 0.0024081860720475369 0.17557227428335351 0 0.01131753294179963 0.17437740673682869 0 0.0024081860720475369 0.17557227428335351 0 0.01131753294179963 0.17437740673682869 0 0.0082701590199136289 0.17900500476799119 0 0.00053502205069707774 0.18188021690744111 0 0.0024081860720475369 0.17557227428335351 0 0.0082701590199136289 0.17900500476799119 0 0.01131753294179963 0.17437740673682869 0 0.013543000689093809 0.1790660034635034 0 0.021389494149062459 0.18037885708243739 0 0.01131753294179963 0.17437740673682869 0 0.013543000689093809 0.1790660034635034 0 0.01131753294179963 0.17437740673682869 0 0.013543000689093809 0.1790660034635034 0 0.0082701590199136289 0.17900500476799119 0 0.013543000689093809 0.1790660034635034 0 0.0115175493401282 0.18523262863701309 0 0.016985704636488509 0.19275209946522329 0 0.0072367552089822543 0.1840346549744645 0 0.0082701590199136289 0.17900500476799119 0 0.0115175493401282 0.18523262863701309 0 0.013543000689093809 0.1790660034635034 0 0.0082701590199136289 0.17900500476799119 0 0.0115175493401282 0.18523262863701309 0 0.0072367552089822543 0.1840346549744645 0 0.0115175493401282 0.18523262863701309 0 0.007927604969267173 0.18944813828794729 0 0.021389494149062459 0.18037885708243739 0 0.039453436217199322 0.18340126598870379 0 0.013543000689093809 0.1790660034635034 0 0.021389494149062459 0.18037885708243739 0 0.02230428843080948 0.19662630733770359 0 0.013543000689093809 0.1790660034635034 0 0.021389494149062459 0.18037885708243739 0 0.01131753294179963 0.17437740673682869 0 0.021389494149062459 0.18037885708243739 0 0.01131753294179963 0.17437740673682869 0 0.021389494149062459 0.18037885708243739 0 0.021060059883948341 0.16896093146931659 0 0.021389494149062459 0.18037885708243739 0 0.021060059883948341 0.16896093146931659 0 0.034487576316221548 0.17006964541133651 0 0.021389494149062459 0.18037885708243739 0 0.036772518206031037 0.18954494233072339 0 0.012386788017382491 0.1641388541230504 0 0.015650655317666261 0.15865613344587939 0 0.021060059883948341 0.16896093146931659 0 0.015650655317666261 0.15865613344587939 0 0.021060059883948341 0.16896093146931659 0 0.026789162612504271 0.15663130254031199 0 0.021060059883948341 0.16896093146931659 0 0.026789162612504271 0.15663130254031199 0 0.034487576316221548 0.17006964541133651 0 0.026789162612504271 0.15663130254031199 0 0.034487576316221548 0.17006964541133651 0 0.046085208392249437 0.15020880948314461 0 0.034487576316221548 0.17006964541133651 0 0.049790080527993393 0.16878629006039211 0 0.046085208392249437 0.15020880948314461 0 0.021389494149062459 0.18037885708243739 0 0.039453436217199322 0.18340126598870379 0 0.036772518206031037 0.18954494233072339 0 0.021389494149062459 0.18037885708243739 0 0.034487576316221548 0.17006964541133651 0 0.039453436217199322 0.18340126598870379 0 0.034487576316221548 0.17006964541133651 0 0.039453436217199322 0.18340126598870379 0 0.049790080527993393 0.16878629006039211 0 0.039453436217199322 0.18340126598870379 0 0.057517378285335978 0.18642367489497111 0 0.049790080527993393 0.16878629006039211 0 0.057517378285335978 0.18642367489497111 0 0.06670876632053821 0.16536039993208129 0 0.039453436217199322 0.18340126598870379 0 0.057517378285335978 0.18642367489497111 0 0.039453436217199322 0.18340126598870379 0 0.057517378285335978 0.18642367489497111 0 0.046621016020550923 0.1898787739154234 0 0.057517378285335978 0.18642367489497111 0 0.049790080527993393 0.16878629006039211 0 0.06670876632053821 0.16536039993208129 0 0.056759789081437029 0.15816783404816359 0 0.049790080527993393 0.16878629006039211 0 0.06670876632053821 0.16536039993208129 0 0.056759789081437029 0.15816783404816359 0 0.049790080527993393 0.16878629006039211 0 0.046085208392249437 0.15020880948314461 0 0.056759789081437029 0.15816783404816359 0 0.046085208392249437 0.15020880948314461 0 0.06445510108496709 0.14831583671703669 0 0.054704645729867107 0.1303951701743557 0 0.046085208392249437 0.15020880948314461 0 0.06445510108496709 0.14831583671703669 0 0.054704645729867107 0.1303951701743557 0 0.046085208392249437 0.15020880948314461 0 0.054704645729867107 0.1303951701743557 0 0.036209801575650402 0.12755429465012871 0 0.046085208392249437 0.15020880948314461 0 0.030096440749716711 0.14309687622970299 0 0.036209801575650402 0.12755429465012871 0 0.046085208392249437 0.15020880948314461 0 0.030096440749716711 0.14309687622970299 0 0.026789162612504271 0.15663130254031199 0 0.046085208392249437 0.15020880948314461 0 0.02117589590128718 0.2395927914801684 0 0.012156823249103331 0.25259817100369902 0 0.030652172791378579 0.25229956247347313 0 0.02117589590128718 0.2395927914801684 0 0.034188277432347557 0.23988537883147459 0 0.030652172791378579 0.25229956247347313 0 0.02117589590128718 0.2395927914801684 0 0.030323397599499081 0.22959965211839081 0 0.034188277432347557 0.23988537883147459 0 -0.0082457657602449386 0.25246627485226031 0 -0.001965278602122185 0.24182690426762959 0 0.012156823249103331 0.25259817100369902 0 0.02117589590128718 0.2395927914801684 0 0.008579196815527634 0.23953031834541311 0 0.012156823249103331 0.25259817100369902 0 -0.001965278602122185 0.24182690426762959 0 0.008579196815527634 0.23953031834541311 0 0.012156823249103331 0.25259817100369902 0 -0.001965278602122185 0.24182690426762959 0 0.008579196815527634 0.23953031834541311 0 0.0010433620948100131 0.23240638127880581 0 0.02117589590128718 0.2395927914801684 0 0.008579196815527634 0.23953031834541311 0 0.01115565641706814 0.2303537873583584 0 0.008579196815527634 0.23953031834541311 0 0.01115565641706814 0.2303537873583584 0 0.0010433620948100131 0.23240638127880581 0 0.01115565641706814 0.2303537873583584 0 0.0010433620948100131 0.23240638127880581 0 0.0091084557899102862 0.2202403998025296 0 0.0010433620948100131 0.23240638127880581 0 0.0001093474821353509 0.22215689039817851 0 0.0091084557899102862 0.2202403998025296 0 0.01115565641706814 0.2303537873583584 0 0.0091084557899102862 0.2202403998025296 0 0.016496999093422449 0.223541986747673 0 0.0091084557899102862 0.2202403998025296 0 0.016496999093422449 0.223541986747673 0 0.01612020317490017 0.2152275371535412 0 0.016496999093422449 0.223541986747673 0 0.02147394042148347 0.23028557103733549 0 0.024626739663750161 0.22160263838659999 0 0.016496999093422449 0.223541986747673 0 0.024626739663750161 0.22160263838659999 0 0.01612020317490017 0.2152275371535412 0 0.01115565641706814 0.2303537873583584 0 0.016496999093422449 0.223541986747673 0 0.02147394042148347 0.23028557103733549 0 0.02117589590128718 0.2395927914801684 0 0.01115565641706814 0.2303537873583584 0 0.02147394042148347 0.23028557103733549 0 0.02147394042148347 0.23028557103733549 0 0.030323397599499081 0.22959965211839081 0 0.024626739663750161 0.22160263838659999 0 0.02117589590128718 0.2395927914801684 0 0.02147394042148347 0.23028557103733549 0 0.030323397599499081 0.22959965211839081 0 0.024626739663750161 0.22160263838659999 0 0.027508903383077599 0.21474836631904051 0 0.034268755792753257 0.2207932912834846 0 0.030323397599499081 0.22959965211839081 0 0.024626739663750161 0.22160263838659999 0 0.034268755792753257 0.2207932912834846 0 0.027508903383077599 0.21474836631904051 0 0.023943201944243639 0.1999111919537408 0 0.034268755792753257 0.2207932912834846 0 0.023943201944243639 0.1999111919537408 0 0.034268755792753257 0.2207932912834846 0 0.027508903383077599 0.21474836631904051 0 0.023922045305692211 0.20684028787671799 0 0.022699459496289199 0.2141990688659105 0 0.024626739663750161 0.22160263838659999 0 0.027508903383077599 0.21474836631904051 0 0.022699459496289199 0.2141990688659105 0 0.027508903383077599 0.21474836631904051 0 0.023922045305692211 0.20684028787671799 0 0.023943201944243639 0.1999111919537408 0 0.01896544066016782 0.20973745132843891 0 0.01612020317490017 0.2152275371535412 0 0.013247665380499421 0.20734461508933349 0 0.023922045305692211 0.20684028787671799 0 0.01896544066016782 0.20973745132843891 0 0.022699459496289199 0.2141990688659105 0 0.023922045305692211 0.20684028787671799 0 0.021734838082019509 0.20302577286306159 0 0.023943201944243639 0.1999111919537408 0 0.023922045305692211 0.20684028787671799 0 0.018650848458870179 0.20436341187488569 0 0.021734838082019509 0.20302577286306159 0 0.023922045305692211 0.20684028787671799 0 0.018650848458870179 0.20436341187488569 0 0.01896544066016782 0.20973745132843891 0 0.018650848458870179 0.20436341187488569 0 0.01896544066016782 0.20973745132843891 0 0.013247665380499421 0.20734461508933349 0 0.024626739663750161 0.22160263838659999 0 0.022699459496289199 0.2141990688659105 0 0.01612020317490017 0.2152275371535412 0 0.01896544066016782 0.20973745132843891 0 0.022699459496289199 0.2141990688659105 0 0.01612020317490017 0.2152275371535412 0 0.01612020317490017 0.2152275371535412 0 0.0085100262700745465 0.21094865931476009 0 0.013247665380499421 0.20734461508933349 0 0.0091084557899102862 0.2202403998025296 0 0.01612020317490017 0.2152275371535412 0 0.0085100262700745465 0.21094865931476009 0 0.0001093474821353509 0.22215689039817851 0 0.0091084557899102862 0.2202403998025296 0 0.00083142932333707279 0.21381627434491049 0 0.0091084557899102862 0.2202403998025296 0 0.0085100262700745465 0.21094865931476009 0 0.00083142932333707279 0.21381627434491049 0 0.0085100262700745465 0.21094865931476009 0 0.00083142932333707279 0.21381627434491049 0 0.0029581381265264858 0.20519393183106241 0 0.0085100262700745465 0.21094865931476009 0 0.0029581381265264858 0.20519393183106241 0 0.0087942658252738396 0.20386919766718339 0 0.0029581381265264858 0.20519393183106241 0 0.0087942658252738396 0.20386919766718339 0 0.0056326315351633537 0.2004899601979887 0 0.0085100262700745465 0.21094865931476009 0 0.0087942658252738396 0.20386919766718339 0 0.013247665380499421 0.20734461508933349 0 0.0087942658252738396 0.20386919766718339 0 0.013247665380499421 0.20734461508933349 0 0.013927284278231049 0.2027684573698135 0 0.018650848458870179 0.20436341187488569 0 0.013247665380499421 0.20734461508933349 0 0.013927284278231049 0.2027684573698135 0 0.013927284278231049 0.2027684573698135 0 0.010260103200158849 0.1991700010832006 0 0.016231602148303749 0.1987520895161983 0 0.010260103200158849 0.1991700010832006 0 0.01183675088797494 0.19419665586736051 0 0.016231602148303749 0.1987520895161983 0 0.010260103200158849 0.1991700010832006 0 0.0061740732670114221 0.19541611365695169 0 0.01183675088797494 0.19419665586736051 0 0.0087942658252738396 0.20386919766718339 0 0.010260103200158849 0.1991700010832006 0 0.0056326315351633537 0.2004899601979887 0 0.0087942658252738396 0.20386919766718339 0 0.013927284278231049 0.2027684573698135 0 0.010260103200158849 0.1991700010832006 0 0.010260103200158849 0.1991700010832006 0 0.0056326315351633537 0.2004899601979887 0 0.0061740732670114221 0.19541611365695169 0 -2.3422743153838069e-05 0.1988005567515452 0 0.0056326315351633537 0.2004899601979887 0 0.0061740732670114221 0.19541611365695169 0 -2.3422743153838069e-05 0.1988005567515452 0 0.0029581381265264858 0.20519393183106241 0 0.0056326315351633537 0.2004899601979887 0 -0.003081975793268537 0.18782002811878001 0 0.003085550936940849 0.18695469644268639 0 0.0015327128313205251 0.1915709431207247 0 -2.3422743153838069e-05 0.1988005567515452 0 0.0061740732670114221 0.19541611365695169 0 0.0015327128313205251 0.1915709431207247 0 0.0061740732670114221 0.19541611365695169 0 0.0015327128313205251 0.1915709431207247 0 0.007927604969267173 0.18944813828794729 0 0.003085550936940849 0.18695469644268639 0 0.0015327128313205251 0.1915709431207247 0 0.007927604969267173 0.18944813828794729 0 0.007927604969267173 0.18944813828794729 0 0.01183675088797494 0.19419665586736051 0 0.012456110925155389 0.1902446129755902 0 0.0115175493401282 0.18523262863701309 0 0.007927604969267173 0.18944813828794729 0 0.012456110925155389 0.1902446129755902 0 0.0061740732670114221 0.19541611365695169 0 0.007927604969267173 0.18944813828794729 0 0.01183675088797494 0.19419665586736051 0 0.01183675088797494 0.19419665586736051 0 0.012456110925155389 0.1902446129755902 0 0.016985704636488509 0.19275209946522329 0 0.01183675088797494 0.19419665586736051 0 0.016985704636488509 0.19275209946522329 0 0.016231602148303749 0.1987520895161983 0 0.0115175493401282 0.18523262863701309 0 0.012456110925155389 0.1902446129755902 0 0.016985704636488509 0.19275209946522329 0 0.021389494149062459 0.18037885708243739 0 0.02230428843080948 0.19662630733770359 0 0.036772518206031037 0.18954494233072339 0 0.013543000689093809 0.1790660034635034 0 0.02230428843080948 0.19662630733770359 0 0.013543000689093809 0.1790660034635034 0 0.016985704636488509 0.19275209946522329 0 0.02230428843080948 0.19662630733770359 0 0.016985704636488509 0.19275209946522329 0 0.019428477636303031 0.19812266709439569 0 0.016231602148303749 0.1987520895161983 0 0.019428477636303031 0.19812266709439569 0 0.016231602148303749 0.1987520895161983 0 0.020423256619271999 0.20098819974690199 0 0.018650848458870179 0.20436341187488569 0 0.016231602148303749 0.1987520895161983 0 0.020423256619271999 0.20098819974690199 0 0.018650848458870179 0.20436341187488569 0 0.013927284278231049 0.2027684573698135 0 0.016231602148303749 0.1987520895161983 0 0.019428477636303031 0.19812266709439569 0 0.020423256619271999 0.20098819974690199 0 0.023943201944243639 0.1999111919537408 0 0.018650848458870179 0.20436341187488569 0 0.020423256619271999 0.20098819974690199 0 0.021734838082019509 0.20302577286306159 0 0.020423256619271999 0.20098819974690199 0 0.021734838082019509 0.20302577286306159 0 0.023943201944243639 0.1999111919537408 0 0.016985704636488509 0.19275209946522329 0 0.02230428843080948 0.19662630733770359 0 0.023943201944243639 0.1999111919537408 0 0.016985704636488509 0.19275209946522329 0 0.019428477636303031 0.19812266709439569 0 0.023943201944243639 0.1999111919537408 0 0.02230428843080948 0.19662630733770359 0 0.023943201944243639 0.1999111919537408 0 0.02230428843080948 0.19662630733770359 0 0.023943201944243639 0.1999111919537408 0 0.035957366435008513 0.20647473970990701 0 0.02230428843080948 0.19662630733770359 0 0.050897121833006063 0.20159486356051531 0 0.035957366435008513 0.20647473970990701 0 0.02230428843080948 0.19662630733770359 0 0.036772518206031037 0.18954494233072339 0 0.050897121833006063 0.20159486356051531 0 0.02230428843080948 0.19662630733770359 0 0.050897121833006063 0.20159486356051531 0 0.036772518206031037 0.18954494233072339 0 0.050897121833006063 0.20159486356051531 0 0.052155542262999663 0.1987110275790093 0 0.036772518206031037 0.18954494233072339 0 0.052155542262999663 0.1987110275790093 0 0.036772518206031037 0.18954494233072339 0 0.046621016020550923 0.1898787739154234 0 0.052155542262999663 0.1987110275790093 0 0.039453436217199322 0.18340126598870379 0 0.036772518206031037 0.18954494233072339 0 0.046621016020550923 0.1898787739154234 0 0.057517378285335978 0.18642367489497111 0 0.046621016020550923 0.1898787739154234 0 0.052155542262999663 0.1987110275790093 0 0.057517378285335978 0.18642367489497111 0 0.052155542262999663 0.1987110275790093 0 0.057517378285335978 0.18642367489497111 0 0.057090951257530269 0.197109929087698 0 0.052155542262999663 0.1987110275790093 0 0.057517378285335978 0.18642367489497111 0 0.060667890749981898 0.1933513013873914 0 0.057090951257530269 0.197109929087698 0 0.060667890749981898 0.1933513013873914 0 0.057090951257530269 0.197109929087698 0 0.058031923789004708 0.2022125116707813 0 0.060667890749981898 0.1933513013873914 0 0.058031923789004708 0.2022125116707813 0 0.060667890749981898 0.1933513013873914 0 0.058031923789004708 0.2022125116707813 0 0.059673977213942478 0.20319094098477611 0 0.058031923789004708 0.2022125116707813 0 0.059673977213942478 0.20319094098477611 0 0.057090951257530269 0.197109929087698 0 0.058031923789004708 0.2022125116707813 0 0.052155542262999663 0.1987110275790093 0 0.058031923789004708 0.2022125116707813 0 0.052155542262999663 0.1987110275790093 0 0.058031923789004708 0.2022125116707813 0 0.050897121833006063 0.20159486356051531 0 0.052155542262999663 0.1987110275790093 0 0.058031923789004708 0.2022125116707813 0 0.050897121833006063 0.20159486356051531 0 0.050897121833006063 0.20159486356051531 0 0.052155542262999663 0.1987110275790093 0 0.050897121833006063 0.20159486356051531 0 0.042542699632676838 0.22074012119599501 0 0.053005439111290922 0.21910981667301421 0 0.058031923789004708 0.2022125116707813 0 0.050897121833006063 0.20159486356051531 0 0.053005439111290922 0.21910981667301421 0 0.058031923789004708 0.2022125116707813 0 0.053005439111290922 0.21910981667301421 0 0.058031923789004708 0.2022125116707813 0 0.061718375040706958 0.21244198365854619 0 0.053005439111290922 0.21910981667301421 0 0.058031923789004708 0.2022125116707813 0 0.059673977213942478 0.20319094098477611 0 0.061718375040706958 0.21244198365854619 0 0.061718375040706958 0.21244198365854619 0 0.053005439111290922 0.21910981667301421 0 0.062081063031912492 0.22413796841031719 0 0.050897121833006063 0.20159486356051531 0 0.042542699632676838 0.22074012119599501 0 0.023943201944243639 0.1999111919537408 0 0.035957366435008513 0.20647473970990701 0 0.034268755792753257 0.2207932912834846 0 0.050897121833006063 0.20159486356051531 0 0.038363073609551428 0.21412918370060571 0 0.042542699632676838 0.22074012119599501 0 0.050897121833006063 0.20159486356051531 0 0.035957366435008513 0.20647473970990701 0 0.038363073609551428 0.21412918370060571 0 0.038363073609551428 0.21412918370060571 0 0.034268755792753257 0.2207932912834846 0 0.042542699632676838 0.22074012119599501 0 0.035957366435008513 0.20647473970990701 0 0.038363073609551428 0.21412918370060571 0 0.034268755792753257 0.2207932912834846 0 0.042542699632676838 0.22074012119599501 0 0.034188277432347557 0.23988537883147459 0 0.042542699632676838 0.22074012119599501 0 0.04817080422001134 0.23536218897101929 0 0.044937254539659167 0.2379713478153713 0 0.030323397599499081 0.22959965211839081 0 0.042542699632676838 0.22074012119599501 0 0.034188277432347557 0.23988537883147459 0 0.042542699632676838 0.22074012119599501 0 0.044937254539659167 0.2379713478153713 0 0.034188277432347557 0.23988537883147459 0 0.030323397599499081 0.22959965211839081 0 0.034268755792753257 0.2207932912834846 0 0.042542699632676838 0.22074012119599501 0 0.053005439111290922 0.21910981667301421 0 0.04817080422001134 0.23536218897101929 0 0.053005439111290922 0.21910981667301421 0 0.062081063031912492 0.22413796841031719 0 0.04817080422001134 0.23536218897101929 0 0.062081063031912492 0.22413796841031719 0 0.04817080422001134 0.23536218897101929 0 0.059531729096570118 0.24099028160929839 0 0.042542699632676838 0.22074012119599501 0 0.053005439111290922 0.21910981667301421 0 0.04817080422001134 0.23536218897101929 0 0.062081063031912492 0.22413796841031719 0 0.04817080422001134 0.23536218897101929 0 0.04817080422001134 0.23536218897101929 0 0.052294646587479003 0.2493466198794505 0 0.04073495957405681 0.26035892983227987 0 0.04817080422001134 0.23536218897101929 0 0.059531729096570118 0.24099028160929839 0 0.052294646587479003 0.2493466198794505 0 0.059531729096570118 0.24099028160929839 0 0.067445722382230539 0.24771064348785149 0 0.06034442261467237 0.25120339486286308 0 0.059531729096570118 0.24099028160929839 0 0.052294646587479003 0.2493466198794505 0 0.06034442261467237 0.25120339486286308 0 0.04817080422001134 0.23536218897101929 0 0.04073495957405681 0.26035892983227987 0 0.04817080422001134 0.23536218897101929 0 0.044937254539659167 0.2379713478153713 0 0.04073495957405681 0.26035892983227987 0 0.04817080422001134 0.23536218897101929 0 0.044937254539659167 0.2379713478153713 0 0.044937254539659167 0.2379713478153713 0 0.034188277432347557 0.23988537883147459 0 0.030652172791378579 0.25229956247347313 0 0.085975255819246227 0.24304742420893821 0 0.091760355399887042 0.24149966876957779 0 0.085886262968569133 0.25948379364412733 0 0.091760355399887042 0.24149966876957779 0 0.10166443252893551 0.23659000017624271 0 0.085886262968569133 0.25948379364412733 0 0.085975255819246227 0.24304742420893821 0 0.091760355399887042 0.24149966876957779 0 0.090327239942362525 0.2312920649275291 0 0.085975255819246227 0.24304742420893821 0 0.075396639696560977 0.24390878816167419 0 0.077103558767455421 0.230534611802553 0 0.085975255819246227 0.24304742420893821 0 0.077103558767455421 0.230534611802553 0 0.090327239942362525 0.2312920649275291 0 0.085975255819246227 0.24304742420893821 0 0.075396639696560977 0.24390878816167419 0 0.080478695998155714 0.25165019938018113 0 0.075396639696560977 0.24390878816167419 0 0.074707437689247702 0.25389633834412328 0 0.080478695998155714 0.25165019938018113 0 0.075396639696560977 0.24390878816167419 0 0.067445722382230539 0.24771064348785149 0 0.068934414955804643 0.23628801399858909 0 0.075396639696560977 0.24390878816167419 0 0.067445722382230539 0.24771064348785149 0 0.074707437689247702 0.25389633834412328 0 0.059531729096570118 0.24099028160929839 0 0.067445722382230539 0.24771064348785149 0 0.068934414955804643 0.23628801399858909 0 0.075396639696560977 0.24390878816167419 0 0.068934414955804643 0.23628801399858909 0 0.077103558767455421 0.230534611802553 0 0.062081063031912492 0.22413796841031719 0 0.059531729096570118 0.24099028160929839 0 0.068934414955804643 0.23628801399858909 0 0.062081063031912492 0.22413796841031719 0 0.077103558767455421 0.230534611802553 0 0.077696208689423979 0.21392961690810641 0 0.077103558767455421 0.230534611802553 0 0.077696208689423979 0.21392961690810641 0 0.062081063031912492 0.22413796841031719 0 0.068934414955804643 0.23628801399858909 0 0.077103558767455421 0.230534611802553 0 0.077103558767455421 0.230534611802553 0 0.086723057100410644 0.21930832929599969 0 0.077696208689423979 0.21392961690810641 0 0.077103558767455421 0.230534611802553 0 0.090327239942362525 0.2312920649275291 0 0.086723057100410644 0.21930832929599969 0 0.090327239942362525 0.2312920649275291 0 0.086723057100410644 0.21930832929599969 0 0.099258091607832458 0.22228701345730209 0 0.08282365066700062 0.20740072564839451 0 0.1001331263781514 0.21054846617837791 0 0.08282365066700062 0.20740072564839451 0 0.0830920941513177 0.21288940176841251 0 0.1001331263781514 0.21054846617837791 0 0.086723057100410644 0.21930832929599969 0 0.0830920941513177 0.21288940176841251 0 0.1001331263781514 0.21054846617837791 0 0.08282365066700062 0.20740072564839451 0 0.077960793866212394 0.2065164116634538 0 0.08282365066700062 0.20740072564839451 0 0.07778409662064556 0.21146715366449201 0 0.077960793866212394 0.2065164116634538 0 0.08282365066700062 0.20740072564839451 0 0.0830920941513177 0.21288940176841251 0 0.07778409662064556 0.21146715366449201 0 0.08282365066700062 0.20740072564839451 0 0.07778409662064556 0.21146715366449201 0 0.086723057100410644 0.21930832929599969 0 0.077696208689423979 0.21392961690810641 0 0.086723057100410644 0.21930832929599969 0 0.0830920941513177 0.21288940176841251 0 0.077696208689423979 0.21392961690810641 0 0.0830920941513177 0.21288940176841251 0 0.07778409662064556 0.21146715366449201 0 0.077696208689423979 0.21392961690810641 0 0.059673977213942478 0.20319094098477611 0 0.077960793866212394 0.2065164116634538 0 0.062081063031912492 0.22413796841031719 0 0.077696208689423979 0.21392961690810641 0 0.075991321843812007 0.21291374784961289 0 0.059673977213942478 0.20319094098477611 0 0.075991321843812007 0.21291374784961289 0 0.059673977213942478 0.20319094098477611 0 0.061718375040706958 0.21244198365854619 0 0.075991321843812007 0.21291374784961289 0 0.059673977213942478 0.20319094098477611 0 0.075991321843812007 0.21291374784961289 0 0.077960793866212394 0.2065164116634538 0 0.07778409662064556 0.21146715366449201 0 0.077696208689423979 0.21392961690810641 0 0.075991321843812007 0.21291374784961289 0 0.07778409662064556 0.21146715366449201 0 0.077696208689423979 0.21392961690810641 0 0.07778409662064556 0.21146715366449201 0 0.075991321843812007 0.21291374784961289 0 0.077696208689423979 0.21392961690810641 0 0.075991321843812007 0.21291374784961289 0 0.062081063031912492 0.22413796841031719 0 0.075991321843812007 0.21291374784961289 0 0.061718375040706958 0.21244198365854619 0 0.062081063031912492 0.22413796841031719 0 0.075991321843812007 0.21291374784961289 0 0.07778409662064556 0.21146715366449201 0 0.075991321843812007 0.21291374784961289 0 0.077960793866212394 0.2065164116634538 0 0.07778409662064556 0.21146715366449201 0 0.077960793866212394 0.2065164116634538 0 0.060667890749981898 0.1933513013873914 0 0.069391780603767286 0.1985353247034998 0 0.078552310067739675 0.1899431815963343 0 0.059673977213942478 0.20319094098477611 0 0.077960793866212394 0.2065164116634538 0 0.069391780603767286 0.1985353247034998 0 0.057517378285335978 0.18642367489497111 0 0.060667890749981898 0.1933513013873914 0 0.078552310067739675 0.1899431815963343 0 0.077960793866212394 0.2065164116634538 0 0.069391780603767286 0.1985353247034998 0 0.078552310067739675 0.1899431815963343 0 0.057517378285335978 0.18642367489497111 0 0.078552310067739675 0.1899431815963343 0 0.060667890749981898 0.1933513013873914 0 0.059673977213942478 0.20319094098477611 0 0.069391780603767286 0.1985353247034998 0 0.077960793866212394 0.2065164116634538 0 0.078552310067739675 0.1899431815963343 0 0.08282365066700062 0.20740072564839451 0 0.078552310067739675 0.1899431815963343 0 0.1000095862482286 0.19353335379614581 0 0.08282365066700062 0.20740072564839451 0 0.077960793866212394 0.2065164116634538 0 0.078552310067739675 0.1899431815963343 0 0.08282365066700062 0.20740072564839451 0 0.1000095862482286 0.19353335379614581 0 0.078552310067739675 0.1899431815963343 0 0.1000095862482286 0.19353335379614581 0 0.1000095862482286 0.19353335379614581 0 0.1119621855324581 0.18388877331391679 0 0.1119621855324581 0.18388877331391679 0 0.12809949413598259 0.1982332796183166 0 0.12623709760602039 0.18867627876683751 0 0.1000095862482286 0.19353335379614581 0 0.12809949413598259 0.1982332796183166 0 0.1000095862482286 0.19353335379614581 0 0.1174426020893027 0.21369620670835879 0 0.12809949413598259 0.1982332796183166 0 0.1000095862482286 0.19353335379614581 0 0.1119621855324581 0.18388877331391679 0 0.12809949413598259 0.1982332796183166 0 0.1174426020893027 0.21369620670835879 0 0.12809949413598259 0.1982332796183166 0 0.1174426020893027 0.21369620670835879 0 0.13079881134157489 0.21612504290720769 0 0.1174426020893027 0.21369620670835879 0 0.1001331263781514 0.21054846617837791 0 0.1000095862482286 0.19353335379614581 0 0.1174426020893027 0.21369620670835879 0 0.1001331263781514 0.21054846617837791 0 0.08282365066700062 0.20740072564839451 0 0.1000095862482286 0.19353335379614581 0 0.1001331263781514 0.21054846617837791 0 0.1174426020893027 0.21369620670835879 0 0.1001331263781514 0.21054846617837791 0 0.099258091607832458 0.22228701345730209 0 0.086723057100410644 0.21930832929599969 0 0.1001331263781514 0.21054846617837791 0 0.099258091607832458 0.22228701345730209 0 0.1174426020893027 0.21369620670835879 0 0.099258091607832458 0.22228701345730209 0 0.10166443252893551 0.23659000017624271 0 0.090327239942362525 0.2312920649275291 0 0.099258091607832458 0.22228701345730209 0 0.10166443252893551 0.23659000017624271 0 0.11193009187841341 0.23778907333103991 0 0.1233060832280653 0.2372070654073864 0 0.13079881134157489 0.21612504290720769 0 0.1174426020893027 0.21369620670835879 0 0.11193009187841341 0.23778907333103991 0 0.10166443252893551 0.23659000017624271 0 0.1174426020893027 0.21369620670835879 0 0.11193009187841341 0.23778907333103991 0 0.13079881134157489 0.21612504290720769 0 0.11193009187841341 0.23778907333103991 0 0.13079881134157489 0.21612504290720769 0 0.1174426020893027 0.21369620670835879 0 0.10166443252893551 0.23659000017624271 0 0.11193009187841341 0.23778907333103991 0 0.1233060832280653 0.2372070654073864 0 0.1152979079485152 0.2467056018988516 0 0.1233060832280653 0.2372070654073864 0 0.1152979079485152 0.2467056018988516 0 0.1250676346401875 0.24796443701554319 0 0.11193009187841341 0.23778907333103991 0 0.1152979079485152 0.2467056018988516 0 0.10650461767427161 0.25132517155921902 0 0.11193009187841341 0.23778907333103991 0 0.10166443252893551 0.23659000017624271 0 0.093061372415253377 0.25945310375487363 0 0.10166443252893551 0.23659000017624271 0 0.085886262968569133 0.25948379364412733 0 0.11193009187841341 0.23778907333103991 0 0.093061372415253377 0.25945310375487363 0 0.11193009187841341 0.23778907333103991 0 0.093061372415253377 0.25945310375487363 0 0.10650461767427161 0.25132517155921902 0 0.091760355399887042 0.24149966876957779 0 0.090327239942362525 0.2312920649275291 0 0.10166443252893551 0.23659000017624271 0 0.08022281403025916 0.14313863688857029 0 0.093167312330706492 0.16073073013935579 0 0.097579150219516186 0.1459852772673329 0 0.08022281403025916 0.14313863688857029 0 0.079387562048995053 0.16654090924245221 0 0.08022281403025916 0.14313863688857029 0 0.097579150219516186 0.1459852772673329 0 0.098136173783193614 0.12855261503670501 0 0.081058066011519173 0.11973636453468819 0 0.08022281403025916 0.14313863688857029 0 0.081058066011519173 0.11973636453468819 0 0.08022281403025916 0.14313863688857029 0 0.098136173783193614 0.12855261503670501 0 0.054704645729867107 0.1303951701743557 0 0.068402942841081005 0.12865021266463919 0 0.06445510108496709 0.14831583671703669 0 0.081058066011519173 0.11973636453468819 0 0.08022281403025916 0.14313863688857029 0 0.068402942841081005 0.12865021266463919 0 0.08022281403025916 0.14313863688857029 0 0.068402942841081005 0.12865021266463919 0 0.06445510108496709 0.14831583671703669 0 0.08022281403025916 0.14313863688857029 0 0.06445510108496709 0.14831583671703669 0 0.079387562048995053 0.16654090924245221 0 0.06445510108496709 0.14831583671703669 0 0.06670876632053821 0.16536039993208129 0 0.079387562048995053 0.16654090924245221 0 0.056759789081437029 0.15816783404816359 0 0.06445510108496709 0.14831583671703669 0 0.06670876632053821 0.16536039993208129 0 0.06670876632053821 0.16536039993208129 0 0.071220178094475839 0.177519435916074 0 0.079387562048995053 0.16654090924245221 0 0.078552310067739675 0.1899431815963343 0 0.071220178094475839 0.177519435916074 0 0.079387562048995053 0.16654090924245221 0 0.057517378285335978 0.18642367489497111 0 0.078552310067739675 0.1899431815963343 0 0.071220178094475839 0.177519435916074 0 0.057517378285335978 0.18642367489497111 0 0.06670876632053821 0.16536039993208129 0 0.071220178094475839 0.177519435916074 0 0.078552310067739675 0.1899431815963343 0 0.079387562048995053 0.16654090924245221 0 0.078552310067739675 0.1899431815963343 0 0.079387562048995053 0.16654090924245221 0 0.094656188726405799 0.1772984468475671 0 0.078552310067739675 0.1899431815963343 0 0.1000095862482286 0.19353335379614581 0 0.094656188726405799 0.1772984468475671 0 0.079387562048995053 0.16654090924245221 0 0.093167312330706492 0.16073073013935579 0 0.094656188726405799 0.1772984468475671 0 0.08022281403025916 0.14313863688857029 0 0.079387562048995053 0.16654090924245221 0 0.093167312330706492 0.16073073013935579 0 0.093167312330706492 0.16073073013935579 0 0.1051682117550992 0.16863341283049499 0 0.094656188726405799 0.1772984468475671 0 0.093167312330706492 0.16073073013935579 0 0.1051682117550992 0.16863341283049499 0 0.10738037989590581 0.15691718048007991 0 0.1051682117550992 0.16863341283049499 0 0.094656188726405799 0.1772984468475671 0 0.1119621855324581 0.18388877331391679 0 0.1000095862482286 0.19353335379614581 0 0.094656188726405799 0.1772984468475671 0 0.1119621855324581 0.18388877331391679 0 0.1051682117550992 0.16863341283049499 0 0.1119621855324581 0.18388877331391679 0 0.1176573055604207 0.16965843036111 0 0.1119621855324581 0.18388877331391679 0 0.1176573055604207 0.16965843036111 0 0.12502668500631101 0.18003223183350331 0 0.1119621855324581 0.18388877331391679 0 0.12502668500631101 0.18003223183350331 0 0.12623709760602039 0.18867627876683751 0 0.10738037989590581 0.15691718048007991 0 0.1176573055604207 0.16965843036111 0 0.1263510041100718 0.15412713222648239 0 0.1051682117550992 0.16863341283049499 0 0.10738037989590581 0.15691718048007991 0 0.1176573055604207 0.16965843036111 0 0.10738037989590581 0.15691718048007991 0 0.1089890710575158 0.14058722379195329 0 0.1263510041100718 0.15412713222648239 0 0.1089890710575158 0.14058722379195329 0 0.1243116374868449 0.136850619307404 0 0.1263510041100718 0.15412713222648239 0 0.10738037989590581 0.15691718048007991 0 0.097579150219516186 0.1459852772673329 0 0.1089890710575158 0.14058722379195329 0 0.093167312330706492 0.16073073013935579 0 0.10738037989590581 0.15691718048007991 0 0.097579150219516186 0.1459852772673329 0 0.097579150219516186 0.1459852772673329 0 0.1089890710575158 0.14058722379195329 0 0.098136173783193614 0.12855261503670501 0 0.11707998843366239 0.12090166170324231 0 0.1089890710575158 0.14058722379195329 0 0.098136173783193614 0.12855261503670501 0 0.11707998843366239 0.12090166170324231 0 0.1089890710575158 0.14058722379195329 0 0.1243116374868449 0.136850619307404 0 0.11707998843366239 0.12090166170324231 0 0.1243116374868449 0.136850619307404 0 0.14061487869327599 0.12738787364596069 0 0.1243116374868449 0.136850619307404 0 0.14061487869327599 0.12738787364596069 0 0.1450893294801871 0.15084825440961219 0 0.14061487869327599 0.12738787364596069 0 0.1450893294801871 0.15084825440961219 0 0.16208469833826319 0.13464304631642149 0 0.1450893294801871 0.15084825440961219 0 0.16208469833826319 0.13464304631642149 0 0.1243116374868449 0.136850619307404 0 0.1450893294801871 0.15084825440961219 0 0.1263510041100718 0.15412713222648239 0 0.1450893294801871 0.15084825440961219 0 0.1263510041100718 0.15412713222648239 0 0.13434892063135129 0.1709012650253654 0 0.1176573055604207 0.16965843036111 0 0.1263510041100718 0.15412713222648239 0 0.13434892063135129 0.1709012650253654 0 0.1176573055604207 0.16965843036111 0 0.13434892063135129 0.1709012650253654 0 0.12502668500631101 0.18003223183350331 0 0.12502668500631101 0.18003223183350331 0 0.13317066441191511 0.18549658195139779 0 0.12623709760602039 0.18867627876683751 0 0.13434892063135129 0.1709012650253654 0 0.12502668500631101 0.18003223183350331 0 0.13317066441191511 0.18549658195139779 0 0.13434892063135129 0.1709012650253654 0 0.13317066441191511 0.18549658195139779 0 0.14289571148574401 0.18421669799074539 0 0.13434892063135129 0.1709012650253654 0 0.14289571148574401 0.18421669799074539 0 0.15014598838012391 0.16812378435884931 0 0.14289571148574401 0.18421669799074539 0 0.15014598838012391 0.16812378435884931 0 0.16340295837154781 0.17869074671240681 0 0.1450893294801871 0.15084825440961219 0 0.15014598838012391 0.16812378435884931 0 0.17025484901730581 0.156442106610301 0 0.1450893294801871 0.15084825440961219 0 0.13434892063135129 0.1709012650253654 0 0.15014598838012391 0.16812378435884931 0 0.15014598838012391 0.16812378435884931 0 0.17025484901730581 0.156442106610301 0 0.16340295837154781 0.17869074671240681 0 0.17025484901730581 0.156442106610301 0 0.16340295837154781 0.17869074671240681 0 0.18344157371591241 0.18406997535271 0 0.17025484901730581 0.156442106610301 0 0.18344157371591241 0.18406997535271 0 0.1981233639171355 0.16578679509823521 0 0.17025484901730581 0.156442106610301 0 0.1886017155567373 0.14211231666073301 0 0.1981233639171355 0.16578679509823521 0 0.17025484901730581 0.156442106610301 0 0.16208469833826319 0.13464304631642149 0 0.1886017155567373 0.14211231666073301 0 0.1886017155567373 0.14211231666073301 0 0.1790800671963392 0.1184378382232308 0 0.16208469833826319 0.13464304631642149 0 0.1886017155567373 0.14211231666073301 0 0.1790800671963392 0.1184378382232308 0 0.19325819231563421 0.12959887947710741 0 0.1886017155567373 0.14211231666073301 0 0.1790800671963392 0.1184378382232308 0 0.16208469833826319 0.13464304631642149 0 0.1790800671963392 0.1184378382232308 0 0.1450893294801871 0.15084825440961219 0 0.17025484901730581 0.156442106610301 0 0.16208469833826319 0.13464304631642149 0 0.1514273965657848 0.24085309905483679 0 0.13478444466321229 0.23767678351231611 0 0.14386495534927929 0.22895205141331151 0 0.1514273965657848 0.24085309905483679 0 0.13478444466321229 0.23767678351231611 0 0.1384713120865835 0.25773302092121009 0 0.1250676346401875 0.24796443701554319 0 0.13478444466321229 0.23767678351231611 0 0.1384713120865835 0.25773302092121009 0 0.1233060832280653 0.2372070654073864 0 0.1250676346401875 0.24796443701554319 0 0.13478444466321229 0.23767678351231611 0 0.1233060832280653 0.2372070654073864 0 0.13478444466321229 0.23767678351231611 0 0.13079881134157489 0.21612504290720769 0 0.13478444466321229 0.23767678351231611 0 0.14386495534927929 0.22895205141331151 0 0.13079881134157489 0.21612504290720769 0 0.14386495534927929 0.22895205141331151 0 0.13079881134157489 0.21612504290720769 0 0.15844916882654519 0.22115328017888419 0 0.1514273965657848 0.24085309905483679 0 0.14386495534927929 0.22895205141331151 0 0.15844916882654519 0.22115328017888419 0 0.13079881134157489 0.21612504290720769 0 0.15844916882654519 0.22115328017888419 0 0.13079881134157489 0.21612504290720769 0 0.14405659807402271 0.2009031781863346 0 0.15844916882654519 0.22115328017888419 0 0.13079881134157489 0.21612504290720769 0 0.12809949413598259 0.1982332796183166 0 0.14405659807402271 0.2009031781863346 0 0.1174426020893027 0.21369620670835879 0 0.13079881134157489 0.21612504290720769 0 0.12809949413598259 0.1982332796183166 0 0.13079881134157489 0.21612504290720769 0 0.14405659807402271 0.2009031781863346 0 0.12809949413598259 0.1982332796183166 0 0.14405659807402271 0.2009031781863346 0 0.12809949413598259 0.1982332796183166 0 0.1377541084679488 0.19338203871321119 0 0.14405659807402271 0.2009031781863346 0 0.12809949413598259 0.1982332796183166 0 0.13022991801334199 0.19514207920620891 0 0.1377541084679488 0.19338203871321119 0 0.12809949413598259 0.1982332796183166 0 0.13022991801334199 0.19514207920620891 0 0.12809949413598259 0.1982332796183166 0 0.12623709760602039 0.18867627876683751 0 0.13022991801334199 0.19514207920620891 0 0.13317066441191511 0.18549658195139779 0 0.12623709760602039 0.18867627876683751 0 0.13022991801334199 0.19514207920620891 0 0.13317066441191511 0.18549658195139779 0 0.14289571148574401 0.18421669799074539 0 0.1377541084679488 0.19338203871321119 0 0.13317066441191511 0.18549658195139779 0 0.13022991801334199 0.19514207920620891 0 0.1377541084679488 0.19338203871321119 0 0.14289571148574401 0.18421669799074539 0 0.1377541084679488 0.19338203871321119 0 0.14405659807402271 0.2009031781863346 0 0.14405659807402271 0.2009031781863346 0 0.1684266189286579 0.20498070278197239 0 0.14289571148574401 0.18421669799074539 0 0.16340295837154781 0.17869074671240681 0 0.14405659807402271 0.2009031781863346 0 0.16340295837154781 0.17869074671240681 0 0.14405659807402271 0.2009031781863346 0 0.16340295837154781 0.17869074671240681 0 0.18344157371591241 0.18406997535271 0 0.1684266189286579 0.20498070278197239 0 0.16340295837154781 0.17869074671240681 0 0.14405659807402271 0.2009031781863346 0 0.1684266189286579 0.20498070278197239 0 0.18344157371591241 0.18406997535271 0 0.1684266189286579 0.20498070278197239 0 0.19279663978329381 0.20905822737760699 0 0.1684266189286579 0.20498070278197239 0 0.19279663978329381 0.20905822737760699 0 0.17869659642439559 0.21414630976549021 0 0.1684266189286579 0.20498070278197239 0 0.19279663978329381 0.20905822737760699 0 0.17869659642439559 0.21414630976549021 0 0.18609952631151591 0.22618151745055959 0 0.19279663978329381 0.20905822737760699 0 0.14405659807402271 0.2009031781863346 0 0.1684266189286579 0.20498070278197239 0 0.15844916882654519 0.22115328017888419 0 0.17869659642439559 0.21414630976549021 0 0.1684266189286579 0.20498070278197239 0 0.15844916882654519 0.22115328017888419 0 0.1514273965657848 0.24085309905483679 0 0.15844916882654519 0.22115328017888419 0 0.1691493644934341 0.23606856512045299 0 0.15844916882654519 0.22115328017888419 0 0.18609952631151591 0.22618151745055959 0 0.1691493644934341 0.23606856512045299 0 0.17869659642439559 0.21414630976549021 0 0.15844916882654519 0.22115328017888419 0 0.18609952631151591 0.22618151745055959 0 0.15844916882654519 0.22115328017888419 0 0.18609952631151591 0.22618151745055959 0 0.18609952631151591 0.22618151745055959 0 0.1971008006350988 0.24422433182354611 0 0.17660728565697029 0.25284173787090108 0 0.18609952631151591 0.22618151745055959 0 0.1691493644934341 0.23606856512045299 0 0.17660728565697029 0.25284173787090108 0 0.1514273965657848 0.24085309905483679 0 0.17660728565697029 0.25284173787090108 0 0.1514273965657848 0.24085309905483679 0 0.1691493644934341 0.23606856512045299 0 0.17660728565697029 0.25284173787090108 0 0.1971008006350988 0.24422433182354611 0 0.21374988379648621 0.2312097547222359 0 0.2257125065402284 0.25431107802280528 0 0.18609952631151591 0.22618151745055959 0 0.19919001424274069 0.21902366269476331 0 0.2102140220753515 0.22438156273492879 0 0.18609952631151591 0.22618151745055959 0 0.1971008006350988 0.24422433182354611 0 0.21374988379648621 0.2312097547222359 0 0.18609952631151591 0.22618151745055959 0 0.21374988379648621 0.2312097547222359 0 0.18609952631151591 0.22618151745055959 0 0.2102140220753515 0.22438156273492879 0 0.21374988379648621 0.2312097547222359 0 0.19919001424274069 0.21902366269476331 0 0.2102140220753515 0.22438156273492879 0 0.22326984787173351 0.22831062181695069 0 0.19919001424274069 0.21902366269476331 0 0.21716666063792969 0.21313575197324039 0 0.22326984787173351 0.22831062181695069 0 0.19919001424274069 0.21902366269476331 0 0.22326984787173351 0.22831062181695069 0 0.2102140220753515 0.22438156273492879 0 0.21374988379648621 0.2312097547222359 0 0.2102140220753515 0.22438156273492879 0 0.21374988379648621 0.2312097547222359 0 0.22326984787173351 0.22831062181695069 0 0.21716666063792969 0.21313575197324039 0 0.19279663978329381 0.20905822737760699 0 0.20764501227753371 0.18946127353573741 0 0.21716666063792969 0.21313575197324039 0 0.19279663978329381 0.20905822737760699 0 0.19919001424274069 0.21902366269476331 0 0.21716666063792969 0.21313575197324039 0 0.19279663978329381 0.20905822737760699 0 0.18609952631151591 0.22618151745055959 0 0.19919001424274069 0.21902366269476331 0 0.19279663978329381 0.20905822737760699 0 0.18344157371591241 0.18406997535271 0 0.19279663978329381 0.20905822737760699 0 0.20764501227753371 0.18946127353573741 0 0.21716666063792969 0.21313575197324039 0 0.20764501227753371 0.18946127353573741 0 0.21716666063792969 0.21313575197324039 0 0.20764501227753371 0.18946127353573741 0 0.22349524510262589 0.1882929917077163 0 0.21716666063792969 0.21313575197324039 0 0.22349524510262589 0.1882929917077163 0 0.23482300448504159 0.1984970970255906 0 0.22349524510262589 0.1882929917077163 0 0.23482300448504159 0.1984970970255906 0 0.23800281531175979 0.18073324988006281 0 0.23482300448504159 0.1984970970255906 0 0.24828008483854189 0.20295934428596721 0 0.25113643024109478 0.19094495075723769 0 0.23482300448504159 0.1984970970255906 0 0.23800281531175979 0.18073324988006281 0 0.25113643024109478 0.19094495075723769 0 0.23482300448504159 0.1984970970255906 0 0.24828008483854189 0.20295934428596721 0 0.24332195560292991 0.2175119837032847 0 0.21716666063792969 0.21313575197324039 0 0.23482300448504159 0.1984970970255906 0 0.24332195560292991 0.2175119837032847 0 0.21716666063792969 0.21313575197324039 0 0.24332195560292991 0.2175119837032847 0 0.22527908084694109 0.23330634744632109 0 0.22326984787173351 0.22831062181695069 0 0.2459873280094696 0.23707215699401071 0 0.21716666063792969 0.21313575197324039 0 0.24332195560292991 0.2175119837032847 0 0.22326984787173351 0.22831062181695069 0 0.21716666063792969 0.21313575197324039 0 0.22326984787173351 0.22831062181695069 0 0.21374988379648621 0.2312097547222359 0 0.22527908084694109 0.23330634744632109 0 0.22326984787173351 0.22831062181695069 0 0.21374988379648621 0.2312097547222359 0 0.22527908084694109 0.23330634744632109 0 0.22527908084694109 0.23330634744632109 0 0.22326984787173351 0.22831062181695069 0 0.22326984787173351 0.22831062181695069 0 0.2459873280094696 0.23707215699401071 0 0.24332195560292991 0.2175119837032847 0 0.22326984787173351 0.22831062181695069 0 0.2459873280094696 0.23707215699401071 0 0.22527908084694109 0.23330634744632109 0 0.2459873280094696 0.23707215699401071 0 0.22527908084694109 0.23330634744632109 0 0.2459873280094696 0.23707215699401071 0 0.23435940432808119 0.2558835225658645 0 0.22527908084694109 0.23330634744632109 0 0.23435940432808119 0.2558835225658645 0 0.21374988379648621 0.2312097547222359 0 0.2257125065402284 0.25431107802280528 0 0.21374988379648621 0.2312097547222359 0 0.22527908084694109 0.23330634744632109 0 0.2257125065402284 0.25431107802280528 0 0.22527908084694109 0.23330634744632109 0 0.2257125065402284 0.25431107802280528 0 0.23435940432808119 0.2558835225658645 0 0.207677409848747 0.15265436726913009 0 0.20799191400454739 0.1375227668896451 0 0.22134903716669199 0.14708536363501609 0 0.20799191400454739 0.1375227668896451 0 0.22703691245497479 0.13189098412415109 0 0.21251029914637609 0.1192952894197942 0 0.20799191400454739 0.1375227668896451 0 0.19325819231563421 0.12959887947710741 0 0.21251029914637609 0.1192952894197942 0 0.20799191400454739 0.1375227668896451 0 0.19325819231563421 0.12959887947710741 0 0.1886017155567373 0.14211231666073301 0 0.1886017155567373 0.14211231666073301 0 0.1981233639171355 0.16578679509823521 0 0.207677409848747 0.15265436726913009 0 0.20799191400454739 0.1375227668896451 0 0.1886017155567373 0.14211231666073301 0 0.207677409848747 0.15265436726913009 0 0.1886017155567373 0.14211231666073301 0 0.1981233639171355 0.16578679509823521 0 0.20764501227753371 0.18946127353573741 0 0.1981233639171355 0.16578679509823521 0 0.18344157371591241 0.18406997535271 0 0.20764501227753371 0.18946127353573741 0 0.1981233639171355 0.16578679509823521 0 0.20764501227753371 0.18946127353573741 0 0.1981233639171355 0.16578679509823521 0 0.22193333897365611 0.16940236618161161 0 0.20764501227753371 0.18946127353573741 0 0.22349524510262589 0.1882929917077163 0 0.22193333897365611 0.16940236618161161 0 0.207677409848747 0.15265436726913009 0 0.1981233639171355 0.16578679509823521 0 0.22193333897365611 0.16940236618161161 0 0.207677409848747 0.15265436726913009 0 0.22193333897365611 0.16940236618161161 0 0.22134903716669199 0.14708536363501609 0 0.22349524510262589 0.1882929917077163 0 0.22193333897365611 0.16940236618161161 0 0.23800281531175979 0.18073324988006281 0 0.23800281531175979 0.18073324988006281 0 0.24342118736862761 0.16410875332904781 0 0.25421457754785548 0.17528354573505059 0 0.23800281531175979 0.18073324988006281 0 0.25421457754785548 0.17528354573505059 0 0.25113643024109478 0.19094495075723769 0 0.22193333897365611 0.16940236618161161 0 0.23800281531175979 0.18073324988006281 0 0.24342118736862761 0.16410875332904781 0 0.22193333897365611 0.16940236618161161 0 0.24342118736862761 0.16410875332904781 0 0.2381959797174126 0.14809141417820801 0 0.2381959797174126 0.14809141417820801 0 0.2471064899150823 0.133463067737116 0 0.25227113898158787 0.14916335431643429 0 0.24342118736862761 0.16410875332904781 0 0.2381959797174126 0.14809141417820801 0 0.25227113898158787 0.14916335431643429 0 0.2381959797174126 0.14809141417820801 0 0.22134903716669199 0.14708536363501609 0 0.22703691245497479 0.13189098412415109 0 0.22193333897365611 0.16940236618161161 0 0.2381959797174126 0.14809141417820801 0 0.22134903716669199 0.14708536363501609 0 0.20799191400454739 0.1375227668896451 0 0.22134903716669199 0.14708536363501609 0 0.22703691245497479 0.13189098412415109 0 0.22703691245497479 0.13189098412415109 0 0.2471064899150823 0.133463067737116 0 0.2348532799323845 0.1126728752525727 0 0.2381959797174126 0.14809141417820801 0 0.22703691245497479 0.13189098412415109 0 0.2471064899150823 0.133463067737116 0 0.2471064899150823 0.133463067737116 0 0.2496952397761337 0.1160329650041991 0 0.2348532799323845 0.1126728752525727 0 0.2348532799323845 0.1126728752525727 0 0.23238347446995899 0.09878858498409393 0 0.25089272908716931 0.092982859712809007 0 0.2496952397761337 0.1160329650041991 0 0.2348532799323845 0.1126728752525727 0 0.25089272908716931 0.092982859712809007 0 0.23238347446995899 0.09878858498409393 0 0.21965336389696419 0.1029970115124081 0 0.22413452496331809 0.086501593458585962 0 0.2348532799323845 0.1126728752525727 0 0.23238347446995899 0.09878858498409393 0 0.21965336389696419 0.1029970115124081 0 0.2348532799323845 0.1126728752525727 0 0.21965336389696419 0.1029970115124081 0 0.21251029914637609 0.1192952894197942 0 0.22703691245497479 0.13189098412415109 0 0.2348532799323845 0.1126728752525727 0 0.21251029914637609 0.1192952894197942 0 0.21965336389696419 0.1029970115124081 0 0.21251029914637609 0.1192952894197942 0 0.20714728240524249 0.10617251279081751 0 0.21251029914637609 0.1192952894197942 0 0.20714728240524249 0.10617251279081751 0 0.2007454095485067 0.1153730887768626 0 0.21965336389696419 0.1029970115124081 0 0.21155544327336909 0.093494818701204518 0 0.22413452496331809 0.086501593458585962 0 0.21965336389696419 0.1029970115124081 0 0.20714728240524249 0.10617251279081751 0 0.21155544327336909 0.093494818701204518 0 0.20029711589946361 0.098207227624031723 0 0.20055037116402991 0.091606906531847498 0 0.21155544327336909 0.093494818701204518 0 0.20714728240524249 0.10617251279081751 0 0.20029711589946361 0.098207227624031723 0 0.21155544327336909 0.093494818701204518 0 0.19812206266677551 0.107667640710604 0 0.20029711589946361 0.098207227624031723 0 0.1885688884481975 0.1093901779912298 0 0.20714728240524249 0.10617251279081751 0 0.19812206266677551 0.107667640710604 0 0.20029711589946361 0.098207227624031723 0 0.20029711589946361 0.098207227624031723 0 0.1929726046438287 0.094705252597794665 0 0.20055037116402991 0.091606906531847498 0 0.1929726046438287 0.094705252597794665 0 0.1885688884481975 0.1093901779912298 0 0.1832996600419958 0.1003897382564244 0 0.20029711589946361 0.098207227624031723 0 0.1929726046438287 0.094705252597794665 0 0.1885688884481975 0.1093901779912298 0 0.20029711589946361 0.098207227624031723 0 0.1885688884481975 0.1093901779912298 0 0.1929726046438287 0.094705252597794665 0 0.1885688884481975 0.1093901779912298 0 0.19812206266677551 0.107667640710604 0 0.19247123508700151 0.1156451737142033 0 0.1885688884481975 0.1093901779912298 0 0.19247123508700151 0.1156451737142033 0 0.1885688884481975 0.1093901779912298 0 0.1858372065203453 0.1184994265274882 0 0.19325819231563421 0.12959887947710741 0 0.21251029914637609 0.1192952894197942 0 0.2007454095485067 0.1153730887768626 0 0.19325819231563421 0.12959887947710741 0 0.19247123508700151 0.1156451737142033 0 0.1858372065203453 0.1184994265274882 0 0.19325819231563421 0.12959887947710741 0 0.19247123508700151 0.1156451737142033 0 0.2007454095485067 0.1153730887768626 0 0.20714728240524249 0.10617251279081751 0 0.19812206266677551 0.107667640710604 0 0.2007454095485067 0.1153730887768626 0 0.19812206266677551 0.107667640710604 0 0.19247123508700151 0.1156451737142033 0 0.2007454095485067 0.1153730887768626 0 0.20238686903042469 0.063311819413239129 0 0.1973763208394673 0.08002032720436178 0 0.18079222374313991 0.066157073385880324 0 0.20238686903042469 0.063311819413239129 0 0.18079222374313991 0.066157073385880324 0 0.1973763208394673 0.08002032720436178 0 0.17868141559437861 0.075492121278057239 0 0.20238686903042469 0.063311819413239129 0 0.1973763208394673 0.08002032720436178 0 0.1929726046438287 0.094705252597794665 0 0.1973763208394673 0.08002032720436178 0 0.1929726046438287 0.094705252597794665 0 0.1973763208394673 0.08002032720436178 0 0.18493574174144031 0.087819629641268118 0 0.1929726046438287 0.094705252597794665 0 0.20055037116402991 0.091606906531847498 0 0.1973763208394673 0.08002032720436178 0 0.1973763208394673 0.08002032720436178 0 0.22413452496331809 0.086501593458585962 0 0.1973763208394673 0.08002032720436178 0 0.21155544327336909 0.093494818701204518 0 0.22413452496331809 0.086501593458585962 0 0.1973763208394673 0.08002032720436178 0 0.21581045027983861 0.072515516379325212 0 0.22413452496331809 0.086501593458585962 0 0.20055037116402991 0.091606906531847498 0 0.1973763208394673 0.08002032720436178 0 0.21155544327336909 0.093494818701204518 0 0.20238686903042469 0.063311819413239129 0 0.21581045027983861 0.072515516379325212 0 0.22639199231908241 0.060148967164815811 0 0.20238686903042469 0.063311819413239129 0 0.1973763208394673 0.08002032720436178 0 0.21581045027983861 0.072515516379325212 0 0.21581045027983861 0.072515516379325212 0 0.22413452496331809 0.086501593458585962 0 0.23571274181676019 0.070187616308315881 0 0.21581045027983861 0.072515516379325212 0 0.23571274181676019 0.070187616308315881 0 0.22639199231908241 0.060148967164815811 0 0.23571274181676019 0.070187616308315881 0 0.23935269316475091 0.05797056278501677 0 0.22639199231908241 0.060148967164815811 0 0.22413452496331809 0.086501593458585962 0 0.25089272908716931 0.092982859712809007 0 0.22413452496331809 0.086501593458585962 0 0.23571274181676019 0.070187616308315881 0 0.25089272908716931 0.092982859712809007 0 0.23238347446995899 0.09878858498409393 0 0.22413452496331809 0.086501593458585962 0 0.25089272908716931 0.092982859712809007 0 0.23571274181676019 0.070187616308315881 0 0.25089272908716931 0.092982859712809007 0 0.23571274181676019 0.070187616308315881 0 0.25282536794073712 0.073272794188635415 0 0.25089272908716931 0.092982859712809007 0 0.23935269316475091 0.05797056278501677 0 0.25425538404847059 0.057624927133231481 0 0.25282536794073712 0.073272794188635415 0 0.23571274181676019 0.070187616308315881 0 0.23935269316475091 0.05797056278501677 0 0.25282536794073712 0.073272794188635415 0 0.2368345322212535 0.044434942105003657 0 0.25425538404847059 0.057624927133231481 0 0.23935269316475091 0.05797056278501677 0 0.2368345322212535 0.044434942105003657 0 0.25425538404847059 0.057624927133231481 0 0.23935269316475091 0.05797056278501677 0 0.2368345322212535 0.044434942105003657 0 0.23127016951469481 0.052559852354376588 0 0.2368345322212535 0.044434942105003657 0 0.25291178968964928 0.037547667281027097 0 0.25425538404847059 0.057624927133231481 0 0.2368345322212535 0.044434942105003657 0 0.24190969492169709 0.024768393557462999 0 0.25291178968964928 0.037547667281027097 0 0.2368345322212535 0.044434942105003657 0 0.21941368039403211 0.031244957076781411 0 0.2368345322212535 0.044434942105003657 0 0.22121604545690071 0.040326540279582428 0 0.22250146035369231 0.047684937362670127 0 0.2368345322212535 0.044434942105003657 0 0.22121604545690071 0.040326540279582428 0 0.21941368039403211 0.031244957076781411 0 0.2368345322212535 0.044434942105003657 0 0.24190969492169709 0.024768393557462999 0 0.21941368039403211 0.031244957076781411 0 0.22121604545690071 0.040326540279582428 0 0.22250146035369231 0.047684937362670127 0 0.2151241054634794 0.043140718643033253 0 0.22250146035369231 0.047684937362670127 0 0.22639199231908241 0.060148967164815811 0 0.21464985550632831 0.05254647609126252 0 0.23935269316475091 0.05797056278501677 0 0.22639199231908241 0.060148967164815811 0 0.23127016951469481 0.052559852354376588 0 0.2368345322212535 0.044434942105003657 0 0.22250146035369231 0.047684937362670127 0 0.23127016951469481 0.052559852354376588 0 0.22250146035369231 0.047684937362670127 0 0.22639199231908241 0.060148967164815811 0 0.23127016951469481 0.052559852354376588 0 0.23517440673197429 0.0051848507458196356 0 0.24190969492169709 0.024768393557462999 0 0.22860778246280219 0.01441509204728152 0 0.23517440673197429 0.0051848507458196356 0 0.2485551203034157 0.0102848256948572 0 0.24190969492169709 0.024768393557462999 0 0.23517440673197429 0.0051848507458196356 0 0.2429424487767215 0.0026164120279975069 0 0.24005113852307369 -0.0027355710512556022 0 0.23517440673197429 0.0051848507458196356 0 0.2429424487767215 0.0026164120279975069 0 0.2485551203034157 0.0102848256948572 0 0.2429424487767215 0.0026164120279975069 0 0.2485551203034157 0.0102848256948572 0 0.2479891295484222 -0.0022684572774312019 0 0.2237082671027216 0.020648212041472009 0 0.22100796739575951 0.001216664300799794 0 0.21337432104441539 0.026672329963493752 0 0.24190969492169709 0.024768393557462999 0 0.21941368039403211 0.031244957076781411 0 0.24190969492169709 0.024768393557462999 0 0.21941368039403211 0.031244957076781411 0 0.2237082671027216 0.020648212041472009 0 0.24190969492169709 0.024768393557462999 0 0.2237082671027216 0.020648212041472009 0 0.22860778246280219 0.01441509204728152 0 0.21941368039403211 0.031244957076781411 0 0.2237082671027216 0.020648212041472009 0 0.21337432104441539 0.026672329963493752 0 0.2237082671027216 0.020648212041472009 0 0.22860778246280219 0.01441509204728152 0 0.22100796739575951 0.001216664300799794 0 0.23517440673197429 0.0051848507458196356 0 0.22860778246280219 0.01441509204728152 0 0.22100796739575951 0.001216664300799794 0 0.22100796739575951 0.001216664300799794 0 0.21337432104441539 0.026672329963493752 0 0.22100796739575951 0.001216664300799794 0 0.21213365429295861 0.01041237886839381 0 0.21337432104441539 0.026672329963493752 0 0.20938161325362409 0.0025060029461209908 0 0.21213365429295861 0.01041237886839381 0 0.19981118715584381 0.0070254328827108366 0 0.20938161325362409 0.0025060029461209908 0 0.19981118715584381 0.0070254328827108366 0 0.20239897911060981 -0.0049616950454924097 0 0.22100796739575951 0.001216664300799794 0 0.21476518088515931 0.0026345493870347861 0 0.21213365429295861 0.01041237886839381 0 0.20938161325362409 0.0025060029461209908 0 0.21476518088515931 0.0026345493870347861 0 0.21653748859829491 -0.0035968485671754561 0 0.20938161325362409 0.0025060029461209908 0 0.21476518088515931 0.0026345493870347861 0 0.21213365429295861 0.01041237886839381 0 0.22100796739575951 0.001216664300799794 0 0.21476518088515931 0.0026345493870347861 0 0.21653748859829491 -0.0035968485671754561 0 0.21213365429295861 0.01041237886839381 0 0.20775643638324501 0.022418817258943329 0 0.19981118715584381 0.0070254328827108366 0 0.20775643638324501 0.022418817258943329 0 0.19981118715584381 0.0070254328827108366 0 0.21213365429295861 0.01041237886839381 0 0.20775643638324501 0.022418817258943329 0 0.21337432104441539 0.026672329963493752 0 0.20775643638324501 0.022418817258943329 0 0.21337432104441539 0.026672329963493752 0 0.21211661331991941 0.030866365927793071 0 0.21941368039403211 0.031244957076781411 0 0.21337432104441539 0.026672329963493752 0 0.21211661331991941 0.030866365927793071 0 0.21941368039403211 0.031244957076781411 0 0.21337432104441539 0.026672329963493752 0 0.21337432104441539 0.026672329963493752 0 0.21211661331991941 0.030866365927793071 0 0.20775643638324501 0.022418817258943329 0 0.21211661331991941 0.030866365927793071 0 0.2008624239423544 0.027751844864101351 0 0.21211661331991941 0.030866365927793071 0 0.2008624239423544 0.027751844864101351 0 0.21130283169949521 0.033580056331867662 0 0.20775643638324501 0.022418817258943329 0 0.21211661331991941 0.030866365927793071 0 0.20775643638324501 0.022418817258943329 0 0.21337432104441539 0.026672329963493752 0 0.2008624239423544 0.027751844864101351 0 0.1914807756371078 0.039286791852227318 0 0.1874867753674215 0.0231110496262097 0 0.2008624239423544 0.027751844864101351 0 0.19503111124693581 0.017247988187571551 0 0.1874867753674215 0.0231110496262097 0 0.19503111124693581 0.017247988187571551 0 0.18734518720319909 0.015281891910368059 0 0.1874867753674215 0.0231110496262097 0 0.20775643638324501 0.022418817258943329 0 0.2008624239423544 0.027751844864101351 0 0.19503111124693581 0.017247988187571551 0 0.20775643638324501 0.022418817258943329 0 0.19503111124693581 0.017247988187571551 0 0.18660242445042999 0.0064023156866817926 0 0.20775643638324501 0.022418817258943329 0 0.18660242445042999 0.0064023156866817926 0 0.20775643638324501 0.022418817258943329 0 0.1894192936343001 0.0060385698470956234 0 0.19981118715584381 0.0070254328827108366 0 0.20775643638324501 0.022418817258943329 0 0.1894192936343001 0.0060385698470956234 0 0.18660242445042999 0.0064023156866817926 0 0.19503111124693581 0.017247988187571551 0 0.18832376542685261 0.012450231659139751 0 0.18660242445042999 0.0064023156866817926 0 0.19503111124693581 0.017247988187571551 0 0.18832376542685261 0.012450231659139751 0 0.18734518720319909 0.015281891910368059 0 0.1894192936343001 0.0060385698470956234 0 0.19981118715584381 0.0070254328827108366 0 0.1918659379284415 -0.0083679514935210662 0 0.20238686903042469 0.063311819413239129 0 0.22639199231908241 0.060148967164815811 0 0.21464985550632831 0.05254647609126252 0 0.20238686903042469 0.063311819413239129 0 0.22639199231908241 0.060148967164815811 0 0.20238686903042469 0.063311819413239129 0 0.20684485036496281 0.04844593787255428 0 0.21464985550632831 0.05254647609126252 0 0.20238686903042469 0.063311819413239129 0 0.20684485036496281 0.04844593787255428 0 0.20684485036496281 0.04844593787255428 0 0.21464985550632831 0.05254647609126252 0 0.2151241054634794 0.043140718643033253 0 0.22250146035369231 0.047684937362670127 0 0.21464985550632831 0.05254647609126252 0 0.2151241054634794 0.043140718643033253 0 0.20684485036496281 0.04844593787255428 0 0.2151241054634794 0.043140718643033253 0 0.21130283169949521 0.033580056331867662 0 0.20684485036496281 0.04844593787255428 0 0.21130283169949521 0.033580056331867662 0 0.1914807756371078 0.039286791852227318 0 0.2151241054634794 0.043140718643033253 0 0.21130283169949521 0.033580056331867662 0 0.21323078658658201 0.03302500146766809 0 0.22121604545690071 0.040326540279582428 0 0.2151241054634794 0.043140718643033253 0 0.21323078658658201 0.03302500146766809 0 0.22121604545690071 0.040326540279582428 0 0.21941368039403211 0.031244957076781411 0 0.21323078658658201 0.03302500146766809 0 0.21941368039403211 0.031244957076781411 0 0.21211661331991941 0.030866365927793071 0 0.21323078658658201 0.03302500146766809 0 0.21941368039403211 0.031244957076781411 0 0.21323078658658201 0.03302500146766809 0 0.21130283169949521 0.033580056331867662 0 0.21323078658658201 0.03302500146766809 0 0.21211661331991941 0.030866365927793071 0 0.21130283169949521 0.033580056331867662 0 0.21323078658658201 0.03302500146766809 0 0.21211661331991941 0.030866365927793071 0 0.21130283169949521 0.033580056331867662 0 0.21211661331991941 0.030866365927793071 0 0.21323078658658201 0.03302500146766809 0 0.20684485036496281 0.04844593787255428 0 0.21130283169949521 0.033580056331867662 0 0.20684485036496281 0.04844593787255428 0 0.1914807756371078 0.039286791852227318 0 0.1906326876700713 0.052439029979298252 0 0.21130283169949521 0.033580056331867662 0 0.1914807756371078 0.039286791852227318 0 0.2008624239423544 0.027751844864101351 0 0.21130283169949521 0.033580056331867662 0 0.1914807756371078 0.039286791852227318 0 0.20238686903042469 0.063311819413239129 0 0.20684485036496281 0.04844593787255428 0 0.1906326876700713 0.052439029979298252 0 0.20238686903042469 0.063311819413239129 0 0.1906326876700713 0.052439029979298252 0 0.18079222374313991 0.066157073385880324 0 0.1906326876700713 0.052439029979298252 0 0.1716587195747214 0.044993527372590117 0 0.18079222374313991 0.066157073385880324 0 0.1914807756371078 0.039286791852227318 0 0.17895959729017549 0.03270519686463521 0 0.1874867753674215 0.0231110496262097 0 0.1914807756371078 0.039286791852227318 0 0.1906326876700713 0.052439029979298252 0 0.1716587195747214 0.044993527372590117 0 0.1914807756371078 0.039286791852227318 0 0.1716587195747214 0.044993527372590117 0 0.1914807756371078 0.039286791852227318 0 0.17895959729017549 0.03270519686463521 0 0.1716587195747214 0.044993527372590117 0 0.17895959729017549 0.03270519686463521 0 0.1716587195747214 0.044993527372590117 0 0.1692336025848987 0.033942773786365128 0 0.1716587195747214 0.044993527372590117 0 0.1692336025848987 0.033942773786365128 0 0.1566962317421734 0.039838803654011962 0 0.1716587195747214 0.044993527372590117 0 0.1566962317421734 0.039838803654011962 0 0.15183666351233449 0.050700262892952028 0 0.1692336025848987 0.033942773786365128 0 0.1566962317421734 0.039838803654011962 0 0.158601754226253 0.030081739901262169 0 0.1716587195747214 0.044993527372590117 0 0.15183666351233449 0.050700262892952028 0 0.15919757845585511 0.069002327358520896 0 0.1716587195747214 0.044993527372590117 0 0.18079222374313991 0.066157073385880324 0 0.15919757845585511 0.069002327358520896 0 0.1716587195747214 0.044993527372590117 0 0.15183666351233449 0.050700262892952028 0 0.17227434920368959 0.00081991249798677823 0 0.17658810010716819 0.0040568459827444014 0 0.17786282304025339 -0.001583287003114023 0 0.17227434920368959 0.00081991249798677823 0 0.17658810010716819 0.0040568459827444014 0 0.17233771352019589 0.0083561011481188656 0 0.17658810010716819 0.0040568459827444014 0 0.18177514670000741 0.0039010391453388991 0 0.17943453638861959 0.0091511058078182841 0 0.17658810010716819 0.0040568459827444014 0 0.17943453638861959 0.0091511058078182841 0 0.17233771352019589 0.0083561011481188656 0 0.17658810010716819 0.0040568459827444014 0 0.18177514670000741 0.0039010391453388991 0 0.17786282304025339 -0.001583287003114023 0 0.18177514670000741 0.0039010391453388991 0 0.18580903226614379 -0.0011502469314075439 0 0.17786282304025339 -0.001583287003114023 0 0.1894192936343001 0.0060385698470956234 0 0.18660242445042999 0.0064023156866817926 0 0.18580903226614379 -0.0011502469314075439 0 0.18177514670000741 0.0039010391453388991 0 0.18660242445042999 0.0064023156866817926 0 0.18580903226614379 -0.0011502469314075439 0 0.18177514670000741 0.0039010391453388991 0 0.18660242445042999 0.0064023156866817926 0 0.18303211158647559 0.0075807978729441382 0 0.18177514670000741 0.0039010391453388991 0 0.18303211158647559 0.0075807978729441382 0 0.17943453638861959 0.0091511058078182841 0 0.18303211158647559 0.0075807978729441382 0 0.18431633880684531 0.01086873085193758 0 0.17943453638861959 0.0091511058078182841 0 0.18660242445042999 0.0064023156866817926 0 0.18303211158647559 0.0075807978729441382 0 0.18431633880684531 0.01086873085193758 0 0.18832376542685261 0.012450231659139751 0 0.18660242445042999 0.0064023156866817926 0 0.18431633880684531 0.01086873085193758 0 0.18431633880684531 0.01086873085193758 0 0.18734518720319909 0.015281891910368059 0 0.18195036267736389 0.015275800378046231 0 0.18832376542685261 0.012450231659139751 0 0.18431633880684531 0.01086873085193758 0 0.18734518720319909 0.015281891910368059 0 0.18431633880684531 0.01086873085193758 0 0.18195036267736389 0.015275800378046231 0 0.17943453638861959 0.0091511058078182841 0 0.18195036267736389 0.015275800378046231 0 0.1761571917665653 0.013806221612761949 0 0.17943453638861959 0.0091511058078182841 0 0.1761571917665653 0.013806221612761949 0 0.17943453638861959 0.0091511058078182841 0 0.17233771352019589 0.0083561011481188656 0 0.1761571917665653 0.013806221612761949 0 0.17233771352019589 0.0083561011481188656 0 0.1709247624247007 0.01466984692398882 0 0.1761571917665653 0.013806221612761949 0 0.17493811328672779 0.022191841685783802 0 0.1709247624247007 0.01466984692398882 0 0.18195036267736389 0.015275800378046231 0 0.1761571917665653 0.013806221612761949 0 0.17493811328672779 0.022191841685783802 0 0.18734518720319909 0.015281891910368059 0 0.18195036267736389 0.015275800378046231 0 0.1874867753674215 0.0231110496262097 0 0.18195036267736389 0.015275800378046231 0 0.17493811328672779 0.022191841685783802 0 0.1874867753674215 0.0231110496262097 0 0.17895959729017549 0.03270519686463521 0 0.17493811328672779 0.022191841685783802 0 0.1874867753674215 0.0231110496262097 0 0.17895959729017549 0.03270519686463521 0 0.1692336025848987 0.033942773786365128 0 0.17493811328672779 0.022191841685783802 0 0.1692336025848987 0.033942773786365128 0 0.1660519956958274 0.025200646889517071 0 0.158601754226253 0.030081739901262169 0 0.1692336025848987 0.033942773786365128 0 0.17493811328672779 0.022191841685783802 0 0.1660519956958274 0.025200646889517071 0 0.1660519956958274 0.025200646889517071 0 0.158601754226253 0.030081739901262169 0 0.15656323758401319 0.020842958383828041 0 0.15656323758401319 0.020842958383828041 0 0.1655425680131333 0.017645951334422452 0 0.15799820797772829 0.01069464001977203 0 0.1660519956958274 0.025200646889517071 0 0.15656323758401319 0.020842958383828041 0 0.1655425680131333 0.017645951334422452 0 0.17493811328672779 0.022191841685783802 0 0.1660519956958274 0.025200646889517071 0 0.1655425680131333 0.017645951334422452 0 0.17493811328672779 0.022191841685783802 0 0.1655425680131333 0.017645951334422452 0 0.1709247624247007 0.01466984692398882 0 0.17233771352019589 0.0083561011481188656 0 0.1709247624247007 0.01466984692398882 0 0.16528784937855559 0.0099045707114697821 0 0.1655425680131333 0.017645951334422452 0 0.1709247624247007 0.01466984692398882 0 0.16528784937855559 0.0099045707114697821 0 0.1655425680131333 0.017645951334422452 0 0.16528784937855559 0.0099045707114697821 0 0.15799820797772829 0.01069464001977203 0 0.16528784937855559 0.0099045707114697821 0 0.15830422717032419 0.0026668804518291322 0 0.16550177429739321 0.001625335581948511 0 0.16528784937855559 0.0099045707114697821 0 0.15799820797772829 0.01069464001977203 0 0.15830422717032419 0.0026668804518291322 0 0.17233771352019589 0.0083561011481188656 0 0.16528784937855559 0.0099045707114697821 0 0.16550177429739321 0.001625335581948511 0 0.17227434920368959 0.00081991249798677823 0 0.17233771352019589 0.0083561011481188656 0 0.16550177429739321 0.001625335581948511 0 0.14127976741107601 0.00215554095495248 0 0.15230472087545879 0.0045339035350271751 0 0.14873370341600839 0.01190124285016711 0 0.15799820797772829 0.01069464001977203 0 0.15830422717032419 0.0026668804518291322 0 0.15230472087545879 0.0045339035350271751 0 0.14127976741107601 0.00215554095495248 0 0.15230472087545879 0.0045339035350271751 0 0.1552076984021574 -0.0047487866015848753 0 0.15830422717032419 0.0026668804518291322 0 0.15230472087545879 0.0045339035350271751 0 0.1552076984021574 -0.0047487866015848753 0 0.15656323758401319 0.020842958383828041 0 0.15799820797772829 0.01069464001977203 0 0.14873370341600839 0.01190124285016711 0 0.15799820797772829 0.01069464001977203 0 0.15230472087545879 0.0045339035350271751 0 0.14873370341600839 0.01190124285016711 0 0.14873370341600839 0.01190124285016711 0 0.1458857290053831 0.021389540043380069 0 0.13967636330765321 0.013174792475989121 0 0.14127976741107601 0.00215554095495248 0 0.14873370341600839 0.01190124285016711 0 0.13967636330765321 0.013174792475989121 0 0.1458857290053831 0.021389540043380069 0 0.13916191736165201 0.019633136795163032 0 0.13967636330765321 0.013174792475989121 0 0.1458857290053831 0.021389540043380069 0 0.14010063181871271 0.02585166497444577 0 0.13916191736165201 0.019633136795163032 0 0.15656323758401319 0.020842958383828041 0 0.1458857290053831 0.021389540043380069 0 0.15175299049851881 0.02729842449465077 0 0.15656323758401319 0.020842958383828041 0 0.14873370341600839 0.01190124285016711 0 0.1458857290053831 0.021389540043380069 0 0.158601754226253 0.030081739901262169 0 0.15656323758401319 0.020842958383828041 0 0.15175299049851881 0.02729842449465077 0 0.158601754226253 0.030081739901262169 0 0.15175299049851881 0.02729842449465077 0 0.15159127196488009 0.032471007951428398 0 0.15175299049851881 0.02729842449465077 0 0.14523576613563741 0.02976945682372012 0 0.15159127196488009 0.032471007951428398 0 0.1458857290053831 0.021389540043380069 0 0.14523576613563741 0.02976945682372012 0 0.14010063181871271 0.02585166497444577 0 0.14523576613563741 0.02976945682372012 0 0.14010063181871271 0.02585166497444577 0 0.1391322595465444 0.03699933077486834 0 0.1458857290053831 0.021389540043380069 0 0.15175299049851881 0.02729842449465077 0 0.14523576613563741 0.02976945682372012 0 0.1309849453148588 0.01811654968683717 0 0.1391322595465444 0.03699933077486834 0 0.14010063181871271 0.02585166497444577 0 0.1309849453148588 0.01811654968683717 0 0.1391322595465444 0.03699933077486834 0 0.11917198148314 0.002581966002757949 0 0.13034027439662041 0.028127834929059549 0 0.1309849453148588 0.01811654968683717 0 0.13034027439662041 0.028127834929059549 0 0.1309849453148588 0.01811654968683717 0 0.1391322595465444 0.03699933077486834 0 0.1309849453148588 0.01811654968683717 0 0.13916191736165201 0.019633136795163032 0 0.13967636330765321 0.013174792475989121 0 0.14010063181871271 0.02585166497444577 0 0.1309849453148588 0.01811654968683717 0 0.13916191736165201 0.019633136795163032 0 0.14127976741107601 0.00215554095495248 0 0.13362755423293271 0.0080562160832345926 0 0.1228376310831711 -0.00076623140119310329 0 0.1309849453148588 0.01811654968683717 0 0.13362755423293271 0.0080562160832345926 0 0.1228376310831711 -0.00076623140119310329 0 0.1309849453148588 0.01811654968683717 0 0.1228376310831711 -0.00076623140119310329 0 0.1309849453148588 0.01811654968683717 0 0.13362755423293271 0.0080562160832345926 0 0.13967636330765321 0.013174792475989121 0 0.14127976741107601 0.00215554095495248 0 0.13362755423293271 0.0080562160832345926 0 0.13967636330765321 0.013174792475989121 0 0.15183666351233449 0.050700262892952028 0 0.15919757845585511 0.069002327358520896 0 0.15048711395973299 0.060532750562707877 0 0.15183666351233449 0.050700262892952028 0 0.15919757845585511 0.069002327358520896 0 0.14215194880052681 0.055145346777992182 0 0.15048711395973299 0.060532750562707877 0 0.13253998066004699 0.064315925604492674 0 0.1415085673101022 0.053673703855360522 0 0.14215194880052681 0.055145346777992182 0 0.15183666351233449 0.050700262892952028 0 0.1415085673101022 0.053673703855360522 0 0.15183666351233449 0.050700262892952028 0 0.1415085673101022 0.053673703855360522 0 0.15183666351233449 0.050700262892952028 0 0.14453550543306221 0.044729731242042367 0 0.1415085673101022 0.053673703855360522 0 0.14215194880052681 0.055145346777992182 0 0.14215194880052681 0.055145346777992182 0 0.15048711395973299 0.060532750562707877 0 0.15183666351233449 0.050700262892952028 0 0.1415085673101022 0.053673703855360522 0 0.14453550543306221 0.044729731242042367 0 0.1391322595465444 0.03699933077486834 0 0.15183666351233449 0.050700262892952028 0 0.14566961722181801 0.035366614883496988 0 0.1566962317421734 0.039838803654011962 0 0.15183666351233449 0.050700262892952028 0 0.14566961722181801 0.035366614883496988 0 0.1566962317421734 0.039838803654011962 0 0.15159127196488009 0.032471007951428398 0 0.14566961722181801 0.035366614883496988 0 0.1566962317421734 0.039838803654011962 0 0.158601754226253 0.030081739901262169 0 0.15159127196488009 0.032471007951428398 0 0.14566961722181801 0.035366614883496988 0 0.14453550543306221 0.044729731242042367 0 0.1391322595465444 0.03699933077486834 0 0.14523576613563741 0.02976945682372012 0 0.15159127196488009 0.032471007951428398 0 0.14566961722181801 0.035366614883496988 0 0.14523576613563741 0.02976945682372012 0 0.14566961722181801 0.035366614883496988 0 0.1391322595465444 0.03699933077486834 0 0.15183666351233449 0.050700262892952028 0 0.14566961722181801 0.035366614883496988 0 0.14453550543306221 0.044729731242042367 0 0.13034027439662041 0.028127834929059549 0 0.1415085673101022 0.053673703855360522 0 0.13034027439662041 0.028127834929059549 0 0.1415085673101022 0.053673703855360522 0 0.1391322595465444 0.03699933077486834 0 0.12367169586596689 0.04413069599522032 0 0.13034027439662041 0.028127834929059549 0 0.1415085673101022 0.053673703855360522 0 0.11892469151436 0.060175562481194378 0 0.12367169586596689 0.04413069599522032 0 0.1415085673101022 0.053673703855360522 0 0.11892469151436 0.060175562481194378 0 0.1415085673101022 0.053673703855360522 0 0.11892469151436 0.060175562481194378 0 0.1415085673101022 0.053673703855360522 0 0.13253998066004699 0.064315925604492674 0 0.1415085673101022 0.053673703855360522 0 0.14215194880052681 0.055145346777992182 0 0.13253998066004699 0.064315925604492674 0 0.13253998066004699 0.064315925604492674 0 0.13121537104960351 0.072689189806444385 0 0.15446329543616341 0.069626104104570485 0 0.1243405792371938 0.066503547411893488 0 0.13253998066004699 0.064315925604492674 0 0.13121537104960351 0.072689189806444385 0 0.11892469151436 0.060175562481194378 0 0.1243405792371938 0.066503547411893488 0 0.13253998066004699 0.064315925604492674 0 0.13121537104960351 0.072689189806444385 0 0.14336397744542301 0.076431171561807093 0 0.13288821721910599 0.083857800247139097 0 0.15048711395973299 0.060532750562707877 0 0.13253998066004699 0.064315925604492674 0 0.15446329543616341 0.069626104104570485 0 0.13121537104960351 0.072689189806444385 0 0.15446329543616341 0.069626104104570485 0 0.13121537104960351 0.072689189806444385 0 0.14336397744542301 0.076431171561807093 0 0.15446329543616341 0.069626104104570485 0 0.13253998066004699 0.064315925604492674 0 0.15446329543616341 0.069626104104570485 0 0.14336397744542301 0.076431171561807093 0 0.15145508435945571 0.07730097997971673 0 0.15446329543616341 0.069626104104570485 0 0.15145508435945571 0.07730097997971673 0 0.15998651034928929 0.070963915351755544 0 0.15635019231632599 0.084708360937410687 0 0.15145508435945571 0.07730097997971673 0 0.15446329543616341 0.069626104104570485 0 0.15998651034928929 0.070963915351755544 0 0.15048711395973299 0.060532750562707877 0 0.15446329543616341 0.069626104104570485 0 0.15919757845585511 0.069002327358520896 0 0.1449478564828334 0.088262465871273704 0 0.15304430801011831 0.09759233646353245 0 0.15635019231632599 0.084708360937410687 0 0.15145508435945571 0.07730097997971673 0 0.1449478564828334 0.088262465871273704 0 0.15635019231632599 0.084708360937410687 0 0.14336397744542301 0.076431171561807093 0 0.15145508435945571 0.07730097997971673 0 0.1449478564828334 0.088262465871273704 0 0.1449478564828334 0.088262465871273704 0 0.13288821721910599 0.083857800247139097 0 0.1333435253298102 0.095432768439741328 0 0.14336397744542301 0.076431171561807093 0 0.1449478564828334 0.088262465871273704 0 0.13288821721910599 0.083857800247139097 0 0.1225478872688979 0.090713611373926736 0 0.1210037722340596 0.082520495593825793 0 0.13288821721910599 0.083857800247139097 0 0.1210037722340596 0.082520495593825793 0 0.13121537104960351 0.072689189806444385 0 0.13288821721910599 0.083857800247139097 0 0.1225478872688979 0.090713611373926736 0 0.13288821721910599 0.083857800247139097 0 0.1333435253298102 0.095432768439741328 0 0.1449478564828334 0.088262465871273704 0 0.1368974078767736 0.107501873099266 0 0.1333435253298102 0.095432768439741328 0 0.12018819637303869 0.10164151191590461 0 0.1368974078767736 0.107501873099266 0 0.1333435253298102 0.095432768439741328 0 0.12018819637303869 0.10164151191590461 0 0.1225478872688979 0.090713611373926736 0 0.1333435253298102 0.095432768439741328 0 0.11707998843366239 0.12090166170324231 0 0.14061487869327599 0.12738787364596069 0 0.1368974078767736 0.107501873099266 0 0.14061487869327599 0.12738787364596069 0 0.1368974078767736 0.107501873099266 0 0.1574927946018469 0.1127881056222175 0 0.14061487869327599 0.12738787364596069 0 0.16208469833826319 0.13464304631642149 0 0.1574927946018469 0.1127881056222175 0 0.1368974078767736 0.107501873099266 0 0.15304430801011831 0.09759233646353245 0 0.1574927946018469 0.1127881056222175 0 0.1449478564828334 0.088262465871273704 0 0.1368974078767736 0.107501873099266 0 0.15304430801011831 0.09759233646353245 0 0.15304430801011831 0.09759233646353245 0 0.1695332887728116 0.094700876787494351 0 0.1574927946018469 0.1127881056222175 0 0.1695332887728116 0.094700876787494351 0 0.1574927946018469 0.1127881056222175 0 0.1790800671963392 0.1184378382232308 0 0.16208469833826319 0.13464304631642149 0 0.1574927946018469 0.1127881056222175 0 0.1790800671963392 0.1184378382232308 0 0.1885688884481975 0.1093901779912298 0 0.1790800671963392 0.1184378382232308 0 0.1832996600419958 0.1003897382564244 0 0.1885688884481975 0.1093901779912298 0 0.1790800671963392 0.1184378382232308 0 0.1858372065203453 0.1184994265274882 0 0.1885688884481975 0.1093901779912298 0 0.1858372065203453 0.1184994265274882 0 0.1885688884481975 0.1093901779912298 0 0.1790800671963392 0.1184378382232308 0 0.19325819231563421 0.12959887947710741 0 0.1790800671963392 0.1184378382232308 0 0.1858372065203453 0.1184994265274882 0 0.1695332887728116 0.094700876787494351 0 0.1790800671963392 0.1184378382232308 0 0.1695332887728116 0.094700876787494351 0 0.1790800671963392 0.1184378382232308 0 0.1832996600419958 0.1003897382564244 0 0.1695332887728116 0.094700876787494351 0 0.1832996600419958 0.1003897382564244 0 0.18493574174144031 0.087819629641268118 0 0.1929726046438287 0.094705252597794665 0 0.1832996600419958 0.1003897382564244 0 0.18493574174144031 0.087819629641268118 0 0.1973763208394673 0.08002032720436178 0 0.18493574174144031 0.087819629641268118 0 0.17868141559437861 0.075492121278057239 0 0.1695332887728116 0.094700876787494351 0 0.18493574174144031 0.087819629641268118 0 0.17868141559437861 0.075492121278057239 0 0.1973763208394673 0.08002032720436178 0 0.17868141559437861 0.075492121278057239 0 0.18079222374313991 0.066157073385880324 0 0.17868141559437861 0.075492121278057239 0 0.18079222374313991 0.066157073385880324 0 0.15998651034928929 0.070963915351755544 0 0.18079222374313991 0.066157073385880324 0 0.15919757845585511 0.069002327358520896 0 0.18079222374313991 0.066157073385880324 0 0.15919757845585511 0.069002327358520896 0 0.15998651034928929 0.070963915351755544 0 0.17868141559437861 0.075492121278057239 0 0.15998651034928929 0.070963915351755544 0 0.15446329543616341 0.069626104104570485 0 0.15919757845585511 0.069002327358520896 0 0.15998651034928929 0.070963915351755544 0 0.15446329543616341 0.069626104104570485 0 0.15919757845585511 0.069002327358520896 0 0.15446329543616341 0.069626104104570485 0 0.15998651034928929 0.070963915351755544 0 0.15919757845585511 0.069002327358520896 0 0.15998651034928929 0.070963915351755544 0 0.1695332887728116 0.094700876787494351 0 0.17868141559437861 0.075492121278057239 0 0.15998651034928929 0.070963915351755544 0 0.15304430801011831 0.09759233646353245 0 0.1695332887728116 0.094700876787494351 0 0.15635019231632599 0.084708360937410687 0 0.1695332887728116 0.094700876787494351 0 0.15998651034928929 0.070963915351755544 0 0.1695332887728116 0.094700876787494351 0 0.15998651034928929 0.070963915351755544 0 0.15635019231632599 0.084708360937410687 0 0.097740131103692757 0.47211576306312553 0 0.10228396963995549 0.48764264937867408 0 0.092199203719590395 0.48872928857719472 0 0.097740131103692757 0.47211576306312553 0 0.1146358595090817 0.48605788153156299 0 0.097740131103692757 0.47211576306312553 0 0.10228396963995549 0.48764264937867408 0 0.1146358595090817 0.48605788153156299 0 0.1038255785689283 0.5 0 0.10228396963995549 0.48764264937867408 0 0.092199203719590395 0.48872928857719472 0 0.1038255785689283 0.5 0 0.10228396963995549 0.48764264937867408 0 0.1146358595090817 0.48605788153156299 0 0.1146358595090817 0.48605788153156299 0 0.13153158791447089 0.50000000000000033 0 0.1038255785689283 0.5 0 0.1146358595090817 0.48605788153156299 0 0.13153158791447089 0.50000000000000033 0 0.097740131103692757 0.47211576306312553 0 0.1146358595090817 0.48605788153156299 0 0.1160915578241386 0.4641835533930308 0 0.1146358595090817 0.48605788153156299 0 0.1160915578241386 0.4641835533930308 0 0.13792901651589951 0.46760966493884959 0 0.1160915578241386 0.4641835533930308 0 0.1237280261196836 0.44463014715047522 0 0.10202961426548091 0.45002724093957291 0 0.1237280261196836 0.44463014715047522 0 0.1057649319772677 0.43759517983083812 0 0.10202961426548091 0.45002724093957291 0 0.1057649319772677 0.43759517983083812 0 0.10202961426548091 0.45002724093957291 0 0.08764391112498858 0.43163178618934439 0 0.097740131103692757 0.47211576306312553 0 0.1160915578241386 0.4641835533930308 0 0.10202961426548091 0.45002724093957291 0 0.080844402698305312 0.45817364459468618 0 0.076730675362011974 0.47423156549521001 0 0.097740131103692757 0.47211576306312553 0 0.080844402698305312 0.45817364459468618 0 0.097740131103692757 0.47211576306312553 0 0.10202961426548091 0.45002724093957291 0 0.080844402698305312 0.45817364459468618 0 0.097740131103692757 0.47211576306312553 0 0.080844402698305312 0.45817364459468618 0 0.076730675362011974 0.47423156549521001 0 0.080844402698305312 0.45817364459468618 0 0.08764391112498858 0.43163178618934439 0 0.10202961426548091 0.45002724093957291 0 0.080844402698305312 0.45817364459468618 0 0.08764391112498858 0.43163178618934439 0 0.080844402698305312 0.45817364459468618 0 0.07540768018483697 0.44030754071393319 0 0.08764391112498858 0.43163178618934439 0 0.080844402698305312 0.45817364459468618 0 0.07540768018483697 0.44030754071393319 0 0.061556592319121653 0.44225761358074578 0 0.080844402698305312 0.45817364459468618 0 0.061556592319121653 0.44225761358074578 0 0.080844402698305312 0.45817364459468618 0 0.067859653170709522 0.45426422462270638 0 0.061556592319121653 0.44225761358074578 0 0.080844402698305312 0.45817364459468618 0 0.064346854003363874 0.46736183993319841 0 0.076730675362011974 0.47423156549521001 0 0.064346854003363874 0.46736183993319841 0 0.067859653170709522 0.45426422462270638 0 0.056076759981020123 0.44443419347066321 0 0.080844402698305312 0.45817364459468618 0 0.064346854003363874 0.46736183993319841 0 0.067859653170709522 0.45426422462270638 0 0.076730675362011974 0.47423156549521001 0 0.072616948025712127 0.490289486395732 0 0.064346854003363874 0.46736183993319841 0 0.072616948025712127 0.490289486395732 0 0.058055043786226751 0.49051055052906067 0 0.064346854003363874 0.46736183993319841 0 0.072616948025712127 0.490289486395732 0 0.064346854003363874 0.46736183993319841 0 0.076730675362011974 0.47423156549521001 0 0.072616948025712127 0.490289486395732 0 0.076730675362011974 0.47423156549521001 0 0.082075002421626492 0.48449271935339733 0 0.072616948025712127 0.490289486395732 0 0.097740131103692757 0.47211576306312553 0 0.076730675362011974 0.47423156549521001 0 0.082075002421626492 0.48449271935339733 0 0.097740131103692757 0.47211576306312553 0 0.092199203719590395 0.48872928857719472 0 0.082075002421626492 0.48449271935339733 0 0.1038255785689283 0.5 0 0.092199203719590395 0.48872928857719472 0 0.076119569223385697 0.50000000000000089 0 0.092199203719590395 0.48872928857719472 0 0.082075002421626492 0.48449271935339733 0 0.076119569223385697 0.50000000000000089 0 0.072616948025712127 0.490289486395732 0 0.07012930311136284 0.49999999999999661 0 0.076119569223385697 0.50000000000000089 0 0.072616948025712127 0.490289486395732 0 0.07012930311136284 0.49999999999999661 0 0.076119569223385697 0.50000000000000089 0 0.072616948025712127 0.490289486395732 0 0.082075002421626492 0.48449271935339733 0 0.076119569223385697 0.50000000000000089 0 0.072616948025712127 0.490289486395732 0 0.072616948025712127 0.490289486395732 0 0.07012930311136284 0.49999999999999661 0 0.058055043786226751 0.49051055052906067 0 0.058055043786226751 0.49051055052906067 0 0.046280597366186747 0.47957307303049429 0 0.044860440428939378 0.4999999999999995 0 0.07012930311136284 0.49999999999999661 0 0.058055043786226751 0.49051055052906067 0 0.044860440428939378 0.4999999999999995 0 0.064346854003363874 0.46736183993319841 0 0.058055043786226751 0.49051055052906067 0 0.046280597366186747 0.47957307303049429 0 0.046280597366186747 0.47957307303049429 0 0.047700754303434179 0.45914614606098908 0 0.046280597366186747 0.47957307303049429 0 0.029897162037545319 0.4839753813588808 0 0.03521852719449324 0.46736449501777538 0 0.044860440428939378 0.4999999999999995 0 0.01907995414838232 0.5 0 0.029897162037545319 0.4839753813588808 0 0.046280597366186747 0.47957307303049429 0 0.044860440428939378 0.4999999999999995 0 0.046280597366186747 0.47957307303049429 0 0.044860440428939378 0.4999999999999995 0 0.029897162037545319 0.4839753813588808 0 0.01907995414838232 0.5 0 0.029897162037545319 0.4839753813588808 0 0.01223017135109394 0.48399563131022733 0 0.029897162037545319 0.4839753813588808 0 0.02313076419329519 0.4718947066398041 0 0.01223017135109394 0.48399563131022733 0 0.029897162037545319 0.4839753813588808 0 0.02313076419329519 0.4718947066398041 0 0.03521852719449324 0.46736449501777538 0 0.02313076419329519 0.4718947066398041 0 0.01223017135109394 0.48399563131022733 0 0.01319884020628341 0.47022233111689332 0 -0.003880604538310756 0.48346324919380129 0 0.01223017135109394 0.48399563131022733 0 0.0050866533922729329 0.47701524235381432 0 0.01223017135109394 0.48399563131022733 0 0.01319884020628341 0.47022233111689332 0 0.0050866533922729329 0.47701524235381432 0 0.01319884020628341 0.47022233111689332 0 0.0053167838454733218 0.46943384557929257 0 0.0050866533922729329 0.47701524235381432 0 -0.001026908195020756 0.47486914558720472 0 0.0053167838454733218 0.46943384557929257 0 0.0050866533922729329 0.47701524235381432 0 -0.003880604538310756 0.48346324919380129 0 -0.001026908195020756 0.47486914558720472 0 0.0050866533922729329 0.47701524235381432 0 -0.0067005321321746969 0.5 0 0.01907995414838232 0.5 0 0.01223017135109394 0.48399563131022733 0 -0.0067005321321746969 0.5 0 -0.003880604538310756 0.48346324919380129 0 0.01223017135109394 0.48399563131022733 0 0.0094816941431487278 0.45086042579757712 0 0.01399183751309625 0.44462120914047132 0 0.0048617880261327502 0.44584476697033082 0 0.0094816941431487278 0.45086042579757712 0 0.01399183751309625 0.44462120914047132 0 0.016302396861864351 0.45114502888407948 0 0.01049598620797234 0.43767394788706171 0 0.01399183751309625 0.44462120914047132 0 0.0048617880261327502 0.44584476697033082 0 0.01049598620797234 0.43767394788706171 0 0.01399183751309625 0.44462120914047132 0 0.020379531913139331 0.43685778481219928 0 0.01049598620797234 0.43767394788706171 0 0.0048617880261327502 0.44584476697033082 0 0.01049598620797234 0.43767394788706171 0 0.0048617880261327502 0.44584476697033082 0 0.0065189226172944724 0.43188650626448272 0 0.0094816941431487278 0.45086042579757712 0 0.0048617880261327502 0.44584476697033082 0 0.0015605482097463411 0.45063228640423969 0 0.0048617880261327502 0.44584476697033082 0 0.0015605482097463411 0.45063228640423969 0 0.0094816941431487278 0.45086042579757712 0 0.0048617880261327502 0.44584476697033082 0 0.0015605482097463411 0.45063228640423969 0 0.0080738590363113663 0.46132998490476868 0 0.01222090350615627 0.45893997922115709 0 0.0015605482097463411 0.45063228640423969 0 0.01222090350615627 0.45893997922115709 0 -0.0094095992007081283 0.46654139838691122 0 0.0053167838454733218 0.46943384557929257 0 0.0080738590363113663 0.46132998490476868 0 0.0094816941431487278 0.45086042579757712 0 0.0015605482097463411 0.45063228640423969 0 0.01222090350615627 0.45893997922115709 0 -0.0094095992007081283 0.46654139838691122 0 0.0015605482097463411 0.45063228640423969 0 0.0080738590363113663 0.46132998490476868 0 0.0080738590363113663 0.46132998490476868 0 0.01222090350615627 0.45893997922115709 0 0.025557317273330941 0.45611857142262657 0 0.01319884020628341 0.47022233111689332 0 0.0080738590363113663 0.46132998490476868 0 0.025557317273330941 0.45611857142262657 0 0.01319884020628341 0.47022233111689332 0 0.0053167838454733218 0.46943384557929257 0 0.0080738590363113663 0.46132998490476868 0 0.0094816941431487278 0.45086042579757712 0 0.01222090350615627 0.45893997922115709 0 0.016302396861864351 0.45114502888407948 0 0.01222090350615627 0.45893997922115709 0 0.025557317273330941 0.45611857142262657 0 0.016302396861864351 0.45114502888407948 0 0.0080738590363113663 0.46132998490476868 0 0.025557317273330941 0.45611857142262657 0 0.02313076419329519 0.4718947066398041 0 0.01319884020628341 0.47022233111689332 0 0.025557317273330941 0.45611857142262657 0 0.02313076419329519 0.4718947066398041 0 0.025557317273330941 0.45611857142262657 0 0.03521852719449324 0.46736449501777538 0 0.025557317273330941 0.45611857142262657 0 0.029497972404799989 0.4465970104894148 0 0.021231693005787571 0.44530579808828252 0 0.025557317273330941 0.45611857142262657 0 0.016302396861864351 0.45114502888407948 0 0.021231693005787571 0.44530579808828252 0 0.01399183751309625 0.44462120914047132 0 0.016302396861864351 0.45114502888407948 0 0.021231693005787571 0.44530579808828252 0 0.01399183751309625 0.44462120914047132 0 0.021231693005787571 0.44530579808828252 0 0.020379531913139331 0.43685778481219928 0 0.029497972404799989 0.4465970104894148 0 0.021231693005787571 0.44530579808828252 0 0.030311313049230751 0.43763339856834432 0 0.021231693005787571 0.44530579808828252 0 0.030311313049230751 0.43763339856834432 0 0.020379531913139331 0.43685778481219928 0 0.038697605999956301 0.44825738244890739 0 0.047700754303434179 0.45914614606098908 0 0.049120911240681603 0.43871921909148398 0 0.029497972404799989 0.4465970104894148 0 0.038697605999956301 0.44825738244890739 0 0.040333793699140981 0.43958103258297831 0 0.029497972404799989 0.4465970104894148 0 0.030311313049230751 0.43763339856834432 0 0.040333793699140981 0.43958103258297831 0 0.025557317273330941 0.45611857142262657 0 0.029497972404799989 0.4465970104894148 0 0.038697605999956301 0.44825738244890739 0 0.038697605999956301 0.44825738244890739 0 0.040333793699140981 0.43958103258297831 0 0.049120911240681603 0.43871921909148398 0 0.046280597366186747 0.47957307303049429 0 0.03521852719449324 0.46736449501777538 0 0.047700754303434179 0.45914614606098908 0 0.025557317273330941 0.45611857142262657 0 0.038697605999956301 0.44825738244890739 0 0.03521852719449324 0.46736449501777538 0 0.038697605999956301 0.44825738244890739 0 0.03521852719449324 0.46736449501777538 0 0.047700754303434179 0.45914614606098908 0 0.064346854003363874 0.46736183993319841 0 0.056076759981020123 0.44443419347066321 0 0.064346854003363874 0.46736183993319841 0 0.046280597366186747 0.47957307303049429 0 0.047700754303434179 0.45914614606098908 0 0.064346854003363874 0.46736183993319841 0 0.047700754303434179 0.45914614606098908 0 0.056076759981020123 0.44443419347066321 0 0.047700754303434179 0.45914614606098908 0 0.049120911240681603 0.43871921909148398 0 0.056076759981020123 0.44443419347066321 0 0.047700754303434179 0.45914614606098908 0 0.049120911240681603 0.43871921909148398 0 0.067859653170709522 0.45426422462270638 0 0.056076759981020123 0.44443419347066321 0 0.061556592319121653 0.44225761358074578 0 0.056076759981020123 0.44443419347066321 0 0.061556592319121653 0.44225761358074578 0 0.059201111644200437 0.43099696977894508 0 0.056076759981020123 0.44443419347066321 0 0.047806665958676359 0.42150654700812801 0 0.049120911240681603 0.43871921909148398 0 0.056076759981020123 0.44443419347066321 0 0.047806665958676359 0.42150654700812801 0 0.056076759981020123 0.44443419347066321 0 0.059201111644200437 0.43099696977894508 0 0.047806665958676359 0.42150654700812801 0 0.059201111644200437 0.43099696977894508 0 0.058979725365252707 0.4176193763442323 0 0.047806665958676359 0.42150654700812801 0 0.058979725365252707 0.4176193763442323 0 0.039536571936328653 0.39857890054559408 0 0.063240005814886313 0.40658319209587829 0 0.058979725365252707 0.4176193763442323 0 0.047806665958676359 0.42150654700812801 0 0.039536571936328653 0.39857890054559408 0 0.035113551011259521 0.41687403621696922 0 0.02872917033170445 0.40503675834663061 0 0.039536571936328653 0.39857890054559408 0 0.047806665958676359 0.42150654700812801 0 0.039536571936328653 0.39857890054559408 0 0.047806665958676359 0.42150654700812801 0 0.035113551011259521 0.41687403621696922 0 0.039536571936328653 0.39857890054559408 0 0.049120911240681603 0.43871921909148398 0 0.047806665958676359 0.42150654700812801 0 0.039708047704291503 0.4306454839277386 0 0.040333793699140981 0.43958103258297831 0 0.049120911240681603 0.43871921909148398 0 0.039708047704291503 0.4306454839277386 0 0.047806665958676359 0.42150654700812801 0 0.035113551011259521 0.41687403621696922 0 0.039708047704291503 0.4306454839277386 0 0.035113551011259521 0.41687403621696922 0 0.039708047704291503 0.4306454839277386 0 0.028741688689164512 0.42811504149697438 0 0.030311313049230751 0.43763339856834432 0 0.039708047704291503 0.4306454839277386 0 0.028741688689164512 0.42811504149697438 0 0.030311313049230751 0.43763339856834432 0 0.040333793699140981 0.43958103258297831 0 0.039708047704291503 0.4306454839277386 0 0.030311313049230751 0.43763339856834432 0 0.020379531913139331 0.43685778481219928 0 0.028741688689164512 0.42811504149697438 0 0.01049598620797234 0.43767394788706171 0 0.020379531913139331 0.43685778481219928 0 0.01750467301358458 0.42779731369206181 0 0.020379531913139331 0.43685778481219928 0 0.01750467301358458 0.42779731369206181 0 0.028741688689164512 0.42811504149697438 0 0.01750467301358458 0.42779731369206181 0 0.028741688689164512 0.42811504149697438 0 0.02615916144738779 0.41736148597675132 0 0.035113551011259521 0.41687403621696922 0 0.028741688689164512 0.42811504149697438 0 0.02615916144738779 0.41736148597675132 0 0.02615916144738779 0.41736148597675132 0 0.010437450069317761 0.40463061763750507 0 0.02872917033170445 0.40503675834663061 0 0.02615916144738779 0.41736148597675132 0 0.01517065216307991 0.41806138940930709 0 0.010437450069317761 0.40463061763750507 0 0.035113551011259521 0.41687403621696922 0 0.02615916144738779 0.41736148597675132 0 0.02872917033170445 0.40503675834663061 0 0.01750467301358458 0.42779731369206181 0 0.02615916144738779 0.41736148597675132 0 0.01517065216307991 0.41806138940930709 0 -0.003174347114314008 0.41591217031924949 0 0.0065813241220295041 0.42245614033091039 0 0.010437450069317761 0.40463061763750507 0 -0.0064316016559190746 0.3999483233353413 0 -0.003174347114314008 0.41591217031924949 0 0.010437450069317761 0.40463061763750507 0 0.01517065216307991 0.41806138940930709 0 0.0065813241220295041 0.42245614033091039 0 0.010437450069317761 0.40463061763750507 0 -0.003174347114314008 0.41591217031924949 0 0.010437450069317761 0.40463061763750507 0 -0.003174347114314008 0.41591217031924949 0 0.0065813241220295041 0.42245614033091039 0 -0.0026301228576318379 0.42717885202372191 0 -0.003174347114314008 0.41591217031924949 0 0.0065813241220295041 0.42245614033091039 0 -0.0026301228576318379 0.42717885202372191 0 0.0065813241220295041 0.42245614033091039 0 0.0065189226172944724 0.43188650626448272 0 -0.0026301228576318379 0.42717885202372191 0 0.0048617880261327502 0.44584476697033082 0 0.0065189226172944724 0.43188650626448272 0 0.01049598620797234 0.43767394788706171 0 0.01750467301358458 0.42779731369206181 0 0.0065189226172944724 0.43188650626448272 0 0.01750467301358458 0.42779731369206181 0 0.0065813241220295041 0.42245614033091039 0 0.0065189226172944724 0.43188650626448272 0 0.01750467301358458 0.42779731369206181 0 0.01517065216307991 0.41806138940930709 0 0.0065813241220295041 0.42245614033091039 0 -0.0042030409966118051 0.38380869400061962 0 0.01009735409817194 0.38238429504652488 0 0.02404924725294803 0.393349064955759 0 -0.0042030409966118051 0.38380869400061962 0 0.02404924725294803 0.393349064955759 0 0.01009735409817194 0.38238429504652488 0 0.0197357255374827 0.37571737083264412 0 0.011110712074150059 0.37343232972227269 0 -0.001064505034491721 0.37161458349227261 0 0.01009735409817194 0.38238429504652488 0 0.011110712074150059 0.37343232972227269 0 -0.001064505034491721 0.37161458349227261 0 -0.0042030409966118051 0.38380869400061962 0 0.01009735409817194 0.38238429504652488 0 -0.0042030409966118051 0.38380869400061962 0 0.01009735409817194 0.38238429504652488 0 -0.0042030409966118051 0.38380869400061962 0 0.010437450069317761 0.40463061763750507 0 0.02404924725294803 0.393349064955759 0 0.010437450069317761 0.40463061763750507 0 0.02872917033170445 0.40503675834663061 0 0.02404924725294803 0.393349064955759 0 0.010437450069317761 0.40463061763750507 0 0.02404924725294803 0.393349064955759 0 0.02872917033170445 0.40503675834663061 0 0.02404924725294803 0.393349064955759 0 0.039536571936328653 0.39857890054559408 0 0.02404924725294803 0.393349064955759 0 0.034519904376963118 0.38467091111880503 0 0.02404924725294803 0.393349064955759 0 0.0197357255374827 0.37571737083264412 0 0.034519904376963118 0.38467091111880503 0 0.01009735409817194 0.38238429504652488 0 0.02404924725294803 0.393349064955759 0 0.0197357255374827 0.37571737083264412 0 0.034519904376963118 0.38467091111880503 0 0.050307067216076778 0.37158640017128619 0 0.034519904376963118 0.38467091111880503 0 0.039536571936328653 0.39857890054559408 0 0.056773536515482913 0.38908479613358171 0 0.02404924725294803 0.393349064955759 0 0.039536571936328653 0.39857890054559408 0 0.034519904376963118 0.38467091111880503 0 0.039536571936328653 0.39857890054559408 0 0.02404924725294803 0.393349064955759 0 0.034519904376963118 0.38467091111880503 0 0.039536571936328653 0.39857890054559408 0 0.039536571936328653 0.39857890054559408 0 0.063240005814886313 0.40658319209587829 0 0.039536571936328653 0.39857890054559408 0 0.056773536515482913 0.38908479613358171 0 0.063240005814886313 0.40658319209587829 0 0.056773536515482913 0.38908479613358171 0 0.063240005814886313 0.40658319209587829 0 0.056773536515482913 0.38908479613358171 0 0.059721524030669819 0.37431687333309788 0 0.050307067216076778 0.37158640017128619 0 0.056773536515482913 0.38908479613358171 0 0.050307067216076778 0.37158640017128619 0 0.034519904376963118 0.38467091111880503 0 0.056773536515482913 0.38908479613358171 0 0.050307067216076778 0.37158640017128619 0 0.056773536515482913 0.38908479613358171 0 0.069041936002645535 0.37820082441249081 0 0.059721524030669819 0.37431687333309788 0 0.056773536515482913 0.38908479613358171 0 0.069041936002645535 0.37820082441249081 0 0.068225210254675303 0.39186969982647402 0 0.069041936002645535 0.37820082441249081 0 0.078928226936330073 0.3918395352538776 0 0.068225210254675303 0.39186969982647402 0 0.069041936002645535 0.37820082441249081 0 0.087739402474845588 0.37833299208434412 0 0.078928226936330073 0.3918395352538776 0 0.087739402474845588 0.37833299208434412 0 0.078928226936330073 0.3918395352538776 0 0.094443419551670932 0.40508992778400232 0 0.078928226936330073 0.3918395352538776 0 0.080832552055978585 0.40498983155533402 0 0.094443419551670932 0.40508992778400232 0 0.080832552055978585 0.40498983155533402 0 0.073695702888484968 0.40005040040525608 0 0.075088081656536507 0.41058410832735293 0 0.078928226936330073 0.3918395352538776 0 0.080832552055978585 0.40498983155533402 0 0.073695702888484968 0.40005040040525608 0 0.056773536515482913 0.38908479613358171 0 0.068225210254675303 0.39186969982647402 0 0.063240005814886313 0.40658319209587829 0 0.073695702888484968 0.40005040040525608 0 0.063240005814886313 0.40658319209587829 0 0.075088081656536507 0.41058410832735293 0 0.078928226936330073 0.3918395352538776 0 0.073695702888484968 0.40005040040525608 0 0.068225210254675303 0.39186969982647402 0 0.073695702888484968 0.40005040040525608 0 0.068225210254675303 0.39186969982647402 0 0.063240005814886313 0.40658319209587829 0 0.058979725365252707 0.4176193763442323 0 0.063240005814886313 0.40658319209587829 0 0.071585814596931419 0.42916711849095618 0 0.063240005814886313 0.40658319209587829 0 0.075088081656536507 0.41058410832735293 0 0.071585814596931419 0.42916711849095618 0 0.063240005814886313 0.40658319209587829 0 0.071585814596931419 0.42916711849095618 0 0.063240005814886313 0.40658319209587829 0 0.075088081656536507 0.41058410832735293 0 0.075088081656536507 0.41058410832735293 0 0.071585814596931419 0.42916711849095618 0 0.082007329246870417 0.41738518600618091 0 0.061556592319121653 0.44225761358074578 0 0.059201111644200437 0.43099696977894508 0 0.071585814596931419 0.42916711849095618 0 0.07540768018483697 0.44030754071393319 0 0.061556592319121653 0.44225761358074578 0 0.071585814596931419 0.42916711849095618 0 0.059201111644200437 0.43099696977894508 0 0.058979725365252707 0.4176193763442323 0 0.071585814596931419 0.42916711849095618 0 0.07540768018483697 0.44030754071393319 0 0.071585814596931419 0.42916711849095618 0 0.08764391112498858 0.43163178618934439 0 0.071585814596931419 0.42916711849095618 0 0.08764391112498858 0.43163178618934439 0 0.082007329246870417 0.41738518600618091 0 0.08764391112498858 0.43163178618934439 0 0.082007329246870417 0.41738518600618091 0 0.094443419551670932 0.40508992778400232 0 0.08764391112498858 0.43163178618934439 0 0.094443419551670932 0.40508992778400232 0 0.080832552055978585 0.40498983155533402 0 0.075088081656536507 0.41058410832735293 0 0.082007329246870417 0.41738518600618091 0 0.080832552055978585 0.40498983155533402 0 0.082007329246870417 0.41738518600618091 0 0.094443419551670932 0.40508992778400232 0 0.08764391112498858 0.43163178618934439 0 0.1096581763989177 0.42409154504396013 0 0.094443419551670932 0.40508992778400232 0 0.1096581763989177 0.42409154504396013 0 0.11163148259572971 0.40863234267508453 0 0.094443419551670932 0.40508992778400232 0 0.1057649319772677 0.43759517983083812 0 0.08764391112498858 0.43163178618934439 0 0.1096581763989177 0.42409154504396013 0 0.1237280261196836 0.44463014715047522 0 0.1096581763989177 0.42409154504396013 0 0.13502200614688589 0.42010390008240672 0 0.1237280261196836 0.44463014715047522 0 0.1057649319772677 0.43759517983083812 0 0.1096581763989177 0.42409154504396013 0 0.11163148259572971 0.40863234267508453 0 0.1236499924648251 0.3984302041169589 0 0.13502200614688589 0.42010390008240672 0 0.1096581763989177 0.42409154504396013 0 0.11163148259572971 0.40863234267508453 0 0.13502200614688589 0.42010390008240672 0 0.11163148259572971 0.40863234267508453 0 0.1236499924648251 0.3984302041169589 0 0.10863659533572551 0.39290197353284961 0 0.10863659533572551 0.39290197353284961 0 0.114060711710889 0.37342974127053702 0 0.12550685613774351 0.37951055496914998 0 0.1236499924648251 0.3984302041169589 0 0.10863659533572551 0.39290197353284961 0 0.12550685613774351 0.37951055496914998 0 0.1012429279783533 0.37854806937866009 0 0.10863659533572551 0.39290197353284961 0 0.114060711710889 0.37342974127053702 0 0.087739402474845588 0.37833299208434412 0 0.1012429279783533 0.37854806937866009 0 0.094443419551670932 0.40508992778400232 0 0.11163148259572971 0.40863234267508453 0 0.10863659533572551 0.39290197353284961 0 0.094443419551670932 0.40508992778400232 0 0.1012429279783533 0.37854806937866009 0 0.094443419551670932 0.40508992778400232 0 0.1012429279783533 0.37854806937866009 0 0.10863659533572551 0.39290197353284961 0 0.094443419551670932 0.40508992778400232 0 0.10055213054656729 0.36013865237867942 0 0.1100489009895301 0.33374314175173209 0 0.10055213054656729 0.36013865237867942 0 0.1100489009895301 0.33374314175173209 0 0.08625589277749264 0.346999797836966 0 0.1069344999541316 0.36147573913557879 0 0.10055213054656729 0.36013865237867942 0 0.1165634558871128 0.3492406052842485 0 0.10055213054656729 0.36013865237867942 0 0.1165634558871128 0.3492406052842485 0 0.1100489009895301 0.33374314175173209 0 0.087739402474845588 0.37833299208434412 0 0.1012429279783533 0.37854806937866009 0 0.1069344999541316 0.36147573913557879 0 0.1012429279783533 0.37854806937866009 0 0.1069344999541316 0.36147573913557879 0 0.114060711710889 0.37342974127053702 0 0.1069344999541316 0.36147573913557879 0 0.10055213054656729 0.36013865237867942 0 0.081229983254247365 0.36650003300062722 0 0.1069344999541316 0.36147573913557879 0 0.081229983254247365 0.36650003300062722 0 0.114060711710889 0.37342974127053702 0 0.1326390166540157 0.35645144527053041 0 0.12550685613774351 0.37951055496914998 0 0.1069344999541316 0.36147573913557879 0 0.114060711710889 0.37342974127053702 0 0.1326390166540157 0.35645144527053041 0 0.1069344999541316 0.36147573913557879 0 0.1165634558871128 0.3492406052842485 0 0.1326390166540157 0.35645144527053041 0 0.1069344999541316 0.36147573913557879 0 0.1326390166540157 0.35645144527053041 0 0.1165634558871128 0.3492406052842485 0 0.1100489009895301 0.33374314175173209 0 0.13264273129131951 0.33439404788472138 0 0.1100489009895301 0.33374314175173209 0 0.099713977183769634 0.31807175575135088 0 0.11954567143249289 0.30734763112478491 0 0.1100489009895301 0.33374314175173209 0 0.11954567143249289 0.30734763112478491 0 0.13264273129131951 0.33439404788472138 0 0.1100489009895301 0.33374314175173209 0 0.11954567143249289 0.30734763112478491 0 0.1100489009895301 0.33374314175173209 0 0.099713977183769634 0.31807175575135088 0 0.083894735805945045 0.32735700357097808 0 0.1100489009895301 0.33374314175173209 0 0.083894735805945045 0.32735700357097808 0 0.08625589277749264 0.346999797836966 0 0.083894735805945045 0.32735700357097808 0 0.068148884279383815 0.34110740296781622 0 0.08625589277749264 0.346999797836966 0 0.099713977183769634 0.31807175575135088 0 0.083894735805945045 0.32735700357097808 0 0.079241751540062577 0.3091409184095229 0 0.083894735805945045 0.32735700357097808 0 0.067542665246266162 0.32227296773822012 0 0.079241751540062577 0.3091409184095229 0 0.067542665246266162 0.32227296773822012 0 0.068148884279383815 0.34110740296781622 0 0.052098030758102709 0.32848813316288678 0 0.083894735805945045 0.32735700357097808 0 0.067542665246266162 0.32227296773822012 0 0.068148884279383815 0.34110740296781622 0 0.068148884279383815 0.34110740296781622 0 0.072981575438615956 0.35429511825148829 0 0.08625589277749264 0.346999797836966 0 0.068148884279383815 0.34110740296781622 0 0.072981575438615956 0.35429511825148829 0 0.059971533893319953 0.35265308331869138 0 0.072981575438615956 0.35429511825148829 0 0.066555082361941326 0.36578627017444021 0 0.059971533893319953 0.35265308331869138 0 0.10055213054656729 0.36013865237867942 0 0.08625589277749264 0.346999797836966 0 0.081229983254247365 0.36650003300062722 0 0.072981575438615956 0.35429511825148829 0 0.08625589277749264 0.346999797836966 0 0.081229983254247365 0.36650003300062722 0 0.087739402474845588 0.37833299208434412 0 0.1069344999541316 0.36147573913557879 0 0.081229983254247365 0.36650003300062722 0 0.069041936002645535 0.37820082441249081 0 0.087739402474845588 0.37833299208434412 0 0.081229983254247365 0.36650003300062722 0 0.069041936002645535 0.37820082441249081 0 0.081229983254247365 0.36650003300062722 0 0.066555082361941326 0.36578627017444021 0 0.072981575438615956 0.35429511825148829 0 0.081229983254247365 0.36650003300062722 0 0.066555082361941326 0.36578627017444021 0 0.069041936002645535 0.37820082441249081 0 0.066555082361941326 0.36578627017444021 0 0.059721524030669819 0.37431687333309788 0 0.055929998057201551 0.36692607577369102 0 0.050307067216076778 0.37158640017128619 0 0.041108453413194898 0.34669476624024848 0 0.066555082361941326 0.36578627017444021 0 0.059721524030669819 0.37431687333309788 0 0.055929998057201551 0.36692607577369102 0 0.059721524030669819 0.37431687333309788 0 0.055929998057201551 0.36692607577369102 0 0.050307067216076778 0.37158640017128619 0 0.066555082361941326 0.36578627017444021 0 0.055929998057201551 0.36692607577369102 0 0.059971533893319953 0.35265308331869138 0 0.055929998057201551 0.36692607577369102 0 0.050307067216076778 0.37158640017128619 0 0.055929998057201551 0.36692607577369102 0 0.059971533893319953 0.35265308331869138 0 0.041108453413194898 0.34669476624024848 0 0.059971533893319953 0.35265308331869138 0 0.041108453413194898 0.34669476624024848 0 0.053731959496234848 0.34189436452501393 0 0.068148884279383815 0.34110740296781622 0 0.059971533893319953 0.35265308331869138 0 0.053731959496234848 0.34189436452501393 0 0.050307067216076778 0.37158640017128619 0 0.041108453413194898 0.34669476624024848 0 0.036325720293778493 0.35734230210966361 0 0.050307067216076778 0.37158640017128619 0 0.041108453413194898 0.34669476624024848 0 0.041108453413194898 0.34669476624024848 0 0.036325720293778493 0.35734230210966361 0 0.028822601092593811 0.34272768621728472 0 0.034519904376963118 0.38467091111880503 0 0.036565816098641138 0.36791040757449411 0 0.02482466364838485 0.35779225034500489 0 0.034519904376963118 0.38467091111880503 0 0.050307067216076778 0.37158640017128619 0 0.036565816098641138 0.36791040757449411 0 0.050307067216076778 0.37158640017128619 0 0.036325720293778493 0.35734230210966361 0 0.036565816098641138 0.36791040757449411 0 0.036325720293778493 0.35734230210966361 0 0.036565816098641138 0.36791040757449411 0 0.02482466364838485 0.35779225034500489 0 0.034519904376963118 0.38467091111880503 0 0.02482466364838485 0.35779225034500489 0 0.0197357255374827 0.37571737083264412 0 0.034519904376963118 0.38467091111880503 0 0.02482466364838485 0.35779225034500489 0 0.0197357255374827 0.37571737083264412 0 0.015674273695437339 0.36401306951764911 0 0.02482466364838485 0.35779225034500489 0 0.015674273695437339 0.36401306951764911 0 0.02482466364838485 0.35779225034500489 0 0.015768167676543349 0.35713923686247862 0 0.02482466364838485 0.35779225034500489 0 0.01512942291980679 0.33091358957120492 0 0.02482466364838485 0.35779225034500489 0 0.01512942291980679 0.33091358957120492 0 0.028822601092593811 0.34272768621728472 0 0.036325720293778493 0.35734230210966361 0 0.02482466364838485 0.35779225034500489 0 0.028822601092593811 0.34272768621728472 0 0.02482466364838485 0.35779225034500489 0 0.012196298529549159 0.34905700984651278 0 0.01512942291980679 0.33091358957120492 0 0.02482466364838485 0.35779225034500489 0 0.015768167676543349 0.35713923686247862 0 0.012196298529549159 0.34905700984651278 0 0.01037743483280206 0.35769461774074762 0 0.012196298529549159 0.34905700984651278 0 0.0032447233134405931 0.35422125060834359 0 0.015768167676543349 0.35713923686247862 0 0.01037743483280206 0.35769461774074762 0 0.012196298529549159 0.34905700984651278 0 -0.002583240235104544 0.34489224502179239 0 0.012196298529549159 0.34905700984651278 0 0.0065182143906638264 0.33911035096943482 0 -0.002583240235104544 0.34489224502179239 0 0.012196298529549159 0.34905700984651278 0 0.0032447233134405931 0.35422125060834359 0 0.01037743483280206 0.35769461774074762 0 0.0032447233134405931 0.35422125060834359 0 0.0039428335920915006 0.36531030276633031 0 -0.0064988099748367559 0.35299106404641623 0 0.0032447233134405931 0.35422125060834359 0 0.0039428335920915006 0.36531030276633031 0 -0.001064505034491721 0.37161458349227261 0 0.015674273695437339 0.36401306951764911 0 0.0039428335920915006 0.36531030276633031 0 -0.001064505034491721 0.37161458349227261 0 0.015674273695437339 0.36401306951764911 0 0.011110712074150059 0.37343232972227269 0 -0.001064505034491721 0.37161458349227261 0 0.015674273695437339 0.36401306951764911 0 0.0197357255374827 0.37571737083264412 0 0.015674273695437339 0.36401306951764911 0 0.011110712074150059 0.37343232972227269 0 0.015674273695437339 0.36401306951764911 0 0.01037743483280206 0.35769461774074762 0 0.0039428335920915006 0.36531030276633031 0 0.015674273695437339 0.36401306951764911 0 0.015768167676543349 0.35713923686247862 0 0.01037743483280206 0.35769461774074762 0 -0.00058836015198596755 0.32088344941533808 0 0.01512942291980679 0.33091358957120492 0 0.0054341821912287152 0.30403492879740468 0 0.01512942291980679 0.33091358957120492 0 0.0054341821912287152 0.30403492879740468 0 0.01512942291980679 0.33091358957120492 0 0.018796167632194181 0.3134157872639986 0 0.0054341821912287152 0.30403492879740468 0 0.012196298529549159 0.34905700984651278 0 0.01512942291980679 0.33091358957120492 0 0.0065182143906638264 0.33911035096943482 0 -0.0025616559074486049 0.3329031852911295 0 -0.00058836015198596755 0.32088344941533808 0 0.01512942291980679 0.33091358957120492 0 -0.0025616559074486049 0.3329031852911295 0 0.01512942291980679 0.33091358957120492 0 0.0065182143906638264 0.33911035096943482 0 -0.0025616559074486049 0.3329031852911295 0 -0.002583240235104544 0.34489224502179239 0 0.0065182143906638264 0.33911035096943482 0 0.01512942291980679 0.33091358957120492 0 0.028822601092593811 0.34272768621728472 0 0.031909839610312053 0.3218031323092112 0 0.01512942291980679 0.33091358957120492 0 0.018796167632194181 0.3134157872639986 0 0.031909839610312053 0.3218031323092112 0 0.031909839610312053 0.3218031323092112 0 0.052098030758102709 0.32848813316288678 0 0.054329923847836643 0.30527138057989611 0 0.041108453413194898 0.34669476624024848 0 0.031909839610312053 0.3218031323092112 0 0.041108453413194898 0.34669476624024848 0 0.028822601092593811 0.34272768621728472 0 0.031909839610312053 0.3218031323092112 0 0.041108453413194898 0.34669476624024848 0 0.031909839610312053 0.3218031323092112 0 0.052098030758102709 0.32848813316288678 0 0.041108453413194898 0.34669476624024848 0 0.052098030758102709 0.32848813316288678 0 0.053731959496234848 0.34189436452501393 0 0.068148884279383815 0.34110740296781622 0 0.052098030758102709 0.32848813316288678 0 0.053731959496234848 0.34189436452501393 0 0.067542665246266162 0.32227296773822012 0 0.052098030758102709 0.32848813316288678 0 0.054329923847836643 0.30527138057989611 0 0.054329923847836643 0.30527138057989611 0 0.058643640903709077 0.2841886380467647 0 0.070108093408202884 0.28237758711201172 0 0.054329923847836643 0.30527138057989611 0 0.058643640903709077 0.2841886380467647 0 0.046708945964444748 0.28470371633566799 0 0.054329923847836643 0.30527138057989611 0 0.070108093408202884 0.28237758711201172 0 0.033299114928103571 0.2853556706935409 0 0.038381760441483573 0.30030485014671859 0 0.022711225807429191 0.29691149837817382 0 0.054329923847836643 0.30527138057989611 0 0.046708945964444748 0.28470371633566799 0 0.038381760441483573 0.30030485014671859 0 0.046708945964444748 0.28470371633566799 0 0.033299114928103571 0.2853556706935409 0 0.038381760441483573 0.30030485014671859 0 0.031909839610312053 0.3218031323092112 0 0.054329923847836643 0.30527138057989611 0 0.038381760441483573 0.30030485014671859 0 0.031909839610312053 0.3218031323092112 0 0.022711225807429191 0.29691149837817382 0 0.018796167632194181 0.3134157872639986 0 0.031909839610312053 0.3218031323092112 0 0.022711225807429191 0.29691149837817382 0 0.018796167632194181 0.3134157872639986 0 0.022711225807429191 0.29691149837817382 0 0.0054341821912287152 0.30403492879740468 0 0.031909839610312053 0.3218031323092112 0 0.038381760441483573 0.30030485014671859 0 0.022711225807429191 0.29691149837817382 0 0.022711225807429191 0.29691149837817382 0 0.0097135815956244098 0.28932323485025419 0 0.01496997692118909 0.27919024420183391 0 0.033299114928103571 0.2853556706935409 0 0.022711225807429191 0.29691149837817382 0 0.01496997692118909 0.27919024420183391 0 -0.0042610585373493576 0.2771562680236046 0 0.0097135815956244098 0.28932323485025419 0 0.01496997692118909 0.27919024420183391 0 -0.0042610585373493576 0.2771562680236046 0 0.0097135815956244098 0.28932323485025419 0 0.0054341821912287152 0.30403492879740468 0 0.022711225807429191 0.29691149837817382 0 0.0097135815956244098 0.28932323485025419 0 0.0054341821912287152 0.30403492879740468 0 -0.0042610585373493576 0.2771562680236046 0 0.0054341821912287152 0.30403492879740468 0 0.012156823249103331 0.25259817100369902 0 0.0071094060709509964 0.26564087220093879 0 0.023079021189564172 0.26593697868694532 0 -0.0082457657602449386 0.25246627485226031 0 0.012156823249103331 0.25259817100369902 0 0.0071094060709509964 0.26564087220093879 0 0.0071094060709509964 0.26564087220093879 0 0.01496997692118909 0.27919024420183391 0 0.023079021189564172 0.26593697868694532 0 -0.0042610585373493576 0.2771562680236046 0 0.0071094060709509964 0.26564087220093879 0 0.01496997692118909 0.27919024420183391 0 0.033299114928103571 0.2853556706935409 0 0.01496997692118909 0.27919024420183391 0 0.023079021189564172 0.26593697868694532 0 0.012156823249103331 0.25259817100369902 0 0.023079021189564172 0.26593697868694532 0 0.030652172791378579 0.25229956247347313 0 0.023079021189564172 0.26593697868694532 0 0.030652172791378579 0.25229956247347313 0 0.04073495957405681 0.26035892983227987 0 0.044937254539659167 0.2379713478153713 0 0.030652172791378579 0.25229956247347313 0 0.04073495957405681 0.26035892983227987 0 0.033299114928103571 0.2853556706935409 0 0.023079021189564172 0.26593697868694532 0 0.04073495957405681 0.26035892983227987 0 0.033299114928103571 0.2853556706935409 0 0.04073495957405681 0.26035892983227987 0 0.046708945964444748 0.28470371633566799 0 0.033299114928103571 0.2853556706935409 0 0.04073495957405681 0.26035892983227987 0 0.046708945964444748 0.28470371633566799 0 0.04073495957405681 0.26035892983227987 0 0.054656664038459993 0.27221644551962948 0 0.058643640903709077 0.2841886380467647 0 0.046708945964444748 0.28470371633566799 0 0.054656664038459993 0.27221644551962948 0 0.054656664038459993 0.27221644551962948 0 0.05595459183600883 0.25980758553240452 0 0.063151913248908592 0.26702092668087168 0 0.054656664038459993 0.27221644551962948 0 0.063151913248908592 0.26702092668087168 0 0.062868354845155253 0.27542318723842002 0 0.058643640903709077 0.2841886380467647 0 0.054656664038459993 0.27221644551962948 0 0.062868354845155253 0.27542318723842002 0 0.058643640903709077 0.2841886380467647 0 0.062868354845155253 0.27542318723842002 0 0.06481936793225318 0.27971168374165578 0 0.052294646587479003 0.2493466198794505 0 0.04073495957405681 0.26035892983227987 0 0.05595459183600883 0.25980758553240452 0 0.04073495957405681 0.26035892983227987 0 0.054656664038459993 0.27221644551962948 0 0.05595459183600883 0.25980758553240452 0 0.05595459183600883 0.25980758553240452 0 0.066495423171073403 0.25816184380531082 0 0.063151913248908592 0.26702092668087168 0 0.052294646587479003 0.2493466198794505 0 0.05595459183600883 0.25980758553240452 0 0.06034442261467237 0.25120339486286308 0 0.05595459183600883 0.25980758553240452 0 0.06034442261467237 0.25120339486286308 0 0.066495423171073403 0.25816184380531082 0 0.067445722382230539 0.24771064348785149 0 0.066495423171073403 0.25816184380531082 0 0.074707437689247702 0.25389633834412328 0 0.067445722382230539 0.24771064348785149 0 0.06034442261467237 0.25120339486286308 0 0.066495423171073403 0.25816184380531082 0 0.066495423171073403 0.25816184380531082 0 0.070468357435777063 0.2657419037057816 0 0.063151913248908592 0.26702092668087168 0 0.066495423171073403 0.25816184380531082 0 0.074357597956477339 0.26064435546358339 0 0.070468357435777063 0.2657419037057816 0 0.074357597956477339 0.26064435546358339 0 0.075194191089397802 0.26640127341757941 0 0.070468357435777063 0.2657419037057816 0 0.074357597956477339 0.26064435546358339 0 0.080427883817154544 0.25791465254204288 0 0.078852294536213494 0.26175012096666261 0 0.074357597956477339 0.26064435546358339 0 0.078852294536213494 0.26175012096666261 0 0.075194191089397802 0.26640127341757941 0 0.066495423171073403 0.25816184380531082 0 0.074357597956477339 0.26064435546358339 0 0.074707437689247702 0.25389633834412328 0 0.074357597956477339 0.26064435546358339 0 0.074707437689247702 0.25389633834412328 0 0.080427883817154544 0.25791465254204288 0 0.085975255819246227 0.24304742420893821 0 0.080478695998155714 0.25165019938018113 0 0.085886262968569133 0.25948379364412733 0 0.080478695998155714 0.25165019938018113 0 0.080427883817154544 0.25791465254204288 0 0.085886262968569133 0.25948379364412733 0 0.10166443252893551 0.23659000017624271 0 0.085886262968569133 0.25948379364412733 0 0.093061372415253377 0.25945310375487363 0 0.074707437689247702 0.25389633834412328 0 0.080478695998155714 0.25165019938018113 0 0.080427883817154544 0.25791465254204288 0 0.078852294536213494 0.26175012096666261 0 0.085886262968569133 0.25948379364412733 0 0.075194191089397802 0.26640127341757941 0 0.080427883817154544 0.25791465254204288 0 0.078852294536213494 0.26175012096666261 0 0.085886262968569133 0.25948379364412733 0 0.093061372415253377 0.25945310375487363 0 0.088669334409182038 0.27365465257629329 0 0.074192652952093263 0.28111713417870732 0 0.093061372415253377 0.25945310375487363 0 0.074192652952093263 0.28111713417870732 0 0.085886262968569133 0.25948379364412733 0 0.093061372415253377 0.25945310375487363 0 0.074192652952093263 0.28111713417870732 0 0.088669334409182038 0.27365465257629329 0 0.090629520296699906 0.27989165378522829 0 0.096617072050330918 0.27420358010706619 0 0.088669334409182038 0.27365465257629329 0 0.090629520296699906 0.27989165378522829 0 0.083300485689734874 0.28178689503457671 0 0.093061372415253377 0.25945310375487363 0 0.088669334409182038 0.27365465257629329 0 0.097208854645582696 0.26674380090640232 0 0.088669334409182038 0.27365465257629329 0 0.074192652952093263 0.28111713417870732 0 0.083300485689734874 0.28178689503457671 0 0.085886262968569133 0.25948379364412733 0 0.072732619288592745 0.27411268144752271 0 0.070108093408202884 0.28237758711201172 0 0.085886262968569133 0.25948379364412733 0 0.074192652952093263 0.28111713417870732 0 0.070108093408202884 0.28237758711201172 0 0.085886262968569133 0.25948379364412733 0 0.070108093408202884 0.28237758711201172 0 0.085886262968569133 0.25948379364412733 0 0.072732619288592745 0.27411268144752271 0 0.075194191089397802 0.26640127341757941 0 0.072732619288592745 0.27411268144752271 0 0.075194191089397802 0.26640127341757941 0 0.068678803079962825 0.27092621584326698 0 0.075194191089397802 0.26640127341757941 0 0.070468357435777063 0.2657419037057816 0 0.068678803079962825 0.27092621584326698 0 0.068678803079962825 0.27092621584326698 0 0.063151913248908592 0.26702092668087168 0 0.062868354845155253 0.27542318723842002 0 0.070468357435777063 0.2657419037057816 0 0.068678803079962825 0.27092621584326698 0 0.063151913248908592 0.26702092668087168 0 0.072732619288592745 0.27411268144752271 0 0.067657382571945521 0.27685732256942691 0 0.070108093408202884 0.28237758711201172 0 0.067657382571945521 0.27685732256942691 0 0.06481936793225318 0.27971168374165578 0 0.070108093408202884 0.28237758711201172 0 0.072732619288592745 0.27411268144752271 0 0.068678803079962825 0.27092621584326698 0 0.067657382571945521 0.27685732256942691 0 0.067657382571945521 0.27685732256942691 0 0.062868354845155253 0.27542318723842002 0 0.06481936793225318 0.27971168374165578 0 0.068678803079962825 0.27092621584326698 0 0.067657382571945521 0.27685732256942691 0 0.062868354845155253 0.27542318723842002 0 0.058643640903709077 0.2841886380467647 0 0.06481936793225318 0.27971168374165578 0 0.070108093408202884 0.28237758711201172 0 0.054329923847836643 0.30527138057989611 0 0.070108093408202884 0.28237758711201172 0 0.07616196246918229 0.29401120062856562 0 0.070108093408202884 0.28237758711201172 0 0.07616196246918229 0.29401120062856562 0 0.077305327314718786 0.28670206069564769 0 0.074192652952093263 0.28111713417870732 0 0.070108093408202884 0.28237758711201172 0 0.077305327314718786 0.28670206069564769 0 0.054329923847836643 0.30527138057989611 0 0.07616196246918229 0.29401120062856562 0 0.079241751540062577 0.3091409184095229 0 0.067542665246266162 0.32227296773822012 0 0.054329923847836643 0.30527138057989611 0 0.079241751540062577 0.3091409184095229 0 0.07616196246918229 0.29401120062856562 0 0.079241751540062577 0.3091409184095229 0 0.093760017070794913 0.30048783451418309 0 0.099713977183769634 0.31807175575135088 0 0.079241751540062577 0.3091409184095229 0 0.093760017070794913 0.30048783451418309 0 0.07616196246918229 0.29401120062856562 0 0.086675975183887061 0.28808357667035972 0 0.093760017070794913 0.30048783451418309 0 0.074192652952093263 0.28111713417870732 0 0.077305327314718786 0.28670206069564769 0 0.083300485689734874 0.28178689503457671 0 0.077305327314718786 0.28670206069564769 0 0.083300485689734874 0.28178689503457671 0 0.086675975183887061 0.28808357667035972 0 0.07616196246918229 0.29401120062856562 0 0.077305327314718786 0.28670206069564769 0 0.086675975183887061 0.28808357667035972 0 0.090629520296699906 0.27989165378522829 0 0.083300485689734874 0.28178689503457671 0 0.086675975183887061 0.28808357667035972 0 0.090629520296699906 0.27989165378522829 0 0.086675975183887061 0.28808357667035972 0 0.1012207646153751 0.28627192450051492 0 0.086675975183887061 0.28808357667035972 0 0.1012207646153751 0.28627192450051492 0 0.093760017070794913 0.30048783451418309 0 0.099713977183769634 0.31807175575135088 0 0.093760017070794913 0.30048783451418309 0 0.11954567143249289 0.30734763112478491 0 0.1012207646153751 0.28627192450051492 0 0.093760017070794913 0.30048783451418309 0 0.11954567143249289 0.30734763112478491 0 0.11954567143249289 0.30734763112478491 0 0.1141818460752707 0.27714397317686529 0 0.12904244187545569 0.2809521204978378 0 0.1012207646153751 0.28627192450051492 0 0.11954567143249289 0.30734763112478491 0 0.1141818460752707 0.27714397317686529 0 0.11954567143249289 0.30734763112478491 0 0.12904244187545569 0.2809521204978378 0 0.1141818460752707 0.27714397317686529 0 0.11615378911320511 0.26032519799560372 0 0.1048644735931679 0.26655228778042589 0 0.1141818460752707 0.27714397317686529 0 0.11615378911320511 0.26032519799560372 0 0.12904244187545569 0.2809521204978378 0 0.1152979079485152 0.2467056018988516 0 0.1250676346401875 0.24796443701554319 0 0.11615378911320511 0.26032519799560372 0 0.1152979079485152 0.2467056018988516 0 0.11615378911320511 0.26032519799560372 0 0.10650461767427161 0.25132517155921902 0 0.11615378911320511 0.26032519799560372 0 0.1028320207599793 0.25985538031335248 0 0.1048644735931679 0.26655228778042589 0 0.1028320207599793 0.25985538031335248 0 0.097208854645582696 0.26674380090640232 0 0.1048644735931679 0.26655228778042589 0 0.11615378911320511 0.26032519799560372 0 0.1028320207599793 0.25985538031335248 0 0.10650461767427161 0.25132517155921902 0 0.093061372415253377 0.25945310375487363 0 0.1028320207599793 0.25985538031335248 0 0.10650461767427161 0.25132517155921902 0 0.093061372415253377 0.25945310375487363 0 0.1028320207599793 0.25985538031335248 0 0.097208854645582696 0.26674380090640232 0 0.088669334409182038 0.27365465257629329 0 0.097208854645582696 0.26674380090640232 0 0.096617072050330918 0.27420358010706619 0 0.097208854645582696 0.26674380090640232 0 0.096617072050330918 0.27420358010706619 0 0.1048644735931679 0.26655228778042589 0 0.1141818460752707 0.27714397317686529 0 0.096617072050330918 0.27420358010706619 0 0.1048644735931679 0.26655228778042589 0 0.1012207646153751 0.28627192450051492 0 0.1141818460752707 0.27714397317686529 0 0.096617072050330918 0.27420358010706619 0 0.090629520296699906 0.27989165378522829 0 0.1012207646153751 0.28627192450051492 0 0.096617072050330918 0.27420358010706619 0 0.1384713120865835 0.25773302092121009 0 0.12904244187545569 0.2809521204978378 0 0.15915390062653459 0.27760612704708998 0 0.1514273965657848 0.24085309905483679 0 0.1384713120865835 0.25773302092121009 0 0.156278998070083 0.25778272565978 0 0.1384713120865835 0.25773302092121009 0 0.15915390062653459 0.27760612704708998 0 0.156278998070083 0.25778272565978 0 0.1250676346401875 0.24796443701554319 0 0.11615378911320511 0.26032519799560372 0 0.1384713120865835 0.25773302092121009 0 0.11615378911320511 0.26032519799560372 0 0.1384713120865835 0.25773302092121009 0 0.12904244187545569 0.2809521204978378 0 0.11954567143249289 0.30734763112478491 0 0.12904244187545569 0.2809521204978378 0 0.14488164426314301 0.29594920495010729 0 0.11954567143249289 0.30734763112478491 0 0.14488164426314301 0.29594920495010729 0 0.15139514334923471 0.31791608062108467 0 0.14488164426314301 0.29594920495010729 0 0.16637322996135739 0.30016678813796199 0 0.15139514334923471 0.31791608062108467 0 0.12904244187545569 0.2809521204978378 0 0.14488164426314301 0.29594920495010729 0 0.15915390062653459 0.27760612704708998 0 0.14488164426314301 0.29594920495010729 0 0.16637322996135739 0.30016678813796199 0 0.15915390062653459 0.27760612704708998 0 0.16637322996135739 0.30016678813796199 0 0.18265278236186541 0.28020603593405619 0 0.15915390062653459 0.27760612704708998 0 0.16637322996135739 0.30016678813796199 0 0.18588027836364171 0.30417070427619303 0 0.17427563080372541 0.32515257599924119 0 0.16637322996135739 0.30016678813796199 0 0.18588027836364171 0.30417070427619303 0 0.18265278236186541 0.28020603593405619 0 0.18265278236186541 0.28020603593405619 0 0.15915390062653459 0.27760612704708998 0 0.17660728565697029 0.25284173787090108 0 0.18265278236186541 0.28020603593405619 0 0.17660728565697029 0.25284173787090108 0 0.20178717474815569 0.26483037668696541 0 0.1514273965657848 0.24085309905483679 0 0.156278998070083 0.25778272565978 0 0.17660728565697029 0.25284173787090108 0 0.15915390062653459 0.27760612704708998 0 0.156278998070083 0.25778272565978 0 0.17660728565697029 0.25284173787090108 0 0.1971008006350988 0.24422433182354611 0 0.17660728565697029 0.25284173787090108 0 0.20178717474815569 0.26483037668696541 0 0.17660728565697029 0.25284173787090108 0 0.20178717474815569 0.26483037668696541 0 0.18265278236186541 0.28020603593405619 0 0.20178717474815569 0.26483037668696541 0 0.20721699074389299 0.28586320426344869 0 0.20178717474815569 0.26483037668696541 0 0.22696706383934109 0.27681901550302962 0 0.20721699074389299 0.28586320426344869 0 0.20178717474815569 0.26483037668696541 0 0.22696706383934109 0.27681901550302962 0 0.1971008006350988 0.24422433182354611 0 0.20178717474815569 0.26483037668696541 0 0.2257125065402284 0.25431107802280528 0 0.20178717474815569 0.26483037668696541 0 0.2257125065402284 0.25431107802280528 0 0.22696706383934109 0.27681901550302962 0 0.2257125065402284 0.25431107802280528 0 0.23435940432808119 0.2558835225658645 0 0.2376751292839718 0.27741240132337408 0 0.2257125065402284 0.25431107802280528 0 0.22696706383934109 0.27681901550302962 0 0.2376751292839718 0.27741240132337408 0 0.2257125065402284 0.25431107802280528 0 0.2376751292839718 0.27741240132337408 0 0.22696706383934109 0.27681901550302962 0 0.2376751292839718 0.27741240132337408 0 0.2318681827461313 0.28775992326468519 0 0.23435940432808119 0.2558835225658645 0 0.2434397278092077 0.27846069768541332 0 0.2376751292839718 0.27741240132337408 0 0.23435940432808119 0.2558835225658645 0 0.2434397278092077 0.27846069768541332 0 0.23435940432808119 0.2558835225658645 0 0.2434397278092077 0.27846069768541332 0 0.24763005152173001 0.25910176257370959 0 0.2459873280094696 0.23707215699401071 0 0.23435940432808119 0.2558835225658645 0 0.24763005152173001 0.25910176257370959 0 0.24963775202771521 0.30051372462394288 0 0.22557231514573739 0.29747977878921561 0 0.2305146992996441 0.31691702429977642 0 0.2376751292839718 0.27741240132337408 0 0.24963775202771521 0.30051372462394288 0 0.2318681827461313 0.28775992326468519 0 0.2434397278092077 0.27846069768541332 0 0.25252005129033422 0.30103787280496203 0 0.2434397278092077 0.27846069768541332 0 0.2376751292839718 0.27741240132337408 0 0.24963775202771521 0.30051372462394288 0 0.2434397278092077 0.27846069768541332 0 0.24963775202771521 0.30051372462394288 0 0.25252005129033422 0.30103787280496203 0 0.24963775202771521 0.30051372462394288 0 0.2318681827461313 0.28775992326468519 0 0.22557231514573739 0.29747977878921561 0 0.2376751292839718 0.27741240132337408 0 0.24963775202771521 0.30051372462394288 0 0.22696706383934109 0.27681901550302962 0 0.2318681827461313 0.28775992326468519 0 0.22192971392309441 0.28686454206331458 0 0.2318681827461313 0.28775992326468519 0 0.22192971392309441 0.28686454206331458 0 0.22557231514573739 0.29747977878921561 0 0.22557231514573739 0.29747977878921561 0 0.21067009246602381 0.31050760251916348 0 0.2305146992996441 0.31691702429977642 0 0.22557231514573739 0.29747977878921561 0 0.2305146992996441 0.31691702429977642 0 0.22557231514573739 0.29747977878921561 0 0.21067009246602381 0.31050760251916348 0 0.20721699074389299 0.28586320426344869 0 0.22192971392309441 0.28686454206331458 0 0.22557231514573739 0.29747977878921561 0 0.20721699074389299 0.28586320426344869 0 0.22696706383934109 0.27681901550302962 0 0.22192971392309441 0.28686454206331458 0 0.20721699074389299 0.28586320426344869 0 0.18588027836364171 0.30417070427619303 0 0.18265278236186541 0.28020603593405619 0 0.20721699074389299 0.28586320426344869 0 0.18588027836364171 0.30417070427619303 0 0.21067009246602381 0.31050760251916348 0 0.20721699074389299 0.28586320426344869 0 0.18588027836364171 0.30417070427619303 0 0.21067009246602381 0.31050760251916348 0 0.1975742485098208 0.32622361772240582 0 0.1975742485098208 0.32622361772240582 0 0.2097525667536678 0.34137856367538538 0 0.18404805005378369 0.34640285754043382 0 0.1975742485098208 0.32622361772240582 0 0.2097525667536678 0.34137856367538538 0 0.2167937380965417 0.3262762156054137 0 0.21067009246602381 0.31050760251916348 0 0.1975742485098208 0.32622361772240582 0 0.2167937380965417 0.3262762156054137 0 0.21067009246602381 0.31050760251916348 0 0.2167937380965417 0.3262762156054137 0 0.2305146992996441 0.31691702429977642 0 0.2305146992996441 0.31691702429977642 0 0.2354570834535519 0.33635426981033711 0 0.2167937380965417 0.3262762156054137 0 0.2305146992996441 0.31691702429977642 0 0.2354570834535519 0.33635426981033711 0 0.2097525667536678 0.34137856367538538 0 0.2167937380965417 0.3262762156054137 0 0.2354570834535519 0.33635426981033711 0 0.2097525667536678 0.34137856367538538 0 0.2354570834535519 0.33635426981033711 0 0.2097525667536678 0.34137856367538538 0 0.2354570834535519 0.33635426981033711 0 0.22572342153310379 0.35183723080414581 0 0.2354570834535519 0.33635426981033711 0 0.24833100513142109 0.32161764704062729 0 0.26518788721623437 0.33054298393043219 0 0.24963775202771521 0.30051372462394288 0 0.2305146992996441 0.31691702429977642 0 0.24833100513142109 0.32161764704062729 0 0.2305146992996441 0.31691702429977642 0 0.2354570834535519 0.33635426981033711 0 0.24833100513142109 0.32161764704062729 0 0.2354570834535519 0.33635426981033711 0 0.24217950803475169 0.36279199964721098 0 0.25397109136889212 0.34953950795812871 0 0.2354570834535519 0.33635426981033711 0 0.24217950803475169 0.36279199964721098 0 0.22572342153310379 0.35183723080414581 0 0.2354570834535519 0.33635426981033711 0 0.24217950803475169 0.36279199964721098 0 0.24217950803475169 0.36279199964721098 0 0.22572342153310379 0.35183723080414581 0 0.21637712922286109 0.36651385017664678 0 0.24217950803475169 0.36279199964721098 0 0.21637712922286109 0.36651385017664678 0 0.22693728272114971 0.38251641872149622 0 0.2097525667536678 0.34137856367538538 0 0.22572342153310379 0.35183723080414581 0 0.21637712922286109 0.36651385017664678 0 0.2097525667536678 0.34137856367538538 0 0.21637712922286109 0.36651385017664678 0 0.19198276408895759 0.36846918068195189 0 0.2097525667536678 0.34137856367538538 0 0.19198276408895759 0.36846918068195189 0 0.18404805005378369 0.34640285754043382 0 0.2097525667536678 0.34137856367538538 0 0.18404805005378369 0.34640285754043382 0 0.21637712922286109 0.36651385017664678 0 0.19198276408895759 0.36846918068195189 0 0.2008438189570996 0.38963870543367402 0 0.1583435333538997 0.35142715140548209 0 0.18404805005378369 0.34640285754043382 0 0.17157629822801171 0.38002160271682978 0 0.19198276408895759 0.36846918068195189 0 0.18404805005378369 0.34640285754043382 0 0.17157629822801171 0.38002160271682978 0 0.1583435333538997 0.35142715140548209 0 0.14756927440754089 0.37573381366887992 0 0.17157629822801171 0.38002160271682978 0 0.1583435333538997 0.35142715140548209 0 0.18404805005378369 0.34640285754043382 0 0.1583435333538997 0.35142715140548209 0 0.17427563080372541 0.32515257599924119 0 0.15139514334923471 0.31791608062108467 0 0.1975742485098208 0.32622361772240582 0 0.18404805005378369 0.34640285754043382 0 0.17427563080372541 0.32515257599924119 0 0.1583435333538997 0.35142715140548209 0 0.18404805005378369 0.34640285754043382 0 0.17427563080372541 0.32515257599924119 0 0.18588027836364171 0.30417070427619303 0 0.1975742485098208 0.32622361772240582 0 0.17427563080372541 0.32515257599924119 0 0.16637322996135739 0.30016678813796199 0 0.17427563080372541 0.32515257599924119 0 0.15139514334923471 0.31791608062108467 0 0.1583435333538997 0.35142715140548209 0 0.15139514334923471 0.31791608062108467 0 0.13264273129131951 0.33439404788472138 0 0.11954567143249289 0.30734763112478491 0 0.15139514334923471 0.31791608062108467 0 0.13264273129131951 0.33439404788472138 0 0.1165634558871128 0.3492406052842485 0 0.13264273129131951 0.33439404788472138 0 0.1326390166540157 0.35645144527053041 0 0.1326390166540157 0.35645144527053041 0 0.14756927440754089 0.37573381366887992 0 0.12550685613774351 0.37951055496914998 0 0.1583435333538997 0.35142715140548209 0 0.1326390166540157 0.35645144527053041 0 0.14756927440754089 0.37573381366887992 0 0.1583435333538997 0.35142715140548209 0 0.1326390166540157 0.35645144527053041 0 0.1583435333538997 0.35142715140548209 0 0.13264273129131951 0.33439404788472138 0 0.1326390166540157 0.35645144527053041 0 0.1528019220027558 0.40532518960412911 0 0.14756927440754089 0.37573381366887992 0 0.13567422075440499 0.38715007620423969 0 0.14756927440754089 0.37573381366887992 0 0.12550685613774351 0.37951055496914998 0 0.13567422075440499 0.38715007620423969 0 0.1236499924648251 0.3984302041169589 0 0.12550685613774351 0.37951055496914998 0 0.13567422075440499 0.38715007620423969 0 0.1236499924648251 0.3984302041169589 0 0.1528019220027558 0.40532518960412911 0 0.13567422075440499 0.38715007620423969 0 0.1528019220027558 0.40532518960412911 0 0.13502200614688589 0.42010390008240672 0 0.17098438647877001 0.42850314348833868 0 0.13502200614688589 0.42010390008240672 0 0.17098438647877001 0.42850314348833868 0 0.1532788809183856 0.44756588495706878 0 0.1236499924648251 0.3984302041169589 0 0.1528019220027558 0.40532518960412911 0 0.13502200614688589 0.42010390008240672 0 0.1237280261196836 0.44463014715047522 0 0.13502200614688589 0.42010390008240672 0 0.1532788809183856 0.44756588495706878 0 0.1528019220027558 0.40532518960412911 0 0.17098438647877001 0.42850314348833868 0 0.1528019220027558 0.40532518960412911 0 0.17098438647877001 0.42850314348833868 0 0.17902253221663289 0.40492788695933207 0 0.17098438647877001 0.42850314348833868 0 0.19890623541652749 0.42115079355368912 0 0.18916685095478419 0.4516810973725483 0 0.17098438647877001 0.42850314348833868 0 0.17902253221663289 0.40492788695933207 0 0.19890623541652749 0.42115079355368912 0 0.17902253221663289 0.40492788695933207 0 0.17157629822801171 0.38002160271682978 0 0.2008438189570996 0.38963870543367402 0 0.1528019220027558 0.40532518960412911 0 0.17902253221663289 0.40492788695933207 0 0.17157629822801171 0.38002160271682978 0 0.1528019220027558 0.40532518960412911 0 0.14756927440754089 0.37573381366887992 0 0.17157629822801171 0.38002160271682978 0 0.17902253221663289 0.40492788695933207 0 0.2008438189570996 0.38963870543367402 0 0.19890623541652749 0.42115079355368912 0 0.19198276408895759 0.36846918068195189 0 0.17157629822801171 0.38002160271682978 0 0.2008438189570996 0.38963870543367402 0 0.2008438189570996 0.38963870543367402 0 0.22638402477508329 0.40440780886586492 0 0.19890623541652749 0.42115079355368912 0 0.2008438189570996 0.38963870543367402 0 0.22693728272114971 0.38251641872149622 0 0.22638402477508329 0.40440780886586492 0 0.21637712922286109 0.36651385017664678 0 0.2008438189570996 0.38963870543367402 0 0.22693728272114971 0.38251641872149622 0 0.22693728272114971 0.38251641872149622 0 0.22638402477508329 0.40440780886586492 0 0.24890193261595259 0.38922972948408457 0 0.22638402477508329 0.40440780886586492 0 0.24890193261595259 0.38922972948408457 0 0.25562435719715348 0.41566745932095828 0 0.24217950803475169 0.36279199964721098 0 0.24890193261595259 0.38922972948408457 0 0.24217950803475169 0.36279199964721098 0 0.22693728272114971 0.38251641872149622 0 0.24890193261595259 0.38922972948408457 0 0.22638402477508329 0.40440780886586492 0 0.23929670148200641 0.42651558303428039 0 0.25562435719715348 0.41566745932095828 0 0.22638402477508329 0.40440780886586492 0 0.23929670148200641 0.42651558303428039 0 0.21947817947708001 0.42577831055793047 0 0.23929670148200641 0.42651558303428039 0 0.21947817947708001 0.42577831055793047 0 0.23265016418236131 0.44461914726881641 0 0.21947817947708001 0.42577831055793047 0 0.19890623541652749 0.42115079355368912 0 0.21144352365240529 0.44700262568134053 0 0.22638402477508329 0.40440780886586492 0 0.21947817947708001 0.42577831055793047 0 0.19890623541652749 0.42115079355368912 0 0.19890623541652749 0.42115079355368912 0 0.18916685095478419 0.4516810973725483 0 0.21144352365240529 0.44700262568134053 0 0.18916685095478419 0.4516810973725483 0 0.20734931543079829 0.47485905125675792 0 0.18916685095478419 0.4516810973725483 0 0.21144352365240529 0.44700262568134053 0 0.20734931543079829 0.47485905125675792 0 0.21144352365240529 0.44700262568134053 0 0.22111039645288069 0.46392735407830132 0 0.20734931543079829 0.47485905125675792 0 0.21144352365240529 0.44700262568134053 0 0.23265016418236131 0.44461914726881641 0 0.22111039645288069 0.46392735407830132 0 0.21947817947708001 0.42577831055793047 0 0.21144352365240529 0.44700262568134053 0 0.23265016418236131 0.44461914726881641 0 0.23265016418236131 0.44461914726881641 0 0.22111039645288069 0.46392735407830132 0 0.24508980140621781 0.46623513653650361 0 0.22111039645288069 0.46392735407830132 0 0.24508980140621781 0.46623513653650361 0 0.23265016418236131 0.44461914726881641 0 0.24508980140621781 0.46623513653650361 0 0.26234678177835441 0.44210518915783192 0 0.23929670148200641 0.42651558303428039 0 0.23265016418236131 0.44461914726881641 0 0.26234678177835441 0.44210518915783192 0 0.2479606543192433 0.5 0 0.23772208332050199 0.48786840683281429 0 0.2255317799068125 0.49803700514096738 0 0.2479606543192433 0.5 0 0.23772208332050199 0.48786840683281429 0 0.25513941322049821 0.48355515434954122 0 0.24508980140621781 0.46623513653650361 0 0.23688712964706901 0.4763018139788181 0 0.25513941322049821 0.48355515434954122 0 0.23772208332050199 0.48786840683281429 0 0.23688712964706901 0.4763018139788181 0 0.25513941322049821 0.48355515434954122 0 0.22111039645288069 0.46392735407830132 0 0.23688712964706901 0.4763018139788181 0 0.22537395383524639 0.47992301809693011 0 0.22537395383524639 0.47992301809693011 0 0.2255317799068125 0.49803700514096738 0 0.20734931543079829 0.47485905125675792 0 0.23772208332050199 0.48786840683281429 0 0.23688712964706901 0.4763018139788181 0 0.22537395383524639 0.47992301809693011 0 0.22111039645288069 0.46392735407830132 0 0.24508980140621781 0.46623513653650361 0 0.23688712964706901 0.4763018139788181 0 0.23772208332050199 0.48786840683281429 0 0.22537395383524639 0.47992301809693011 0 0.2255317799068125 0.49803700514096738 0 0.2479606543192433 0.5 0 0.21885338771805021 0.5 0 0.2255317799068125 0.49803700514096738 0 0.21885338771805021 0.5 0 0.2255317799068125 0.49803700514096738 0 0.20734931543079829 0.47485905125675792 0 0.21885338771805021 0.5 0 0.20734931543079829 0.47485905125675792 0 0.1897461211168571 0.5 0 0.2255317799068125 0.49803700514096738 0 0.20734931543079829 0.47485905125675792 0 0.22111039645288069 0.46392735407830132 0 0.22537395383524639 0.47992301809693011 0 0.20734931543079829 0.47485905125675792 0 0.18916685095478419 0.4516810973725483 0 0.20734931543079829 0.47485905125675792 0 0.18375498264642379 0.4799820804674747 0 0.20734931543079829 0.47485905125675792 0 0.1897461211168571 0.5 0 0.18375498264642379 0.4799820804674747 0 0.1897461211168571 0.5 0 0.1606388545156639 0.5 0 0.18375498264642379 0.4799820804674747 0 0.1606388545156639 0.5 0 0.16284299929429041 0.47286735670979418 0 0.18375498264642379 0.4799820804674747 0 0.17098438647877001 0.42850314348833868 0 0.18916685095478419 0.4516810973725483 0 0.1532788809183856 0.44756588495706878 0 0.18916685095478419 0.4516810973725483 0 0.16284299929429041 0.47286735670979418 0 0.18375498264642379 0.4799820804674747 0 0.18916685095478419 0.4516810973725483 0 0.16284299929429041 0.47286735670979418 0 0.1532788809183856 0.44756588495706878 0 0.17098438647877001 0.42850314348833868 0 0.18916685095478419 0.4516810973725483 0 0.16284299929429041 0.47286735670979418 0 0.1532788809183856 0.44756588495706878 0 0.13792901651589951 0.46760966493884959 0 0.1160915578241386 0.4641835533930308 0 0.1237280261196836 0.44463014715047522 0 0.13792901651589951 0.46760966493884959 0 0.1237280261196836 0.44463014715047522 0 0.1532788809183856 0.44756588495706878 0 0.13792901651589951 0.46760966493884959 0 0.1146358595090817 0.48605788153156299 0 0.13792901651589951 0.46760966493884959 0 0.14375381424303349 0.48699105670781317 0 0.1146358595090817 0.48605788153156299 0 0.13153158791447089 0.50000000000000033 0 0.14375381424303349 0.48699105670781317 0 0.1606388545156639 0.5 0 0.13153158791447089 0.50000000000000033 0 0.14375381424303349 0.48699105670781317 0 0.1606388545156639 0.5 0 0.16284299929429041 0.47286735670979418 0 0.14375381424303349 0.48699105670781317 0 0.16284299929429041 0.47286735670979418 0 0.13792901651589951 0.46760966493884959 0 0.14375381424303349 0.48699105670781317 0 0.35818797179075601 0.47458138126870081 0 0.34642182508771258 0.48585203466637861 0 0.33573625410597768 0.47071191077640329 0 0.35818797179075601 0.47458138126870081 0 0.34642182508771258 0.48585203466637861 0 0.35839011049240282 0.5 0 0.34642182508771258 0.48585203466637861 0 0.35839011049240282 0.5 0 0.33128271396841408 0.5 0 0.35818797179075601 0.47458138126870081 0 0.35839011049240282 0.5 0 0.37951078222479251 0.47868038482078018 0 0.35839011049240282 0.5 0 0.37951078222479251 0.47868038482078018 0 0.38549750701639152 0.5 0 0.35818797179075601 0.47458138126870081 0 0.37565915938479377 0.45849116020829678 0 0.37951078222479251 0.47868038482078018 0 0.35818797179075601 0.47458138126870081 0 0.35384759317055892 0.4558722467826386 0 0.37565915938479377 0.45849116020829678 0 0.3672128213662551 0.44140310366938379 0 0.35384759317055892 0.4558722467826386 0 0.37565915938479377 0.45849116020829678 0 0.35041805056504127 0.44039830756831011 0 0.35384759317055892 0.4558722467826386 0 0.33587130181052999 0.44964761720473639 0 0.3672128213662551 0.44140310366938379 0 0.35041805056504127 0.44039830756831011 0 0.35384759317055892 0.4558722467826386 0 0.35818797179075601 0.47458138126870081 0 0.35384759317055892 0.4558722467826386 0 0.33573625410597768 0.47071191077640329 0 0.33587130181052999 0.44964761720473639 0 0.32245641590876828 0.45710047073305682 0 0.33573625410597768 0.47071191077640329 0 0.35384759317055892 0.4558722467826386 0 0.33587130181052999 0.44964761720473639 0 0.33573625410597768 0.47071191077640329 0 0.35041805056504127 0.44039830756831011 0 0.33587130181052999 0.44964761720473639 0 0.34011375395909899 0.42827966665244982 0 0.33587130181052999 0.44964761720473639 0 0.32313042491148092 0.43915640659962429 0 0.34011375395909899 0.42827966665244982 0 0.33587130181052999 0.44964761720473639 0 0.32313042491148092 0.43915640659962429 0 0.32245641590876828 0.45710047073305682 0 0.32313042491148092 0.43915640659962429 0 0.32245641590876828 0.45710047073305682 0 0.3069723578181176 0.44921026163567479 0 0.32313042491148092 0.43915640659962429 0 0.3069723578181176 0.44921026163567479 0 0.30967478190587899 0.43248339293908478 0 0.32245641590876828 0.45710047073305682 0 0.31479002533830769 0.47294309924184441 0 0.33573625410597768 0.47071191077640329 0 0.32245641590876828 0.45710047073305682 0 0.31479002533830769 0.47294309924184441 0 0.3069723578181176 0.44921026163567479 0 0.31479002533830769 0.47294309924184441 0 0.33573625410597768 0.47071191077640329 0 0.33128271396841408 0.5 0 0.34642182508771258 0.48585203466637861 0 0.33573625410597768 0.47071191077640329 0 0.33128271396841408 0.5 0 0.31479002533830769 0.47294309924184441 0 0.33128271396841408 0.5 0 0.30417531744442527 0.5 0 0.31479002533830769 0.47294309924184441 0 0.30417531744442527 0.5 0 0.29074220063683293 0.48758109823480927 0 0.31479002533830769 0.47294309924184441 0 0.29192961584893129 0.47074300911827521 0 0.29074220063683293 0.48758109823480927 0 0.31479002533830769 0.47294309924184441 0 0.29192961584893129 0.47074300911827521 0 0.29192961584893129 0.47074300911827521 0 0.29074220063683293 0.48758109823480927 0 0.27306856363999571 0.4842714594973539 0 0.30417531744442527 0.5 0 0.29074220063683293 0.48758109823480927 0 0.27706792092043642 0.500000000000002 0 0.27706792092043642 0.500000000000002 0 0.27306856363999571 0.4842714594973539 0 0.25513941322049821 0.48355515434954122 0 0.29074220063683293 0.48758109823480927 0 0.27706792092043642 0.500000000000002 0 0.27306856363999571 0.4842714594973539 0 0.27706792092043642 0.500000000000002 0 0.27306856363999571 0.4842714594973539 0 0.29192961584893129 0.47074300911827521 0 0.26906920635955489 0.46854291899470579 0 0.27306856363999571 0.4842714594973539 0 0.25513941322049821 0.48355515434954122 0 0.26906920635955489 0.46854291899470579 0 0.29192961584893129 0.47074300911827521 0 0.27306856363999571 0.4842714594973539 0 0.26906920635955489 0.46854291899470579 0 0.27306856363999571 0.4842714594973539 0 0.26906920635955489 0.46854291899470579 0 0.24508980140621781 0.46623513653650361 0 0.25513941322049821 0.48355515434954122 0 0.26906920635955489 0.46854291899470579 0 0.2479606543192433 0.5 0 0.27706792092043642 0.500000000000002 0 0.25513941322049821 0.48355515434954122 0 0.24508980140621781 0.46623513653650361 0 0.26906920635955489 0.46854291899470579 0 0.24508980140621781 0.46623513653650361 0 0.26234678177835441 0.44210518915783192 0 0.26906920635955489 0.46854291899470579 0 0.29192961584893129 0.47074300911827521 0 0.26906920635955489 0.46854291899470579 0 0.2825318911539082 0.44937975844880462 0 0.26234678177835441 0.44210518915783192 0 0.26906920635955489 0.46854291899470579 0 0.26234678177835441 0.44210518915783192 0 0.26906920635955489 0.46854291899470579 0 0.2825318911539082 0.44937975844880462 0 0.26234678177835441 0.44210518915783192 0 0.2825318911539082 0.44937975844880462 0 0.2735489225425754 0.42398780939214897 0 0.2825318911539082 0.44937975844880462 0 0.3069723578181176 0.44921026163567479 0 0.29424437368670248 0.43173942196487358 0 0.29192961584893129 0.47074300911827521 0 0.2825318911539082 0.44937975844880462 0 0.3069723578181176 0.44921026163567479 0 0.31479002533830769 0.47294309924184441 0 0.29192961584893129 0.47074300911827521 0 0.3069723578181176 0.44921026163567479 0 0.3069723578181176 0.44921026163567479 0 0.30967478190587899 0.43248339293908478 0 0.29424437368670248 0.43173942196487358 0 0.30967478190587899 0.43248339293908478 0 0.3045281829251868 0.41996349248923659 0 0.31949857018790712 0.42234738200601463 0 0.30967478190587899 0.43248339293908478 0 0.3045281829251868 0.41996349248923659 0 0.29424437368670248 0.43173942196487358 0 0.31221380766262308 0.41141105291454111 0 0.3045281829251868 0.41996349248923659 0 0.30175255758949709 0.40539483602959481 0 0.31221380766262308 0.41141105291454111 0 0.3045281829251868 0.41996349248923659 0 0.31949857018790712 0.42234738200601463 0 0.3045281829251868 0.41996349248923659 0 0.29116822628179151 0.41527777958226658 0 0.30175255758949709 0.40539483602959481 0 0.29116822628179151 0.41527777958226658 0 0.2735489225425754 0.42398780939214897 0 0.28009549588900451 0.40671294327225221 0 0.29116822628179151 0.41527777958226658 0 0.29046685710439091 0.40365495696152731 0 0.30175255758949709 0.40539483602959481 0 0.29116822628179151 0.41527777958226658 0 0.28009549588900451 0.40671294327225221 0 0.29046685710439091 0.40365495696152731 0 0.29116822628179151 0.41527777958226658 0 0.29424437368670248 0.43173942196487358 0 0.2735489225425754 0.42398780939214897 0 0.3045281829251868 0.41996349248923659 0 0.29116822628179151 0.41527777958226658 0 0.29424437368670248 0.43173942196487358 0 0.2825318911539082 0.44937975844880462 0 0.29424437368670248 0.43173942196487358 0 0.2735489225425754 0.42398780939214897 0 0.2735489225425754 0.42398780939214897 0 0.28009549588900451 0.40671294327225221 0 0.26594594197715632 0.40587542564026857 0 0.2735489225425754 0.42398780939214897 0 0.25562435719715348 0.41566745932095828 0 0.26594594197715632 0.40587542564026857 0 0.26234678177835441 0.44210518915783192 0 0.25562435719715348 0.41566745932095828 0 0.23929670148200641 0.42651558303428039 0 0.26234678177835441 0.44210518915783192 0 0.25562435719715348 0.41566745932095828 0 0.26234678177835441 0.44210518915783192 0 0.2735489225425754 0.42398780939214897 0 0.25562435719715348 0.41566745932095828 0 0.24890193261595259 0.38922972948408457 0 0.27155900164109531 0.39377918673189899 0 0.26817635423288699 0.37969346344739391 0 0.24890193261595259 0.38922972948408457 0 0.26817635423288699 0.37969346344739391 0 0.26082178769032438 0.36496323128775521 0 0.24890193261595259 0.38922972948408457 0 0.25562435719715348 0.41566745932095828 0 0.24890193261595259 0.38922972948408457 0 0.27155900164109531 0.39377918673189899 0 0.26594594197715632 0.40587542564026857 0 0.24890193261595259 0.38922972948408457 0 0.25562435719715348 0.41566745932095828 0 0.26594594197715632 0.40587542564026857 0 0.28009549588900451 0.40671294327225221 0 0.27155900164109531 0.39377918673189899 0 0.26594594197715632 0.40587542564026857 0 0.28009549588900451 0.40671294327225221 0 0.27155900164109531 0.39377918673189899 0 0.2841626669368148 0.39603484022980262 0 0.27155900164109531 0.39377918673189899 0 0.27917556467927279 0.38707504911542251 0 0.2841626669368148 0.39603484022980262 0 0.27917556467927279 0.38707504911542251 0 0.27737653217987568 0.3763299637903077 0 0.28641533258273322 0.38531457319514678 0 0.27155900164109531 0.39377918673189899 0 0.27917556467927279 0.38707504911542251 0 0.26817635423288699 0.37969346344739391 0 0.26817635423288699 0.37969346344739391 0 0.27737653217987568 0.3763299637903077 0 0.26995518240551242 0.36922466410125959 0 0.27917556467927279 0.38707504911542251 0 0.26817635423288699 0.37969346344739391 0 0.27737653217987568 0.3763299637903077 0 0.27917556467927279 0.38707504911542251 0 0.28749669470930389 0.39059918652862902 0 0.28641533258273322 0.38531457319514678 0 0.28749669470930389 0.39059918652862902 0 0.28641533258273322 0.38531457319514678 0 0.29321390271680048 0.38636149671614523 0 0.28641533258273322 0.38531457319514678 0 0.29321390271680048 0.38636149671614523 0 0.29155132770994241 0.38145409056705559 0 0.28749669470930389 0.39059918652862902 0 0.29321390271680048 0.38636149671614523 0 0.2951553388248469 0.39485438569372039 0 0.29321390271680048 0.38636149671614523 0 0.2951553388248469 0.39485438569372039 0 0.30172663999730548 0.38411556817588999 0 0.2951337916801352 0.37545299726164849 0 0.29155132770994241 0.38145409056705559 0 0.29028041611347422 0.37131190521640561 0 0.29650911823343812 0.38027524721939082 0 0.2951337916801352 0.37545299726164849 0 0.29155132770994241 0.38145409056705559 0 0.29321390271680048 0.38636149671614523 0 0.29650911823343812 0.38027524721939082 0 0.29155132770994241 0.38145409056705559 0 0.28009549588900451 0.40671294327225221 0 0.2841626669368148 0.39603484022980262 0 0.29046685710439091 0.40365495696152731 0 0.27917556467927279 0.38707504911542251 0 0.28749669470930389 0.39059918652862902 0 0.2841626669368148 0.39603484022980262 0 0.28749669470930389 0.39059918652862902 0 0.2841626669368148 0.39603484022980262 0 0.2951553388248469 0.39485438569372039 0 0.2841626669368148 0.39603484022980262 0 0.2951553388248469 0.39485438569372039 0 0.29046685710439091 0.40365495696152731 0 0.2951553388248469 0.39485438569372039 0 0.29046685710439091 0.40365495696152731 0 0.30175255758949709 0.40539483602959481 0 0.2951553388248469 0.39485438569372039 0 0.30416997859767031 0.39496190780794832 0 0.30172663999730548 0.38411556817588999 0 0.2951553388248469 0.39485438569372039 0 0.30175255758949709 0.40539483602959481 0 0.30416997859767031 0.39496190780794832 0 0.30416997859767031 0.39496190780794832 0 0.31194754139156228 0.39992908639018659 0 0.31058504665001713 0.38993607806902841 0 0.31221380766262308 0.41141105291454111 0 0.30175255758949709 0.40539483602959481 0 0.31194754139156228 0.39992908639018659 0 0.30175255758949709 0.40539483602959481 0 0.30416997859767031 0.39496190780794832 0 0.31194754139156228 0.39992908639018659 0 0.29650911823343812 0.38027524721939082 0 0.30172663999730548 0.38411556817588999 0 0.30091992906300691 0.3739920833762147 0 0.30172663999730548 0.38411556817588999 0 0.31077839752677883 0.37658419253607489 0 0.30091992906300691 0.3739920833762147 0 0.29650911823343812 0.38027524721939082 0 0.2951337916801352 0.37545299726164849 0 0.30091992906300691 0.3739920833762147 0 0.29321390271680048 0.38636149671614523 0 0.29650911823343812 0.38027524721939082 0 0.30172663999730548 0.38411556817588999 0 0.30416997859767031 0.39496190780794832 0 0.30172663999730548 0.38411556817588999 0 0.31058504665001713 0.38993607806902841 0 0.30172663999730548 0.38411556817588999 0 0.31058504665001713 0.38993607806902841 0 0.31077839752677883 0.37658419253607489 0 0.31077839752677883 0.37658419253607489 0 0.31867525833463911 0.38494833593070971 0 0.32306703930603953 0.37623237809600169 0 0.31058504665001713 0.38993607806902841 0 0.31867525833463911 0.38494833593070971 0 0.31878199461777879 0.39362573130725731 0 0.31058504665001713 0.38993607806902841 0 0.31077839752677883 0.37658419253607489 0 0.31867525833463911 0.38494833593070971 0 0.31867525833463911 0.38494833593070971 0 0.32306703930603953 0.37623237809600169 0 0.32934203852673438 0.38871677178939867 0 0.31867525833463911 0.38494833593070971 0 0.32934203852673438 0.38871677178939867 0 0.31878199461777879 0.39362573130725731 0 0.32306703930603953 0.37623237809600169 0 0.33555471090824662 0.37714848622012531 0 0.32934203852673438 0.38871677178939867 0 0.33555471090824662 0.37714848622012531 0 0.32934203852673438 0.38871677178939867 0 0.34865402358820241 0.38746960960344728 0 0.32934203852673438 0.38871677178939867 0 0.33838050486014071 0.40132571833470809 0 0.34865402358820241 0.38746960960344728 0 0.32934203852673438 0.38871677178939867 0 0.33838050486014071 0.40132571833470809 0 0.32336008818594092 0.40459838435696299 0 0.32934203852673438 0.38871677178939867 0 0.32336008818594092 0.40459838435696299 0 0.31878199461777879 0.39362573130725731 0 0.31194754139156228 0.39992908639018659 0 0.31058504665001713 0.38993607806902841 0 0.31878199461777879 0.39362573130725731 0 0.31221380766262308 0.41141105291454111 0 0.31194754139156228 0.39992908639018659 0 0.32336008818594092 0.40459838435696299 0 0.31194754139156228 0.39992908639018659 0 0.32336008818594092 0.40459838435696299 0 0.31878199461777879 0.39362573130725731 0 0.31221380766262308 0.41141105291454111 0 0.32336008818594092 0.40459838435696299 0 0.31949857018790712 0.42234738200601463 0 0.32336008818594092 0.40459838435696299 0 0.31949857018790712 0.42234738200601463 0 0.33335541567677851 0.41413927737501682 0 0.32313042491148092 0.43915640659962429 0 0.31949857018790712 0.42234738200601463 0 0.34011375395909899 0.42827966665244982 0 0.32313042491148092 0.43915640659962429 0 0.30967478190587899 0.43248339293908478 0 0.31949857018790712 0.42234738200601463 0 0.31949857018790712 0.42234738200601463 0 0.34011375395909899 0.42827966665244982 0 0.33335541567677851 0.41413927737501682 0 0.34011375395909899 0.42827966665244982 0 0.33335541567677851 0.41413927737501682 0 0.35251535500997389 0.4097633894025835 0 0.33838050486014071 0.40132571833470809 0 0.33335541567677851 0.41413927737501682 0 0.35251535500997389 0.4097633894025835 0 0.33838050486014071 0.40132571833470809 0 0.32336008818594092 0.40459838435696299 0 0.33335541567677851 0.41413927737501682 0 0.34011375395909899 0.42827966665244982 0 0.35251535500997389 0.4097633894025835 0 0.3591301267131588 0.42602683944016839 0 0.3672128213662551 0.44140310366938379 0 0.35041805056504127 0.44039830756831011 0 0.3591301267131588 0.42602683944016839 0 0.35041805056504127 0.44039830756831011 0 0.34011375395909899 0.42827966665244982 0 0.3591301267131588 0.42602683944016839 0 0.3672128213662551 0.44140310366938379 0 0.3591301267131588 0.42602683944016839 0 0.37786999239799629 0.42201923841731348 0 0.3591301267131588 0.42602683944016839 0 0.36674031876838431 0.41287021939491358 0 0.37786999239799629 0.42201923841731348 0 0.35251535500997389 0.4097633894025835 0 0.36674031876838431 0.41287021939491358 0 0.36672310374365391 0.3972274770167053 0 0.36674031876838431 0.41287021939491358 0 0.37714557779446961 0.40580011292323048 0 0.37786999239799629 0.42201923841731348 0 0.35251535500997389 0.4097633894025835 0 0.3591301267131588 0.42602683944016839 0 0.36674031876838431 0.41287021939491358 0 0.36674031876838431 0.41287021939491358 0 0.36672310374365391 0.3972274770167053 0 0.37714557779446961 0.40580011292323048 0 0.36672310374365391 0.3972274770167053 0 0.34865402358820241 0.38746960960344728 0 0.36927583114563117 0.37168826674887129 0 0.36672310374365391 0.3972274770167053 0 0.36927583114563117 0.37168826674887129 0 0.38594138320053972 0.39504117240748449 0 0.34865402358820241 0.38746960960344728 0 0.34769055634412588 0.36745966958429022 0 0.36927583114563117 0.37168826674887129 0 0.33555471090824662 0.37714848622012531 0 0.34865402358820241 0.38746960960344728 0 0.34769055634412588 0.36745966958429022 0 0.35251535500997389 0.4097633894025835 0 0.36672310374365391 0.3972274770167053 0 0.34865402358820241 0.38746960960344728 0 0.33838050486014071 0.40132571833470809 0 0.35251535500997389 0.4097633894025835 0 0.34865402358820241 0.38746960960344728 0 0.35261027909072251 0.34833536109025781 0 0.34769055634412588 0.36745966958429022 0 0.33944519881702218 0.35670643516570921 0 0.35261027909072251 0.34833536109025781 0 0.34769055634412588 0.36745966958429022 0 0.36927583114563117 0.37168826674887129 0 0.35261027909072251 0.34833536109025781 0 0.36927583114563117 0.37168826674887129 0 0.35261027909072251 0.34833536109025781 0 0.36927583114563117 0.37168826674887129 0 0.38014707859742553 0.358601566133181 0 0.35261027909072251 0.34833536109025781 0 0.37418757138316661 0.34003979241565702 0 0.38014707859742553 0.358601566133181 0 0.37418757138316661 0.34003979241565702 0 0.36114413796306788 0.32433110896381118 0 0.38634354889032002 0.32367976249598251 0 0.35261027909072251 0.34833536109025781 0 0.37418757138316661 0.34003979241565702 0 0.36114413796306788 0.32433110896381118 0 0.36114413796306788 0.32433110896381118 0 0.38634354889032002 0.32367976249598251 0 0.36114413796306788 0.32433110896381118 0 0.36246687595182442 0.30494518477727961 0 0.38634354889032002 0.32367976249598251 0 0.36114413796306788 0.32433110896381118 0 0.33594472703581602 0.32498245543164278 0 0.36114413796306788 0.32433110896381118 0 0.33594472703581602 0.32498245543164278 0 0.34448717235649018 0.30756264321984922 0 0.35261027909072251 0.34833536109025781 0 0.36114413796306788 0.32433110896381118 0 0.33594472703581602 0.32498245543164278 0 0.35261027909072251 0.34833536109025781 0 0.33594472703581602 0.32498245543164278 0 0.35261027909072251 0.34833536109025781 0 0.33361265820108371 0.33601463685995558 0 0.33594472703581602 0.32498245543164278 0 0.35261027909072251 0.34833536109025781 0 0.33361265820108371 0.33601463685995558 0 0.33117650937159632 0.34590223044488833 0 0.33361265820108371 0.33601463685995558 0 0.33594472703581602 0.32498245543164278 0 0.32592845192929348 0.32524135296818618 0 0.33361265820108371 0.33601463685995558 0 0.32240332357799001 0.33561178436480271 0 0.33117650937159632 0.34590223044488833 0 0.33594472703581602 0.32498245543164278 0 0.32420479997372442 0.30853167071016102 0 0.33594472703581602 0.32498245543164278 0 0.32592845192929348 0.32524135296818618 0 0.32420479997372442 0.30853167071016102 0 0.33594472703581602 0.32498245543164278 0 0.32420479997372442 0.30853167071016102 0 0.34448717235649018 0.30756264321984922 0 0.33594472703581602 0.32498245543164278 0 0.32592845192929348 0.32524135296818618 0 0.32592845192929348 0.32524135296818618 0 0.31778971146991503 0.31788997842391498 0 0.32420479997372442 0.30853167071016102 0 0.32592845192929348 0.32524135296818618 0 0.31591730865868939 0.32743152395768732 0 0.31778971146991503 0.31788997842391498 0 0.31591730865868939 0.32743152395768732 0 0.31778971146991503 0.31788997842391498 0 0.30920411140212778 0.3196886032463338 0 0.32240332357799001 0.33561178436480271 0 0.31863003654071292 0.34601962911411782 0 0.33117650937159632 0.34590223044488833 0 0.33361265820108371 0.33601463685995558 0 0.32592845192929348 0.32524135296818618 0 0.32240332357799001 0.33561178436480271 0 0.32592845192929348 0.32524135296818618 0 0.31591730865868939 0.32743152395768732 0 0.32240332357799001 0.33561178436480271 0 0.31591730865868939 0.32743152395768732 0 0.32240332357799001 0.33561178436480271 0 0.31164832743931292 0.33689503642828789 0 0.32240332357799001 0.33561178436480271 0 0.31863003654071292 0.34601962911411782 0 0.31164832743931292 0.33689503642828789 0 0.31863003654071292 0.34601962911411782 0 0.30992842843050988 0.3457112388019602 0 0.31164832743931292 0.33689503642828789 0 0.31863003654071292 0.34601962911411782 0 0.30992842843050988 0.3457112388019602 0 0.31160887743439081 0.35478490180041172 0 0.32445766980723489 0.35579424438156659 0 0.31686549990355672 0.36548826773678422 0 0.31160887743439081 0.35478490180041172 0 0.31863003654071292 0.34601962911411782 0 0.32445766980723489 0.35579424438156659 0 0.31160887743439081 0.35478490180041172 0 0.31863003654071292 0.34601962911411782 0 0.32445766980723489 0.35579424438156659 0 0.33117650937159632 0.34590223044488833 0 0.35261027909072251 0.34833536109025781 0 0.33117650937159632 0.34590223044488833 0 0.33944519881702218 0.35670643516570921 0 0.32445766980723489 0.35579424438156659 0 0.33117650937159632 0.34590223044488833 0 0.33944519881702218 0.35670643516570921 0 0.33555471090824662 0.37714848622012531 0 0.34769055634412588 0.36745966958429022 0 0.3290198967761308 0.36586400202748842 0 0.34769055634412588 0.36745966958429022 0 0.33944519881702218 0.35670643516570921 0 0.3290198967761308 0.36586400202748842 0 0.32445766980723489 0.35579424438156659 0 0.33944519881702218 0.35670643516570921 0 0.3290198967761308 0.36586400202748842 0 0.32306703930603953 0.37623237809600169 0 0.33555471090824662 0.37714848622012531 0 0.3290198967761308 0.36586400202748842 0 0.32306703930603953 0.37623237809600169 0 0.3290198967761308 0.36586400202748842 0 0.31686549990355672 0.36548826773678422 0 0.32445766980723489 0.35579424438156659 0 0.3290198967761308 0.36586400202748842 0 0.31686549990355672 0.36548826773678422 0 0.31077839752677883 0.37658419253607489 0 0.32306703930603953 0.37623237809600169 0 0.31686549990355672 0.36548826773678422 0 0.31077839752677883 0.37658419253607489 0 0.30653952356419251 0.36486132392814918 0 0.30091992906300691 0.3739920833762147 0 0.31077839752677883 0.37658419253607489 0 0.31686549990355672 0.36548826773678422 0 0.30653952356419251 0.36486132392814918 0 0.31686549990355672 0.36548826773678422 0 0.30653952356419251 0.36486132392814918 0 0.31160887743439081 0.35478490180041172 0 0.30653952356419251 0.36486132392814918 0 0.29956039950038399 0.36055845947794762 0 0.29968882481084308 0.36620473963642819 0 0.30653952356419251 0.36486132392814918 0 0.29956039950038399 0.36055845947794762 0 0.30450437459886343 0.35739179545954242 0 0.29956039950038399 0.36055845947794762 0 0.29968882481084308 0.36620473963642819 0 0.2946843591870788 0.36349444767638139 0 0.29968882481084308 0.36620473963642819 0 0.30091992906300691 0.3739920833762147 0 0.29515321138997108 0.36891281366618561 0 0.30653952356419251 0.36486132392814918 0 0.29968882481084308 0.36620473963642819 0 0.30091992906300691 0.3739920833762147 0 0.2951337916801352 0.37545299726164849 0 0.30091992906300691 0.3739920833762147 0 0.29515321138997108 0.36891281366618561 0 0.30992842843050988 0.3457112388019602 0 0.31160887743439081 0.35478490180041172 0 0.30300584901730271 0.34938636887413438 0 0.30992842843050988 0.3457112388019602 0 0.30300584901730271 0.34938636887413438 0 0.30284961949963451 0.34180688944884569 0 0.31160887743439081 0.35478490180041172 0 0.30450437459886343 0.35739179545954242 0 0.30300584901730271 0.34938636887413438 0 0.30653952356419251 0.36486132392814918 0 0.31160887743439081 0.35478490180041172 0 0.30450437459886343 0.35739179545954242 0 0.30450437459886343 0.35739179545954242 0 0.29772286606791931 0.35422336501427332 0 0.30300584901730271 0.34938636887413438 0 0.29956039950038399 0.36055845947794762 0 0.30450437459886343 0.35739179545954242 0 0.29772286606791931 0.35422336501427332 0 0.29772286606791931 0.35422336501427332 0 0.30300584901730271 0.34938636887413438 0 0.29508057650716829 0.34607515835053693 0 0.30300584901730271 0.34938636887413438 0 0.29508057650716829 0.34607515835053693 0 0.30284961949963451 0.34180688944884569 0 0.29508057650716829 0.34607515835053693 0 0.29128433478161492 0.3514692197730912 0 0.28696318970460172 0.34507386829548542 0 0.29772286606791931 0.35422336501427332 0 0.29508057650716829 0.34607515835053693 0 0.29128433478161492 0.3514692197730912 0 0.29128433478161492 0.3514692197730912 0 0.29260686737414288 0.35803349489433017 0 0.28831593146678952 0.35482697607295582 0 0.29772286606791931 0.35422336501427332 0 0.29128433478161492 0.3514692197730912 0 0.29260686737414288 0.35803349489433017 0 0.29956039950038399 0.36055845947794762 0 0.29772286606791931 0.35422336501427332 0 0.29260686737414288 0.35803349489433017 0 0.29260686737414288 0.35803349489433017 0 0.28714468874269172 0.35854684035017659 0 0.29097547274489571 0.36086700820637557 0 0.29260686737414288 0.35803349489433017 0 0.28714468874269172 0.35854684035017659 0 0.28831593146678952 0.35482697607295582 0 0.28714468874269172 0.35854684035017659 0 0.28946597567566928 0.3633932499046143 0 0.27836960746308909 0.35599853724874359 0 0.28714468874269172 0.35854684035017659 0 0.28392422607346179 0.35383006020545288 0 0.27836960746308909 0.35599853724874359 0 0.28714468874269172 0.35854684035017659 0 0.28392422607346179 0.35383006020545288 0 0.28831593146678952 0.35482697607295582 0 0.28392422607346179 0.35383006020545288 0 0.28273558166129192 0.34922596943765521 0 0.28101653893848899 0.35208327708388421 0 0.28392422607346179 0.35383006020545288 0 0.28831593146678952 0.35482697607295582 0 0.2863539578433606 0.35136140079780598 0 0.29128433478161492 0.3514692197730912 0 0.28831593146678952 0.35482697607295582 0 0.2863539578433606 0.35136140079780598 0 0.29128433478161492 0.3514692197730912 0 0.2863539578433606 0.35136140079780598 0 0.28696318970460172 0.34507386829548542 0 0.2863539578433606 0.35136140079780598 0 0.28273558166129192 0.34922596943765521 0 0.28696318970460172 0.34507386829548542 0 0.28392422607346179 0.35383006020545288 0 0.2863539578433606 0.35136140079780598 0 0.28273558166129192 0.34922596943765521 0 0.28696318970460172 0.34507386829548542 0 0.28013569367420871 0.34584772387197749 0 0.28119375649751349 0.3415044430455576 0 0.28273558166129192 0.34922596943765521 0 0.28696318970460172 0.34507386829548542 0 0.28013569367420871 0.34584772387197749 0 0.29155132770994241 0.38145409056705559 0 0.29028041611347422 0.37131190521640561 0 0.27836960746308909 0.35599853724874359 0 0.28641533258273322 0.38531457319514678 0 0.29155132770994241 0.38145409056705559 0 0.2754302243437341 0.35800137086985789 0 0.29155132770994241 0.38145409056705559 0 0.2754302243437341 0.35800137086985789 0 0.27836960746308909 0.35599853724874359 0 0.29155132770994241 0.38145409056705559 0 0.27836960746308909 0.35599853724874359 0 0.29028041611347422 0.37131190521640561 0 0.29515321138997108 0.36891281366618561 0 0.28946597567566928 0.3633932499046143 0 0.2951337916801352 0.37545299726164849 0 0.29028041611347422 0.37131190521640561 0 0.29515321138997108 0.36891281366618561 0 0.29968882481084308 0.36620473963642819 0 0.29515321138997108 0.36891281366618561 0 0.2946843591870788 0.36349444767638139 0 0.29515321138997108 0.36891281366618561 0 0.2946843591870788 0.36349444767638139 0 0.28946597567566928 0.3633932499046143 0 0.29956039950038399 0.36055845947794762 0 0.29260686737414288 0.35803349489433017 0 0.2946843591870788 0.36349444767638139 0 0.28714468874269172 0.35854684035017659 0 0.29097547274489571 0.36086700820637557 0 0.28946597567566928 0.3633932499046143 0 0.2946843591870788 0.36349444767638139 0 0.29097547274489571 0.36086700820637557 0 0.28946597567566928 0.3633932499046143 0 0.29260686737414288 0.35803349489433017 0 0.2946843591870788 0.36349444767638139 0 0.29097547274489571 0.36086700820637557 0 0.29028041611347422 0.37131190521640561 0 0.28946597567566928 0.3633932499046143 0 0.27836960746308909 0.35599853724874359 0 0.28641533258273322 0.38531457319514678 0 0.2754302243437341 0.35800137086985789 0 0.27737653217987568 0.3763299637903077 0 0.28641533258273322 0.38531457319514678 0 0.2754302243437341 0.35800137086985789 0 0.27737653217987568 0.3763299637903077 0 0.27292546410526491 0.36629585246079138 0 0.2754302243437341 0.35800137086985789 0 0.27737653217987568 0.3763299637903077 0 0.26995518240551242 0.36922466410125959 0 0.27292546410526491 0.36629585246079138 0 0.26817635423288699 0.37969346344739391 0 0.26995518240551242 0.36922466410125959 0 0.26082178769032438 0.36496323128775521 0 0.26995518240551242 0.36922466410125959 0 0.26893991749193752 0.36162741108174062 0 0.26082178769032438 0.36496323128775521 0 0.26893991749193752 0.36162741108174062 0 0.27292546410526491 0.36629585246079138 0 0.2754302243437341 0.35800137086985789 0 0.26995518240551242 0.36922466410125959 0 0.26893991749193752 0.36162741108174062 0 0.27292546410526491 0.36629585246079138 0 0.2754302243437341 0.35800137086985789 0 0.26518788721623437 0.33054298393043219 0 0.2754302243437341 0.35800137086985789 0 0.27836960746308909 0.35599853724874359 0 0.26518788721623437 0.33054298393043219 0 0.2754302243437341 0.35800137086985789 0 0.26469999689944002 0.35285812485780471 0 0.26518788721623437 0.33054298393043219 0 0.27836960746308909 0.35599853724874359 0 0.28101653893848899 0.35208327708388421 0 0.2797945401242129 0.34946851842389731 0 0.28392422607346179 0.35383006020545288 0 0.27836960746308909 0.35599853724874359 0 0.28101653893848899 0.35208327708388421 0 0.27836960746308909 0.35599853724874359 0 0.2797945401242129 0.34946851842389731 0 0.27671527888398562 0.3441870844772259 0 0.28013569367420871 0.34584772387197749 0 0.2797945401242129 0.34946851842389731 0 0.27671527888398562 0.3441870844772259 0 0.28013569367420871 0.34584772387197749 0 0.27671527888398562 0.3441870844772259 0 0.28119375649751349 0.3415044430455576 0 0.28273558166129192 0.34922596943765521 0 0.28013569367420871 0.34584772387197749 0 0.2797945401242129 0.34946851842389731 0 0.28273558166129192 0.34922596943765521 0 0.28101653893848899 0.35208327708388421 0 0.2797945401242129 0.34946851842389731 0 0.26893991749193752 0.36162741108174062 0 0.2754302243437341 0.35800137086985789 0 0.26469999689944002 0.35285812485780471 0 0.26469999689944002 0.35285812485780471 0 0.25397109136889212 0.34953950795812871 0 0.26518788721623437 0.33054298393043219 0 0.26469999689944002 0.35285812485780471 0 0.25397109136889212 0.34953950795812871 0 0.26082178769032438 0.36496323128775521 0 0.24217950803475169 0.36279199964721098 0 0.25397109136889212 0.34953950795812871 0 0.26082178769032438 0.36496323128775521 0 0.24217950803475169 0.36279199964721098 0 0.24890193261595259 0.38922972948408457 0 0.26082178769032438 0.36496323128775521 0 0.26893991749193752 0.36162741108174062 0 0.26469999689944002 0.35285812485780471 0 0.26082178769032438 0.36496323128775521 0 0.26160037477145948 0.32361504792451118 0 0.26961523156275707 0.31863310602586059 0 0.25252005129033422 0.30103787280496203 0 0.24833100513142109 0.32161764704062729 0 0.26160037477145948 0.32361504792451118 0 0.26518788721623437 0.33054298393043219 0 0.24963775202771521 0.30051372462394288 0 0.24833100513142109 0.32161764704062729 0 0.26160037477145948 0.32361504792451118 0 0.26160037477145948 0.32361504792451118 0 0.26518788721623437 0.33054298393043219 0 0.26731122343739822 0.32545953491366858 0 0.26160037477145948 0.32361504792451118 0 0.26518788721623437 0.33054298393043219 0 0.2354570834535519 0.33635426981033711 0 0.26518788721623437 0.33054298393043219 0 0.2354570834535519 0.33635426981033711 0 0.25397109136889212 0.34953950795812871 0 0.26518788721623437 0.33054298393043219 0 0.27836960746308909 0.35599853724874359 0 0.27671527888398562 0.3441870844772259 0 0.26518788721623437 0.33054298393043219 0 0.26518788721623437 0.33054298393043219 0 0.2728414001991406 0.32904700177387047 0 0.26518788721623437 0.33054298393043219 0 0.2728414001991406 0.32904700177387047 0 0.26731122343739822 0.32545953491366858 0 0.27836960746308909 0.35599853724874359 0 0.26518788721623437 0.33054298393043219 0 0.26518788721623437 0.33054298393043219 0 0.2728414001991406 0.32904700177387047 0 0.27786043041236869 0.33471626715991409 0 0.27671527888398562 0.3441870844772259 0 0.26518788721623437 0.33054298393043219 0 0.27786043041236869 0.33471626715991409 0 0.27671527888398562 0.3441870844772259 0 0.28119375649751349 0.3415044430455576 0 0.27786043041236869 0.33471626715991409 0 0.2728414001991406 0.32904700177387047 0 0.27786043041236869 0.33471626715991409 0 0.27936204924768121 0.32498307102898349 0 0.27786043041236869 0.33471626715991409 0 0.27936204924768121 0.32498307102898349 0 0.28525590824973168 0.33019860290154568 0 0.2728414001991406 0.32904700177387047 0 0.27936204924768121 0.32498307102898349 0 0.26961523156275707 0.31863310602586059 0 0.2728414001991406 0.32904700177387047 0 0.26731122343739822 0.32545953491366858 0 0.26961523156275707 0.31863310602586059 0 0.26160037477145948 0.32361504792451118 0 0.26731122343739822 0.32545953491366858 0 0.26961523156275707 0.31863310602586059 0 0.27936204924768121 0.32498307102898349 0 0.26961523156275707 0.31863310602586059 0 0.28133089707177739 0.31565660162935461 0 0.26961523156275707 0.31863310602586059 0 0.28133089707177739 0.31565660162935461 0 0.27162220014601168 0.30819847959926649 0 0.28133089707177739 0.31565660162935461 0 0.28926842799031183 0.32164684668335553 0 0.29289622389348391 0.31173450207074938 0 0.27936204924768121 0.32498307102898349 0 0.28926842799031183 0.32164684668335553 0 0.28525590824973168 0.33019860290154568 0 0.27936204924768121 0.32498307102898349 0 0.28133089707177739 0.31565660162935461 0 0.28926842799031183 0.32164684668335553 0 0.28926842799031183 0.32164684668335553 0 0.29270679870612148 0.33133919612790758 0 0.29864702146159328 0.32643954785611667 0 0.28926842799031183 0.32164684668335553 0 0.28525590824973168 0.33019860290154568 0 0.29270679870612148 0.33133919612790758 0 0.28926842799031183 0.32164684668335553 0 0.30057412006284873 0.3182848580649148 0 0.29864702146159328 0.32643954785611667 0 0.28926842799031183 0.32164684668335553 0 0.30057412006284873 0.3182848580649148 0 0.29289622389348391 0.31173450207074938 0 0.28696318970460172 0.34507386829548542 0 0.28119375649751349 0.3415044430455576 0 0.28563489893157912 0.33697664508827291 0 0.28696318970460172 0.34507386829548542 0 0.28563489893157912 0.33697664508827291 0 0.29440715639490739 0.33866623850310912 0 0.28119375649751349 0.3415044430455576 0 0.27786043041236869 0.33471626715991409 0 0.28563489893157912 0.33697664508827291 0 0.28563489893157912 0.33697664508827291 0 0.28525590824973168 0.33019860290154568 0 0.29270679870612148 0.33133919612790758 0 0.27786043041236869 0.33471626715991409 0 0.28563489893157912 0.33697664508827291 0 0.28525590824973168 0.33019860290154568 0 0.29270679870612148 0.33133919612790758 0 0.29440715639490739 0.33866623850310912 0 0.30302737920860612 0.33410729573504611 0 0.28563489893157912 0.33697664508827291 0 0.29270679870612148 0.33133919612790758 0 0.29440715639490739 0.33866623850310912 0 0.29508057650716829 0.34607515835053693 0 0.28696318970460172 0.34507386829548542 0 0.29440715639490739 0.33866623850310912 0 0.29508057650716829 0.34607515835053693 0 0.29440715639490739 0.33866623850310912 0 0.30284961949963451 0.34180688944884569 0 0.29440715639490739 0.33866623850310912 0 0.30284961949963451 0.34180688944884569 0 0.30302737920860612 0.33410729573504611 0 0.29270679870612148 0.33133919612790758 0 0.30302737920860612 0.33410729573504611 0 0.29864702146159328 0.32643954785611667 0 0.30302737920860612 0.33410729573504611 0 0.29864702146159328 0.32643954785611667 0 0.30648676239126638 0.32698903389663531 0 0.30302737920860612 0.33410729573504611 0 0.31164832743931292 0.33689503642828789 0 0.30648676239126638 0.32698903389663531 0 0.31591730865868939 0.32743152395768732 0 0.31164832743931292 0.33689503642828789 0 0.30648676239126638 0.32698903389663531 0 0.30284961949963451 0.34180688944884569 0 0.30302737920860612 0.33410729573504611 0 0.31164832743931292 0.33689503642828789 0 0.30992842843050988 0.3457112388019602 0 0.30284961949963451 0.34180688944884569 0 0.31164832743931292 0.33689503642828789 0 0.30057412006284873 0.3182848580649148 0 0.3075048900192453 0.30846754722968978 0 0.29289622389348391 0.31173450207074938 0 0.30057412006284873 0.3182848580649148 0 0.29864702146159328 0.32643954785611667 0 0.30648676239126638 0.32698903389663531 0 0.30057412006284873 0.3182848580649148 0 0.30648676239126638 0.32698903389663531 0 0.30920411140212778 0.3196886032463338 0 0.31591730865868939 0.32743152395768732 0 0.30648676239126638 0.32698903389663531 0 0.30920411140212778 0.3196886032463338 0 0.30057412006284873 0.3182848580649148 0 0.30920411140212778 0.3196886032463338 0 0.3075048900192453 0.30846754722968978 0 0.31778971146991503 0.31788997842391498 0 0.30920411140212778 0.3196886032463338 0 0.3075048900192453 0.30846754722968978 0 0.3075048900192453 0.30846754722968978 0 0.29694347339530303 0.29848366127231912 0 0.31246487291163488 0.29208088598867771 0 0.3075048900192453 0.30846754722968978 0 0.29694347339530303 0.29848366127231912 0 0.29289622389348391 0.31173450207074938 0 0.31246487291163488 0.29208088598867771 0 0.29888580149873889 0.28140566667868477 0 0.31966717048778492 0.28020807462702291 0 0.29694347339530303 0.29848366127231912 0 0.31246487291163488 0.29208088598867771 0 0.29888580149873889 0.28140566667868477 0 0.29694347339530303 0.29848366127231912 0 0.29888580149873889 0.28140566667868477 0 0.28532215262680061 0.29218967158653381 0 0.29888580149873889 0.28140566667868477 0 0.28532215262680061 0.29218967158653381 0 0.27597263544757811 0.27926985653850322 0 0.29694347339530303 0.29848366127231912 0 0.29289622389348391 0.31173450207074938 0 0.28421062956037713 0.3046253325656294 0 0.29694347339530303 0.29848366127231912 0 0.28532215262680061 0.29218967158653381 0 0.28421062956037713 0.3046253325656294 0 0.28133089707177739 0.31565660162935461 0 0.29289622389348391 0.31173450207074938 0 0.28421062956037713 0.3046253325656294 0 0.28133089707177739 0.31565660162935461 0 0.28421062956037713 0.3046253325656294 0 0.27162220014601168 0.30819847959926649 0 0.28421062956037713 0.3046253325656294 0 0.27162220014601168 0.30819847959926649 0 0.27073357959762612 0.29469717476731772 0 0.28532215262680061 0.29218967158653381 0 0.28421062956037713 0.3046253325656294 0 0.27073357959762612 0.29469717476731772 0 0.27073357959762612 0.29469717476731772 0 0.25964825064670849 0.2811944406245902 0 0.27597263544757811 0.27926985653850322 0 0.28532215262680061 0.29218967158653381 0 0.27073357959762612 0.29469717476731772 0 0.27597263544757811 0.27926985653850322 0 0.2434397278092077 0.27846069768541332 0 0.25252005129033422 0.30103787280496203 0 0.25964825064670849 0.2811944406245902 0 0.27073357959762612 0.29469717476731772 0 0.25252005129033422 0.30103787280496203 0 0.25964825064670849 0.2811944406245902 0 0.24963775202771521 0.30051372462394288 0 0.26160037477145948 0.32361504792451118 0 0.26160037477145948 0.32361504792451118 0 0.25252005129033422 0.30103787280496203 0 0.24963775202771521 0.30051372462394288 0 0.26160037477145948 0.32361504792451118 0 0.25252005129033422 0.30103787280496203 0 0.27162220014601168 0.30819847959926649 0 0.27073357959762612 0.29469717476731772 0 0.25252005129033422 0.30103787280496203 0 0.26961523156275707 0.31863310602586059 0 0.27162220014601168 0.30819847959926649 0 0.25252005129033422 0.30103787280496203 0 0.26005695654466249 0.26476207857526007 0 0.25877170878786238 0.25302463852503437 0 0.26784118605052742 0.25766384122118591 0 0.26005695654466249 0.26476207857526007 0 0.26877199542094288 0.271185286046489 0 0.26784118605052742 0.25766384122118591 0 0.24763005152173001 0.25910176257370959 0 0.26005695654466249 0.26476207857526007 0 0.25877170878786238 0.25302463852503437 0 0.26005695654466249 0.26476207857526007 0 0.25964825064670849 0.2811944406245902 0 0.26877199542094288 0.271185286046489 0 0.2434397278092077 0.27846069768541332 0 0.26005695654466249 0.26476207857526007 0 0.25964825064670849 0.2811944406245902 0 0.2434397278092077 0.27846069768541332 0 0.24763005152173001 0.25910176257370959 0 0.26005695654466249 0.26476207857526007 0 0.25964825064670849 0.2811944406245902 0 0.26877199542094288 0.271185286046489 0 0.27597263544757811 0.27926985653850322 0 0.26877199542094288 0.271185286046489 0 0.27597263544757811 0.27926985653850322 0 0.27647749418933931 0.26389562134405542 0 0.27597263544757811 0.27926985653850322 0 0.27647749418933931 0.26389562134405542 0 0.28921799240021828 0.26815650339571012 0 0.27647749418933931 0.26389562134405542 0 0.27542464597538868 0.25681776053554017 0 0.28272693040926428 0.25881526167589219 0 0.27647749418933931 0.26389562134405542 0 0.26784118605052742 0.25766384122118591 0 0.27542464597538868 0.25681776053554017 0 0.26877199542094288 0.271185286046489 0 0.27647749418933931 0.26389562134405542 0 0.26784118605052742 0.25766384122118591 0 0.26784118605052742 0.25766384122118591 0 0.27542464597538868 0.25681776053554017 0 0.27283394916361492 0.24742619336605559 0 0.25877170878786238 0.25302463852503437 0 0.26784118605052742 0.25766384122118591 0 0.27283394916361492 0.24742619336605559 0 0.27542464597538868 0.25681776053554017 0 0.28272693040926428 0.25881526167589219 0 0.27283394916361492 0.24742619336605559 0 0.28272693040926428 0.25881526167589219 0 0.29968057031776052 0.25778022973809978 0 0.27283394916361492 0.24742619336605559 0 0.28272693040926428 0.25881526167589219 0 0.28921799240021828 0.26815650339571012 0 0.29968057031776052 0.25778022973809978 0 0.29968057031776052 0.25778022973809978 0 0.27283394916361492 0.24742619336605559 0 0.29968057031776052 0.25778022973809978 0 0.27283394916361492 0.24742619336605559 0 0.3016365876598241 0.24719201463661561 0 0.27647749418933931 0.26389562134405542 0 0.28272693040926428 0.25881526167589219 0 0.28921799240021828 0.26815650339571012 0 0.28921799240021828 0.26815650339571012 0 0.29917140266547992 0.2696271248040239 0 0.29968057031776052 0.25778022973809978 0 0.29888580149873889 0.28140566667868477 0 0.27597263544757811 0.27926985653850322 0 0.28921799240021828 0.26815650339571012 0 0.29888580149873889 0.28140566667868477 0 0.28921799240021828 0.26815650339571012 0 0.29917140266547992 0.2696271248040239 0 0.30890124644520212 0.27116609940360098 0 0.29968057031776052 0.25778022973809978 0 0.32652719147190618 0.26813426611014402 0 0.29888580149873889 0.28140566667868477 0 0.30890124644520212 0.27116609940360098 0 0.31966717048778492 0.28020807462702291 0 0.29888580149873889 0.28140566667868477 0 0.29917140266547992 0.2696271248040239 0 0.30890124644520212 0.27116609940360098 0 0.29917140266547992 0.2696271248040239 0 0.30890124644520212 0.27116609940360098 0 0.29968057031776052 0.25778022973809978 0 0.29968057031776052 0.25778022973809978 0 0.31432639173362298 0.2563396134856944 0 0.3016365876598241 0.24719201463661561 0 0.29968057031776052 0.25778022973809978 0 0.32652719147190618 0.26813426611014402 0 0.29968057031776052 0.25778022973809978 0 0.31432639173362298 0.2563396134856944 0 0.32652719147190618 0.26813426611014402 0 0.31432639173362298 0.2563396134856944 0 0.32946121748500129 0.25225194345791829 0 0.3016365876598241 0.24719201463661561 0 0.31432639173362298 0.2563396134856944 0 0.32946121748500129 0.25225194345791829 0 0.32652719147190618 0.26813426611014402 0 0.32946121748500129 0.25225194345791829 0 0.35728584731017871 0.25731187227922109 0 0.32946121748500129 0.25225194345791829 0 0.33854302537622011 0.27351786473126699 0 0.35728584731017871 0.25731187227922109 0 0.32946121748500129 0.25225194345791829 0 0.33854302537622011 0.27351786473126699 0 0.32652719147190618 0.26813426611014402 0 0.33854302537622011 0.27351786473126699 0 0.32652719147190618 0.26813426611014402 0 0.31966717048778492 0.28020807462702291 0 0.30890124644520212 0.27116609940360098 0 0.32652719147190618 0.26813426611014402 0 0.31966717048778492 0.28020807462702291 0 0.31246487291163488 0.29208088598867771 0 0.31966717048778492 0.28020807462702291 0 0.33172871425663403 0.29269405324557379 0 0.31778971146991503 0.31788997842391498 0 0.3075048900192453 0.30846754722968978 0 0.32420479997372442 0.30853167071016102 0 0.31246487291163488 0.29208088598867771 0 0.32420479997372442 0.30853167071016102 0 0.31246487291163488 0.29208088598867771 0 0.32420479997372442 0.30853167071016102 0 0.33172871425663403 0.29269405324557379 0 0.3075048900192453 0.30846754722968978 0 0.31246487291163488 0.29208088598867771 0 0.32420479997372442 0.30853167071016102 0 0.32420479997372442 0.30853167071016102 0 0.33172871425663403 0.29269405324557379 0 0.34448717235649018 0.30756264321984922 0 0.33854302537622011 0.27351786473126699 0 0.31966717048778492 0.28020807462702291 0 0.33172871425663403 0.29269405324557379 0 0.33172871425663403 0.29269405324557379 0 0.3503635169770366 0.28966006865463678 0 0.34448717235649018 0.30756264321984922 0 0.33854302537622011 0.27351786473126699 0 0.33172871425663403 0.29269405324557379 0 0.3503635169770366 0.28966006865463678 0 0.3503635169770366 0.28966006865463678 0 0.34448717235649018 0.30756264321984922 0 0.36246687595182442 0.30494518477727961 0 0.36114413796306788 0.32433110896381118 0 0.34448717235649018 0.30756264321984922 0 0.36246687595182442 0.30494518477727961 0 0.36246687595182442 0.30494518477727961 0 0.37008896088821891 0.27907488192658342 0 0.38127772340545701 0.29855436992749679 0 0.3503635169770366 0.28966006865463678 0 0.36246687595182442 0.30494518477727961 0 0.37008896088821891 0.27907488192658342 0 0.37008896088821891 0.27907488192658342 0 0.35728584731017871 0.25731187227922109 0 0.35441181453934328 0.27463334472066592 0 0.37008896088821891 0.27907488192658342 0 0.35728584731017871 0.25731187227922109 0 0.38511047713535562 0.2623718011005241 0 0.35728584731017871 0.25731187227922109 0 0.38511047713535562 0.2623718011005241 0 0.37293454716760283 0.2396311516560117 0 0.35728584731017871 0.25731187227922109 0 0.38511047713535562 0.2623718011005241 0 0.33854302537622011 0.27351786473126699 0 0.3503635169770366 0.28966006865463678 0 0.35441181453934328 0.27463334472066592 0 0.33854302537622011 0.27351786473126699 0 0.35728584731017871 0.25731187227922109 0 0.35441181453934328 0.27463334472066592 0 0.3503635169770366 0.28966006865463678 0 0.37008896088821891 0.27907488192658342 0 0.35441181453934328 0.27463334472066592 0 0.4059739891301799 0.26616584566893298 0 0.38511047713535562 0.2623718011005241 0 0.39575362435311728 0.2822497143692822 0 0.4059739891301799 0.26616584566893298 0 0.39575362435311728 0.2822497143692822 0 0.41466985898722469 0.28617745239982811 0 0.4059739891301799 0.26616584566893298 0 0.38511047713535562 0.2623718011005241 0 0.39933451681408499 0.24222051247515669 0 0.4059739891301799 0.26616584566893298 0 0.38511047713535562 0.2623718011005241 0 0.38511047713535562 0.2623718011005241 0 0.37293454716760283 0.2396311516560117 0 0.37008896088821891 0.27907488192658342 0 0.38511047713535562 0.2623718011005241 0 0.39575362435311728 0.2822497143692822 0 0.38511047713535562 0.2623718011005241 0 0.39575362435311728 0.2822497143692822 0 0.37008896088821891 0.27907488192658342 0 0.38127772340545701 0.29855436992749679 0 0.39575362435311728 0.2822497143692822 0 0.38127772340545701 0.29855436992749679 0 0.39341545683502421 0.31015448597301559 0 0.38634354889032002 0.32367976249598251 0 0.38127772340545701 0.29855436992749679 0 0.38634354889032002 0.32367976249598251 0 0.36246687595182442 0.30494518477727961 0 0.38127772340545701 0.29855436992749679 0 0.38634354889032002 0.32367976249598251 0 0.38127772340545701 0.29855436992749679 0 0.39341545683502421 0.31015448597301559 0 0.40639677157087911 0.30212762763804019 0 0.39341545683502421 0.31015448597301559 0 0.40639677157087911 0.30212762763804019 0 0.4081981699382346 0.3139513768470385 0 0.39575362435311728 0.2822497143692822 0 0.40639677157087911 0.30212762763804019 0 0.38127772340545701 0.29855436992749679 0 0.39575362435311728 0.2822497143692822 0 0.40639677157087911 0.30212762763804019 0 0.39575362435311728 0.2822497143692822 0 0.41466985898722469 0.28617745239982811 0 0.40639677157087911 0.30212762763804019 0 0.41466985898722469 0.28617745239982811 0 0.40639677157087911 0.30212762763804019 0 0.42063747895650733 0.30228076741981708 0 0.40639677157087911 0.30212762763804019 0 0.417039918788641 0.32200554090679828 0 0.40639677157087911 0.30212762763804019 0 0.42063747895650733 0.30228076741981708 0 0.41590325438833858 0.31571238371771643 0 0.42063747895650733 0.30228076741981708 0 0.43554340190627211 0.31006971119553528 0 0.43241978878766019 0.29428086906555412 0 0.42063747895650733 0.30228076741981708 0 0.43554340190627211 0.31006971119553528 0 0.41590325438833858 0.31571238371771643 0 0.43241978878766019 0.29428086906555412 0 0.42683750112500368 0.26995989023734401 0 0.43795337608323548 0.28151673092589807 0 0.41466985898722469 0.28617745239982811 0 0.43241978878766019 0.29428086906555412 0 0.42683750112500368 0.26995989023734401 0 0.43241978878766019 0.29428086906555412 0 0.42683750112500368 0.26995989023734401 0 0.41466985898722469 0.28617745239982811 0 0.42063747895650733 0.30228076741981708 0 0.43241978878766019 0.29428086906555412 0 0.4059739891301799 0.26616584566893298 0 0.42683750112500368 0.26995989023734401 0 0.4059739891301799 0.26616584566893298 0 0.41466985898722469 0.28617745239982811 0 0.42683750112500368 0.26995989023734401 0 0.4059739891301799 0.26616584566893298 0 0.42683750112500368 0.26995989023734401 0 0.42092918023873821 0.24421844589255121 0 0.4059739891301799 0.26616584566893298 0 0.39933451681408499 0.24222051247515669 0 0.42092918023873821 0.24421844589255121 0 0.42683750112500368 0.26995989023734401 0 0.44089414042045799 0.25771217685885472 0 0.42092918023873821 0.24421844589255121 0 0.42683750112500368 0.26995989023734401 0 0.42092918023873821 0.24421844589255121 0 0.44089414042045799 0.25771217685885472 0 0.45301423403414209 0.26007999789895508 0 0.4569230610569987 0.24819013429900669 0 0.44089414042045799 0.25771217685885472 0 0.45301423403414209 0.26007999789895508 0 0.44973892600361531 0.27412453072026172 0 0.42683750112500368 0.26995989023734401 0 0.44089414042045799 0.25771217685885472 0 0.44973892600361531 0.27412453072026172 0 0.42683750112500368 0.26995989023734401 0 0.44973892600361531 0.27412453072026172 0 0.43795337608323548 0.28151673092589807 0 0.42683750112500368 0.26995989023734401 0 0.44973892600361531 0.27412453072026172 0 0.44973892600361531 0.27412453072026172 0 0.46478170596961249 0.26323965275109401 0 0.47264035088222628 0.27828917120318131 0 0.44973892600361531 0.27412453072026172 0 0.47264035088222628 0.27828917120318131 0 0.44973892600361531 0.27412453072026172 0 0.47264035088222628 0.27828917120318131 0 0.46226850420995219 0.28814127863090738 0 0.45301423403414209 0.26007999789895508 0 0.44973892600361531 0.27412453072026172 0 0.46478170596961249 0.26323965275109401 0 0.46478170596961249 0.26323965275109401 0 0.47264035088222628 0.27828917120318131 0 0.46478170596961249 0.26323965275109401 0 0.4569230610569987 0.24819013429900669 0 0.45301423403414209 0.26007999789895508 0 0.46478170596961249 0.26323965275109401 0 0.4569230610569987 0.24819013429900669 0 0.46478170596961249 0.26323965275109401 0 0.46750550623703407 0.25349570762290419 0 0.47341939214644252 0.26170481890296848 0 0.46478170596961249 0.26323965275109401 0 0.46750550623703407 0.25349570762290419 0 0.4569230610569987 0.24819013429900669 0 0.47341939214644252 0.26170481890296848 0 0.48489893488970792 0.25686202981026901 0 0.47278153852907701 0.24486280325581439 0 0.46750550623703407 0.25349570762290419 0 0.47341939214644252 0.26170481890296848 0 0.47278153852907701 0.24486280325581439 0 0.47341939214644252 0.26170481890296848 0 0.47278153852907701 0.24486280325581439 0 0.47341939214644252 0.26170481890296848 0 0.48000757765913032 0.26759533659828072 0 0.48489893488970792 0.25686202981026901 0 0.47341939214644252 0.26170481890296848 0 0.47405724576380859 0.27854683455012252 0 0.48000757765913032 0.26759533659828072 0 0.47341939214644252 0.26170481890296848 0 0.47264035088222628 0.27828917120318131 0 0.47405724576380859 0.27854683455012252 0 0.46478170596961249 0.26323965275109401 0 0.47341939214644252 0.26170481890296848 0 0.47264035088222628 0.27828917120318131 0 0.47405724576380859 0.27854683455012252 0 0.47415752390174082 0.28119459874267072 0 0.50000000000001354 0.28326454295050368 0 0.47341939214644252 0.26170481890296848 0 0.47405724576380859 0.27854683455012252 0 0.47264035088222628 0.27828917120318131 0 0.47405724576380859 0.27854683455012252 0 0.47405724576380859 0.27854683455012252 0 0.47415752390174082 0.28119459874267072 0 0.47264035088222628 0.27828917120318131 0 0.47405724576380859 0.27854683455012252 0 0.47415752390174082 0.28119459874267072 0 0.47264035088222628 0.27828917120318131 0 0.47415752390174082 0.28119459874267072 0 0.47405724576380859 0.27854683455012252 0 0.48000757765913032 0.26759533659828072 0 0.48909471086131839 0.26954423778064313 0 0.47405724576380859 0.27854683455012252 0 0.50000000000001354 0.28326454295050368 0 0.47405724576380859 0.27854683455012252 0 0.48909471086131839 0.26954423778064313 0 0.50000000000001354 0.28326454295050368 0 0.48909471086131839 0.26954423778064313 0 0.5 0.25553121794514477 0 0.50000000000001354 0.28326454295050368 0 0.5 0.25553121794514477 0 0.48489893488970792 0.25686202981026901 0 0.48903365503734891 0.24299047468837701 0 0.48909471086131839 0.26954423778064313 0 0.5 0.25553121794514477 0 0.48489893488970792 0.25686202981026901 0 0.48000757765913032 0.26759533659828072 0 0.48909471086131839 0.26954423778064313 0 0.48489893488970792 0.25686202981026901 0 0.48223131843763373 0.29665613456690521 0 0.49274985611107969 0.31679941989990179 0 0.48223131843763373 0.29665613456690521 0 0.49274985611107969 0.31679941989990179 0 0.48532411314893581 0.31403081790115361 0 0.49298554246438231 0.30475618362627349 0 0.48223131843763373 0.29665613456690521 0 0.49274985611107969 0.31679941989990179 0 0.49298554246438231 0.30475618362627349 0 0.4969609953088156 0.2924242547978898 0 0.5 0.31314492524039728 0 0.49298554246438231 0.30475618362627349 0 0.4969609953088156 0.2924242547978898 0 0.48223131843763373 0.29665613456690521 0 0.49298554246438231 0.30475618362627349 0 0.49274985611107969 0.31679941989990179 0 0.5 0.31314492524039728 0 0.4969609953088156 0.2924242547978898 0 0.50000000000001354 0.28326454295050368 0 0.5 0.31314492524039728 0 0.47415752390174082 0.28119459874267072 0 0.4969609953088156 0.2924242547978898 0 0.50000000000001354 0.28326454295050368 0 0.47415752390174082 0.28119459874267072 0 0.4969609953088156 0.2924242547978898 0 0.48223131843763373 0.29665613456690521 0 0.4969609953088156 0.2924242547978898 0 0.48223131843763373 0.29665613456690521 0 0.47415752390174082 0.28119459874267072 0 0.47482369694213911 0.29878436615117387 0 0.47415752390174082 0.28119459874267072 0 0.47482369694213911 0.29878436615117387 0 0.46226850420995219 0.28814127863090738 0 0.47415752390174082 0.28119459874267072 0 0.48223131843763373 0.29665613456690521 0 0.47482369694213911 0.29878436615117387 0 0.47415752390174082 0.28119459874267072 0 0.48223131843763373 0.29665613456690521 0 0.47264035088222628 0.27828917120318131 0 0.47415752390174082 0.28119459874267072 0 0.46226850420995219 0.28814127863090738 0 0.48223131843763373 0.29665613456690521 0 0.48022688714188239 0.30485617861310249 0 0.48532411314893581 0.31403081790115361 0 0.47482369694213911 0.29878436615117387 0 0.4785284200388214 0.30995339583317788 0 0.47567910166728178 0.32137064515506791 0 0.47482369694213911 0.29878436615117387 0 0.46683928615616721 0.31034493157342358 0 0.47567910166728178 0.32137064515506791 0 0.47482369694213911 0.29878436615117387 0 0.47567910166728178 0.32137064515506791 0 0.47482369694213911 0.29878436615117387 0 0.48022688714188239 0.30485617861310249 0 0.4785284200388214 0.30995339583317788 0 0.48223131843763373 0.29665613456690521 0 0.47482369694213911 0.29878436615117387 0 0.48022688714188239 0.30485617861310249 0 0.48223131843763373 0.29665613456690521 0 0.47482369694213911 0.29878436615117387 0 0.48022688714188239 0.30485617861310249 0 0.4785284200388214 0.30995339583317788 0 0.48532411314893581 0.31403081790115361 0 0.47482369694213911 0.29878436615117387 0 0.46683928615616721 0.31034493157342358 0 0.45518354942420552 0.3044270386733543 0 0.47482369694213911 0.29878436615117387 0 0.45518354942420552 0.3044270386733543 0 0.46683928615616721 0.31034493157342358 0 0.45518354942420552 0.3044270386733543 0 0.46090063033065398 0.31457074158430443 0 0.47482369694213911 0.29878436615117387 0 0.45518354942420552 0.3044270386733543 0 0.46226850420995219 0.28814127863090738 0 0.45518354942420552 0.3044270386733543 0 0.46226850420995219 0.28814127863090738 0 0.44650245416143669 0.29205179777212908 0 0.44973892600361531 0.27412453072026172 0 0.46226850420995219 0.28814127863090738 0 0.44650245416143669 0.29205179777212908 0 0.44973892600361531 0.27412453072026172 0 0.44650245416143669 0.29205179777212908 0 0.43795337608323548 0.28151673092589807 0 0.43241978878766019 0.29428086906555412 0 0.44650245416143669 0.29205179777212908 0 0.43795337608323548 0.28151673092589807 0 0.43554340190627211 0.31006971119553528 0 0.45518354942420552 0.3044270386733543 0 0.44650245416143669 0.29205179777212908 0 0.43554340190627211 0.31006971119553528 0 0.43241978878766019 0.29428086906555412 0 0.44650245416143669 0.29205179777212908 0 0.43554340190627211 0.31006971119553528 0 0.45518354942420552 0.3044270386733543 0 0.44590058407496119 0.32214035093537202 0 0.43554340190627211 0.31006971119553528 0 0.45518354942420552 0.3044270386733543 0 0.44438162939182968 0.33527616080122319 0 0.43941431748234389 0.34697694962204328 0 0.43138153093963261 0.33684778794266318 0 0.44438162939182968 0.33527616080122319 0 0.43138153093963261 0.33684778794266318 0 0.43736796180383269 0.33070162376080392 0 0.44590058407496119 0.32214035093537202 0 0.44438162939182968 0.33527616080122319 0 0.43736796180383269 0.33070162376080392 0 0.44590058407496119 0.32214035093537202 0 0.44438162939182968 0.33527616080122319 0 0.45938090137280319 0.33331169935871768 0 0.44438162939182968 0.33527616080122319 0 0.45466128638888681 0.34537342559846479 0 0.43941431748234389 0.34697694962204328 0 0.44438162939182968 0.33527616080122319 0 0.45938090137280319 0.33331169935871768 0 0.45466128638888681 0.34537342559846479 0 0.45938090137280319 0.33331169935871768 0 0.47648750655815691 0.34271593104932652 0 0.45466128638888681 0.34537342559846479 0 0.45518354942420552 0.3044270386733543 0 0.44590058407496119 0.32214035093537202 0 0.46090063033065398 0.31457074158430443 0 0.44590058407496119 0.32214035093537202 0 0.47567910166728178 0.32137064515506791 0 0.44590058407496119 0.32214035093537202 0 0.45938090137280319 0.33331169935871768 0 0.47567910166728178 0.32137064515506791 0 0.44590058407496119 0.32214035093537202 0 0.46090063033065398 0.31457074158430443 0 0.47567910166728178 0.32137064515506791 0 0.46683928615616721 0.31034493157342358 0 0.46090063033065398 0.31457074158430443 0 0.47567910166728178 0.32137064515506791 0 0.4785284200388214 0.30995339583317788 0 0.48037384835626529 0.31664076505113292 0 0.47567910166728178 0.32137064515506791 0 0.48037384835626529 0.31664076505113292 0 0.48196375857002199 0.32120820131513239 0 0.47567910166728178 0.32137064515506791 0 0.48037384835626529 0.31664076505113292 0 0.48196375857002199 0.32120820131513239 0 0.48532411314893581 0.31403081790115361 0 0.4785284200388214 0.30995339583317788 0 0.48037384835626529 0.31664076505113292 0 0.48532411314893581 0.31403081790115361 0 0.48196375857002199 0.32120820131513239 0 0.48271443300740718 0.32966898805558448 0 0.48700966075600671 0.32276244140519528 0 0.48196375857002199 0.32120820131513239 0 0.47567910166728178 0.32137064515506791 0 0.48271443300740718 0.32966898805558448 0 0.48196375857002199 0.32120820131513239 0 0.47567910166728178 0.32137064515506791 0 0.47567910166728178 0.32137064515506791 0 0.47648750655815691 0.34271593104932652 0 0.47567910166728178 0.32137064515506791 0 0.47648750655815691 0.34271593104932652 0 0.48271443300740718 0.32966898805558448 0 0.45938090137280319 0.33331169935871768 0 0.47567910166728178 0.32137064515506791 0 0.47648750655815691 0.34271593104932652 0 0.47648750655815691 0.34271593104932652 0 0.48271443300740718 0.32966898805558448 0 0.49227852706914571 0.3310448133387906 0 0.47648750655815691 0.34271593104932652 0 0.5 0.34302530753029081 0 0.49227852706914571 0.3310448133387906 0 0.5 0.34302530753029081 0 0.49227852706914571 0.3310448133387906 0 0.5 0.31314492524039728 0 0.49227852706914571 0.3310448133387906 0 0.49274985611107969 0.31679941989990179 0 0.5 0.31314492524039728 0 0.48196375857002199 0.32120820131513239 0 0.48532411314893581 0.31403081790115361 0 0.48700966075600671 0.32276244140519528 0 0.49274985611107969 0.31679941989990179 0 0.48532411314893581 0.31403081790115361 0 0.48700966075600671 0.32276244140519528 0 0.48271443300740718 0.32966898805558448 0 0.49227852706914571 0.3310448133387906 0 0.48700966075600671 0.32276244140519528 0 0.49227852706914571 0.3310448133387906 0 0.49274985611107969 0.31679941989990179 0 0.48700966075600671 0.32276244140519528 0 0.5 0.37290568982018429 0 0.48906820236105919 0.3579654986752378 0 0.48477613844387402 0.38021688004838439 0 0.47648750655815691 0.34271593104932652 0 0.5 0.34302530753029081 0 0.48906820236105919 0.3579654986752378 0 0.5 0.34302530753029081 0 0.5 0.37290568982018429 0 0.48906820236105919 0.3579654986752378 0 0.47648750655815691 0.34271593104932652 0 0.4736556537454587 0.3678330253399309 0 0.4628011452372443 0.35721885356897543 0 0.47648750655815691 0.34271593104932652 0 0.48906820236105919 0.3579654986752378 0 0.4736556537454587 0.3678330253399309 0 0.48906820236105919 0.3579654986752378 0 0.4736556537454587 0.3678330253399309 0 0.48477613844387402 0.38021688004838439 0 0.4736556537454587 0.3678330253399309 0 0.45151374504626951 0.36758660991241321 0 0.46980882541715813 0.38208294099771128 0 0.4736556537454587 0.3678330253399309 0 0.4628011452372443 0.35721885356897543 0 0.45151374504626951 0.36758660991241321 0 0.47648750655815691 0.34271593104932652 0 0.4628011452372443 0.35721885356897543 0 0.45466128638888681 0.34537342559846479 0 0.4628011452372443 0.35721885356897543 0 0.45466128638888681 0.34537342559846479 0 0.45151374504626951 0.36758660991241321 0 0.43941431748234389 0.34697694962204328 0 0.45151374504626951 0.36758660991241321 0 0.43248649325656402 0.35912170041613489 0 0.45466128638888681 0.34537342559846479 0 0.43941431748234389 0.34697694962204328 0 0.45151374504626951 0.36758660991241321 0 0.45151374504626951 0.36758660991241321 0 0.4343808670510142 0.37207818795490849 0 0.43248649325656402 0.35912170041613489 0 0.4343808670510142 0.37207818795490849 0 0.41565945607251759 0.36236511110304392 0 0.42235721568131929 0.38220686924127689 0 0.4343808670510142 0.37207818795490849 0 0.41565945607251759 0.36236511110304392 0 0.43248649325656402 0.35912170041613489 0 0.41565945607251759 0.36236511110304392 0 0.40683499004542412 0.37566900985645529 0 0.42235721568131929 0.38220686924127689 0 0.41565945607251759 0.36236511110304392 0 0.42423344021441339 0.3469403641650044 0 0.40881868850316022 0.34319093436892228 0 0.41565945607251759 0.36236511110304392 0 0.40881868850316022 0.34319093436892228 0 0.40255325820206211 0.35440744329028528 0 0.41565945607251759 0.36236511110304392 0 0.42423344021441339 0.3469403641650044 0 0.43248649325656402 0.35912170041613489 0 0.43941431748234389 0.34697694962204328 0 0.42423344021441339 0.3469403641650044 0 0.43248649325656402 0.35912170041613489 0 0.43941431748234389 0.34697694962204328 0 0.42423344021441339 0.3469403641650044 0 0.43138153093963261 0.33684778794266318 0 0.43138153093963261 0.33684778794266318 0 0.43736796180383269 0.33070162376080392 0 0.42780810280890752 0.32854219536395729 0 0.43138153093963261 0.33684778794266318 0 0.42780810280890752 0.32854219536395729 0 0.41974391964010321 0.33544292333485398 0 0.42780810280890752 0.32854219536395729 0 0.41816216709540432 0.32913892271221878 0 0.41974391964010321 0.33544292333485398 0 0.42423344021441339 0.3469403641650044 0 0.43138153093963261 0.33684778794266318 0 0.41974391964010321 0.33544292333485398 0 0.44590058407496119 0.32214035093537202 0 0.417039918788641 0.32200554090679828 0 0.43554340190627211 0.31006971119553528 0 0.42610184512817068 0.31856760869421968 0 0.41590325438833858 0.31571238371771643 0 0.44590058407496119 0.32214035093537202 0 0.42610184512817068 0.31856760869421968 0 0.417039918788641 0.32200554090679828 0 0.44590058407496119 0.32214035093537202 0 0.42780810280890752 0.32854219536395729 0 0.417039918788641 0.32200554090679828 0 0.44590058407496119 0.32214035093537202 0 0.43736796180383269 0.33070162376080392 0 0.42780810280890752 0.32854219536395729 0 0.43554340190627211 0.31006971119553528 0 0.41590325438833858 0.31571238371771643 0 0.43554340190627211 0.31006971119553528 0 0.44590058407496119 0.32214035093537202 0 0.42610184512817068 0.31856760869421968 0 0.40639677157087911 0.30212762763804019 0 0.417039918788641 0.32200554090679828 0 0.4081981699382346 0.3139513768470385 0 0.40639677157087911 0.30212762763804019 0 0.41590325438833858 0.31571238371771643 0 0.417039918788641 0.32200554090679828 0 0.42610184512817068 0.31856760869421968 0 0.41590325438833858 0.31571238371771643 0 0.417039918788641 0.32200554090679828 0 0.417039918788641 0.32200554090679828 0 0.41816216709540432 0.32913892271221878 0 0.41176425843116088 0.33156610519561941 0 0.42780810280890752 0.32854219536395729 0 0.417039918788641 0.32200554090679828 0 0.41816216709540432 0.32913892271221878 0 0.42423344021441339 0.3469403641650044 0 0.41974391964010321 0.33544292333485398 0 0.40881868850316022 0.34319093436892228 0 0.41816216709540432 0.32913892271221878 0 0.41974391964010321 0.33544292333485398 0 0.41176425843116088 0.33156610519561941 0 0.417039918788641 0.32200554090679828 0 0.41176425843116088 0.33156610519561941 0 0.40171431040203109 0.33103781916521291 0 0.41176425843116088 0.33156610519561941 0 0.40881868850316022 0.34319093436892228 0 0.40171431040203109 0.33103781916521291 0 0.41974391964010321 0.33544292333485398 0 0.41176425843116088 0.33156610519561941 0 0.40881868850316022 0.34319093436892228 0 0.40171431040203109 0.33103781916521291 0 0.38634354889032002 0.32367976249598251 0 0.39069281237429682 0.34525116339505252 0 0.40881868850316022 0.34319093436892228 0 0.40171431040203109 0.33103781916521291 0 0.39069281237429682 0.34525116339505252 0 0.417039918788641 0.32200554090679828 0 0.40171431040203109 0.33103781916521291 0 0.38634354889032002 0.32367976249598251 0 0.417039918788641 0.32200554090679828 0 0.4081981699382346 0.3139513768470385 0 0.38634354889032002 0.32367976249598251 0 0.39341545683502421 0.31015448597301559 0 0.4081981699382346 0.3139513768470385 0 0.38634354889032002 0.32367976249598251 0 0.417039918788641 0.32200554090679828 0 0.38634354889032002 0.32367976249598251 0 0.38634354889032002 0.32367976249598251 0 0.39069281237429682 0.34525116339505252 0 0.37418757138316661 0.34003979241565702 0 0.38634354889032002 0.32367976249598251 0 0.39069281237429682 0.34525116339505252 0 0.37418757138316661 0.34003979241565702 0 0.38014707859742553 0.358601566133181 0 0.39069281237429682 0.34525116339505252 0 0.38014707859742553 0.358601566133181 0 0.39504207585827378 0.36682256429412252 0 0.39069281237429682 0.34525116339505252 0 0.36927583114563117 0.37168826674887129 0 0.38014707859742553 0.358601566133181 0 0.3861818138235471 0.37714139125663793 0 0.38014707859742553 0.358601566133181 0 0.39504207585827378 0.36682256429412252 0 0.3861818138235471 0.37714139125663793 0 0.41565945607251759 0.36236511110304392 0 0.39504207585827378 0.36682256429412252 0 0.40683499004542412 0.37566900985645529 0 0.41565945607251759 0.36236511110304392 0 0.39504207585827378 0.36682256429412252 0 0.40255325820206211 0.35440744329028528 0 0.39504207585827378 0.36682256429412252 0 0.40255325820206211 0.35440744329028528 0 0.39069281237429682 0.34525116339505252 0 0.40881868850316022 0.34319093436892228 0 0.40255325820206211 0.35440744329028528 0 0.39069281237429682 0.34525116339505252 0 0.39504207585827378 0.36682256429412252 0 0.39069281237429682 0.34525116339505252 0 0.3993913393422508 0.38839396519319253 0 0.39020643165102042 0.40750290438779102 0 0.40342788129008578 0.41136751416027151 0 0.3993913393422508 0.38839396519319253 0 0.40342788129008578 0.41136751416027151 0 0.41247484703898341 0.39668929567888889 0 0.3993913393422508 0.38839396519319253 0 0.38594138320053972 0.39504117240748449 0 0.39020643165102042 0.40750290438779102 0 0.39504207585827378 0.36682256429412252 0 0.3993913393422508 0.38839396519319253 0 0.40683499004542412 0.37566900985645529 0 0.39504207585827378 0.36682256429412252 0 0.3993913393422508 0.38839396519319253 0 0.39504207585827378 0.36682256429412252 0 0.3993913393422508 0.38839396519319253 0 0.3861818138235471 0.37714139125663793 0 0.3993913393422508 0.38839396519319253 0 0.41247484703898341 0.39668929567888889 0 0.40683499004542412 0.37566900985645529 0 0.36927583114563117 0.37168826674887129 0 0.38594138320053972 0.39504117240748449 0 0.3993913393422508 0.38839396519319253 0 0.3861818138235471 0.37714139125663793 0 0.38594138320053972 0.39504117240748449 0 0.36927583114563117 0.37168826674887129 0 0.3861818138235471 0.37714139125663793 0 0.38594138320053972 0.39504117240748449 0 0.36672310374365391 0.3972274770167053 0 0.38594138320053972 0.39504117240748449 0 0.37714557779446961 0.40580011292323048 0 0.38594138320053972 0.39504117240748449 0 0.37714557779446961 0.40580011292323048 0 0.39020643165102042 0.40750290438779102 0 0.37714557779446961 0.40580011292323048 0 0.39020643165102042 0.40750290438779102 0 0.37786999239799629 0.42201923841731348 0 0.39020643165102042 0.40750290438779102 0 0.37786999239799629 0.42201923841731348 0 0.39620875860206523 0.42610388639599522 0 0.3672128213662551 0.44140310366938379 0 0.37786999239799629 0.42201923841731348 0 0.38861509636247821 0.44175005125570632 0 0.37786999239799629 0.42201923841731348 0 0.39620875860206523 0.42610388639599522 0 0.38861509636247821 0.44175005125570632 0 0.39620875860206523 0.42610388639599522 0 0.40342788129008578 0.41136751416027151 0 0.4165515890159211 0.43106581875832262 0 0.39020643165102042 0.40750290438779102 0 0.39620875860206523 0.42610388639599522 0 0.40342788129008578 0.41136751416027151 0 0.40342788129008578 0.41136751416027151 0 0.4194649070479346 0.41075775866906961 0 0.4165515890159211 0.43106581875832262 0 0.40342788129008578 0.41136751416027151 0 0.4194649070479346 0.41075775866906961 0 0.41247484703898341 0.39668929567888889 0 0.39620875860206523 0.42610388639599522 0 0.4165515890159211 0.43106581875832262 0 0.40679533173472487 0.44514780784289609 0 0.4165515890159211 0.43106581875832262 0 0.44107028692003247 0.43153611533185032 0 0.4165515890159211 0.43106581875832262 0 0.43527838440837918 0.41507327228856877 0 0.44107028692003247 0.43153611533185032 0 0.4194649070479346 0.41075775866906961 0 0.4165515890159211 0.43106581875832262 0 0.43527838440837918 0.41507327228856877 0 0.4194649070479346 0.41075775866906961 0 0.43527838440837918 0.41507327228856877 0 0.42844040697821201 0.39890611008127758 0 0.43527838440837918 0.41507327228856877 0 0.42844040697821201 0.39890611008127758 0 0.44356544647064411 0.40084295107477419 0 0.42844040697821201 0.39890611008127758 0 0.43978627658039499 0.38550810048347522 0 0.44356544647064411 0.40084295107477419 0 0.4194649070479346 0.41075775866906961 0 0.42844040697821201 0.39890611008127758 0 0.41247484703898341 0.39668929567888889 0 0.42844040697821201 0.39890611008127758 0 0.41247484703898341 0.39668929567888889 0 0.42235721568131929 0.38220686924127689 0 0.41247484703898341 0.39668929567888889 0 0.40683499004542412 0.37566900985645529 0 0.42235721568131929 0.38220686924127689 0 0.4343808670510142 0.37207818795490849 0 0.42235721568131929 0.38220686924127689 0 0.43978627658039499 0.38550810048347522 0 0.42844040697821201 0.39890611008127758 0 0.42235721568131929 0.38220686924127689 0 0.43978627658039499 0.38550810048347522 0 0.45151374504626951 0.36758660991241321 0 0.4343808670510142 0.37207818795490849 0 0.43978627658039499 0.38550810048347522 0 0.45151374504626951 0.36758660991241321 0 0.43978627658039499 0.38550810048347522 0 0.45722528454721961 0.3906654768237981 0 0.43978627658039499 0.38550810048347522 0 0.44356544647064411 0.40084295107477419 0 0.45722528454721961 0.3906654768237981 0 0.44356544647064411 0.40084295107477419 0 0.45722528454721961 0.3906654768237981 0 0.45594545333092312 0.41337501331873322 0 0.45722528454721961 0.3906654768237981 0 0.47568108772685191 0.39367102650606373 0 0.46881626912638691 0.40427363304328218 0 0.45722528454721961 0.3906654768237981 0 0.46881626912638691 0.40427363304328218 0 0.45594545333092312 0.41337501331873322 0 0.45151374504626951 0.36758660991241321 0 0.45722528454721961 0.3906654768237981 0 0.46980882541715813 0.38208294099771128 0 0.45722528454721961 0.3906654768237981 0 0.46980882541715813 0.38208294099771128 0 0.47568108772685191 0.39367102650606373 0 0.4736556537454587 0.3678330253399309 0 0.46980882541715813 0.38208294099771128 0 0.48477613844387402 0.38021688004838439 0 0.47568108772685191 0.39367102650606373 0 0.48702766555901961 0.39491075051184021 0 0.48477613844387402 0.38021688004838439 0 0.46980882541715813 0.38208294099771128 0 0.47568108772685191 0.39367102650606373 0 0.48477613844387402 0.38021688004838439 0 0.47568108772685191 0.39367102650606373 0 0.46881626912638691 0.40427363304328218 0 0.48151606592710777 0.40452093291302588 0 0.47568108772685191 0.39367102650606373 0 0.48151606592710777 0.40452093291302588 0 0.48702766555901961 0.39491075051184021 0 0.48702766555901961 0.39491075051184021 0 0.49874079622209128 0.38660437256818281 0 0.49442423947517328 0.40954054052354433 0 0.5 0.40278607211007789 0 0.49874079622209128 0.38660437256818281 0 0.49442423947517328 0.40954054052354433 0 0.49874079622209128 0.38660437256818281 0 0.49442423947517328 0.40954054052354433 0 0.48151606592710777 0.40452093291302588 0 0.48702766555901961 0.39491075051184021 0 0.49442423947517328 0.40954054052354433 0 0.5 0.37290568982018429 0 0.5 0.40278607211007789 0 0.49874079622209128 0.38660437256818281 0 0.5 0.37290568982018429 0 0.49874079622209128 0.38660437256818281 0 0.48477613844387402 0.38021688004838439 0 0.48702766555901961 0.39491075051184021 0 0.49874079622209128 0.38660437256818281 0 0.48477613844387402 0.38021688004838439 0 0.49010768272825528 0.43247670847890568 0 0.49999999999999839 0.43266645439997159 0 0.49442423947517328 0.40954054052354433 0 0.49010768272825528 0.43247670847890568 0 0.49999999999999839 0.43266645439997159 0 0.5 0.40278607211007789 0 0.49999999999999839 0.43266645439997159 0 0.49442423947517328 0.40954054052354433 0 0.49010768272825528 0.43247670847890568 0 0.49442423947517328 0.40954054052354433 0 0.47768739680387268 0.41777805257305989 0 0.48151606592710777 0.40452093291302588 0 0.49442423947517328 0.40954054052354433 0 0.47768739680387268 0.41777805257305989 0 0.49010768272825528 0.43247670847890568 0 0.49442423947517328 0.40954054052354433 0 0.46881626912638691 0.40427363304328218 0 0.48151606592710777 0.40452093291302588 0 0.47768739680387268 0.41777805257305989 0 0.49010768272825528 0.43247670847890568 0 0.47768739680387268 0.41777805257305989 0 0.4655889848241439 0.43200641190537797 0 0.49010768272825528 0.43247670847890568 0 0.4655889848241439 0.43200641190537797 0 0.47536631759922843 0.44556886167195853 0 0.49010768272825528 0.43247670847890568 0 0.4655889848241439 0.43200641190537797 0 0.4655889848241439 0.43200641190537797 0 0.44107028692003247 0.43153611533185032 0 0.4655889848241439 0.43200641190537797 0 0.45594545333092312 0.41337501331873322 0 0.44107028692003247 0.43153611533185032 0 0.4655889848241439 0.43200641190537797 0 0.44107028692003247 0.43153611533185032 0 0.4606865760628292 0.44801704672434101 0 0.47768739680387268 0.41777805257305989 0 0.4655889848241439 0.43200641190537797 0 0.45594545333092312 0.41337501331873322 0 0.46881626912638691 0.40427363304328218 0 0.47768739680387268 0.41777805257305989 0 0.45594545333092312 0.41337501331873322 0 0.43527838440837918 0.41507327228856877 0 0.45594545333092312 0.41337501331873322 0 0.44107028692003247 0.43153611533185032 0 0.43527838440837918 0.41507327228856877 0 0.44356544647064411 0.40084295107477419 0 0.45594545333092312 0.41337501331873322 0 0.49999999999999839 0.43266645439997159 0 0.48505572566105232 0.45932045051458531 0 0.5 0.5 0 0.44107028692003247 0.43153611533185032 0 0.44376664188615123 0.45979150936037488 0 0.4606865760628292 0.44801704672434101 0 0.44376664188615123 0.45979150936037488 0 0.46112241578244989 0.46478661640483648 0 0.45121200239437631 0.4807671998253365 0 0.44376664188615123 0.45979150936037488 0 0.46112241578244989 0.46478661640483648 0 0.4606865760628292 0.44801704672434101 0 0.46112241578244989 0.46478661640483648 0 0.4606865760628292 0.44801704672434101 0 0.47539261871986088 0.45602369073658289 0 0.4655889848241439 0.43200641190537797 0 0.4606865760628292 0.44801704672434101 0 0.47536631759922843 0.44556886167195853 0 0.49010768272825528 0.43247670847890568 0 0.47536631759922843 0.44556886167195853 0 0.48505572566105232 0.45932045051458531 0 0.4606865760628292 0.44801704672434101 0 0.47536631759922843 0.44556886167195853 0 0.47539261871986088 0.45602369073658289 0 0.47539261871986088 0.45602369073658289 0 0.47110615765410929 0.47801184536829172 0 0.47539261871986088 0.45602369073658289 0 0.48505572566105232 0.45932045051458531 0 0.47110615765410929 0.47801184536829172 0 0.46112241578244989 0.46478661640483648 0 0.47539261871986088 0.45602369073658289 0 0.47110615765410929 0.47801184536829172 0 0.47536631759922843 0.44556886167195853 0 0.47539261871986088 0.45602369073658289 0 0.48505572566105232 0.45932045051458531 0 0.49010768272825528 0.43247670847890568 0 0.48505572566105232 0.45932045051458531 0 0.49010768272825528 0.43247670847890568 0 0.49999999999999839 0.43266645439997159 0 0.48505572566105232 0.45932045051458531 0 0.48505572566105232 0.45932045051458531 0 0.5 0.5 0 0.48000376859384941 0.48616419255026477 0 0.5 0.5 0 0.48000376859384941 0.48616419255026477 0 0.46681969658835759 0.50000000000000044 0 0.48505572566105232 0.45932045051458531 0 0.47110615765410929 0.47801184536829172 0 0.48000376859384941 0.48616419255026477 0 0.48505572566105232 0.45932045051458531 0 0.48000376859384941 0.48616419255026477 0 0.47110615765410929 0.47801184536829172 0 0.46681969658835759 0.50000000000000044 0 0.47110615765410929 0.47801184536829172 0 0.48000376859384941 0.48616419255026477 0 0.46681969658835759 0.50000000000000044 0 0.47110615765410929 0.47801184536829172 0 0.46681969658835759 0.50000000000000044 0 0.45121200239437631 0.4807671998253365 0 0.46112241578244989 0.46478661640483648 0 0.47110615765410929 0.47801184536829172 0 0.45121200239437631 0.4807671998253365 0 0.44376664188615123 0.45979150936037488 0 0.45121200239437631 0.4807671998253365 0 0.42408561830569141 0.47732830779616442 0 0.46681969658835759 0.50000000000000044 0 0.45121200239437631 0.4807671998253365 0 0.43971230006436901 0.5 0 0.45121200239437631 0.4807671998253365 0 0.43971230006436901 0.5 0 0.42408561830569141 0.47732830779616442 0 0.43971230006436901 0.5 0 0.41260490354038032 0.5 0 0.42408561830569141 0.47732830779616442 0 0.41260490354038032 0.5 0 0.42408561830569141 0.47732830779616442 0 0.40044085355502113 0.48368683573266119 0 0.42408561830569141 0.47732830779616442 0 0.40050545668784993 0.46242548604636152 0 0.40044085355502113 0.48368683573266119 0 0.44376664188615123 0.45979150936037488 0 0.42408561830569141 0.47732830779616442 0 0.42267709028742451 0.45339185591380432 0 0.44107028692003247 0.43153611533185032 0 0.44376664188615123 0.45979150936037488 0 0.42267709028742451 0.45339185591380432 0 0.4165515890159211 0.43106581875832262 0 0.44107028692003247 0.43153611533185032 0 0.42267709028742451 0.45339185591380432 0 0.4165515890159211 0.43106581875832262 0 0.42267709028742451 0.45339185591380432 0 0.40679533173472487 0.44514780784289609 0 0.42408561830569141 0.47732830779616442 0 0.42267709028742451 0.45339185591380432 0 0.40050545668784993 0.46242548604636152 0 0.42267709028742451 0.45339185591380432 0 0.40679533173472487 0.44514780784289609 0 0.40050545668784993 0.46242548604636152 0 0.40679533173472487 0.44514780784289609 0 0.40050545668784993 0.46242548604636152 0 0.38861509636247821 0.44175005125570632 0 0.39620875860206523 0.42610388639599522 0 0.40679533173472487 0.44514780784289609 0 0.38861509636247821 0.44175005125570632 0 0.3672128213662551 0.44140310366938379 0 0.38861509636247821 0.44175005125570632 0 0.37565915938479377 0.45849116020829678 0 0.40050545668784993 0.46242548604636152 0 0.37565915938479377 0.45849116020829678 0 0.37951078222479251 0.47868038482078018 0 0.40050545668784993 0.46242548604636152 0 0.38861509636247821 0.44175005125570632 0 0.37565915938479377 0.45849116020829678 0 0.37951078222479251 0.47868038482078018 0 0.38549750701639152 0.5 0 0.40044085355502113 0.48368683573266119 0 0.41260490354038032 0.5 0 0.38549750701639152 0.5 0 0.40044085355502113 0.48368683573266119 0 0.40050545668784993 0.46242548604636152 0 0.37951078222479251 0.47868038482078018 0 0.40044085355502113 0.48368683573266119 0 0.3285700774521132 0.069227507684709172 0 0.34376262838779448 0.090160381808613591 0 0.3285700774521132 0.069227507684709172 0 0.34376262838779448 0.090160381808613591 0 0.3570119940846016 0.07655140493877155 0 0.3285700774521132 0.069227507684709172 0 0.31851483003181857 0.089032350953859848 0 0.34376262838779448 0.090160381808613591 0 0.3285700774521132 0.069227507684709172 0 0.31851483003181857 0.089032350953859848 0 0.30262144479489489 0.063472250579192202 0 0.31851483003181857 0.089032350953859848 0 0.32257158209111758 0.11034462767622299 0 0.33741607394213652 0.1036774965936159 0 0.31851483003181857 0.089032350953859848 0 0.32257158209111758 0.11034462767622299 0 0.29867863108980142 0.1045573716884185 0 0.32257158209111758 0.11034462767622299 0 0.32933038512457441 0.1245201253257071 0 0.3207185438207466 0.1263919595033525 0 0.32257158209111758 0.11034462767622299 0 0.31156748461804079 0.12537242366950921 0 0.3207185438207466 0.1263919595033525 0 0.32933038512457441 0.1245201253257071 0 0.34646453309243358 0.11613188366402739 0 0.34441400131097022 0.1288917011053414 0 0.32257158209111758 0.11034462767622299 0 0.33741607394213652 0.1036774965936159 0 0.34646453309243358 0.11613188366402739 0 0.32257158209111758 0.11034462767622299 0 0.34646453309243358 0.11613188366402739 0 0.32257158209111758 0.11034462767622299 0 0.32933038512457441 0.1245201253257071 0 0.34646453309243358 0.11613188366402739 0 0.31851483003181857 0.089032350953859848 0 0.33741607394213652 0.1036774965936159 0 0.34376262838779448 0.090160381808613591 0 0.35895517932347593 0.111093255932518 0 0.36286728541875429 0.096218484345557367 0 0.34376262838779448 0.090160381808613591 0 0.33741607394213652 0.1036774965936159 0 0.35895517932347593 0.111093255932518 0 0.34376262838779448 0.090160381808613591 0 0.35895517932347593 0.111093255932518 0 0.34376262838779448 0.090160381808613591 0 0.34646453309243358 0.11613188366402739 0 0.35895517932347593 0.111093255932518 0 0.37035748409374952 0.12191913965183331 0 0.34646453309243358 0.11613188366402739 0 0.37035748409374952 0.12191913965183331 0 0.33741607394213652 0.1036774965936159 0 0.34646453309243358 0.11613188366402739 0 0.35895517932347593 0.111093255932518 0 0.34646453309243358 0.11613188366402739 0 0.37035748409374952 0.12191913965183331 0 0.34441400131097022 0.1288917011053414 0 0.35895517932347593 0.111093255932518 0 0.36901916600157941 0.1100142775002767 0 0.37035748409374952 0.12191913965183331 0 0.36901916600157941 0.1100142775002767 0 0.37035748409374952 0.12191913965183331 0 0.37815432920295677 0.1109533992790251 0 0.37035748409374952 0.12191913965183331 0 0.37511757494472903 0.123072110010257 0 0.37035748409374952 0.12191913965183331 0 0.37169283910029199 0.12815165521797289 0 0.37511757494472903 0.123072110010257 0 0.36286728541875429 0.096218484345557367 0 0.37455144446510141 0.10193275935197101 0 0.37400882161871279 0.083619613235024759 0 0.35895517932347593 0.111093255932518 0 0.36901916600157941 0.1100142775002767 0 0.36286728541875429 0.096218484345557367 0 0.36901916600157941 0.1100142775002767 0 0.36286728541875429 0.096218484345557367 0 0.37455144446510141 0.10193275935197101 0 0.36901916600157941 0.1100142775002767 0 0.37455144446510141 0.10193275935197101 0 0.37815432920295677 0.1109533992790251 0 0.36286728541875429 0.096218484345557367 0 0.37400882161871279 0.083619613235024759 0 0.3570119940846016 0.07655140493877155 0 0.36286728541875429 0.096218484345557367 0 0.34376262838779448 0.090160381808613591 0 0.3570119940846016 0.07655140493877155 0 0.3285700774521132 0.069227507684709172 0 0.3570119940846016 0.07655140493877155 0 0.3540274811898364 0.057481719132925622 0 0.37400882161871279 0.083619613235024759 0 0.3570119940846016 0.07655140493877155 0 0.37883567044039879 0.062600723425798879 0 0.3570119940846016 0.07655140493877155 0 0.3540274811898364 0.057481719132925622 0 0.37883567044039879 0.062600723425798879 0 0.36884998715724038 0.048654936693666287 0 0.3540274811898364 0.057481719132925622 0 0.37883567044039879 0.062600723425798879 0 0.36884998715724038 0.048654936693666287 0 0.36096242836060388 0.032492650360987897 0 0.3540274811898364 0.057481719132925622 0 0.36884998715724038 0.048654936693666287 0 0.36096242836060388 0.032492650360987897 0 0.38366251926208489 0.041581833616573027 0 0.36096242836060388 0.032492650360987897 0 0.3540274811898364 0.057481719132925622 0 0.33343548863743699 0.044422356914628619 0 0.36096242836060388 0.032492650360987897 0 0.34150772405548108 0.025325389551572871 0 0.33343548863743699 0.044422356914628619 0 0.36096242836060388 0.032492650360987897 0 0.33343548863743699 0.044422356914628619 0 0.36934971840039982 0.01412264887454192 0 0.38120377069012762 0.010554394007073271 0 0.36845156083710567 -0.0060515153414843056 0 0.36934971840039982 0.01412264887454192 0 0.35188933009005469 0.012921367503740049 0 0.36845156083710567 -0.0060515153414843056 0 0.36096242836060388 0.032492650360987897 0 0.38848936808377088 0.020562943807347231 0 0.36096242836060388 0.032492650360987897 0 0.36934971840039982 0.01412264887454192 0 0.35188933009005469 0.012921367503740049 0 0.36096242836060388 0.032492650360987897 0 0.36934971840039982 0.01412264887454192 0 0.38848936808377088 0.020562943807347231 0 0.36096242836060388 0.032492650360987897 0 0.35188933009005469 0.012921367503740049 0 0.34150772405548108 0.025325389551572871 0 0.35188933009005469 0.012921367503740049 0 0.36845156083710567 -0.0060515153414843056 0 0.34114057903213352 -0.00099436838624600288 0 0.32992396985460443 0.01263339996306794 0 0.31382959722716158 0.0040627785689932028 0 0.34114057903213352 -0.00099436838624600288 0 0.35188933009005469 0.012921367503740049 0 0.32992396985460443 0.01263339996306794 0 0.34114057903213352 -0.00099436838624600288 0 0.32992396985460443 0.01263339996306794 0 0.34150772405548108 0.025325389551572871 0 0.32077834005703848 0.02927741351548363 0 0.35188933009005469 0.012921367503740049 0 0.32992396985460443 0.01263339996306794 0 0.34150772405548108 0.025325389551572871 0 0.32992396985460443 0.01263339996306794 0 0.32077834005703848 0.02927741351548363 0 0.31391214704691389 0.015516024244919061 0 0.32992396985460443 0.01263339996306794 0 0.31391214704691389 0.015516024244919061 0 0.31382959722716158 0.0040627785689932028 0 0.31382959722716158 0.0040627785689932028 0 0.34183048761771712 -0.0039986291523161147 0 0.31382959722716158 0.0040627785689932028 0 0.34114057903213352 -0.00099436838624600288 0 0.31382959722716158 0.0040627785689932028 0 0.30752965714041391 0.0058765203804442539 0 0.32194573769061952 -0.0077676308935595512 0 0.3285700774521132 0.069227507684709172 0 0.3540274811898364 0.057481719132925622 0 0.33343548863743699 0.044422356914628619 0 0.34150772405548108 0.025325389551572871 0 0.32077834005703848 0.02927741351548363 0 0.33343548863743699 0.044422356914628619 0 0.32077834005703848 0.02927741351548363 0 0.33343548863743699 0.044422356914628619 0 0.31337752651643169 0.04829463356080467 0 0.3285700774521132 0.069227507684709172 0 0.31337752651643169 0.04829463356080467 0 0.3285700774521132 0.069227507684709172 0 0.33343548863743699 0.044422356914628619 0 0.31337752651643169 0.04829463356080467 0 0.3285700774521132 0.069227507684709172 0 0.31337752651643169 0.04829463356080467 0 0.30262144479489489 0.063472250579192202 0 0.31337752651643169 0.04829463356080467 0 0.29190445549758398 0.041801895735158197 0 0.30262144479489489 0.063472250579192202 0 0.31337752651643169 0.04829463356080467 0 0.29818497558074802 0.027361759436901809 0 0.31337752651643169 0.04829463356080467 0 0.29190445549758398 0.041801895735158197 0 0.29818497558074802 0.027361759436901809 0 0.32077834005703848 0.02927741351548363 0 0.31337752651643169 0.04829463356080467 0 0.29818497558074802 0.027361759436901809 0 0.29190445549758398 0.041801895735158197 0 0.29818497558074802 0.027361759436901809 0 0.28149235485467722 0.028426230672526639 0 0.29190445549758398 0.041801895735158197 0 0.28562393541442521 0.056242032033416753 0 0.26921605588191849 0.040519794607793452 0 0.29190445549758398 0.041801895735158197 0 0.29818497558074802 0.027361759436901809 0 0.29190445549758398 0.041801895735158197 0 0.28562393541442521 0.056242032033416753 0 0.29190445549758398 0.041801895735158197 0 0.28562393541442521 0.056242032033416753 0 0.30262144479489489 0.063472250579192202 0 0.2978295874258669 0.0070254842464454832 0 0.30752965714041391 0.0058765203804442539 0 0.2978295874258669 0.0070254842464454832 0 0.30752965714041391 0.0058765203804442539 0 0.29396858594285019 -0.001032612778502764 0 0.31382959722716158 0.0040627785689932028 0 0.30752965714041391 0.0058765203804442539 0 0.31391214704691389 0.015516024244919061 0 0.30752965714041391 0.0058765203804442539 0 0.30398999522707459 0.014014891057021139 0 0.30752965714041391 0.0058765203804442539 0 0.30398999522707459 0.014014891057021139 0 0.31391214704691389 0.015516024244919061 0 0.31382959722716158 0.0040627785689932028 0 0.30752965714041391 0.0058765203804442539 0 0.2978295874258669 0.0070254842464454832 0 0.30752965714041391 0.0058765203804442539 0 0.30398999522707459 0.014014891057021139 0 0.2978295874258669 0.0070254842464454832 0 0.30398999522707459 0.014014891057021139 0 0.31391214704691389 0.015516024244919061 0 0.30398999522707459 0.014014891057021139 0 0.29818497558074802 0.027361759436901809 0 0.32077834005703848 0.02927741351548363 0 0.31391214704691389 0.015516024244919061 0 0.29818497558074802 0.027361759436901809 0 0.30398999522707459 0.014014891057021139 0 0.29818497558074802 0.027361759436901809 0 0.30398999522707459 0.014014891057021139 0 0.29818497558074802 0.027361759436901809 0 0.28690172397702512 0.011815266518820099 0 0.29818497558074802 0.027361759436901809 0 0.28149235485467722 0.028426230672526639 0 0.28690172397702512 0.011815266518820099 0 0.29818497558074802 0.027361759436901809 0 0.28690172397702512 0.011815266518820099 0 0.28690172397702512 0.011815266518820099 0 0.28687677889875068 0.001725005618485562 0 0.27267603034966698 -0.0077854348569651906 0 0.2978295874258669 0.0070254842464454832 0 0.30398999522707459 0.014014891057021139 0 0.28690172397702512 0.011815266518820099 0 0.2978295874258669 0.0070254842464454832 0 0.28690172397702512 0.011815266518820099 0 0.29376575238797509 0.0077779804816672602 0 0.2978295874258669 0.0070254842464454832 0 0.28690172397702512 0.011815266518820099 0 0.2978295874258669 0.0070254842464454832 0 0.28687677889875068 0.001725005618485562 0 0.29376575238797509 0.0077779804816672602 0 0.28690172397702512 0.011815266518820099 0 0.28687677889875068 0.001725005618485562 0 0.29376575238797509 0.0077779804816672602 0 0.2978295874258669 0.0070254842464454832 0 0.29376575238797509 0.0077779804816672602 0 0.28690172397702512 0.011815266518820099 0 0.26939274767164711 0.0040745279013861191 0 0.27267603034966698 -0.0077854348569651906 0 0.28690172397702512 0.011815266518820099 0 0.26440570944936082 0.018291830038140541 0 0.28690172397702512 0.011815266518820099 0 0.26939274767164711 0.0040745279013861191 0 0.26440570944936082 0.018291830038140541 0 0.28690172397702512 0.011815266518820099 0 0.27267603034966698 -0.0077854348569651906 0 0.28149235485467722 0.028426230672526639 0 0.26440570944936082 0.018291830038140541 0 0.26921605588191849 0.040519794607793452 0 0.28149235485467722 0.028426230672526639 0 0.28690172397702512 0.011815266518820099 0 0.26440570944936082 0.018291830038140541 0 0.24190969492169709 0.024768393557462999 0 0.26440570944936082 0.018291830038140541 0 0.2485551203034157 0.0102848256948572 0 0.24190969492169709 0.024768393557462999 0 0.26440570944936082 0.018291830038140541 0 0.24190969492169709 0.024768393557462999 0 0.26440570944936082 0.018291830038140541 0 0.25291178968964928 0.037547667281027097 0 0.2485551203034157 0.0102848256948572 0 0.26440570944936082 0.018291830038140541 0 0.25894279220913391 0.003459445712386486 0 0.26939274767164711 0.0040745279013861191 0 0.26440570944936082 0.018291830038140541 0 0.25894279220913391 0.003459445712386486 0 0.2485551203034157 0.0102848256948572 0 0.25894279220913391 0.003459445712386486 0 0.2479891295484222 -0.0022684572774312019 0 0.26939274767164711 0.0040745279013861191 0 0.25894279220913391 0.003459445712386486 0 0.26317147738524183 -0.0038637327990410169 0 0.28562393541442521 0.056242032033416753 0 0.27026274557325353 0.056119745337220257 0 0.26921605588191849 0.040519794607793452 0 0.28562393541442521 0.056242032033416753 0 0.27026274557325353 0.056119745337220257 0 0.27167623587568768 0.070814912161459326 0 0.29190445549758398 0.041801895735158197 0 0.28149235485467722 0.028426230672526639 0 0.26921605588191849 0.040519794607793452 0 0.26921605588191849 0.040519794607793452 0 0.25291178968964928 0.037547667281027097 0 0.25425538404847059 0.057624927133231481 0 0.26440570944936082 0.018291830038140541 0 0.26921605588191849 0.040519794607793452 0 0.25291178968964928 0.037547667281027097 0 0.27026274557325353 0.056119745337220257 0 0.26921605588191849 0.040519794607793452 0 0.25425538404847059 0.057624927133231481 0 0.27026274557325353 0.056119745337220257 0 0.25425538404847059 0.057624927133231481 0 0.27167623587568768 0.070814912161459326 0 0.25425538404847059 0.057624927133231481 0 0.27167623587568768 0.070814912161459326 0 0.25282536794073712 0.073272794188635415 0 0.26618138576237349 0.084067315497028519 0 0.27167623587568768 0.070814912161459326 0 0.25425538404847059 0.057624927133231481 0 0.25282536794073712 0.073272794188635415 0 0.27167623587568768 0.070814912161459326 0 0.25089272908716931 0.092982859712809007 0 0.26618138576237349 0.084067315497028519 0 0.27478568008848531 0.098770115700614086 0 0.25282536794073712 0.073272794188635415 0 0.25089272908716931 0.092982859712809007 0 0.26618138576237349 0.084067315497028519 0 0.26618138576237349 0.084067315497028519 0 0.28181267844286689 0.084890460016538952 0 0.27478568008848531 0.098770115700614086 0 0.26618138576237349 0.084067315497028519 0 0.27167623587568768 0.070814912161459326 0 0.28181267844286689 0.084890460016538952 0 0.27167623587568768 0.070814912161459326 0 0.2870451550563029 0.071072764848292863 0 0.28181267844286689 0.084890460016538952 0 0.2870451550563029 0.071072764848292863 0 0.29673814540623761 0.08207029957157172 0 0.30262144479489489 0.063472250579192202 0 0.28562393541442521 0.056242032033416753 0 0.2870451550563029 0.071072764848292863 0 0.30262144479489489 0.063472250579192202 0 0.28562393541442521 0.056242032033416753 0 0.27167623587568768 0.070814912161459326 0 0.2870451550563029 0.071072764848292863 0 0.2870451550563029 0.071072764848292863 0 0.28181267844286689 0.084890460016538952 0 0.29673814540623761 0.08207029957157172 0 0.28181267844286689 0.084890460016538952 0 0.29673814540623761 0.08207029957157172 0 0.29867863108980142 0.1045573716884185 0 0.31851483003181857 0.089032350953859848 0 0.29673814540623761 0.08207029957157172 0 0.30262144479489489 0.063472250579192202 0 0.31851483003181857 0.089032350953859848 0 0.29673814540623761 0.08207029957157172 0 0.29867863108980142 0.1045573716884185 0 0.2991284260398443 0.1226428311133997 0 0.29867863108980142 0.1045573716884185 0 0.31156748461804079 0.12537242366950921 0 0.32257158209111758 0.11034462767622299 0 0.29867863108980142 0.1045573716884185 0 0.31156748461804079 0.12537242366950921 0 0.32257158209111758 0.11034462767622299 0 0.29867863108980142 0.1045573716884185 0 0.29867863108980142 0.1045573716884185 0 0.27478568008848531 0.098770115700614086 0 0.29867863108980142 0.1045573716884185 0 0.27783009132198788 0.1122622341296569 0 0.27478568008848531 0.098770115700614086 0 0.28181267844286689 0.084890460016538952 0 0.29867863108980142 0.1045573716884185 0 0.27478568008848531 0.098770115700614086 0 0.2991284260398443 0.1226428311133997 0 0.29867863108980142 0.1045573716884185 0 0.28707615928971691 0.1208096883177448 0 0.29867863108980142 0.1045573716884185 0 0.28707615928971691 0.1208096883177448 0 0.27783009132198788 0.1122622341296569 0 0.2991284260398443 0.1226428311133997 0 0.28707615928971691 0.1208096883177448 0 0.29671346303214241 0.12961196471325551 0 0.26302281242735981 0.111198171579071 0 0.27515289576754948 0.1294134834453334 0 0.28707615928971691 0.1208096883177448 0 0.27783009132198788 0.1122622341296569 0 0.27515289576754948 0.1294134834453334 0 0.27783009132198788 0.1122622341296569 0 0.26302281242735981 0.111198171579071 0 0.27515289576754948 0.1294134834453334 0 0.26302281242735981 0.111198171579071 0 0.26007351669183237 0.1253037732749688 0 0.27515289576754948 0.1294134834453334 0 0.27783009132198788 0.1122622341296569 0 0.27478568008848531 0.098770115700614086 0 0.26302281242735981 0.111198171579071 0 0.25089272908716931 0.092982859712809007 0 0.26302281242735981 0.111198171579071 0 0.2496952397761337 0.1160329650041991 0 0.25089272908716931 0.092982859712809007 0 0.26302281242735981 0.111198171579071 0 0.25089272908716931 0.092982859712809007 0 0.27478568008848531 0.098770115700614086 0 0.26302281242735981 0.111198171579071 0 0.25089272908716931 0.092982859712809007 0 0.27478568008848531 0.098770115700614086 0 0.2471064899150823 0.133463067737116 0 0.2496952397761337 0.1160329650041991 0 0.26007351669183237 0.1253037732749688 0 0.2496952397761337 0.1160329650041991 0 0.26302281242735981 0.111198171579071 0 0.26007351669183237 0.1253037732749688 0 0.2471064899150823 0.133463067737116 0 0.26212056590251792 0.13860634342131159 0 0.25227113898158787 0.14916335431643429 0 0.2471064899150823 0.133463067737116 0 0.26212056590251792 0.13860634342131159 0 0.26007351669183237 0.1253037732749688 0 0.27515289576754948 0.1294134834453334 0 0.28728297910773942 0.14762879531159581 0 0.27515289576754948 0.1294134834453334 0 0.27408945104382287 0.14431330872834849 0 0.28728297910773942 0.14762879531159581 0 0.26212056590251792 0.13860634342131159 0 0.26007351669183237 0.1253037732749688 0 0.27515289576754948 0.1294134834453334 0 0.26212056590251792 0.13860634342131159 0 0.27515289576754948 0.1294134834453334 0 0.27408945104382287 0.14431330872834849 0 0.27408945104382287 0.14431330872834849 0 0.27716137478162928 0.15889869399298601 0 0.28728297910773942 0.14762879531159581 0 0.26212056590251792 0.13860634342131159 0 0.27408945104382287 0.14431330872834849 0 0.26493391480523859 0.14953421755469451 0 0.27408945104382287 0.14431330872834849 0 0.26493391480523859 0.14953421755469451 0 0.27716137478162928 0.15889869399298601 0 0.26493391480523859 0.14953421755469451 0 0.25227113898158787 0.14916335431643429 0 0.25784869618064837 0.16117632967822779 0 0.26212056590251792 0.13860634342131159 0 0.26493391480523859 0.14953421755469451 0 0.25227113898158787 0.14916335431643429 0 0.24342118736862761 0.16410875332904781 0 0.25227113898158787 0.14916335431643429 0 0.25784869618064837 0.16117632967822779 0 0.24342118736862761 0.16410875332904781 0 0.25784869618064837 0.16117632967822779 0 0.25421457754785548 0.17528354573505059 0 0.25784869618064837 0.16117632967822779 0 0.25421457754785548 0.17528354573505059 0 0.26798999978846311 0.16999528723303189 0 0.25421457754785548 0.17528354573505059 0 0.26688833639653942 0.18474270353269559 0 0.25113643024109478 0.19094495075723769 0 0.25421457754785548 0.17528354573505059 0 0.26688833639653942 0.18474270353269559 0 0.26798999978846311 0.16999528723303189 0 0.26688833639653942 0.18474270353269559 0 0.27899922157627788 0.1740987885831469 0 0.26798999978846311 0.16999528723303189 0 0.26688833639653942 0.18474270353269559 0 0.27899922157627788 0.1740987885831469 0 0.28165513110548479 0.1855437801635878 0 0.25784869618064837 0.16117632967822779 0 0.26798999978846311 0.16999528723303189 0 0.27716137478162928 0.15889869399298601 0 0.26493391480523859 0.14953421755469451 0 0.25784869618064837 0.16117632967822779 0 0.27716137478162928 0.15889869399298601 0 0.27899922157627788 0.1740987885831469 0 0.26798999978846311 0.16999528723303189 0 0.27716137478162928 0.15889869399298601 0 0.27716137478162928 0.15889869399298601 0 0.28838527260411961 0.16768800255462621 0 0.29642958482603432 0.1586868689393966 0 0.27899922157627788 0.1740987885831469 0 0.27716137478162928 0.15889869399298601 0 0.28838527260411961 0.16768800255462621 0 0.28838527260411961 0.16768800255462621 0 0.29642958482603432 0.1586868689393966 0 0.2990812202460017 0.16972771789266669 0 0.28165513110548479 0.1855437801635878 0 0.29057456817046978 0.17841330338653549 0 0.29442149412013968 0.19018242885082931 0 0.27899922157627788 0.1740987885831469 0 0.28165513110548479 0.1855437801635878 0 0.29057456817046978 0.17841330338653549 0 0.27899922157627788 0.1740987885831469 0 0.28838527260411961 0.16768800255462621 0 0.29057456817046978 0.17841330338653549 0 0.28838527260411961 0.16768800255462621 0 0.29057456817046978 0.17841330338653549 0 0.2990812202460017 0.16972771789266669 0 0.29057456817046978 0.17841330338653549 0 0.30085032626191438 0.18018504882584371 0 0.2990812202460017 0.16972771789266669 0 0.29057456817046978 0.17841330338653549 0 0.30085032626191438 0.18018504882584371 0 0.29442149412013968 0.19018242885082931 0 0.30085032626191438 0.18018504882584371 0 0.29442149412013968 0.19018242885082931 0 0.3080553032197017 0.1887293017033026 0 0.30085032626191438 0.18018504882584371 0 0.31056514142368619 0.1744383831500049 0 0.2990812202460017 0.16972771789266669 0 0.30085032626191438 0.18018504882584371 0 0.31056514142368619 0.1744383831500049 0 0.3080553032197017 0.1887293017033026 0 0.29642958482603432 0.1586868689393966 0 0.30747502192119819 0.16230778928688711 0 0.30151933753066762 0.14970454816787401 0 0.29642958482603432 0.1586868689393966 0 0.2990812202460017 0.16972771789266669 0 0.30747502192119819 0.16230778928688711 0 0.31056514142368619 0.1744383831500049 0 0.2990812202460017 0.16972771789266669 0 0.30747502192119819 0.16230778928688711 0 0.30747502192119819 0.16230778928688711 0 0.30151933753066762 0.14970454816787401 0 0.3129765302581462 0.1494710021231663 0 0.30151933753066762 0.14970454816787401 0 0.29882590938581222 0.14264553562683399 0 0.30718649112507979 0.14443915855455869 0 0.30151933753066762 0.14970454816787401 0 0.30718649112507979 0.14443915855455869 0 0.3129765302581462 0.1494710021231663 0 0.29882590938581222 0.14264553562683399 0 0.30718649112507979 0.14443915855455869 0 0.31229822968882548 0.13781435906697939 0 0.30718649112507979 0.14443915855455869 0 0.31229822968882548 0.13781435906697939 0 0.3129765302581462 0.1494710021231663 0 0.31229822968882548 0.13781435906697939 0 0.28502845800881449 0.13413009067030229 0 0.31229822968882548 0.13781435906697939 0 0.29671346303214241 0.12961196471325551 0 0.28502845800881449 0.13413009067030229 0 0.29882590938581222 0.14264553562683399 0 0.31229822968882548 0.13781435906697939 0 0.28502845800881449 0.13413009067030229 0 0.2991284260398443 0.1226428311133997 0 0.31156748461804079 0.12537242366950921 0 0.30438347209902411 0.12928289016934871 0 0.31229822968882548 0.13781435906697939 0 0.31156748461804079 0.12537242366950921 0 0.30438347209902411 0.12928289016934871 0 0.31229822968882548 0.13781435906697939 0 0.30438347209902411 0.12928289016934871 0 0.29671346303214241 0.12961196471325551 0 0.2991284260398443 0.1226428311133997 0 0.30438347209902411 0.12928289016934871 0 0.29671346303214241 0.12961196471325551 0 0.27515289576754948 0.1294134834453334 0 0.28502845800881449 0.13413009067030229 0 0.28728297910773942 0.14762879531159581 0 0.28707615928971691 0.1208096883177448 0 0.29671346303214241 0.12961196471325551 0 0.28502845800881449 0.13413009067030229 0 0.28707615928971691 0.1208096883177448 0 0.27515289576754948 0.1294134834453334 0 0.28502845800881449 0.13413009067030229 0 0.27716137478162928 0.15889869399298601 0 0.29642958482603432 0.1586868689393966 0 0.28728297910773942 0.14762879531159581 0 0.29642958482603432 0.1586868689393966 0 0.30151933753066762 0.14970454816787401 0 0.28728297910773942 0.14762879531159581 0 0.30151933753066762 0.14970454816787401 0 0.29882590938581222 0.14264553562683399 0 0.28728297910773942 0.14762879531159581 0 0.29882590938581222 0.14264553562683399 0 0.28502845800881449 0.13413009067030229 0 0.28728297910773942 0.14762879531159581 0 0.2459873280094696 0.23707215699401071 0 0.27381195783464701 0.24213208581531279 0 0.2459873280094696 0.23707215699401071 0 0.27381195783464701 0.24213208581531279 0 0.27283394916361492 0.24742619336605559 0 0.2459873280094696 0.23707215699401071 0 0.27283394916361492 0.24742619336605559 0 0.2459873280094696 0.23707215699401071 0 0.25877170878786238 0.25302463852503437 0 0.27283394916361492 0.24742619336605559 0 0.2459873280094696 0.23707215699401071 0 0.24763005152173001 0.25910176257370959 0 0.25877170878786238 0.25302463852503437 0 0.24332195560292991 0.2175119837032847 0 0.2459873280094696 0.23707215699401071 0 0.26947725056793032 0.22188821543332771 0 0.2459873280094696 0.23707215699401071 0 0.27381195783464701 0.24213208581531279 0 0.26947725056793032 0.22188821543332771 0 0.24332195560292991 0.2175119837032847 0 0.26947725056793032 0.22188821543332771 0 0.27381195783464701 0.24213208581531279 0 0.26947725056793032 0.22188821543332771 0 0.29563254553293061 0.22626444716337071 0 0.26947725056793032 0.22188821543332771 0 0.26383894902510108 0.20488334565775601 0 0.28252807440433819 0.20448568929014271 0 0.24828008483854189 0.20295934428596721 0 0.24332195560292991 0.2175119837032847 0 0.26383894902510108 0.20488334565775601 0 0.24332195560292991 0.2175119837032847 0 0.26947725056793032 0.22188821543332771 0 0.26383894902510108 0.20488334565775601 0 0.26688833639653942 0.18474270353269559 0 0.26383894902510108 0.20488334565775601 0 0.25113643024109478 0.19094495075723769 0 0.24828008483854189 0.20295934428596721 0 0.26383894902510108 0.20488334565775601 0 0.25113643024109478 0.19094495075723769 0 0.26688833639653942 0.18474270353269559 0 0.26383894902510108 0.20488334565775601 0 0.27369942293731819 0.19569303942008121 0 0.26383894902510108 0.20488334565775601 0 0.27369942293731819 0.19569303942008121 0 0.28252807440433819 0.20448568929014271 0 0.28165513110548479 0.1855437801635878 0 0.27369942293731819 0.19569303942008121 0 0.28252807440433819 0.20448568929014271 0 0.26688833639653942 0.18474270353269559 0 0.28165513110548479 0.1855437801635878 0 0.27369942293731819 0.19569303942008121 0 0.28165513110548479 0.1855437801635878 0 0.29442149412013968 0.19018242885082931 0 0.28252807440433819 0.20448568929014271 0 0.29442149412013968 0.19018242885082931 0 0.30168066081365352 0.2029210297493958 0 0.28252807440433819 0.20448568929014271 0 0.29442149412013968 0.19018242885082931 0 0.3080553032197017 0.1887293017033026 0 0.30168066081365352 0.2029210297493958 0 0.3080553032197017 0.1887293017033026 0 0.30168066081365352 0.2029210297493958 0 0.31674655555173881 0.19902842766084339 0 0.30168066081365352 0.2029210297493958 0 0.29563254553293061 0.22626444716337071 0 0.31377845179643721 0.21458276756770189 0 0.30168066081365352 0.2029210297493958 0 0.31377845179643721 0.21458276756770189 0 0.31674655555173881 0.19902842766084339 0 0.30168066081365352 0.2029210297493958 0 0.28252807440433819 0.20448568929014271 0 0.29563254553293061 0.22626444716337071 0 0.26947725056793032 0.22188821543332771 0 0.28252807440433819 0.20448568929014271 0 0.29563254553293061 0.22626444716337071 0 0.26947725056793032 0.22188821543332771 0 0.29563254553293061 0.22626444716337071 0 0.29563254553293061 0.22626444716337071 0 0.3217878404979308 0.23064067889341369 0 0.31377845179643721 0.21458276756770189 0 0.29563254553293061 0.22626444716337071 0 0.3217878404979308 0.23064067889341369 0 0.29563254553293061 0.22626444716337071 0 0.3016365876598241 0.24719201463661561 0 0.3217878404979308 0.23064067889341369 0 0.27381195783464701 0.24213208581531279 0 0.29563254553293061 0.22626444716337071 0 0.3016365876598241 0.24719201463661561 0 0.27381195783464701 0.24213208581531279 0 0.3016365876598241 0.24719201463661561 0 0.27381195783464701 0.24213208581531279 0 0.27283394916361492 0.24742619336605559 0 0.3016365876598241 0.24719201463661561 0 0.32946121748500129 0.25225194345791829 0 0.3217878404979308 0.23064067889341369 0 0.34556910970536658 0.23921390462248199 0 0.32946121748500129 0.25225194345791829 0 0.3016365876598241 0.24719201463661561 0 0.3217878404979308 0.23064067889341369 0 0.32946121748500129 0.25225194345791829 0 0.3016365876598241 0.24719201463661561 0 0.3217878404979308 0.23064067889341369 0 0.33460182177363001 0.21999966289075409 0 0.31377845179643721 0.21458276756770189 0 0.3217878404979308 0.23064067889341369 0 0.33460182177363001 0.21999966289075409 0 0.34556910970536658 0.23921390462248199 0 0.33460182177363001 0.21999966289075409 0 0.3278776259658665 0.2076214509036243 0 0.34419695055865512 0.20542025302645439 0 0.33460182177363001 0.21999966289075409 0 0.31377845179643721 0.21458276756770189 0 0.3278776259658665 0.2076214509036243 0 0.31377845179643721 0.21458276756770189 0 0.3278776259658665 0.2076214509036243 0 0.31674655555173881 0.19902842766084339 0 0.3278776259658665 0.2076214509036243 0 0.31674655555173881 0.19902842766084339 0 0.32893527636844411 0.194937601908272 0 0.3080553032197017 0.1887293017033026 0 0.31674655555173881 0.19902842766084339 0 0.32122387935841612 0.1836610840160959 0 0.31674655555173881 0.19902842766084339 0 0.32893527636844411 0.194937601908272 0 0.32122387935841612 0.1836610840160959 0 0.32893527636844411 0.194937601908272 0 0.34419695055865512 0.20542025302645439 0 0.33967484433078321 0.18584068278097349 0 0.32893527636844411 0.194937601908272 0 0.32122387935841612 0.1836610840160959 0 0.33967484433078321 0.18584068278097349 0 0.3278776259658665 0.2076214509036243 0 0.32893527636844411 0.194937601908272 0 0.34419695055865512 0.20542025302645439 0 0.35368837148756882 0.19334260062126429 0 0.34419695055865512 0.20542025302645439 0 0.33967484433078321 0.18584068278097349 0 0.35368837148756882 0.19334260062126429 0 0.36735815001373812 0.20351917688449569 0 0.34419695055865512 0.20542025302645439 0 0.36735815001373812 0.20351917688449569 0 0.36699199379966768 0.18628457072029089 0 0.38367398474104891 0.18179268717308689 0 0.35368837148756882 0.19334260062126429 0 0.36735815001373812 0.20351917688449569 0 0.36699199379966768 0.18628457072029089 0 0.36735815001373812 0.20351917688449569 0 0.35440095211752448 0.2225189223308488 0 0.37280151553833601 0.22024831863616021 0 0.36735815001373812 0.20351917688449569 0 0.37280151553833601 0.22024831863616021 0 0.38406378734192298 0.20777210545990279 0 0.36735815001373812 0.20351917688449569 0 0.34419695055865512 0.20542025302645439 0 0.35440095211752448 0.2225189223308488 0 0.33460182177363001 0.21999966289075409 0 0.34419695055865512 0.20542025302645439 0 0.35440095211752448 0.2225189223308488 0 0.35440095211752448 0.2225189223308488 0 0.37293454716760283 0.2396311516560117 0 0.34556910970536658 0.23921390462248199 0 0.33460182177363001 0.21999966289075409 0 0.35440095211752448 0.2225189223308488 0 0.34556910970536658 0.23921390462248199 0 0.35440095211752448 0.2225189223308488 0 0.37280151553833601 0.22024831863616021 0 0.37293454716760283 0.2396311516560117 0 0.32946121748500129 0.25225194345791829 0 0.35728584731017871 0.25731187227922109 0 0.34556910970536658 0.23921390462248199 0 0.35728584731017871 0.25731187227922109 0 0.37293454716760283 0.2396311516560117 0 0.34556910970536658 0.23921390462248199 0 0.33789665254535572 0.15537308983460499 0 0.33956800136883641 0.14149862746365649 0 0.32484504322689201 0.150618498474763 0 0.33789665254535572 0.15537308983460499 0 0.32484504322689201 0.150618498474763 0 0.32925575641373173 0.1625602653078303 0 0.33789665254535572 0.15537308983460499 0 0.33956800136883641 0.14149862746365649 0 0.35085012880757988 0.15547460686614431 0 0.31847051852819058 0.13586426255884801 0 0.34441400131097022 0.1288917011053414 0 0.32933038512457441 0.1245201253257071 0 0.31847051852819058 0.13586426255884801 0 0.34441400131097022 0.1288917011053414 0 0.33956800136883641 0.14149862746365649 0 0.31847051852819058 0.13586426255884801 0 0.34441400131097022 0.1288917011053414 0 0.31229822968882548 0.13781435906697939 0 0.33956800136883641 0.14149862746365649 0 0.31229822968882548 0.13781435906697939 0 0.33956800136883641 0.14149862746365649 0 0.31847051852819058 0.13586426255884801 0 0.32933038512457441 0.1245201253257071 0 0.3207185438207466 0.1263919595033525 0 0.31847051852819058 0.13586426255884801 0 0.31156748461804079 0.12537242366950921 0 0.3207185438207466 0.1263919595033525 0 0.31847051852819058 0.13586426255884801 0 0.31229822968882548 0.13781435906697939 0 0.31156748461804079 0.12537242366950921 0 0.31847051852819058 0.13586426255884801 0 0.31229822968882548 0.13781435906697939 0 0.33956800136883641 0.14149862746365649 0 0.32484504322689201 0.150618498474763 0 0.31229822968882548 0.13781435906697939 0 0.32484504322689201 0.150618498474763 0 0.3129765302581462 0.1494710021231663 0 0.32484504322689201 0.150618498474763 0 0.3129765302581462 0.1494710021231663 0 0.31772009751989111 0.15842714336302041 0 0.30747502192119819 0.16230778928688711 0 0.3129765302581462 0.1494710021231663 0 0.31772009751989111 0.15842714336302041 0 0.30747502192119819 0.16230778928688711 0 0.31772009751989111 0.15842714336302041 0 0.32080742045079952 0.16866520015094741 0 0.31056514142368619 0.1744383831500049 0 0.30747502192119819 0.16230778928688711 0 0.32080742045079952 0.16866520015094741 0 0.32080742045079952 0.16866520015094741 0 0.33131907253280629 0.1738795647946571 0 0.32925575641373173 0.1625602653078303 0 0.32484504322689201 0.150618498474763 0 0.31772009751989111 0.15842714336302041 0 0.32925575641373173 0.1625602653078303 0 0.31772009751989111 0.15842714336302041 0 0.32080742045079952 0.16866520015094741 0 0.32925575641373173 0.1625602653078303 0 0.31056514142368619 0.1744383831500049 0 0.3080553032197017 0.1887293017033026 0 0.32122387935841612 0.1836610840160959 0 0.31056514142368619 0.1744383831500049 0 0.32080742045079952 0.16866520015094741 0 0.32122387935841612 0.1836610840160959 0 0.32080742045079952 0.16866520015094741 0 0.32122387935841612 0.1836610840160959 0 0.33131907253280629 0.1738795647946571 0 0.33131907253280629 0.1738795647946571 0 0.33967484433078321 0.18584068278097349 0 0.34294625220664587 0.1683980952289891 0 0.32122387935841612 0.1836610840160959 0 0.33131907253280629 0.1738795647946571 0 0.33967484433078321 0.18584068278097349 0 0.33131907253280629 0.1738795647946571 0 0.32925575641373173 0.1625602653078303 0 0.34294625220664587 0.1683980952289891 0 0.33789665254535572 0.15537308983460499 0 0.32925575641373173 0.1625602653078303 0 0.34294625220664587 0.1683980952289891 0 0.34294625220664587 0.1683980952289891 0 0.35531914635495271 0.16562513299740311 0 0.35085012880757988 0.15547460686614431 0 0.33789665254535572 0.15537308983460499 0 0.34294625220664587 0.1683980952289891 0 0.35085012880757988 0.15547460686614431 0 0.34294625220664587 0.1683980952289891 0 0.35531914635495271 0.16562513299740311 0 0.35387202203434698 0.17803066266241011 0 0.35531914635495271 0.16562513299740311 0 0.35387202203434698 0.17803066266241011 0 0.36550295271590683 0.1690726970215666 0 0.35531914635495271 0.16562513299740311 0 0.36342437601028388 0.15714960320790561 0 0.35085012880757988 0.15547460686614431 0 0.33967484433078321 0.18584068278097349 0 0.34294625220664587 0.1683980952289891 0 0.35387202203434698 0.17803066266241011 0 0.35368837148756882 0.19334260062126429 0 0.33967484433078321 0.18584068278097349 0 0.35387202203434698 0.17803066266241011 0 0.35368837148756882 0.19334260062126429 0 0.35387202203434698 0.17803066266241011 0 0.36699199379966768 0.18628457072029089 0 0.37486327834919952 0.17324080595030389 0 0.36699199379966768 0.18628457072029089 0 0.36550295271590683 0.1690726970215666 0 0.35387202203434698 0.17803066266241011 0 0.36699199379966768 0.18628457072029089 0 0.36550295271590683 0.1690726970215666 0 0.36342437601028388 0.15714960320790561 0 0.36550295271590683 0.1690726970215666 0 0.38328418214017468 0.15581326888627101 0 0.37486327834919952 0.17324080595030389 0 0.36550295271590683 0.1690726970215666 0 0.38328418214017468 0.15581326888627101 0 0.35531914635495271 0.16562513299740311 0 0.36342437601028388 0.15714960320790561 0 0.36550295271590683 0.1690726970215666 0 0.36342437601028388 0.15714960320790561 0 0.36683777304884752 0.14518289586033359 0 0.38328418214017468 0.15581326888627101 0 0.36342437601028388 0.15714960320790561 0 0.36683777304884752 0.14518289586033359 0 0.35085012880757988 0.15547460686614431 0 0.33956800136883641 0.14149862746365649 0 0.36683777304884752 0.14518289586033359 0 0.33956800136883641 0.14149862746365649 0 0.36683777304884752 0.14518289586033359 0 0.35085012880757988 0.15547460686614431 0 0.37035748409374952 0.12191913965183331 0 0.34441400131097022 0.1288917011053414 0 0.33956800136883641 0.14149862746365649 0 0.34441400131097022 0.1288917011053414 0 0.35985245571789548 0.13256521397634091 0 0.37035748409374952 0.12191913965183331 0 0.34441400131097022 0.1288917011053414 0 0.35985245571789548 0.13256521397634091 0 0.33956800136883641 0.14149862746365649 0 0.36683777304884752 0.14518289586033359 0 0.35985245571789548 0.13256521397634091 0 0.36683777304884752 0.14518289586033359 0 0.37024230120578611 0.13336796185197819 0 0.3828943795393005 0.1298338505994551 0 0.36683777304884752 0.14518289586033359 0 0.35985245571789548 0.13256521397634091 0 0.37024230120578611 0.13336796185197819 0 0.35985245571789548 0.13256521397634091 0 0.37024230120578611 0.13336796185197819 0 0.37169283910029199 0.12815165521797289 0 0.37024230120578611 0.13336796185197819 0 0.37169283910029199 0.12815165521797289 0 0.3828943795393005 0.1298338505994551 0 0.37035748409374952 0.12191913965183331 0 0.35985245571789548 0.13256521397634091 0 0.37169283910029199 0.12815165521797289 0 0.37169283910029199 0.12815165521797289 0 0.3828943795393005 0.1298338505994551 0 0.37511757494472903 0.123072110010257 0 0.3828943795393005 0.1298338505994551 0 0.39816792615439378 0.12760480203569169 0 0.39443703245191569 0.14316330482662179 0 0.39816792615439378 0.12760480203569169 0 0.39443703245191569 0.14316330482662179 0 0.40813897635800228 0.13879757292358971 0 0.40355831469332321 0.14905262061052801 0 0.39443703245191569 0.14316330482662179 0 0.39831584160420508 0.1589856433255693 0 0.39443703245191569 0.14316330482662179 0 0.38328418214017468 0.15581326888627101 0 0.39831584160420508 0.1589856433255693 0 0.40355831469332321 0.14905262061052801 0 0.39831584160420508 0.1589856433255693 0 0.41313230378900101 0.1549252007201132 0 0.40355831469332321 0.14905262061052801 0 0.39443703245191569 0.14316330482662179 0 0.40813897635800228 0.13879757292358971 0 0.3828943795393005 0.1298338505994551 0 0.39443703245191569 0.14316330482662179 0 0.38328418214017468 0.15581326888627101 0 0.36683777304884752 0.14518289586033359 0 0.3828943795393005 0.1298338505994551 0 0.38328418214017468 0.15581326888627101 0 0.3828943795393005 0.1298338505994551 0 0.38328418214017468 0.15581326888627101 0 0.38328418214017468 0.15581326888627101 0 0.38367398474104891 0.18179268717308689 0 0.37486327834919952 0.17324080595030389 0 0.38328418214017468 0.15581326888627101 0 0.38367398474104891 0.18179268717308689 0 0.38328418214017468 0.15581326888627101 0 0.38367398474104891 0.18179268717308689 0 0.39626047774709761 0.17356948839180519 0 0.37486327834919952 0.17324080595030389 0 0.36699199379966768 0.18628457072029089 0 0.38367398474104891 0.18179268717308689 0 0.38367398474104891 0.18179268717308689 0 0.39626047774709761 0.17356948839180519 0 0.39402839101454218 0.18926537882500041 0 0.41201559310989622 0.1717711692121752 0 0.39402839101454218 0.18926537882500041 0 0.40911253846621609 0.1927355572029634 0 0.41201559310989622 0.1717711692121752 0 0.39402839101454218 0.18926537882500041 0 0.39626047774709761 0.17356948839180519 0 0.41201559310989622 0.1717711692121752 0 0.39402839101454218 0.18926537882500041 0 0.38328418214017468 0.15581326888627101 0 0.39626047774709761 0.17356948839180519 0 0.39831584160420508 0.1589856433255693 0 0.39626047774709761 0.17356948839180519 0 0.39831584160420508 0.1589856433255693 0 0.41201559310989622 0.1717711692121752 0 0.39831584160420508 0.1589856433255693 0 0.41201559310989622 0.1717711692121752 0 0.41313230378900101 0.1549252007201132 0 0.41201559310989622 0.1717711692121752 0 0.43000279520525009 0.1542769595993502 0 0.41201559310989622 0.1717711692121752 0 0.43000279520525009 0.1542769595993502 0 0.41313230378900101 0.1549252007201132 0 0.41201559310989622 0.1717711692121752 0 0.42496471626184562 0.18478050847474101 0 0.40911253846621609 0.1927355572029634 0 0.42496471626184562 0.18478050847474101 0 0.42886790669691233 0.1683305758749721 0 0.44390934378202151 0.1869955505783234 0 0.41201559310989622 0.1717711692121752 0 0.42496471626184562 0.18478050847474101 0 0.42886790669691233 0.1683305758749721 0 0.42886790669691233 0.1683305758749721 0 0.44390934378202151 0.1869955505783234 0 0.41201559310989622 0.1717711692121752 0 0.42886790669691233 0.1683305758749721 0 0.43000279520525009 0.1542769595993502 0 0.42886790669691233 0.1683305758749721 0 0.43000279520525009 0.1542769595993502 0 0.44221599041969212 0.16183818438693329 0 0.43000279520525009 0.1542769595993502 0 0.42332430940078591 0.1392784445062823 0 0.4479899973006039 0.1367827499865252 0 0.43000279520525009 0.1542769595993502 0 0.42332430940078591 0.1392784445062823 0 0.41313230378900101 0.1549252007201132 0 0.429848517254516 0.1255917524949702 0 0.42332430940078591 0.1392784445062823 0 0.41384889774502859 0.12525543762671809 0 0.429848517254516 0.1255917524949702 0 0.42332430940078591 0.1392784445062823 0 0.4479899973006039 0.1367827499865252 0 0.39816792615439378 0.12760480203569169 0 0.41384889774502859 0.12525543762671809 0 0.40813897635800228 0.13879757292358971 0 0.42332430940078591 0.1392784445062823 0 0.41384889774502859 0.12525543762671809 0 0.40813897635800228 0.13879757292358971 0 0.40355831469332321 0.14905262061052801 0 0.40813897635800228 0.13879757292358971 0 0.41313230378900101 0.1549252007201132 0 0.42332430940078591 0.1392784445062823 0 0.40813897635800228 0.13879757292358971 0 0.41313230378900101 0.1549252007201132 0 0.38511047713535562 0.2623718011005241 0 0.37293454716760283 0.2396311516560117 0 0.39933451681408499 0.24222051247515669 0 0.37293454716760283 0.2396311516560117 0 0.39933451681408499 0.24222051247515669 0 0.39045396999845727 0.2225958518425987 0 0.37280151553833601 0.22024831863616021 0 0.37293454716760283 0.2396311516560117 0 0.39045396999845727 0.2225958518425987 0 0.39933451681408499 0.24222051247515669 0 0.39045396999845727 0.2225958518425987 0 0.41502085935247712 0.2184770015477572 0 0.39045396999845727 0.2225958518425987 0 0.39965272480706299 0.2061417744041574 0 0.38406378734192298 0.20777210545990279 0 0.39045396999845727 0.2225958518425987 0 0.39965272480706299 0.2061417744041574 0 0.41502085935247712 0.2184770015477572 0 0.37280151553833601 0.22024831863616021 0 0.39045396999845727 0.2225958518425987 0 0.38406378734192298 0.20777210545990279 0 0.36735815001373812 0.20351917688449569 0 0.38367398474104891 0.18179268717308689 0 0.38406378734192298 0.20777210545990279 0 0.38367398474104891 0.18179268717308689 0 0.38406378734192298 0.20777210545990279 0 0.38367398474104891 0.18179268717308689 0 0.38406378734192298 0.20777210545990279 0 0.39402839101454218 0.18926537882500041 0 0.39965272480706299 0.2061417744041574 0 0.38406378734192298 0.20777210545990279 0 0.39402839101454218 0.18926537882500041 0 0.39965272480706299 0.2061417744041574 0 0.39402839101454218 0.18926537882500041 0 0.40911253846621609 0.1927355572029634 0 0.42496471626184562 0.18478050847474101 0 0.40911253846621609 0.1927355572029634 0 0.43133039545531981 0.20312972213906441 0 0.42496471626184562 0.18478050847474101 0 0.43133039545531981 0.20312972213906441 0 0.44390934378202151 0.1869955505783234 0 0.43133039545531981 0.20312972213906441 0 0.41502085935247712 0.2184770015477572 0 0.43839838412078092 0.2247149777195776 0 0.40911253846621609 0.1927355572029634 0 0.41502085935247712 0.2184770015477572 0 0.40911253846621609 0.1927355572029634 0 0.43133039545531981 0.20312972213906441 0 0.41502085935247712 0.2184770015477572 0 0.39965272480706299 0.2061417744041574 0 0.40911253846621609 0.1927355572029634 0 0.41502085935247712 0.2184770015477572 0 0.41502085935247712 0.2184770015477572 0 0.42092918023873821 0.24421844589255121 0 0.41502085935247712 0.2184770015477572 0 0.42092918023873821 0.24421844589255121 0 0.43839838412078092 0.2247149777195776 0 0.42092918023873821 0.24421844589255121 0 0.44272868649399699 0.2414724783298311 0 0.43839838412078092 0.2247149777195776 0 0.44089414042045799 0.25771217685885472 0 0.42092918023873821 0.24421844589255121 0 0.44272868649399699 0.2414724783298311 0 0.39933451681408499 0.24222051247515669 0 0.41502085935247712 0.2184770015477572 0 0.42092918023873821 0.24421844589255121 0 0.46750550623703407 0.25349570762290419 0 0.4569230610569987 0.24819013429900669 0 0.47278153852907701 0.24486280325581439 0 0.4569230610569987 0.24819013429900669 0 0.45723446189795819 0.23161380727854039 0 0.47278153852907701 0.24486280325581439 0 0.4569230610569987 0.24819013429900669 0 0.44272868649399699 0.2414724783298311 0 0.45723446189795819 0.23161380727854039 0 0.44089414042045799 0.25771217685885472 0 0.4569230610569987 0.24819013429900669 0 0.44272868649399699 0.2414724783298311 0 0.43839838412078092 0.2247149777195776 0 0.45723446189795819 0.23161380727854039 0 0.45895078086713059 0.20566052528167461 0 0.44272868649399699 0.2414724783298311 0 0.43839838412078092 0.2247149777195776 0 0.45723446189795819 0.23161380727854039 0 0.45723446189795819 0.23161380727854039 0 0.47399221795223978 0.22432549998502579 0 0.47278153852907701 0.24486280325581439 0 0.45723446189795819 0.23161380727854039 0 0.45895078086713059 0.20566052528167461 0 0.47399221795223978 0.22432549998502579 0 0.45895078086713059 0.20566052528167461 0 0.47399221795223978 0.22432549998502579 0 0.43133039545531981 0.20312972213906441 0 0.43839838412078092 0.2247149777195776 0 0.45895078086713059 0.20566052528167461 0 0.43133039545531981 0.20312972213906441 0 0.45895078086713059 0.20566052528167461 0 0.44390934378202151 0.1869955505783234 0 0.45895078086713059 0.20566052528167461 0 0.44390934378202151 0.1869955505783234 0 0.45895078086713059 0.20566052528167461 0 0.44390934378202151 0.1869955505783234 0 0.47471792995388828 0.18435875067661631 0 0.45895078086713059 0.20566052528167461 0 0.47967819324703809 0.2043502093285503 0 0.47471792995388828 0.18435875067661631 0 0.5 0.20006456793442701 0 0.47967819324703809 0.2043502093285503 0 0.47471792995388828 0.18435875067661631 0 0.5 0.20006456793442701 0 0.48813206750880261 0.21755351138133391 0 0.47967819324703809 0.2043502093285503 0 0.5 0.20006456793442701 0 0.48813206750880261 0.21755351138133391 0 0.5 0.22779789293978581 0 0.45895078086713059 0.20566052528167461 0 0.47967819324703809 0.2043502093285503 0 0.47399221795223978 0.22432549998502579 0 0.48813206750880261 0.21755351138133391 0 0.47967819324703809 0.2043502093285503 0 0.47399221795223978 0.22432549998502579 0 0.48813206750880261 0.21755351138133391 0 0.47399221795223978 0.22432549998502579 0 0.48903365503734891 0.24299047468837701 0 0.47399221795223978 0.22432549998502579 0 0.48903365503734891 0.24299047468837701 0 0.48813206750880261 0.21755351138133391 0 0.5 0.22779789293978581 0 0.48903365503734891 0.24299047468837701 0 0.5 0.25553121794514477 0 0.5 0.22779789293978581 0 0.48903365503734891 0.24299047468837701 0 0.48489893488970792 0.25686202981026901 0 0.48903365503734891 0.24299047468837701 0 0.47278153852907701 0.24486280325581439 0 0.47399221795223978 0.22432549998502579 0 0.48903365503734891 0.24299047468837701 0 0.47278153852907701 0.24486280325581439 0 0.4479899973006039 0.1367827499865252 0 0.46030990911367259 0.16280508589549539 0 0.47332178232586258 0.14483424446409521 0 0.4479899973006039 0.1367827499865252 0 0.47332178232586258 0.14483424446409521 0 0.46597719939595772 0.11928854037370019 0 0.4479899973006039 0.1367827499865252 0 0.46597719939595772 0.11928854037370019 0 0.429848517254516 0.1255917524949702 0 0.4479899973006039 0.1367827499865252 0 0.44441253831551758 0.1138689947079024 0 0.43000279520525009 0.1542769595993502 0 0.4479899973006039 0.1367827499865252 0 0.44221599041969212 0.16183818438693329 0 0.43000279520525009 0.1542769595993502 0 0.4479899973006039 0.1367827499865252 0 0.4479899973006039 0.1367827499865252 0 0.44221599041969212 0.16183818438693329 0 0.46030990911367259 0.16280508589549539 0 0.44221599041969212 0.16183818438693329 0 0.44390934378202151 0.1869955505783234 0 0.46030990911367259 0.16280508589549539 0 0.42886790669691233 0.1683305758749721 0 0.44221599041969212 0.16183818438693329 0 0.44390934378202151 0.1869955505783234 0 0.44390934378202151 0.1869955505783234 0 0.46030990911367259 0.16280508589549539 0 0.47471792995388828 0.18435875067661631 0 0.46030990911367259 0.16280508589549539 0 0.48162298028441808 0.16304382698580119 0 0.47332178232586258 0.14483424446409521 0 0.46030990911367259 0.16280508589549539 0 0.48162298028441808 0.16304382698580119 0 0.47471792995388828 0.18435875067661631 0 0.5 0.20006456793442701 0 0.47471792995388828 0.18435875067661631 0 0.5 0.17233124292906801 0 0.48162298028441808 0.16304382698580119 0 0.47471792995388828 0.18435875067661631 0 0.5 0.17233124292906801 0 0.48162298028441808 0.16304382698580119 0 0.5 0.17233124292906801 0 0.5 0.14459791792370899 0 0.48162298028441808 0.16304382698580119 0 0.5 0.14459791792370899 0 0.47332178232586258 0.14483424446409521 0 0.47332178232586258 0.14483424446409521 0 0.48369720064842647 0.1280225697211729 0 0.46597719939595772 0.11928854037370019 0 0.5 0.14459791792370899 0 0.48369720064842647 0.1280225697211729 0 0.5 0.1168645929183502 0 0.5 0.14459791792370899 0 0.47332178232586258 0.14483424446409521 0 0.48369720064842647 0.1280225697211729 0 0.48369720064842647 0.1280225697211729 0 0.5 0.1168645929183502 0 0.47911227232856668 0.09907818001940101 0 0.5 0.1168645929183502 0 0.47911227232856668 0.09907818001940101 0 0.5 0.089131267912991197 0 0.48369720064842647 0.1280225697211729 0 0.47911227232856668 0.09907818001940101 0 0.46597719939595772 0.11928854037370019 0 0.48592231416185638 0.0752646054103117 0 0.5 0.089131267912991197 0 0.5 0.06139794290763223 0 0.47911227232856668 0.09907818001940101 0 0.48592231416185638 0.0752646054103117 0 0.5 0.089131267912991197 0 0.47911227232856668 0.09907818001940101 0 0.48592231416185638 0.0752646054103117 0 0.46599422920766509 0.071585542922595516 0 0.48592231416185638 0.0752646054103117 0 0.46599422920766509 0.071585542922595516 0 0.47969083044660421 0.050503904472553283 0 0.47911227232856668 0.09907818001940101 0 0.46599422920766509 0.071585542922595516 0 0.45660210543223351 0.096238293732025512 0 0.46599422920766509 0.071585542922595516 0 0.44319262383460789 0.070531660330671375 0 0.45660210543223351 0.096238293732025512 0 0.44319262383460789 0.070531660330671375 0 0.45660210543223351 0.096238293732025512 0 0.43559540491542181 0.095634413362833848 0 0.46597719939595772 0.11928854037370019 0 0.45660210543223351 0.096238293732025512 0 0.44441253831551758 0.1138689947079024 0 0.47911227232856668 0.09907818001940101 0 0.46597719939595772 0.11928854037370019 0 0.45660210543223351 0.096238293732025512 0 0.45660210543223351 0.096238293732025512 0 0.44441253831551758 0.1138689947079024 0 0.43559540491542181 0.095634413362833848 0 0.4479899973006039 0.1367827499865252 0 0.46597719939595772 0.11928854037370019 0 0.44441253831551758 0.1138689947079024 0 0.429848517254516 0.1255917524949702 0 0.44441253831551758 0.1138689947079024 0 0.42416274095453271 0.1101558860989641 0 0.429848517254516 0.1255917524949702 0 0.41384889774502859 0.12525543762671809 0 0.42416274095453271 0.1101558860989641 0 0.41384889774502859 0.12525543762671809 0 0.42416274095453271 0.1101558860989641 0 0.40716605829359193 0.1120264799895512 0 0.39816792615439378 0.12760480203569169 0 0.41384889774502859 0.12525543762671809 0 0.40716605829359193 0.1120264799895512 0 0.40716605829359193 0.1120264799895512 0 0.41525133388600899 0.093407911538609431 0 0.39656535672550852 0.092974877928873267 0 0.42416274095453271 0.1101558860989641 0 0.40716605829359193 0.1120264799895512 0 0.41525133388600899 0.093407911538609431 0 0.42416274095453271 0.1101558860989641 0 0.43559540491542181 0.095634413362833848 0 0.41525133388600899 0.093407911538609431 0 0.44441253831551758 0.1138689947079024 0 0.42416274095453271 0.1101558860989641 0 0.43559540491542181 0.095634413362833848 0 0.43559540491542181 0.095634413362833848 0 0.4195547633014628 0.073570994746074828 0 0.41525133388600899 0.093407911538609431 0 0.43559540491542181 0.095634413362833848 0 0.4195547633014628 0.073570994746074828 0 0.44319262383460789 0.070531660330671375 0 0.43559540491542181 0.095634413362833848 0 0.4195547633014628 0.073570994746074828 0 0.44319262383460789 0.070531660330671375 0 0.4195547633014628 0.073570994746074828 0 0.42728191937221521 0.050914286525162993 0 0.4195547633014628 0.073570994746074828 0 0.39780951386322527 0.071813900777571313 0 0.40351412168750378 0.051507576129315842 0 0.4195547633014628 0.073570994746074828 0 0.40351412168750378 0.051507576129315842 0 0.4195547633014628 0.073570994746074828 0 0.41525133388600899 0.093407911538609431 0 0.39780951386322527 0.071813900777571313 0 0.41525133388600899 0.093407911538609431 0 0.39656535672550852 0.092974877928873267 0 0.39780951386322527 0.071813900777571313 0 0.37400882161871279 0.083619613235024759 0 0.37883567044039879 0.062600723425798879 0 0.39780951386322527 0.071813900777571313 0 0.37883567044039879 0.062600723425798879 0 0.3909554563133032 0.056876008487314757 0 0.37400882161871279 0.083619613235024759 0 0.39780951386322527 0.071813900777571313 0 0.37883567044039879 0.062600723425798879 0 0.37400882161871279 0.083619613235024759 0 0.39656535672550852 0.092974877928873267 0 0.38808178026068268 0.10392801007035141 0 0.37400882161871279 0.083619613235024759 0 0.39656535672550852 0.092974877928873267 0 0.39780951386322527 0.071813900777571313 0 0.37455144446510141 0.10193275935197101 0 0.37400882161871279 0.083619613235024759 0 0.38808178026068268 0.10392801007035141 0 0.37455144446510141 0.10193275935197101 0 0.38808178026068268 0.10392801007035141 0 0.37815432920295677 0.1109533992790251 0 0.37035748409374952 0.12191913965183331 0 0.38876177119367089 0.116972809820693 0 0.37035748409374952 0.12191913965183331 0 0.37511757494472903 0.123072110010257 0 0.38876177119367089 0.116972809820693 0 0.37035748409374952 0.12191913965183331 0 0.37815432920295677 0.1109533992790251 0 0.38876177119367089 0.116972809820693 0 0.3828943795393005 0.1298338505994551 0 0.37511757494472903 0.123072110010257 0 0.38876177119367089 0.116972809820693 0 0.3828943795393005 0.1298338505994551 0 0.39816792615439378 0.12760480203569169 0 0.38876177119367089 0.116972809820693 0 0.38808178026068268 0.10392801007035141 0 0.37815432920295677 0.1109533992790251 0 0.38876177119367089 0.116972809820693 0 0.40716605829359193 0.1120264799895512 0 0.38876177119367089 0.116972809820693 0 0.39816792615439378 0.12760480203569169 0 0.40716605829359193 0.1120264799895512 0 0.38876177119367089 0.116972809820693 0 0.40716605829359193 0.1120264799895512 0 0.38808178026068268 0.10392801007035141 0 0.38876177119367089 0.116972809820693 0 0.40716605829359193 0.1120264799895512 0 0.39656535672550852 0.092974877928873267 0 0.38808178026068268 0.10392801007035141 0 0.39895333728429933 0.027539300906755181 0 0.38848936808377088 0.020562943807347231 0 0.4122691541308795 0.010257189796790951 0 0.39895333728429933 0.027539300906755181 0 0.38848936808377088 0.020562943807347231 0 0.38747348007354487 0.029444157512556919 0 0.39212595536292472 0.0047271407553128551 0 0.4122691541308795 0.010257189796790951 0 0.40542454288086849 -0.004070234290400764 0 0.38848936808377088 0.020562943807347231 0 0.4122691541308795 0.010257189796790951 0 0.39212595536292472 0.0047271407553128551 0 0.38848936808377088 0.020562943807347231 0 0.4122691541308795 0.010257189796790951 0 0.39212595536292472 0.0047271407553128551 0 0.38120377069012762 0.010554394007073271 0 0.36845156083710567 -0.0060515153414843056 0 0.36934971840039982 0.01412264887454192 0 0.38120377069012762 0.010554394007073271 0 0.38848936808377088 0.020562943807347231 0 0.39212595536292472 0.0047271407553128551 0 0.38120377069012762 0.010554394007073271 0 0.38848936808377088 0.020562943807347231 0 0.39212595536292472 0.0047271407553128551 0 0.38848936808377088 0.020562943807347231 0 0.38848936808377088 0.020562943807347231 0 0.38747348007354487 0.029444157512556919 0 0.38366251926208489 0.041581833616573027 0 0.38848936808377088 0.020562943807347231 0 0.38366251926208489 0.041581833616573027 0 0.36096242836060388 0.032492650360987897 0 0.38848936808377088 0.020562943807347231 0 0.38366251926208489 0.041581833616573027 0 0.37883567044039879 0.062600723425798879 0 0.38366251926208489 0.041581833616573027 0 0.3909554563133032 0.056876008487314757 0 0.37883567044039879 0.062600723425798879 0 0.38366251926208489 0.041581833616573027 0 0.36884998715724038 0.048654936693666287 0 0.37883567044039879 0.062600723425798879 0 0.38366251926208489 0.041581833616573027 0 0.38366251926208489 0.041581833616573027 0 0.40351412168750378 0.051507576129315842 0 0.3909554563133032 0.056876008487314757 0 0.39780951386322527 0.071813900777571313 0 0.40351412168750378 0.051507576129315842 0 0.3909554563133032 0.056876008487314757 0 0.38747348007354487 0.029444157512556919 0 0.40351412168750378 0.051507576129315842 0 0.39895333728429933 0.027539300906755181 0 0.40351412168750378 0.051507576129315842 0 0.40867742594100492 0.02913313449165824 0 0.39895333728429933 0.027539300906755181 0 0.38747348007354487 0.029444157512556919 0 0.40351412168750378 0.051507576129315842 0 0.38747348007354487 0.029444157512556919 0 0.38366251926208489 0.041581833616573027 0 0.40351412168750378 0.051507576129315842 0 0.40351412168750378 0.051507576129315842 0 0.41712069737947322 0.039684074088297272 0 0.40867742594100492 0.02913313449165824 0 0.41712069737947322 0.039684074088297272 0 0.42900932251716922 0.027181299207052031 0 0.40867742594100492 0.02913313449165824 0 0.40351412168750378 0.051507576129315842 0 0.41712069737947322 0.039684074088297272 0 0.42728191937221521 0.050914286525162993 0 0.4195547633014628 0.073570994746074828 0 0.40351412168750378 0.051507576129315842 0 0.42728191937221521 0.050914286525162993 0 0.41712069737947322 0.039684074088297272 0 0.42728191937221521 0.050914286525162993 0 0.42900932251716922 0.027181299207052031 0 0.42728191937221521 0.050914286525162993 0 0.42900932251716922 0.027181299207052031 0 0.45357816737839107 0.043281393992262968 0 0.42900932251716922 0.027181299207052031 0 0.40867742594100492 0.02913313449165824 0 0.4122691541308795 0.010257189796790951 0 0.39895333728429933 0.027539300906755181 0 0.40867742594100492 0.02913313449165824 0 0.4122691541308795 0.010257189796790951 0 0.4122691541308795 0.010257189796790951 0 0.42733427856619571 -0.0085863840744332814 0 0.43604894017798812 -4.8564213765240817e-05 0 0.42900932251716922 0.027181299207052031 0 0.4122691541308795 0.010257189796790951 0 0.43604894017798812 -4.8564213765240817e-05 0 0.4122691541308795 0.010257189796790951 0 0.43604894017798812 -4.8564213765240817e-05 0 0.45021491583924189 0.016350560368503721 0 0.45982872622509668 -0.01035431822432146 0 0.43604894017798812 -4.8564213765240817e-05 0 0.42900932251716922 0.027181299207052031 0 0.45021491583924189 0.016350560368503721 0 0.43604894017798812 -4.8564213765240817e-05 0 0.42900932251716922 0.027181299207052031 0 0.45021491583924189 0.016350560368503721 0 0.45357816737839107 0.043281393992262968 0 0.45021491583924189 0.016350560368503721 0 0.45357816737839107 0.043281393992262968 0 0.47265027193171238 0.017829323700243871 0 0.45021491583924189 0.016350560368503721 0 0.47265027193171238 0.017829323700243871 0 0.45982872622509668 -0.01035431822432146 0 0.45357816737839107 0.043281393992262968 0 0.47969083044660421 0.050503904472553283 0 0.47265027193171238 0.017829323700243871 0 0.44319262383460789 0.070531660330671375 0 0.42728191937221521 0.050914286525162993 0 0.45357816737839107 0.043281393992262968 0 0.46599422920766509 0.071585542922595516 0 0.44319262383460789 0.070531660330671375 0 0.45357816737839107 0.043281393992262968 0 0.46599422920766509 0.071585542922595516 0 0.45357816737839107 0.043281393992262968 0 0.47969083044660421 0.050503904472553283 0 0.47969083044660421 0.050503904472553283 0 0.5 0.033664617902273368 0 0.47265027193171238 0.017829323700243871 0 0.48592231416185638 0.0752646054103117 0 0.47969083044660421 0.050503904472553283 0 0.5 0.06139794290763223 0 0.47969083044660421 0.050503904472553283 0 0.5 0.033664617902273368 0 0.5 0.06139794290763223 0 0.5 0.033664617902273368 0 0.47265027193171238 0.017829323700243871 0 0.5 0.0059312928969145204 0 0.47265027193171238 0.017829323700243871 0 0.5 0.0059312928969145204 0 0.48261795830076532 -0.0084137270416950408 0 0.5 0.0059312928969145204 0 0.48261795830076532 -0.0084137270416950408 0 0.5 -0.021802032108444391 0 0.47265027193171238 0.017829323700243871 0 0.48261795830076532 -0.0084137270416950408 0 0.45982872622509668 -0.01035431822432146 0 0.48261795830076532 -0.0084137270416950408 0 0.48385521188952352 -0.03103713942335571 0 0.45982872622509668 -0.01035431822432146 0 0.48385521188952352 -0.03103713942335571 0 0.46768790053651399 -0.040232759786602873 0 0.45982872622509668 -0.01035431822432146 0 0.48261795830076532 -0.0084137270416950408 0 0.48385521188952352 -0.03103713942335571 0 0.5 -0.021802032108444391 0 0.48385521188952352 -0.03103713942335571 0 0.49518245524492172 -0.045789595090724652 0 0.49482530481253351 -0.04804557135493729 0 0.5 -0.021802032108444391 0 0.49518245524492172 -0.045789595090724652 0 0.49999999999998263 -0.049535357113803247 0 0.48385521188952352 -0.03103713942335571 0 0.5 -0.021802032108444391 0 0.49518245524492172 -0.045789595090724652 0 0.49482530481253351 -0.04804557135493729 0 0.47636674367150789 -0.060588545727567042 0 0.49016972248203172 -0.07745302065780417 0 0.49999999999998263 -0.049535357113803247 0 0.49482530481253351 -0.04804557135493729 0 0.49016972248203172 -0.07745302065780417 0 0.49999999999998263 -0.049535357113803247 0 0.49482530481253351 -0.04804557135493729 0 0.49518245524492172 -0.045789595090724652 0 0.49999999999998263 -0.049535357113803247 0 0.49482530481253351 -0.04804557135493729 0 0.49518245524492172 -0.045789595090724652 0 0.49482530481253351 -0.04804557135493729 0 0.49482530481253351 -0.04804557135493729 0 0.47636674367150789 -0.060588545727567042 0 0.46768790053651399 -0.040232759786602873 0 0.49482530481253351 -0.04804557135493729 0 0.46768790053651399 -0.040232759786602873 0 0.48385521188952352 -0.03103713942335571 0 0.49482530481253351 -0.04804557135493729 0 0.46768790053651399 -0.040232759786602873 0 0.46768790053651399 -0.040232759786602873 0 0.44055049626049481 -0.03241994821826754 0 0.47636674367150789 -0.060588545727567042 0 0.46768790053651399 -0.040232759786602873 0 0.44971823816913109 -0.058611894661768998 0 0.46768790053651399 -0.040232759786602873 0 0.44971823816913109 -0.058611894661768998 0 0.44055049626049481 -0.03241994821826754 0 0.44971823816913109 -0.058611894661768998 0 0.44055049626049481 -0.03241994821826754 0 0.42776585910878662 -0.047462582859365887 0 0.44055049626049481 -0.03241994821826754 0 0.43862233638968018 -0.01433991032473066 0 0.45982872622509668 -0.01035431822432146 0 0.45982872622509668 -0.01035431822432146 0 0.43604894017798812 -4.8564213765240817e-05 0 0.43862233638968018 -0.01433991032473066 0 0.45982872622509668 -0.01035431822432146 0 0.43604894017798812 -4.8564213765240817e-05 0 0.46768790053651399 -0.040232759786602873 0 0.44055049626049481 -0.03241994821826754 0 0.45982872622509668 -0.01035431822432146 0 0.47499259514944292 -0.1202547269832886 0 0.48551414015152222 -0.10686046996066979 0 0.48085855782101261 -0.13626791926353529 0 0.47418157221881441 -0.11112465676427991 0 0.47528951870947961 -0.09927779745641295 0 0.46093003486481321 -0.11810563265674839 0 0.48551414015152222 -0.10686046996066979 0 0.48085855782101261 -0.13626791926353529 0 0.47499259514944292 -0.1202547269832886 0 0.46093003486481321 -0.11810563265674839 0 0.47239045088042492 -0.13005034139104371 0 0.47499259514944292 -0.1202547269832886 0 0.47418157221881441 -0.11112465676427991 0 0.46093003486481321 -0.11810563265674839 0 0.47499259514944292 -0.1202547269832886 0 0.47418157221881441 -0.11112465676427991 0 0.48551414015152222 -0.10686046996066979 0 0.48986304781109291 -0.1242692167884092 0 0.49384429699065369 -0.1173080088948287 0 0.48551414015152222 -0.10686046996066979 0 0.48986304781109291 -0.1242692167884092 0 0.48551414015152222 -0.10686046996066979 0 0.48085855782101261 -0.13626791926353529 0 0.49384429699065369 -0.1173080088948287 0 0.5 -0.1051480109548549 0 0.5 -0.13295433787538069 0 0.48986304781109291 -0.1242692167884092 0 0.49384429699065369 -0.1173080088948287 0 0.5 -0.13295433787538069 0 0.49384429699065369 -0.1173080088948287 0 0.48551414015152222 -0.10686046996066979 0 0.5 -0.1051480109548549 0 0.48551414015152222 -0.10686046996066979 0 0.5 -0.1051480109548549 0 0.49016972248203172 -0.07745302065780417 0 0.48551414015152222 -0.10686046996066979 0 0.47528951870947961 -0.09927779745641295 0 0.4786949329242487 -0.090297096352784045 0 0.47418157221881441 -0.11112465676427991 0 0.48551414015152222 -0.10686046996066979 0 0.47528951870947961 -0.09927779745641295 0 0.47494193394216588 -0.078729965701305249 0 0.4786949329242487 -0.090297096352784045 0 0.46755934933604398 -0.089164227987728051 0 0.47528951870947961 -0.09927779745641295 0 0.4786949329242487 -0.090297096352784045 0 0.46755934933604398 -0.089164227987728051 0 0.47494193394216588 -0.078729965701305249 0 0.4786949329242487 -0.090297096352784045 0 0.49016972248203172 -0.07745302065780417 0 0.48551414015152222 -0.10686046996066979 0 0.49016972248203172 -0.07745302065780417 0 0.5 -0.1051480109548549 0 0.49016972248203172 -0.07745302065780417 0 0.5 -0.077341684034329061 0 0.48551414015152222 -0.10686046996066979 0 0.4786949329242487 -0.090297096352784045 0 0.49016972248203172 -0.07745302065780417 0 0.49999999999998263 -0.049535357113803247 0 0.49016972248203172 -0.07745302065780417 0 0.5 -0.077341684034329061 0 0.49482530481253351 -0.04804557135493729 0 0.49016972248203172 -0.07745302065780417 0 0.47636674367150789 -0.060588545727567042 0 0.47494193394216588 -0.078729965701305249 0 0.49016972248203172 -0.07745302065780417 0 0.47636674367150789 -0.060588545727567042 0 0.47494193394216588 -0.078729965701305249 0 0.4592808493329405 -0.078369632624057675 0 0.47636674367150789 -0.060588545727567042 0 0.44971823816913109 -0.058611894661768998 0 0.4592808493329405 -0.078369632624057675 0 0.47636674367150789 -0.060588545727567042 0 0.4592808493329405 -0.078369632624057675 0 0.44971823816913109 -0.058611894661768998 0 0.44126951216661869 -0.079236189142810429 0 0.42731029070553322 -0.068277018127587574 0 0.44971823816913109 -0.058611894661768998 0 0.44126951216661869 -0.079236189142810429 0 0.4592808493329405 -0.078369632624057675 0 0.4592808493329405 -0.078369632624057675 0 0.44219495499437311 -0.096150719520548239 0 0.44126951216661869 -0.079236189142810429 0 0.4592808493329405 -0.078369632624057675 0 0.44219495499437311 -0.096150719520548239 0 0.47494193394216588 -0.078729965701305249 0 0.4592808493329405 -0.078369632624057675 0 0.46755934933604398 -0.089164227987728051 0 0.4592808493329405 -0.078369632624057675 0 0.46755934933604398 -0.089164227987728051 0 0.44219495499437311 -0.096150719520548239 0 0.46755934933604398 -0.089164227987728051 0 0.46093003486481321 -0.11810563265674839 0 0.46755934933604398 -0.089164227987728051 0 0.44219495499437311 -0.096150719520548239 0 0.46093003486481321 -0.11810563265674839 0 0.47528951870947961 -0.09927779745641295 0 0.46755934933604398 -0.089164227987728051 0 0.46093003486481321 -0.11810563265674839 0 0.441730170532879 -0.1159420230490274 0 0.46093003486481321 -0.11810563265674839 0 0.44582693855797939 -0.1311402400572215 0 0.44219495499437311 -0.096150719520548239 0 0.441730170532879 -0.1159420230490274 0 0.46093003486481321 -0.11810563265674839 0 0.42510906065580589 -0.11393180641703871 0 0.40802316631723889 -0.13171289331352951 0 0.40725115801851319 -0.1169919833964142 0 0.42510906065580589 -0.11393180641703871 0 0.40802316631723889 -0.13171289331352951 0 0.40725115801851319 -0.1169919833964142 0 0.42510906065580589 -0.11393180641703871 0 0.4147200547274239 -0.1079547067436207 0 0.40725115801851319 -0.1169919833964142 0 0.4147200547274239 -0.1079547067436207 0 0.40692444267373179 -0.1088204768843429 0 0.441730170532879 -0.1159420230490274 0 0.42510906065580589 -0.11393180641703871 0 0.43087782981676859 -0.131879285754128 0 0.44219495499437311 -0.096150719520548239 0 0.42510906065580589 -0.11393180641703871 0 0.44219495499437311 -0.096150719520548239 0 0.441730170532879 -0.1159420230490274 0 0.42510906065580589 -0.11393180641703871 0 0.44219495499437311 -0.096150719520548239 0 0.42510906065580589 -0.11393180641703871 0 0.4234909377050316 -0.092737982748798881 0 0.42510906065580589 -0.11393180641703871 0 0.4147200547274239 -0.1079547067436207 0 0.4234909377050316 -0.092737982748798881 0 0.4147200547274239 -0.1079547067436207 0 0.40904120664506322 -0.09935874077938342 0 0.4234909377050316 -0.092737982748798881 0 0.4147200547274239 -0.1079547067436207 0 0.40692444267373179 -0.1088204768843429 0 0.40904120664506322 -0.09935874077938342 0 0.40904120664506322 -0.09935874077938342 0 0.4234909377050316 -0.092737982748798881 0 0.40226126486411301 -0.082186696628613137 0 0.4234909377050316 -0.092737982748798881 0 0.42731029070553322 -0.068277018127587574 0 0.40226126486411301 -0.082186696628613137 0 0.44126951216661869 -0.079236189142810429 0 0.4234909377050316 -0.092737982748798881 0 0.42731029070553322 -0.068277018127587574 0 0.44126951216661869 -0.079236189142810429 0 0.44219495499437311 -0.096150719520548239 0 0.4234909377050316 -0.092737982748798881 0 0.42731029070553322 -0.068277018127587574 0 0.40226126486411301 -0.082186696628613137 0 0.40783717842429862 -0.053396916639273179 0 0.40226126486411301 -0.082186696628613137 0 0.40783717842429862 -0.053396916639273179 0 0.38429333219820472 -0.067131704106828338 0 0.40226126486411301 -0.082186696628613137 0 0.40783717842429862 -0.053396916639273179 0 0.38429333219820472 -0.067131704106828338 0 0.38199460798391838 -0.085246791459625215 0 0.40226126486411301 -0.082186696628613137 0 0.38199460798391838 -0.085246791459625215 0 0.40226126486411301 -0.082186696628613137 0 0.39106825526090561 -0.1007030293946076 0 0.40226126486411301 -0.082186696628613137 0 0.39106825526090561 -0.1007030293946076 0 0.39668535130392929 -0.1109764766179535 0 0.40904120664506322 -0.09935874077938342 0 0.40226126486411301 -0.082186696628613137 0 0.39668535130392929 -0.1109764766179535 0 0.40226126486411301 -0.082186696628613137 0 0.39668535130392929 -0.1109764766179535 0 0.40692444267373179 -0.1088204768843429 0 0.40904120664506322 -0.09935874077938342 0 0.39668535130392929 -0.1109764766179535 0 0.39106825526090561 -0.1007030293946076 0 0.39668535130392929 -0.1109764766179535 0 0.39106825526090561 -0.1007030293946076 0 0.3799934613124491 -0.1141351934829782 0 0.39668535130392929 -0.1109764766179535 0 0.38199460798391838 -0.085246791459625215 0 0.39106825526090561 -0.1007030293946076 0 0.37706007999693841 -0.1011775095245466 0 0.39106825526090561 -0.1007030293946076 0 0.37706007999693841 -0.1011775095245466 0 0.3799934613124491 -0.1141351934829782 0 0.3799934613124491 -0.1141351934829782 0 0.39668535130392929 -0.1109764766179535 0 0.3932705088567644 -0.1286081277708763 0 0.3799934613124491 -0.1141351934829782 0 0.37104303648388809 -0.1272612894930944 0 0.3932705088567644 -0.1286081277708763 0 0.40224748518751269 -0.1211494002184121 0 0.3932705088567644 -0.1286081277708763 0 0.39668535130392929 -0.1109764766179535 0 0.3932705088567644 -0.1286081277708763 0 0.39668535130392929 -0.1109764766179535 0 0.40224748518751269 -0.1211494002184121 0 0.3932705088567644 -0.1286081277708763 0 0.40725115801851319 -0.1169919833964142 0 0.39668535130392929 -0.1109764766179535 0 0.40224748518751269 -0.1211494002184121 0 0.39668535130392929 -0.1109764766179535 0 0.40224748518751269 -0.1211494002184121 0 0.40725115801851319 -0.1169919833964142 0 0.40692444267373179 -0.1088204768843429 0 0.39668535130392929 -0.1109764766179535 0 0.40725115801851319 -0.1169919833964142 0 0.40224748518751269 -0.1211494002184121 0 0.40725115801851319 -0.1169919833964142 0 0.40224748518751269 -0.1211494002184121 0 0.40802316631723889 -0.13171289331352951 0 0.42156842614681772 -0.015954947998216139 0 0.41341309198447568 -0.024607136649931451 0 0.42934924071862562 -0.02029033689286578 0 0.41341309198447568 -0.024607136649931451 0 0.41617709331797431 -0.010335934375633319 0 0.42156842614681772 -0.015954947998216139 0 0.41341309198447568 -0.024607136649931451 0 0.41617709331797431 -0.010335934375633319 0 0.41341309198447568 -0.024607136649931451 0 0.40231254689356027 -0.037392070823486202 0 0.40309603266908228 -0.02802239201193971 0 0.41341309198447568 -0.024607136649931451 0 0.41078796895048542 -0.01389090533175278 0 0.39783226839882679 -0.020121444594939791 0 0.41341309198447568 -0.024607136649931451 0 0.41078796895048542 -0.01389090533175278 0 0.41617709331797431 -0.010335934375633319 0 0.41078796895048542 -0.01389090533175278 0 0.41617709331797431 -0.010335934375633319 0 0.40542454288086849 -0.004070234290400764 0 0.4122691541308795 0.010257189796790951 0 0.41617709331797431 -0.010335934375633319 0 0.40542454288086849 -0.004070234290400764 0 0.4122691541308795 0.010257189796790951 0 0.41617709331797431 -0.010335934375633319 0 0.42733427856619571 -0.0085863840744332814 0 0.42156842614681772 -0.015954947998216139 0 0.41617709331797431 -0.010335934375633319 0 0.42733427856619571 -0.0085863840744332814 0 0.42156842614681772 -0.015954947998216139 0 0.42733427856619571 -0.0085863840744332814 0 0.42934924071862562 -0.02029033689286578 0 0.43862233638968018 -0.01433991032473066 0 0.42733427856619571 -0.0085863840744332814 0 0.43604894017798812 -4.8564213765240817e-05 0 0.43862233638968018 -0.01433991032473066 0 0.42733427856619571 -0.0085863840744332814 0 0.42934924071862562 -0.02029033689286578 0 0.44055049626049481 -0.03241994821826754 0 0.43862233638968018 -0.01433991032473066 0 0.42934924071862562 -0.02029033689286578 0 0.44055049626049481 -0.03241994821826754 0 0.41341309198447568 -0.024607136649931451 0 0.42934924071862562 -0.02029033689286578 0 0.44055049626049481 -0.03241994821826754 0 0.41341309198447568 -0.024607136649931451 0 0.44055049626049481 -0.03241994821826754 0 0.41341309198447568 -0.024607136649931451 0 0.42776585910878662 -0.047462582859365887 0 0.44971823816913109 -0.058611894661768998 0 0.42731029070553322 -0.068277018127587574 0 0.42776585910878662 -0.047462582859365887 0 0.42731029070553322 -0.068277018127587574 0 0.42776585910878662 -0.047462582859365887 0 0.40783717842429862 -0.053396916639273179 0 0.41341309198447568 -0.024607136649931451 0 0.42776585910878662 -0.047462582859365887 0 0.40783717842429862 -0.053396916639273179 0 0.41341309198447568 -0.024607136649931451 0 0.40783717842429862 -0.053396916639273179 0 0.40231254689356027 -0.037392070823486202 0 0.41341309198447568 -0.024607136649931451 0 0.40783717842429862 -0.053396916639273179 0 0.40231254689356027 -0.037392070823486202 0 0.3981973431289102 -0.028872790202489229 0 0.40309603266908228 -0.02802239201193971 0 0.40231254689356027 -0.037392070823486202 0 0.38732801778773829 -0.04651698367670077 0 0.38934459454031273 -0.029067224222560958 0 0.40783717842429862 -0.053396916639273179 0 0.40231254689356027 -0.037392070823486202 0 0.38732801778773829 -0.04651698367670077 0 0.40231254689356027 -0.037392070823486202 0 0.38934459454031273 -0.029067224222560958 0 0.3981973431289102 -0.028872790202489229 0 0.38429333219820472 -0.067131704106828338 0 0.40783717842429862 -0.053396916639273179 0 0.38732801778773829 -0.04651698367670077 0 0.38429333219820472 -0.067131704106828338 0 0.38732801778773829 -0.04651698367670077 0 0.37042415964797237 -0.053058901563766692 0 0.38732801778773829 -0.04651698367670077 0 0.37068698927403948 -0.035605583580554698 0 0.37042415964797237 -0.053058901563766692 0 0.38732801778773829 -0.04651698367670077 0 0.38934459454031273 -0.029067224222560958 0 0.37068698927403948 -0.035605583580554698 0 0.38934459454031273 -0.029067224222560958 0 0.36983137800827248 -0.01206003687362641 0 0.37068698927403948 -0.035605583580554698 0 0.38934459454031273 -0.029067224222560958 0 0.39783226839882679 -0.020121444594939791 0 0.36983137800827248 -0.01206003687362641 0 0.39783226839882679 -0.020121444594939791 0 0.36983137800827248 -0.01206003687362641 0 0.38934459454031273 -0.029067224222560958 0 0.3981973431289102 -0.028872790202489229 0 0.39783226839882679 -0.020121444594939791 0 0.41341309198447568 -0.024607136649931451 0 0.39783226839882679 -0.020121444594939791 0 0.41341309198447568 -0.024607136649931451 0 0.39783226839882679 -0.020121444594939791 0 0.40309603266908228 -0.02802239201193971 0 0.3981973431289102 -0.028872790202489229 0 0.39783226839882679 -0.020121444594939791 0 0.40309603266908228 -0.02802239201193971 0 0.39212595536292472 0.0047271407553128551 0 0.39576254264207811 -0.011108662296721609 0 0.39212595536292472 0.0047271407553128551 0 0.40542454288086849 -0.004070234290400764 0 0.39576254264207811 -0.011108662296721609 0 0.41078796895048542 -0.01389090533175278 0 0.39783226839882679 -0.020121444594939791 0 0.39576254264207811 -0.011108662296721609 0 0.41078796895048542 -0.01389090533175278 0 0.39576254264207811 -0.011108662296721609 0 0.41078796895048542 -0.01389090533175278 0 0.40542454288086849 -0.004070234290400764 0 0.39576254264207811 -0.011108662296721609 0 0.39783226839882679 -0.020121444594939791 0 0.39576254264207811 -0.011108662296721609 0 0.39576254264207811 -0.011108662296721609 0 0.36983137800827248 -0.01206003687362641 0 0.36845156083710567 -0.0060515153414843056 0 0.39576254264207811 -0.011108662296721609 0 0.36845156083710567 -0.0060515153414843056 0 0.39212595536292472 0.0047271407553128551 0 0.39576254264207811 -0.011108662296721609 0 0.36845156083710567 -0.0060515153414843056 0 0.39783226839882679 -0.020121444594939791 0 0.39576254264207811 -0.011108662296721609 0 0.36983137800827248 -0.01206003687362641 0 0.36983137800827248 -0.01206003687362641 0 0.36845156083710567 -0.0060515153414843056 0 0.34183048761771712 -0.0039986291523161147 0 0.36983137800827248 -0.01206003687362641 0 0.35223914962217417 -0.02278106829858554 0 0.37068698927403948 -0.035605583580554698 0 0.36983137800827248 -0.01206003687362641 0 0.35223914962217417 -0.02278106829858554 0 0.34183048761771712 -0.0039986291523161147 0 0.36983137800827248 -0.01206003687362641 0 0.34183048761771712 -0.0039986291523161147 0 0.36845156083710567 -0.0060515153414843056 0 0.34114057903213352 -0.00099436838624600288 0 0.36845156083710567 -0.0060515153414843056 0 0.34183048761771712 -0.0039986291523161147 0 0.34114057903213352 -0.00099436838624600288 0 0.35223914962217417 -0.02278106829858554 0 0.34183048761771712 -0.0039986291523161147 0 0.33977780877024261 -0.017668132193127541 0 0.31382959722716158 0.0040627785689932028 0 0.34183048761771712 -0.0039986291523161147 0 0.34114057903213352 -0.00099436838624600288 0 0.34183048761771712 -0.0039986291523161147 0 0.33574973546384762 -0.01167659105592548 0 0.32194573769061952 -0.0077676308935595512 0 0.34183048761771712 -0.0039986291523161147 0 0.33574973546384762 -0.01167659105592548 0 0.33977780877024261 -0.017668132193127541 0 0.35223914962217417 -0.02278106829858554 0 0.33977780877024261 -0.017668132193127541 0 0.33879793226643329 -0.029417681387060649 0 0.33574973546384762 -0.01167659105592548 0 0.3302717388810405 -0.020466691071749941 0 0.3196214637881436 -0.021924893160697439 0 0.33977780877024261 -0.017668132193127541 0 0.33879793226643329 -0.029417681387060649 0 0.3302717388810405 -0.020466691071749941 0 0.33879793226643329 -0.029417681387060649 0 0.32862271298124018 -0.028919582591936679 0 0.3302717388810405 -0.020466691071749941 0 0.33574973546384762 -0.01167659105592548 0 0.33977780877024261 -0.017668132193127541 0 0.3302717388810405 -0.020466691071749941 0 0.3302717388810405 -0.020466691071749941 0 0.32526768976560849 -0.02407540610795475 0 0.3196214637881436 -0.021924893160697439 0 0.33574973546384762 -0.01167659105592548 0 0.3196214637881436 -0.021924893160697439 0 0.32862271298124018 -0.028919582591936679 0 0.3302717388810405 -0.020466691071749941 0 0.32526768976560849 -0.02407540610795475 0 0.32862271298124018 -0.028919582591936679 0 0.32095671603858011 -0.024994897592425049 0 0.3231679364015333 -0.033306441836977792 0 0.32862271298124018 -0.028919582591936679 0 0.32526768976560849 -0.02407540610795475 0 0.32095671603858011 -0.024994897592425049 0 0.32526768976560849 -0.02407540610795475 0 0.32095671603858011 -0.024994897592425049 0 0.3196214637881436 -0.021924893160697439 0 0.32095671603858011 -0.024994897592425049 0 0.3196214637881436 -0.021924893160697439 0 0.31660160940309118 -0.035871797032442469 0 0.32095671603858011 -0.024994897592425049 0 0.3196214637881436 -0.021924893160697439 0 0.33574973546384762 -0.01167659105592548 0 0.3196214637881436 -0.021924893160697439 0 0.32194573769061952 -0.0077676308935595512 0 0.30752965714041391 0.0058765203804442539 0 0.3196214637881436 -0.021924893160697439 0 0.32194573769061952 -0.0077676308935595512 0 0.31382959722716158 0.0040627785689932028 0 0.34183048761771712 -0.0039986291523161147 0 0.32194573769061952 -0.0077676308935595512 0 0.30752965714041391 0.0058765203804442539 0 0.3196214637881436 -0.021924893160697439 0 0.31292981148517318 -0.054457989835630861 0 0.33951515654934239 -0.057829064589421393 0 0.331762206516936 -0.074199649102278678 0 0.31292981148517318 -0.054457989835630861 0 0.32943454752299528 -0.042779626289088678 0 0.31292981148517318 -0.054457989835630861 0 0.32943454752299528 -0.042779626289088678 0 0.33951515654934239 -0.057829064589421393 0 0.31292981148517318 -0.054457989835630861 0 0.31660160940309118 -0.035871797032442469 0 0.32943454752299528 -0.042779626289088678 0 0.32095671603858011 -0.024994897592425049 0 0.31660160940309118 -0.035871797032442469 0 0.3231679364015333 -0.033306441836977792 0 0.32862271298124018 -0.028919582591936679 0 0.3231679364015333 -0.033306441836977792 0 0.32943454752299528 -0.042779626289088678 0 0.31660160940309118 -0.035871797032442469 0 0.3231679364015333 -0.033306441836977792 0 0.32943454752299528 -0.042779626289088678 0 0.33879793226643329 -0.029417681387060649 0 0.32943454752299528 -0.042779626289088678 0 0.35178468962230941 -0.045374559850196158 0 0.33879793226643329 -0.029417681387060649 0 0.32862271298124018 -0.028919582591936679 0 0.32943454752299528 -0.042779626289088678 0 0.32943454752299528 -0.042779626289088678 0 0.33951515654934239 -0.057829064589421393 0 0.35178468962230941 -0.045374559850196158 0 0.33951515654934239 -0.057829064589421393 0 0.35178468962230941 -0.045374559850196158 0 0.35802776935757019 -0.070665676604553529 0 0.35223914962217417 -0.02278106829858554 0 0.35178468962230941 -0.045374559850196158 0 0.37068698927403948 -0.035605583580554698 0 0.35223914962217417 -0.02278106829858554 0 0.33879793226643329 -0.029417681387060649 0 0.35178468962230941 -0.045374559850196158 0 0.35178468962230941 -0.045374559850196158 0 0.37068698927403948 -0.035605583580554698 0 0.37042415964797237 -0.053058901563766692 0 0.35178468962230941 -0.045374559850196158 0 0.37042415964797237 -0.053058901563766692 0 0.35802776935757019 -0.070665676604553529 0 0.38429333219820472 -0.067131704106828338 0 0.38199460798391838 -0.085246791459625215 0 0.35802776935757019 -0.070665676604553529 0 0.38429333219820472 -0.067131704106828338 0 0.37042415964797237 -0.053058901563766692 0 0.35802776935757019 -0.070665676604553529 0 0.38429333219820472 -0.067131704106828338 0 0.35802776935757019 -0.070665676604553529 0 0.38199460798391838 -0.085246791459625215 0 0.36577500316168848 -0.093055365242956031 0 0.35802776935757019 -0.070665676604553529 0 0.38199460798391838 -0.085246791459625215 0 0.37706007999693841 -0.1011775095245466 0 0.36577500316168848 -0.093055365242956031 0 0.35802776935757019 -0.070665676604553529 0 0.34487393367809682 -0.095216741312257352 0 0.331762206516936 -0.074199649102278678 0 0.36577500316168848 -0.093055365242956031 0 0.35802776935757019 -0.070665676604553529 0 0.34487393367809682 -0.095216741312257352 0 0.35802776935757019 -0.070665676604553529 0 0.331762206516936 -0.074199649102278678 0 0.3799934613124491 -0.1141351934829782 0 0.36192545204167298 -0.11208328153174781 0 0.37104303648388809 -0.1272612894930944 0 0.36192545204167298 -0.11208328153174781 0 0.35551888896884759 -0.1297027680154724 0 0.37104303648388809 -0.1272612894930944 0 0.37706007999693841 -0.1011775095245466 0 0.3799934613124491 -0.1141351934829782 0 0.36192545204167298 -0.11208328153174781 0 0.37706007999693841 -0.1011775095245466 0 0.36577500316168848 -0.093055365242956031 0 0.36192545204167298 -0.11208328153174781 0 0.36192545204167298 -0.11208328153174781 0 0.34487393367809682 -0.095216741312257352 0 0.34014121552940491 -0.1203166258242544 0 0.36577500316168848 -0.093055365242956031 0 0.36192545204167298 -0.11208328153174781 0 0.34487393367809682 -0.095216741312257352 0 0.36192545204167298 -0.11208328153174781 0 0.34014121552940491 -0.1203166258242544 0 0.35551888896884759 -0.1297027680154724 0 0.34014121552940491 -0.1203166258242544 0 0.32517348349888747 -0.118580130041643 0 0.32373683991627678 -0.1342707635111336 0 0.34014121552940491 -0.1203166258242544 0 0.32895182275083351 -0.1060869523066566 0 0.32517348349888747 -0.118580130041643 0 0.34487393367809682 -0.095216741312257352 0 0.34014121552940491 -0.1203166258242544 0 0.32895182275083351 -0.1060869523066566 0 0.34487393367809682 -0.095216741312257352 0 0.32895182275083351 -0.1060869523066566 0 0.32681031061177879 -0.089772122834636051 0 0.32895182275083351 -0.1060869523066566 0 0.31743464692623941 -0.099981704590172707 0 0.32681031061177879 -0.089772122834636051 0 0.31743464692623941 -0.099981704590172707 0 0.31638799147784608 -0.1118713826410174 0 0.30885616350321549 -0.1072846913931271 0 0.32895182275083351 -0.1060869523066566 0 0.31743464692623941 -0.099981704590172707 0 0.31638799147784608 -0.1118713826410174 0 0.32895182275083351 -0.1060869523066566 0 0.31638799147784608 -0.1118713826410174 0 0.32517348349888747 -0.118580130041643 0 0.31638799147784608 -0.1118713826410174 0 0.31399575267335023 -0.12250180558336519 0 0.30853123694459123 -0.1170064061326217 0 0.31638799147784608 -0.1118713826410174 0 0.31399575267335023 -0.12250180558336519 0 0.32517348349888747 -0.118580130041643 0 0.33951515654934239 -0.057829064589421393 0 0.35802776935757019 -0.070665676604553529 0 0.331762206516936 -0.074199649102278678 0 0.34487393367809682 -0.095216741312257352 0 0.331762206516936 -0.074199649102278678 0 0.32681031061177879 -0.089772122834636051 0 0.32681031061177879 -0.089772122834636051 0 0.30549664367630158 -0.077733621600003855 0 0.31220284993755582 -0.090742102146006851 0 0.331762206516936 -0.074199649102278678 0 0.32681031061177879 -0.089772122834636051 0 0.30549664367630158 -0.077733621600003855 0 0.31743464692623941 -0.099981704590172707 0 0.32681031061177879 -0.089772122834636051 0 0.31220284993755582 -0.090742102146006851 0 0.31292981148517318 -0.054457989835630861 0 0.331762206516936 -0.074199649102278678 0 0.30549664367630158 -0.077733621600003855 0 0.331762206516936 -0.074199649102278678 0 0.30549664367630158 -0.077733621600003855 0 0.31292981148517318 -0.054457989835630861 0 0.30549664367630158 -0.077733621600003855 0 0.29642507544735103 -0.06613635338217283 0 0.30549664367630158 -0.077733621600003855 0 0.29743178973804058 -0.092817056036521225 0 0.29642507544735103 -0.06613635338217283 0 0.29743178973804058 -0.092817056036521225 0 0.29642507544735103 -0.06613635338217283 0 0.31220284993755582 -0.090742102146006851 0 0.30524841693787119 -0.089877123387424693 0 0.30586238439958702 -0.098215713767166868 0 0.30549664367630158 -0.077733621600003855 0 0.31220284993755582 -0.090742102146006851 0 0.30524841693787119 -0.089877123387424693 0 0.30524841693787119 -0.089877123387424693 0 0.29743178973804058 -0.092817056036521225 0 0.30586238439958702 -0.098215713767166868 0 0.30549664367630158 -0.077733621600003855 0 0.30524841693787119 -0.089877123387424693 0 0.29743178973804058 -0.092817056036521225 0 0.29430385704143641 -0.093334685648855456 0 0.28333646668855839 -0.1038254721913715 0 0.27844545300264117 -0.078858311907156253 0 0.29743178973804058 -0.092817056036521225 0 0.29430385704143641 -0.093334685648855456 0 0.29347904805936648 -0.068220893163732282 0 0.29430385704143641 -0.093334685648855456 0 0.29347904805936648 -0.068220893163732282 0 0.27844545300264117 -0.078858311907156253 0 0.29430385704143641 -0.093334685648855456 0 0.29347904805936648 -0.068220893163732282 0 0.29743178973804058 -0.092817056036521225 0 0.29642507544735103 -0.06613635338217283 0 0.29347904805936648 -0.068220893163732282 0 0.28521560802072671 -0.062721316040594208 0 0.29347904805936648 -0.068220893163732282 0 0.27844545300264117 -0.078858311907156253 0 0.29347904805936648 -0.068220893163732282 0 0.27844545300264117 -0.078858311907156253 0 0.29642507544735103 -0.06613635338217283 0 0.29347904805936648 -0.068220893163732282 0 0.29301224914481439 -0.054007794946804598 0 0.29642507544735103 -0.06613635338217283 0 0.29347904805936648 -0.068220893163732282 0 0.29743178973804058 -0.092817056036521225 0 0.29843850402873079 -0.11949775869086959 0 0.29512866602350563 -0.1184484781339787 0 0.29843850402873079 -0.11949775869086959 0 0.29512866602350563 -0.1184484781339787 0 0.30010147488007238 -0.1276093355582181 0 0.29843850402873079 -0.11949775869086959 0 0.30554459793957989 -0.1238630007756472 0 0.30853123694459123 -0.1170064061326217 0 0.29843850402873079 -0.11949775869086959 0 0.30554459793957989 -0.1238630007756472 0 0.30010147488007238 -0.1276093355582181 0 0.31399575267335023 -0.12250180558336519 0 0.30554459793957989 -0.1238630007756472 0 0.30853123694459123 -0.1170064061326217 0 0.29843850402873079 -0.11949775869086959 0 0.30853123694459123 -0.1170064061326217 0 0.30885616350321549 -0.1072846913931271 0 0.31638799147784608 -0.1118713826410174 0 0.30853123694459123 -0.1170064061326217 0 0.30885616350321549 -0.1072846913931271 0 0.29843850402873079 -0.11949775869086959 0 0.30885616350321549 -0.1072846913931271 0 0.30586238439958702 -0.098215713767166868 0 0.29743178973804058 -0.092817056036521225 0 0.29843850402873079 -0.11949775869086959 0 0.30586238439958702 -0.098215713767166868 0 0.29743178973804058 -0.092817056036521225 0 0.29843850402873079 -0.11949775869086959 0 0.31743464692623941 -0.099981704590172707 0 0.30885616350321549 -0.1072846913931271 0 0.30586238439958702 -0.098215713767166868 0 0.31743464692623941 -0.099981704590172707 0 0.31220284993755582 -0.090742102146006851 0 0.30586238439958702 -0.098215713767166868 0 0.29430385704143641 -0.093334685648855456 0 0.29512866602350563 -0.1184484781339787 0 0.29430385704143641 -0.093334685648855456 0 0.28333646668855839 -0.1038254721913715 0 0.29512866602350563 -0.1184484781339787 0 0.29743178973804058 -0.092817056036521225 0 0.29430385704143641 -0.093334685648855456 0 0.29512866602350563 -0.1184484781339787 0 0.28333646668855839 -0.1038254721913715 0 0.29512866602350563 -0.1184484781339787 0 0.28822748037447399 -0.12879263247558709 0 0.28333646668855839 -0.1038254721913715 0 0.28822748037447399 -0.12879263247558709 0 0.26621118532108262 -0.1119181791838486 0 0.25741251913389712 -0.1305951081492244 0 0.28822748037447399 -0.12879263247558709 0 0.28333646668855839 -0.1038254721913715 0 0.26621118532108262 -0.1119181791838486 0 0.28822748037447399 -0.12879263247558709 0 0.28333646668855839 -0.1038254721913715 0 0.26621118532108262 -0.1119181791838486 0 0.26565518081306061 -0.08790840808238623 0 0.26621118532108262 -0.1119181791838486 0 0.25154255280112903 -0.1006059983499779 0 0.24954668948061209 -0.11284283178631641 0 0.26621118532108262 -0.1119181791838486 0 0.25154255280112903 -0.1006059983499779 0 0.26565518081306061 -0.08790840808238623 0 0.26621118532108262 -0.1119181791838486 0 0.25741251913389712 -0.1305951081492244 0 0.24954668948061209 -0.11284283178631641 0 0.27844545300264117 -0.078858311907156253 0 0.2741393958395883 -0.056877179510702792 0 0.28007443442101287 -0.061799103716356343 0 0.27844545300264117 -0.078858311907156253 0 0.2741393958395883 -0.056877179510702792 0 0.26628957168076178 -0.070692469674316694 0 0.27844545300264117 -0.078858311907156253 0 0.2741393958395883 -0.056877179510702792 0 0.28521560802072671 -0.062721316040594208 0 0.27844545300264117 -0.078858311907156253 0 0.28007443442101287 -0.061799103716356343 0 0.26628957168076178 -0.070692469674316694 0 0.27844545300264117 -0.078858311907156253 0 0.26565518081306061 -0.08790840808238623 0 0.28333646668855839 -0.1038254721913715 0 0.27844545300264117 -0.078858311907156253 0 0.26565518081306061 -0.08790840808238623 0 0.28333646668855839 -0.1038254721913715 0 0.27844545300264117 -0.078858311907156253 0 0.27844545300264117 -0.078858311907156253 0 0.26565518081306061 -0.08790840808238623 0 0.25154255280112903 -0.1006059983499779 0 0.25664035233608162 -0.078361863555500011 0 0.24390890644978661 -0.075150332687283522 0 0.25154255280112903 -0.1006059983499779 0 0.26565518081306061 -0.08790840808238623 0 0.25664035233608162 -0.078361863555500011 0 0.26628957168076178 -0.070692469674316694 0 0.26565518081306061 -0.08790840808238623 0 0.25664035233608162 -0.078361863555500011 0 0.25664035233608162 -0.078361863555500011 0 0.25256726729664603 -0.064532785491330763 0 0.24390890644978661 -0.075150332687283522 0 0.26628957168076178 -0.070692469674316694 0 0.25256726729664603 -0.064532785491330763 0 0.2741393958395883 -0.056877179510702792 0 0.26628957168076178 -0.070692469674316694 0 0.25664035233608162 -0.078361863555500011 0 0.25256726729664603 -0.064532785491330763 0 0.25256726729664603 -0.064532785491330763 0 0.25164978009717781 -0.053061021673298493 0 0.24617004458672351 -0.058202332164817121 0 0.25256726729664603 -0.064532785491330763 0 0.26131371929964131 -0.050907379716302707 0 0.27395317434556299 -0.0509436520349522 0 0.25256726729664603 -0.064532785491330763 0 0.25164978009717781 -0.053061021673298493 0 0.26131371929964131 -0.050907379716302707 0 0.25256726729664603 -0.064532785491330763 0 0.27395317434556299 -0.0509436520349522 0 0.25164978009717781 -0.053061021673298493 0 0.26131371929964131 -0.050907379716302707 0 0.2539732262079259 -0.044675773385505282 0 0.26131371929964131 -0.050907379716302707 0 0.26227784506780882 -0.045421506107560787 0 0.2539732262079259 -0.044675773385505282 0 0.26131371929964131 -0.050907379716302707 0 0.26742863268251632 -0.045985676557136583 0 0.26227784506780882 -0.045421506107560787 0 0.25256726729664603 -0.064532785491330763 0 0.27395317434556299 -0.0509436520349522 0 0.2741393958395883 -0.056877179510702792 0 0.26131371929964131 -0.050907379716302707 0 0.27395317434556299 -0.0509436520349522 0 0.26742863268251632 -0.045985676557136583 0 0.27395317434556299 -0.0509436520349522 0 0.2741393958395883 -0.056877179510702792 0 0.28351618772518777 -0.053458991616202503 0 0.2741393958395883 -0.056877179510702792 0 0.28007443442101287 -0.061799103716356343 0 0.28351618772518777 -0.053458991616202503 0 0.2807394014679111 -0.038000872253349499 0 0.27361436003936901 -0.034999677146069851 0 0.27240238673917438 -0.042113497984529957 0 0.2807394014679111 -0.038000872253349499 0 0.27361436003936901 -0.034999677146069851 0 0.28248009054126683 -0.027824818882371601 0 0.27395317434556299 -0.0509436520349522 0 0.2807394014679111 -0.038000872253349499 0 0.27240238673917438 -0.042113497984529957 0 0.27395317434556299 -0.0509436520349522 0 0.27240238673917438 -0.042113497984529957 0 0.26742863268251632 -0.045985676557136583 0 0.27361436003936901 -0.034999677146069851 0 0.27240238673917438 -0.042113497984529957 0 0.26639580208115188 -0.040117194771298603 0 0.27240238673917438 -0.042113497984529957 0 0.26742863268251632 -0.045985676557136583 0 0.26639580208115188 -0.040117194771298603 0 0.27361436003936901 -0.034999677146069851 0 0.26639580208115188 -0.040117194771298603 0 0.26859201328057281 -0.027442020841521631 0 0.2539732262079259 -0.044675773385505282 0 0.25845033672230949 -0.02738613623275089 0 0.26859201328057281 -0.027442020841521631 0 0.2539732262079259 -0.044675773385505282 0 0.25845033672230949 -0.02738613623275089 0 0.24422464309495209 -0.046986837608536558 0 0.25845033672230949 -0.02738613623275089 0 0.24422464309495209 -0.046986837608536558 0 0.26639580208115188 -0.040117194771298603 0 0.2539732262079259 -0.044675773385505282 0 0.26859201328057281 -0.027442020841521631 0 0.2539732262079259 -0.044675773385505282 0 0.26859201328057281 -0.027442020841521631 0 0.26639580208115188 -0.040117194771298603 0 0.26227784506780882 -0.045421506107560787 0 0.2539732262079259 -0.044675773385505282 0 0.26742863268251632 -0.045985676557136583 0 0.26639580208115188 -0.040117194771298603 0 0.26227784506780882 -0.045421506107560787 0 0.25013504981522988 -0.025019616072594848 0 0.25845033672230949 -0.02738613623275089 0 0.24524507923365879 -0.0330622213940093 0 0.25845033672230949 -0.02738613623275089 0 0.27267603034966698 -0.0077854348569651906 0 0.25845033672230949 -0.02738613623275089 0 0.25886508985187012 -0.013172853544477199 0 0.27267603034966698 -0.0077854348569651906 0 0.25013504981522988 -0.025019616072594848 0 0.25247407830029878 -0.019873092178793648 0 0.25845033672230949 -0.02738613623275089 0 0.25247407830029878 -0.019873092178793648 0 0.25845033672230949 -0.02738613623275089 0 0.25886508985187012 -0.013172853544477199 0 0.25598072684389089 -0.0058943492075353007 0 0.25006914023697918 -0.01208141302270524 0 0.2479891295484222 -0.0022684572774312019 0 0.25894279220913391 0.003459445712386486 0 0.25598072684389089 -0.0058943492075353007 0 0.2479891295484222 -0.0022684572774312019 0 0.25598072684389089 -0.0058943492075353007 0 0.25006914023697918 -0.01208141302270524 0 0.25886508985187012 -0.013172853544477199 0 0.25247407830029878 -0.019873092178793648 0 0.25006914023697918 -0.01208141302270524 0 0.25886508985187012 -0.013172853544477199 0 0.25886508985187012 -0.013172853544477199 0 0.26317147738524183 -0.0038637327990410169 0 0.27267603034966698 -0.0077854348569651906 0 0.25598072684389089 -0.0058943492075353007 0 0.25886508985187012 -0.013172853544477199 0 0.26317147738524183 -0.0038637327990410169 0 0.25894279220913391 0.003459445712386486 0 0.25598072684389089 -0.0058943492075353007 0 0.26317147738524183 -0.0038637327990410169 0 0.27267603034966698 -0.0077854348569651906 0 0.26859201328057281 -0.027442020841521631 0 0.28321080035321983 -0.010208268297538009 0 0.26939274767164711 0.0040745279013861191 0 0.26317147738524183 -0.0038637327990410169 0 0.27267603034966698 -0.0077854348569651906 0 0.28687677889875068 0.001725005618485562 0 0.27267603034966698 -0.0077854348569651906 0 0.28321080035321983 -0.010208268297538009 0 0.26859201328057281 -0.027442020841521631 0 0.28321080035321983 -0.010208268297538009 0 0.25845033672230949 -0.02738613623275089 0 0.27267603034966698 -0.0077854348569651906 0 0.26859201328057281 -0.027442020841521631 0 0.26859201328057281 -0.027442020841521631 0 0.28248009054126683 -0.027824818882371601 0 0.28321080035321983 -0.010208268297538009 0 0.27361436003936901 -0.034999677146069851 0 0.26859201328057281 -0.027442020841521631 0 0.28248009054126683 -0.027824818882371601 0 0.29465383366866438 -0.01919356567853802 0 0.28248009054126683 -0.027824818882371601 0 0.29533908139447967 -0.037354518578573179 0 0.29465383366866438 -0.01919356567853802 0 0.28248009054126683 -0.027824818882371601 0 0.28321080035321983 -0.010208268297538009 0 0.29465383366866438 -0.01919356567853802 0 0.29533908139447967 -0.037354518578573179 0 0.2978295874258669 0.0070254842464454832 0 0.28321080035321983 -0.010208268297538009 0 0.29396858594285019 -0.001032612778502764 0 0.2978295874258669 0.0070254842464454832 0 0.28687677889875068 0.001725005618485562 0 0.28321080035321983 -0.010208268297538009 0 0.29465383366866438 -0.01919356567853802 0 0.28321080035321983 -0.010208268297538009 0 0.29396858594285019 -0.001032612778502764 0 0.2978295874258669 0.0070254842464454832 0 0.28321080035321983 -0.010208268297538009 0 0.29465383366866438 -0.01919356567853802 0 0.29396858594285019 -0.001032612778502764 0 0.30752965714041391 0.0058765203804442539 0 0.29465383366866438 -0.01919356567853802 0 0.29396858594285019 -0.001032612778502764 0 0.30752965714041391 0.0058765203804442539 0 0.3196214637881436 -0.021924893160697439 0 0.29465383366866438 -0.01919356567853802 0 0.3196214637881436 -0.021924893160697439 0 0.29465383366866438 -0.01919356567853802 0 0.29533908139447967 -0.037354518578573179 0 0.3196214637881436 -0.021924893160697439 0 0.29533908139447967 -0.037354518578573179 0 0.3196214637881436 -0.021924893160697439 0 0.31660160940309118 -0.035871797032442469 0 0.29533908139447967 -0.037354518578573179 0 0.31292981148517318 -0.054457989835630861 0 0.31660160940309118 -0.035871797032442469 0 0.29533908139447967 -0.037354518578573179 0 0.31292981148517318 -0.054457989835630861 0 0.29642507544735103 -0.06613635338217283 0 0.31292981148517318 -0.054457989835630861 0 0.29642507544735103 -0.06613635338217283 0 0.29533908139447967 -0.037354518578573179 0 0.29642507544735103 -0.06613635338217283 0 0.29301224914481439 -0.054007794946804598 0 0.29533908139447967 -0.037354518578573179 0 0.27395317434556299 -0.0509436520349522 0 0.28351618772518777 -0.053458991616202503 0 0.29533908139447967 -0.037354518578573179 0 0.29301224914481439 -0.054007794946804598 0 0.28351618772518777 -0.053458991616202503 0 0.29533908139447967 -0.037354518578573179 0 0.29642507544735103 -0.06613635338217283 0 0.29533908139447967 -0.037354518578573179 0 0.29347904805936648 -0.068220893163732282 0 0.29301224914481439 -0.054007794946804598 0 0.28521560802072671 -0.062721316040594208 0 0.29347904805936648 -0.068220893163732282 0 0.29301224914481439 -0.054007794946804598 0 0.28521560802072671 -0.062721316040594208 0 0.29301224914481439 -0.054007794946804598 0 0.28351618772518777 -0.053458991616202503 0 0.28521560802072671 -0.062721316040594208 0 0.28007443442101287 -0.061799103716356343 0 0.28351618772518777 -0.053458991616202503 0 0.27395317434556299 -0.0509436520349522 0 0.29533908139447967 -0.037354518578573179 0 0.27395317434556299 -0.0509436520349522 0 0.2807394014679111 -0.038000872253349499 0 0.29533908139447967 -0.037354518578573179 0 0.2807394014679111 -0.038000872253349499 0 0.28248009054126683 -0.027824818882371601 0 0.29533908139447967 -0.037354518578573179 0 0.30290052143222262 -0.20369411332823331 0 0.28158405213751547 -0.22140539282722879 0 0.30290052143222262 -0.20369411332823331 0 0.28158405213751547 -0.22140539282722879 0 0.27747759048209231 -0.20168759245952969 0 0.28632476970011178 -0.18938030831719929 0 0.30290052143222262 -0.20369411332823331 0 0.2980095077463053 -0.17872695304401809 0 0.28632476970011178 -0.18938030831719929 0 0.30290052143222262 -0.20369411332823331 0 0.27747759048209231 -0.20168759245952969 0 0.30290052143222262 -0.20369411332823331 0 0.2980095077463053 -0.17872695304401809 0 0.32549301828835953 -0.18492261693889581 0 0.30290052143222262 -0.20369411332823331 0 0.2980095077463053 -0.17872695304401809 0 0.30290052143222262 -0.20369411332823331 0 0.30715254712033069 -0.22539943122446929 0 0.28158405213751547 -0.22140539282722879 0 0.30290052143222262 -0.20369411332823331 0 0.30715254712033069 -0.22539943122446929 0 0.30290052143222262 -0.20369411332823331 0 0.30715254712033069 -0.22539943122446929 0 0.32148368101975677 -0.2112815477794289 0 0.31140457280844042 -0.24710474912070499 0 0.29234931722919649 -0.23956849287787771 0 0.29718577407036301 -0.25519814195989071 0 0.30715254712033069 -0.22539943122446929 0 0.31140457280844042 -0.24710474912070499 0 0.29234931722919649 -0.23956849287787771 0 0.30715254712033069 -0.22539943122446929 0 0.31140457280844042 -0.24710474912070499 0 0.29234931722919649 -0.23956849287787771 0 0.27362138757170362 -0.2426007269765893 0 0.28009493911397709 -0.25531812806766069 0 0.29234931722919649 -0.23956849287787771 0 0.28158405213751547 -0.22140539282722879 0 0.27362138757170362 -0.2426007269765893 0 0.30715254712033069 -0.22539943122446929 0 0.29234931722919649 -0.23956849287787771 0 0.28158405213751547 -0.22140539282722879 0 0.28158405213751547 -0.22140539282722879 0 0.26621460642996558 -0.23052855599088379 0 0.27362138757170362 -0.2426007269765893 0 0.28158405213751547 -0.22140539282722879 0 0.26621460642996558 -0.23052855599088379 0 0.26307381511529532 -0.2143756044194241 0 0.26621460642996558 -0.23052855599088379 0 0.27362138757170362 -0.2426007269765893 0 0.26034160768121078 -0.2422716922893062 0 0.27362138757170362 -0.2426007269765893 0 0.26034160768121078 -0.2422716922893062 0 0.26515279713901752 -0.25474276698909742 0 0.26034160768121078 -0.2422716922893062 0 0.26515279713901752 -0.25474276698909742 0 0.25575058308532189 -0.25269357128633052 0 0.26034160768121078 -0.2422716922893062 0 0.25134951441318748 -0.22920843539767929 0 0.2499607574480687 -0.24385609709525671 0 0.25575058308532189 -0.25269357128633052 0 0.2462907050713771 -0.25204034373521428 0 0.2499607574480687 -0.24385609709525671 0 0.26034160768121078 -0.2422716922893062 0 0.25575058308532189 -0.25269357128633052 0 0.2499607574480687 -0.24385609709525671 0 0.26621460642996558 -0.23052855599088379 0 0.25134951441318748 -0.22920843539767929 0 0.26307381511529532 -0.2143756044194241 0 0.26621460642996558 -0.23052855599088379 0 0.26034160768121078 -0.2422716922893062 0 0.25134951441318748 -0.22920843539767929 0 0.25134951441318748 -0.22920843539767929 0 0.26307381511529532 -0.2143756044194241 0 0.24314545538918961 -0.20571013864437751 0 0.26307381511529532 -0.2143756044194241 0 0.2593871514889205 -0.19799184377322379 0 0.24314545538918961 -0.20571013864437751 0 0.26307381511529532 -0.2143756044194241 0 0.27747759048209231 -0.20168759245952969 0 0.2593871514889205 -0.19799184377322379 0 0.28158405213751547 -0.22140539282722879 0 0.26307381511529532 -0.2143756044194241 0 0.27747759048209231 -0.20168759245952969 0 0.27747759048209231 -0.20168759245952969 0 0.2593871514889205 -0.19799184377322379 0 0.269221803856454 -0.185599514949991 0 0.28632476970011178 -0.18938030831719929 0 0.27747759048209231 -0.20168759245952969 0 0.269221803856454 -0.185599514949991 0 0.2593871514889205 -0.19799184377322379 0 0.269221803856454 -0.185599514949991 0 0.2437278363918948 -0.18195096812212239 0 0.260919387449559 -0.16579352929295721 0 0.269221803856454 -0.185599514949991 0 0.2437278363918948 -0.18195096812212239 0 0.260919387449559 -0.16579352929295721 0 0.28401442498348639 -0.17719336780422379 0 0.260919387449559 -0.16579352929295721 0 0.27757308642867828 -0.16101723958663619 0 0.28401442498348639 -0.17719336780422379 0 0.260919387449559 -0.16579352929295721 0 0.27757308642867828 -0.16101723958663619 0 0.27224003922127837 -0.1473222684895614 0 0.260919387449559 -0.16579352929295721 0 0.269221803856454 -0.185599514949991 0 0.28401442498348639 -0.17719336780422379 0 0.28632476970011178 -0.18938030831719929 0 0.269221803856454 -0.185599514949991 0 0.28401442498348639 -0.17719336780422379 0 0.260919387449559 -0.16579352929295721 0 0.25452239946831973 -0.14829655140993131 0 0.27224003922127837 -0.1473222684895614 0 0.260919387449559 -0.16579352929295721 0 0.25452239946831973 -0.14829655140993131 0 0.23782434991563151 -0.15439369078169049 0 0.25741251913389712 -0.1305951081492244 0 0.25452239946831973 -0.14829655140993131 0 0.27224003922127837 -0.1473222684895614 0 0.27757308642867828 -0.16101723958663619 0 0.27224003922127837 -0.1473222684895614 0 0.2931184940603897 -0.15375979275980259 0 0.25741251913389712 -0.1305951081492244 0 0.27224003922127837 -0.1473222684895614 0 0.28822748037447399 -0.12879263247558709 0 0.29512866602350563 -0.1184484781339787 0 0.2959534750055749 -0.1435622706191019 0 0.29512866602350563 -0.1184484781339787 0 0.28822748037447399 -0.12879263247558709 0 0.2959534750055749 -0.1435622706191019 0 0.2959534750055749 -0.1435622706191019 0 0.2931184940603897 -0.15375979275980259 0 0.29606782433269818 -0.16881524064208181 0 0.28822748037447399 -0.12879263247558709 0 0.2959534750055749 -0.1435622706191019 0 0.2931184940603897 -0.15375979275980259 0 0.28822748037447399 -0.12879263247558709 0 0.2931184940603897 -0.15375979275980259 0 0.27224003922127837 -0.1473222684895614 0 0.28822748037447399 -0.12879263247558709 0 0.2931184940603897 -0.15375979275980259 0 0.2959534750055749 -0.1435622706191019 0 0.29606782433269818 -0.16881524064208181 0 0.2959534750055749 -0.1435622706191019 0 0.30786991093933941 -0.1327242262548293 0 0.31334084787329858 -0.14560100496875439 0 0.2959534750055749 -0.1435622706191019 0 0.30589655906226038 -0.156608858018214 0 0.31334084787329858 -0.14560100496875439 0 0.30589655906226038 -0.156608858018214 0 0.31666093946419188 -0.15748088094218049 0 0.31334084787329858 -0.14560100496875439 0 0.29512866602350563 -0.1184484781339787 0 0.2959534750055749 -0.1435622706191019 0 0.30010147488007238 -0.1276093355582181 0 0.2959534750055749 -0.1435622706191019 0 0.30786991093933941 -0.1327242262548293 0 0.30010147488007238 -0.1276093355582181 0 0.31399575267335023 -0.12250180558336519 0 0.30554459793957989 -0.1238630007756472 0 0.30786991093933941 -0.1327242262548293 0 0.30554459793957989 -0.1238630007756472 0 0.30786991093933941 -0.1327242262548293 0 0.30010147488007238 -0.1276093355582181 0 0.28401442498348639 -0.17719336780422379 0 0.29606782433269818 -0.16881524064208181 0 0.2980095077463053 -0.17872695304401809 0 0.28632476970011178 -0.18938030831719929 0 0.28401442498348639 -0.17719336780422379 0 0.2980095077463053 -0.17872695304401809 0 0.27757308642867828 -0.16101723958663619 0 0.2931184940603897 -0.15375979275980259 0 0.28401442498348639 -0.17719336780422379 0 0.2931184940603897 -0.15375979275980259 0 0.28401442498348639 -0.17719336780422379 0 0.29606782433269818 -0.16881524064208181 0 0.2931184940603897 -0.15375979275980259 0 0.29606782433269818 -0.16881524064208181 0 0.29606782433269818 -0.16881524064208181 0 0.30589655906226038 -0.156608858018214 0 0.31145366373618227 -0.1686264437044486 0 0.2959534750055749 -0.1435622706191019 0 0.29606782433269818 -0.16881524064208181 0 0.30589655906226038 -0.156608858018214 0 0.30589655906226038 -0.156608858018214 0 0.31145366373618227 -0.1686264437044486 0 0.31666093946419188 -0.15748088094218049 0 0.31145366373618227 -0.1686264437044486 0 0.2980095077463053 -0.17872695304401809 0 0.32549301828835953 -0.18492261693889581 0 0.29606782433269818 -0.16881524064208181 0 0.31145366373618227 -0.1686264437044486 0 0.2980095077463053 -0.17872695304401809 0 0.29606782433269818 -0.16881524064208181 0 0.2980095077463053 -0.17872695304401809 0 0.31145366373618227 -0.1686264437044486 0 0.32549301828835953 -0.18492261693889581 0 0.32738776678709508 -0.16545123116759969 0 0.31145366373618227 -0.1686264437044486 0 0.32738776678709508 -0.16545123116759969 0 0.31666093946419188 -0.15748088094218049 0 0.32738776678709508 -0.16545123116759969 0 0.31666093946419188 -0.15748088094218049 0 0.32968898845727718 -0.1497650634196834 0 0.32738776678709508 -0.16545123116759969 0 0.32968898845727718 -0.1497650634196834 0 0.34808551514449421 -0.1661511205495555 0 0.32549301828835953 -0.18492261693889581 0 0.32738776678709508 -0.16545123116759969 0 0.34808551514449421 -0.1661511205495555 0 0.32549301828835953 -0.18492261693889581 0 0.34808551514449421 -0.1661511205495555 0 0.32549301828835953 -0.18492261693889581 0 0.34808551514449421 -0.1661511205495555 0 0.34521429895780248 -0.1968392362703156 0 0.30786991093933941 -0.1327242262548293 0 0.32373683991627678 -0.1342707635111336 0 0.31334084787329858 -0.14560100496875439 0 0.31399575267335023 -0.12250180558336519 0 0.32517348349888747 -0.118580130041643 0 0.32373683991627678 -0.1342707635111336 0 0.31399575267335023 -0.12250180558336519 0 0.30786991093933941 -0.1327242262548293 0 0.32373683991627678 -0.1342707635111336 0 0.32373683991627678 -0.1342707635111336 0 0.31334084787329858 -0.14560100496875439 0 0.32968898845727718 -0.1497650634196834 0 0.31666093946419188 -0.15748088094218049 0 0.31334084787329858 -0.14560100496875439 0 0.32968898845727718 -0.1497650634196834 0 0.32373683991627678 -0.1342707635111336 0 0.32968898845727718 -0.1497650634196834 0 0.34485783347551252 -0.1433779188078016 0 0.32968898845727718 -0.1497650634196834 0 0.34485783347551252 -0.1433779188078016 0 0.34808551514449421 -0.1661511205495555 0 0.34014121552940491 -0.1203166258242544 0 0.32373683991627678 -0.1342707635111336 0 0.34485783347551252 -0.1433779188078016 0 0.34014121552940491 -0.1203166258242544 0 0.35551888896884759 -0.1297027680154724 0 0.34485783347551252 -0.1433779188078016 0 0.35551888896884759 -0.1297027680154724 0 0.34485783347551252 -0.1433779188078016 0 0.37067801200062889 -0.1473796241602153 0 0.34485783347551252 -0.1433779188078016 0 0.37067801200062889 -0.1473796241602153 0 0.34808551514449421 -0.1661511205495555 0 0.35551888896884759 -0.1297027680154724 0 0.37067801200062889 -0.1473796241602153 0 0.37104303648388809 -0.1272612894930944 0 0.34808551514449421 -0.1661511205495555 0 0.36752808638216261 -0.17990459429682831 0 0.34521429895780248 -0.1968392362703156 0 0.34808551514449421 -0.1661511205495555 0 0.37072349948513561 -0.1630779710757761 0 0.36752808638216261 -0.17990459429682831 0 0.37067801200062889 -0.1473796241602153 0 0.34808551514449421 -0.1661511205495555 0 0.37072349948513561 -0.1630779710757761 0 0.37067801200062889 -0.1473796241602153 0 0.34808551514449421 -0.1661511205495555 0 0.37072349948513561 -0.1630779710757761 0 0.36752808638216261 -0.17990459429682831 0 0.38565700028273392 -0.16791849986101029 0 0.36752808638216261 -0.17990459429682831 0 0.36890805570422369 -0.19954003101511669 0 0.34521429895780248 -0.1968392362703156 0 0.36752808638216261 -0.17990459429682831 0 0.36890805570422369 -0.19954003101511669 0 0.38551481473406651 -0.18910273675150999 0 0.36890805570422369 -0.19954003101511669 0 0.35851964138810982 -0.2171827375251118 0 0.37645297458065691 -0.21353851220024839 0 0.35851964138810982 -0.2171827375251118 0 0.34521429895780248 -0.1968392362703156 0 0.33865146772119931 -0.2184974665014994 0 0.36890805570422369 -0.19954003101511669 0 0.35851964138810982 -0.2171827375251118 0 0.34521429895780248 -0.1968392362703156 0 0.32549301828835953 -0.18492261693889581 0 0.34521429895780248 -0.1968392362703156 0 0.32148368101975677 -0.2112815477794289 0 0.34521429895780248 -0.1968392362703156 0 0.33865146772119931 -0.2184974665014994 0 0.32148368101975677 -0.2112815477794289 0 0.30290052143222262 -0.20369411332823331 0 0.32549301828835953 -0.18492261693889581 0 0.32148368101975677 -0.2112815477794289 0 0.30290052143222262 -0.20369411332823331 0 0.32549301828835953 -0.18492261693889581 0 0.31140457280844042 -0.24710474912070499 0 0.32841487832378857 -0.23419691532036521 0 0.32909477526671738 -0.25319804842994992 0 0.30715254712033069 -0.22539943122446929 0 0.31140457280844042 -0.24710474912070499 0 0.32841487832378857 -0.23419691532036521 0 0.30715254712033069 -0.22539943122446929 0 0.32148368101975677 -0.2112815477794289 0 0.32841487832378857 -0.23419691532036521 0 0.33865146772119931 -0.2184974665014994 0 0.32841487832378857 -0.23419691532036521 0 0.34678876975393269 -0.23153157971564481 0 0.33865146772119931 -0.2184974665014994 0 0.32148368101975677 -0.2112815477794289 0 0.32841487832378857 -0.23419691532036521 0 0.32841487832378857 -0.23419691532036521 0 0.34542116247921317 -0.24786541093840589 0 0.32909477526671738 -0.25319804842994992 0 0.32841487832378857 -0.23419691532036521 0 0.34542116247921317 -0.24786541093840589 0 0.34678876975393269 -0.23153157971564481 0 0.34542116247921317 -0.24786541093840589 0 0.36282952759798831 -0.23490181410806829 0 0.36211004630048071 -0.25874315800932568 0 0.34542116247921317 -0.24786541093840589 0 0.34678876975393269 -0.23153157971564481 0 0.36282952759798831 -0.23490181410806829 0 0.35851964138810982 -0.2171827375251118 0 0.33865146772119931 -0.2184974665014994 0 0.34678876975393269 -0.23153157971564481 0 0.35851964138810982 -0.2171827375251118 0 0.34678876975393269 -0.23153157971564481 0 0.36282952759798831 -0.23490181410806829 0 0.35851964138810982 -0.2171827375251118 0 0.37179579398026102 -0.22561915142401329 0 0.36282952759798831 -0.23490181410806829 0 0.35851964138810982 -0.2171827375251118 0 0.37179579398026102 -0.22561915142401329 0 0.37645297458065691 -0.21353851220024839 0 0.37179579398026102 -0.22561915142401329 0 0.36282952759798831 -0.23490181410806829 0 0.37754581309809132 -0.23651361028518689 0 0.36282952759798831 -0.23490181410806829 0 0.36876625398544938 -0.24898888889403961 0 0.36211004630048071 -0.25874315800932568 0 0.36282952759798831 -0.23490181410806829 0 0.36211004630048071 -0.25874315800932568 0 0.36282952759798831 -0.23490181410806829 0 0.36876625398544938 -0.24898888889403961 0 0.37754581309809132 -0.23651361028518689 0 0.37754581309809132 -0.23651361028518689 0 0.39300219267510322 -0.23842714914515989 0 0.3871149211879113 -0.25548270742864421 0 0.39300219267510322 -0.23842714914515989 0 0.3871149211879113 -0.25548270742864421 0 0.40207495352916539 -0.25113417058953519 0 0.39300219267510322 -0.23842714914515989 0 0.40723458142941671 -0.23497076085713389 0 0.40207495352916539 -0.25113417058953519 0 0.39851670543712209 -0.2244771902628257 0 0.41039622944065363 -0.2185270516157129 0 0.40723458142941671 -0.23497076085713389 0 0.39300219267510322 -0.23842714914515989 0 0.39851670543712209 -0.2244771902628257 0 0.40723458142941671 -0.23497076085713389 0 0.39300219267510322 -0.23842714914515989 0 0.39851670543712209 -0.2244771902628257 0 0.38505811203634721 -0.22522643630241351 0 0.39851670543712209 -0.2244771902628257 0 0.38505811203634721 -0.22522643630241351 0 0.39303519244684892 -0.21278300449704671 0 0.37754581309809132 -0.23651361028518689 0 0.39300219267510322 -0.23842714914515989 0 0.38505811203634721 -0.22522643630241351 0 0.37179579398026102 -0.22561915142401329 0 0.37754581309809132 -0.23651361028518689 0 0.38505811203634721 -0.22522643630241351 0 0.37179579398026102 -0.22561915142401329 0 0.38505811203634721 -0.22522643630241351 0 0.37645297458065691 -0.21353851220024839 0 0.38505811203634721 -0.22522643630241351 0 0.37645297458065691 -0.21353851220024839 0 0.39303519244684892 -0.21278300449704671 0 0.36890805570422369 -0.19954003101511669 0 0.37645297458065691 -0.21353851220024839 0 0.38544293285627962 -0.20314808770867229 0 0.37645297458065691 -0.21353851220024839 0 0.38544293285627962 -0.20314808770867229 0 0.39303519244684892 -0.21278300449704671 0 0.36890805570422369 -0.19954003101511669 0 0.38544293285627962 -0.20314808770867229 0 0.38551481473406651 -0.18910273675150999 0 0.38544293285627962 -0.20314808770867229 0 0.38551481473406651 -0.18910273675150999 0 0.40330362681560211 -0.20077615407943949 0 0.38551481473406651 -0.18910273675150999 0 0.40330362681560211 -0.20077615407943949 0 0.39995041381356911 -0.1868338584648204 0 0.40330362681560211 -0.20077615407943949 0 0.4125958117473455 -0.19170302267586259 0 0.39995041381356911 -0.1868338584648204 0 0.40330362681560211 -0.20077615407943949 0 0.39303519244684892 -0.21278300449704671 0 0.41039622944065363 -0.2185270516157129 0 0.38544293285627962 -0.20314808770867229 0 0.40330362681560211 -0.20077615407943949 0 0.39303519244684892 -0.21278300449704671 0 0.39851670543712209 -0.2244771902628257 0 0.39303519244684892 -0.21278300449704671 0 0.41039622944065363 -0.2185270516157129 0 0.40330362681560211 -0.20077615407943949 0 0.41039622944065363 -0.2185270516157129 0 0.42189732607146729 -0.20211324892629831 0 0.41039622944065363 -0.2185270516157129 0 0.42189732607146729 -0.20211324892629831 0 0.42790605200351661 -0.22140108800821251 0 0.40330362681560211 -0.20077615407943949 0 0.4125958117473455 -0.19170302267586259 0 0.42189732607146729 -0.20211324892629831 0 0.4125958117473455 -0.19170302267586259 0 0.42189732607146729 -0.20211324892629831 0 0.42233780496578233 -0.18319904235883591 0 0.42189732607146729 -0.20211324892629831 0 0.43389642119060762 -0.191962199940241 0 0.42233780496578233 -0.18319904235883591 0 0.42189732607146729 -0.20211324892629831 0 0.43389642119060762 -0.191962199940241 0 0.43723926749718739 -0.20471492206911249 0 0.43723926749718739 -0.20471492206911249 0 0.42790605200351661 -0.22140108800821251 0 0.44233814121790038 -0.22173902575952509 0 0.42189732607146729 -0.20211324892629831 0 0.43723926749718739 -0.20471492206911249 0 0.42790605200351661 -0.22140108800821251 0 0.43048550082884018 -0.24614270293406881 0 0.44233814121790038 -0.22173902575952509 0 0.42790605200351661 -0.22140108800821251 0 0.43048550082884018 -0.24614270293406881 0 0.44233814121790038 -0.22173902575952509 0 0.42790605200351661 -0.22140108800821251 0 0.43048550082884018 -0.24614270293406881 0 0.42088007225406548 -0.23367140350055049 0 0.43048550082884018 -0.24614270293406881 0 0.44582088554477811 -0.24525862245079941 0 0.43357426810421817 -0.25015303326672972 0 0.43048550082884018 -0.24614270293406881 0 0.42846035594967069 -0.25031232086228522 0 0.43357426810421817 -0.25015303326672972 0 0.43048550082884018 -0.24614270293406881 0 0.43357426810421817 -0.25015303326672972 0 0.43048550082884018 -0.24614270293406881 0 0.418537335240391 -0.2435876000290193 0 0.42846035594967069 -0.25031232086228522 0 0.43048550082884018 -0.24614270293406881 0 0.42846035594967069 -0.25031232086228522 0 0.43048550082884018 -0.24614270293406881 0 0.42088007225406548 -0.23367140350055049 0 0.43048550082884018 -0.24614270293406881 0 0.418537335240391 -0.2435876000290193 0 0.42088007225406548 -0.23367140350055049 0 0.418537335240391 -0.2435876000290193 0 0.40723458142941671 -0.23497076085713389 0 0.42088007225406548 -0.23367140350055049 0 0.418537335240391 -0.2435876000290193 0 0.40723458142941671 -0.23497076085713389 0 0.40207495352916539 -0.25113417058953519 0 0.418537335240391 -0.2435876000290193 0 0.40207495352916539 -0.25113417058953519 0 0.42846035594967069 -0.25031232086228522 0 0.41039622944065363 -0.2185270516157129 0 0.40723458142941671 -0.23497076085713389 0 0.42088007225406548 -0.23367140350055049 0 0.41039622944065363 -0.2185270516157129 0 0.42790605200351661 -0.22140108800821251 0 0.42088007225406548 -0.23367140350055049 0 0.3932705088567644 -0.1286081277708763 0 0.38946375456974969 -0.1482633138159434 0 0.40032650034539519 -0.13972272199131119 0 0.3932705088567644 -0.1286081277708763 0 0.38946375456974969 -0.1482633138159434 0 0.40224748518751269 -0.1211494002184121 0 0.40802316631723889 -0.13171289331352951 0 0.40224748518751269 -0.1211494002184121 0 0.40096691517672778 -0.13029828582353201 0 0.3932705088567644 -0.1286081277708763 0 0.40224748518751269 -0.1211494002184121 0 0.40096691517672778 -0.13029828582353201 0 0.40802316631723889 -0.13171289331352951 0 0.40096691517672778 -0.13029828582353201 0 0.40032650034539519 -0.13972272199131119 0 0.40802316631723889 -0.13171289331352951 0 0.40032650034539519 -0.13972272199131119 0 0.40802316631723889 -0.13171289331352951 0 0.40096691517672778 -0.13029828582353201 0 0.40032650034539519 -0.13972272199131119 0 0.3932705088567644 -0.1286081277708763 0 0.37067801200062889 -0.1473796241602153 0 0.37104303648388809 -0.1272612894930944 0 0.3932705088567644 -0.1286081277708763 0 0.37067801200062889 -0.1473796241602153 0 0.3932705088567644 -0.1286081277708763 0 0.37067801200062889 -0.1473796241602153 0 0.37072349948513561 -0.1630779710757761 0 0.38946375456974969 -0.1482633138159434 0 0.37067801200062889 -0.1473796241602153 0 0.3932705088567644 -0.1286081277708763 0 0.38946375456974969 -0.1482633138159434 0 0.40032650034539519 -0.13972272199131119 0 0.38946375456974969 -0.1482633138159434 0 0.40103769468862932 -0.15735650722112959 0 0.38946375456974969 -0.1482633138159434 0 0.40103769468862932 -0.15735650722112959 0 0.38565700028273392 -0.16791849986101029 0 0.40103769468862932 -0.15735650722112959 0 0.38565700028273392 -0.16791849986101029 0 0.40804365254297231 -0.17415516972609171 0 0.37072349948513561 -0.1630779710757761 0 0.38946375456974969 -0.1482633138159434 0 0.38565700028273392 -0.16791849986101029 0 0.38946375456974969 -0.1482633138159434 0 0.38565700028273392 -0.16791849986101029 0 0.38551481473406651 -0.18910273675150999 0 0.38565700028273392 -0.16791849986101029 0 0.39995041381356911 -0.1868338584648204 0 0.36752808638216261 -0.17990459429682831 0 0.38551481473406651 -0.18910273675150999 0 0.38565700028273392 -0.16791849986101029 0 0.38565700028273392 -0.16791849986101029 0 0.39995041381356911 -0.1868338584648204 0 0.40804365254297231 -0.17415516972609171 0 0.4125958117473455 -0.19170302267586259 0 0.40804365254297231 -0.17415516972609171 0 0.42233780496578233 -0.18319904235883591 0 0.4125958117473455 -0.19170302267586259 0 0.39995041381356911 -0.1868338584648204 0 0.40804365254297231 -0.17415516972609171 0 0.42233780496578233 -0.18319904235883591 0 0.43537196508735049 -0.18173276810905351 0 0.42169756570229522 -0.15672283071129131 0 0.43389642119060762 -0.191962199940241 0 0.42233780496578233 -0.18319904235883591 0 0.43537196508735049 -0.18173276810905351 0 0.43537196508735049 -0.18173276810905351 0 0.42169756570229522 -0.15672283071129131 0 0.43537196508735049 -0.18173276810905351 0 0.42169756570229522 -0.15672283071129131 0 0.44011919579772352 -0.15902857640534751 0 0.40804365254297231 -0.17415516972609171 0 0.42233780496578233 -0.18319904235883591 0 0.42169756570229522 -0.15672283071129131 0 0.40103769468862932 -0.15735650722112959 0 0.40804365254297231 -0.17415516972609171 0 0.42169756570229522 -0.15672283071129131 0 0.40032650034539519 -0.13972272199131119 0 0.40103769468862932 -0.15735650722112959 0 0.42169756570229522 -0.15672283071129131 0 0.42169756570229522 -0.15672283071129131 0 0.40802316631723889 -0.13171289331352951 0 0.40032650034539519 -0.13972272199131119 0 0.42169756570229522 -0.15672283071129131 0 0.40802316631723889 -0.13171289331352951 0 0.42169756570229522 -0.15672283071129131 0 0.43087782981676859 -0.131879285754128 0 0.44052259681213413 -0.14512254840888281 0 0.42169756570229522 -0.15672283071129131 0 0.44052259681213413 -0.14512254840888281 0 0.44011919579772352 -0.15902857640534751 0 0.42510906065580589 -0.11393180641703871 0 0.43087782981676859 -0.131879285754128 0 0.40802316631723889 -0.13171289331352951 0 0.42169756570229522 -0.15672283071129131 0 0.43087782981676859 -0.131879285754128 0 0.40802316631723889 -0.13171289331352951 0 0.46093003486481321 -0.11810563265674839 0 0.46623847963083442 -0.1374076686568538 0 0.47239045088042492 -0.13005034139104371 0 0.46093003486481321 -0.11810563265674839 0 0.45430072039358249 -0.1470470373257684 0 0.46093003486481321 -0.11810563265674839 0 0.46623847963083442 -0.1374076686568538 0 0.45430072039358249 -0.1470470373257684 0 0.46093003486481321 -0.11810563265674839 0 0.44582693855797939 -0.1311402400572215 0 0.45430072039358249 -0.1470470373257684 0 0.441730170532879 -0.1159420230490274 0 0.43087782981676859 -0.131879285754128 0 0.44582693855797939 -0.1311402400572215 0 0.43087782981676859 -0.131879285754128 0 0.44582693855797939 -0.1311402400572215 0 0.44052259681213413 -0.14512254840888281 0 0.44582693855797939 -0.1311402400572215 0 0.44052259681213413 -0.14512254840888281 0 0.45430072039358249 -0.1470470373257684 0 0.44052259681213413 -0.14512254840888281 0 0.45430072039358249 -0.1470470373257684 0 0.44011919579772352 -0.15902857640534751 0 0.46623847963083442 -0.1374076686568538 0 0.45430072039358249 -0.1470470373257684 0 0.46795215833203208 -0.14958538313512479 0 0.45430072039358249 -0.1470470373257684 0 0.46795215833203208 -0.14958538313512479 0 0.46249654728105127 -0.15875526896169859 0 0.46249654728105127 -0.15875526896169859 0 0.44767140592235177 -0.17598844199478861 0 0.4590637049386419 -0.17656280063954849 0 0.46795215833203208 -0.14958538313512479 0 0.46765797362325351 -0.16960743348544691 0 0.46249654728105127 -0.15875526896169859 0 0.46765797362325351 -0.16960743348544691 0 0.46249654728105127 -0.15875526896169859 0 0.4590637049386419 -0.17656280063954849 0 0.45430072039358249 -0.1470470373257684 0 0.46249654728105127 -0.15875526896169859 0 0.44767140592235177 -0.17598844199478861 0 0.46249654728105127 -0.15875526896169859 0 0.4590637049386419 -0.17656280063954849 0 0.45430072039358249 -0.1470470373257684 0 0.44011919579772352 -0.15902857640534751 0 0.44767140592235177 -0.17598844199478861 0 0.45430072039358249 -0.1470470373257684 0 0.44767140592235177 -0.17598844199478861 0 0.44767140592235177 -0.17598844199478861 0 0.45131049953134228 -0.18433764364674099 0 0.4590637049386419 -0.17656280063954849 0 0.43537196508735049 -0.18173276810905351 0 0.44011919579772352 -0.15902857640534751 0 0.44767140592235177 -0.17598844199478861 0 0.43389642119060762 -0.191962199940241 0 0.43537196508735049 -0.18173276810905351 0 0.44405046135624082 -0.18412940313962539 0 0.43537196508735049 -0.18173276810905351 0 0.44767140592235177 -0.17598844199478861 0 0.44405046135624082 -0.18412940313962539 0 0.44405046135624082 -0.18412940313962539 0 0.45131049953134228 -0.18433764364674099 0 0.4501360628432447 -0.19063724014234421 0 0.44767140592235177 -0.17598844199478861 0 0.44405046135624082 -0.18412940313962539 0 0.45131049953134228 -0.18433764364674099 0 0.46765797362325351 -0.16960743348544691 0 0.4590637049386419 -0.17656280063954849 0 0.45563086259623248 -0.19437033231739831 0 0.4590637049386419 -0.17656280063954849 0 0.45563086259623248 -0.19437033231739831 0 0.46765797362325351 -0.16960743348544691 0 0.45563086259623248 -0.19437033231739831 0 0.46765797362325351 -0.16960743348544691 0 0.46817453342310178 -0.17984984725849121 0 0.45563086259623248 -0.19437033231739831 0 0.45131049953134228 -0.18433764364674099 0 0.4590637049386419 -0.17656280063954849 0 0.45563086259623248 -0.19437033231739831 0 0.46817453342310178 -0.17984984725849121 0 0.47868008644015098 -0.18364062408913809 0 0.4864423059537345 -0.17561039486471769 0 0.46817453342310178 -0.17984984725849121 0 0.47868008644015098 -0.18364062408913809 0 0.47427671796452459 -0.19390449174425081 0 0.4864423059537345 -0.17561039486471769 0 0.5 -0.16076066479590659 0 0.5 -0.1885669917164324 0 0.47868008644015098 -0.18364062408913809 0 0.4864423059537345 -0.17561039486471769 0 0.5 -0.1885669917164324 0 0.4864423059537345 -0.17561039486471769 0 0.5 -0.16076066479590659 0 0.4874204893839118 -0.1629257968797283 0 0.5 -0.16076066479590659 0 0.4874204893839118 -0.1629257968797283 0 0.48836632050416018 -0.15319142364385391 0 0.46765797362325351 -0.16960743348544691 0 0.47968508465027437 -0.14484453465349531 0 0.46817453342310178 -0.17984984725849121 0 0.4864423059537345 -0.17561039486471769 0 0.47621222687475862 -0.15989320835224299 0 0.46765797362325351 -0.16960743348544691 0 0.46817453342310178 -0.17984984725849121 0 0.47621222687475862 -0.15989320835224299 0 0.4864423059537345 -0.17561039486471769 0 0.4874204893839118 -0.1629257968797283 0 0.47621222687475862 -0.15989320835224299 0 0.46817453342310178 -0.17984984725849121 0 0.47621222687475862 -0.15989320835224299 0 0.4874204893839118 -0.1629257968797283 0 0.47621222687475862 -0.15989320835224299 0 0.48836632050416018 -0.15319142364385391 0 0.46765797362325351 -0.16960743348544691 0 0.47621222687475862 -0.15989320835224299 0 0.47968508465027437 -0.14484453465349531 0 0.47621222687475862 -0.15989320835224299 0 0.48424992032641551 -0.13993656944599481 0 0.47621222687475862 -0.15989320835224299 0 0.48836632050416018 -0.15319142364385391 0 0.48424992032641551 -0.13993656944599481 0 0.46795215833203208 -0.14958538313512479 0 0.46765797362325351 -0.16960743348544691 0 0.47968508465027437 -0.14484453465349531 0 0.47621222687475862 -0.15989320835224299 0 0.47968508465027437 -0.14484453465349531 0 0.48424992032641551 -0.13993656944599481 0 0.46623847963083442 -0.1374076686568538 0 0.46795215833203208 -0.14958538313512479 0 0.47424994269801352 -0.1397372940967013 0 0.46795215833203208 -0.14958538313512479 0 0.47968508465027437 -0.14484453465349531 0 0.47424994269801352 -0.1397372940967013 0 0.47968508465027437 -0.14484453465349531 0 0.47994759956173211 -0.14051186616834291 0 0.47424994269801352 -0.1397372940967013 0 0.47968508465027437 -0.14484453465349531 0 0.48424992032641551 -0.13993656944599481 0 0.47994759956173211 -0.14051186616834291 0 0.5 -0.16076066479590659 0 0.48836632050416018 -0.15319142364385391 0 0.5 -0.13295433787538069 0 0.48836632050416018 -0.15319142364385391 0 0.5 -0.13295433787538069 0 0.48424992032641551 -0.13993656944599481 0 0.48916266477234061 -0.13224727383335569 0 0.48085855782101261 -0.13626791926353529 0 0.48424992032641551 -0.13993656944599481 0 0.5 -0.13295433787538069 0 0.48916266477234061 -0.13224727383335569 0 0.48424992032641551 -0.13993656944599481 0 0.48986304781109291 -0.1242692167884092 0 0.5 -0.13295433787538069 0 0.48916266477234061 -0.13224727383335569 0 0.48986304781109291 -0.1242692167884092 0 0.48916266477234061 -0.13224727383335569 0 0.48085855782101261 -0.13626791926353529 0 0.47499259514944292 -0.1202547269832886 0 0.48085855782101261 -0.13626791926353529 0 0.47239045088042492 -0.13005034139104371 0 0.48085855782101261 -0.13626791926353529 0 0.48424992032641551 -0.13993656944599481 0 0.47994759956173211 -0.14051186616834291 0 0.48085855782101261 -0.13626791926353529 0 0.47994759956173211 -0.14051186616834291 0 0.47424994269801352 -0.1397372940967013 0 0.48085855782101261 -0.13626791926353529 0 0.47424994269801352 -0.1397372940967013 0 0.47239045088042492 -0.13005034139104371 0 0.46623847963083442 -0.1374076686568538 0 0.47424994269801352 -0.1397372940967013 0 0.47239045088042492 -0.13005034139104371 0 0.45735248248792831 -0.2263504469462593 0 0.45606595353113982 -0.2348942090935259 0 0.45040787416373163 -0.22146407059246401 0 0.4593659812364308 -0.22004368230368379 0 0.45735248248792831 -0.2263504469462593 0 0.45040787416373163 -0.22146407059246401 0 0.4593659812364308 -0.22004368230368379 0 0.45735248248792831 -0.2263504469462593 0 0.47005683011064803 -0.22590290220369119 0 0.4593659812364308 -0.22004368230368379 0 0.46586242272604061 -0.21273545752659301 0 0.47005683011064803 -0.22590290220369119 0 0.45735248248792831 -0.2263504469462593 0 0.45606595353113982 -0.2348942090935259 0 0.47005683011064803 -0.22590290220369119 0 0.46661169077989217 -0.2415165845456661 0 0.45606595353113982 -0.2348942090935259 0 0.47005683011064803 -0.22590290220369119 0 0.46661169077989217 -0.2415165845456661 0 0.45571617873614662 -0.24946335937342859 0 0.47785808936807489 -0.24877368548012899 0 0.45571617873614662 -0.24946335937342859 0 0.47785808936807489 -0.24877368548012899 0 0.46661169077989217 -0.2415165845456661 0 0.45518121600666411 -0.24259067484840299 0 0.45571617873614662 -0.24946335937342859 0 0.46661169077989217 -0.2415165845456661 0 0.45518121600666411 -0.24259067484840299 0 0.45606595353113982 -0.2348942090935259 0 0.45571617873614662 -0.24946335937342859 0 0.43357426810421817 -0.25015303326672972 0 0.43048550082884018 -0.24614270293406881 0 0.44582088554477811 -0.24525862245079941 0 0.44233814121790038 -0.22173902575952509 0 0.45571617873614662 -0.24946335937342859 0 0.44582088554477811 -0.24525862245079941 0 0.43357426810421817 -0.25015303326672972 0 0.45518121600666411 -0.24259067484840299 0 0.45606595353113982 -0.2348942090935259 0 0.44582088554477811 -0.24525862245079941 0 0.45518121600666411 -0.24259067484840299 0 0.45571617873614662 -0.24946335937342859 0 0.44582088554477811 -0.24525862245079941 0 0.44582088554477811 -0.24525862245079941 0 0.44233814121790038 -0.22173902575952509 0 0.45040787416373163 -0.22146407059246401 0 0.44582088554477811 -0.24525862245079941 0 0.45040787416373163 -0.22146407059246401 0 0.45606595353113982 -0.2348942090935259 0 0.44582088554477811 -0.24525862245079941 0 0.45040787416373163 -0.22146407059246401 0 0.43723926749718739 -0.20471492206911249 0 0.44233814121790038 -0.22173902575952509 0 0.45499486278268447 -0.1976695187341285 0 0.45040787416373163 -0.22146407059246401 0 0.45499486278268447 -0.1976695187341285 0 0.44233814121790038 -0.22173902575952509 0 0.45040787416373163 -0.22146407059246401 0 0.45499486278268447 -0.1976695187341285 0 0.44233814121790038 -0.22173902575952509 0 0.45499486278268447 -0.1976695187341285 0 0.43723926749718739 -0.20471492206911249 0 0.44395992212319679 -0.19308347956624619 0 0.45499486278268447 -0.1976695187341285 0 0.43389642119060762 -0.191962199940241 0 0.44405046135624082 -0.18412940313962539 0 0.44395992212319679 -0.19308347956624619 0 0.43389642119060762 -0.191962199940241 0 0.43723926749718739 -0.20471492206911249 0 0.44395992212319679 -0.19308347956624619 0 0.44395992212319679 -0.19308347956624619 0 0.45499486278268447 -0.1976695187341285 0 0.45131049953134228 -0.18433764364674099 0 0.4501360628432447 -0.19063724014234421 0 0.45563086259623248 -0.19437033231739831 0 0.44395992212319679 -0.19308347956624619 0 0.4501360628432447 -0.19063724014234421 0 0.45499486278268447 -0.1976695187341285 0 0.44405046135624082 -0.18412940313962539 0 0.44395992212319679 -0.19308347956624619 0 0.4501360628432447 -0.19063724014234421 0 0.46817453342310178 -0.17984984725849121 0 0.46013683997144489 -0.19980648616473931 0 0.47427671796452459 -0.19390449174425081 0 0.46817453342310178 -0.17984984725849121 0 0.46013683997144489 -0.19980648616473931 0 0.46817453342310178 -0.17984984725849121 0 0.45563086259623248 -0.19437033231739831 0 0.46013683997144489 -0.19980648616473931 0 0.4501360628432447 -0.19063724014234421 0 0.45563086259623248 -0.19437033231739831 0 0.45499486278268447 -0.1976695187341285 0 0.45499486278268447 -0.1976695187341285 0 0.46013683997144489 -0.19980648616473931 0 0.45563086259623248 -0.19437033231739831 0 0.45499486278268447 -0.1976695187341285 0 0.45563086259623248 -0.19437033231739831 0 0.45499486278268447 -0.1976695187341285 0 0.46013683997144489 -0.19980648616473931 0 0.46013683997144489 -0.19980648616473931 0 0.46586242272604061 -0.21273545752659301 0 0.48006841998572208 -0.20808990240084899 0 0.45040787416373163 -0.22146407059246401 0 0.45499486278268447 -0.1976695187341285 0 0.4548395438527213 -0.21295904373074681 0 0.4593659812364308 -0.22004368230368379 0 0.45040787416373163 -0.22146407059246401 0 0.4548395438527213 -0.21295904373074681 0 0.4593659812364308 -0.22004368230368379 0 0.4548395438527213 -0.21295904373074681 0 0.46586242272604061 -0.21273545752659301 0 0.46013683997144489 -0.19980648616473931 0 0.4548395438527213 -0.21295904373074681 0 0.45499486278268447 -0.1976695187341285 0 0.46013683997144489 -0.19980648616473931 0 0.4548395438527213 -0.21295904373074681 0 0.46013683997144489 -0.19980648616473931 0 0.4548395438527213 -0.21295904373074681 0 0.46586242272604061 -0.21273545752659301 0 0.46013683997144489 -0.19980648616473931 0 0.48006841998572208 -0.20808990240084899 0 0.46586242272604061 -0.21273545752659301 0 0.48006841998572208 -0.20808990240084899 0 0.47005683011064803 -0.22590290220369119 0 0.46013683997144489 -0.19980648616473931 0 0.48006841998572208 -0.20808990240084899 0 0.47427671796452459 -0.19390449174425081 0 0.47868008644015098 -0.18364062408913809 0 0.47427671796452459 -0.19390449174425081 0 0.5 -0.1885669917164324 0 0.48006841998572208 -0.20808990240084899 0 0.47427671796452459 -0.19390449174425081 0 0.5 -0.1885669917164324 0 0.48006841998572208 -0.20808990240084899 0 0.5 -0.1885669917164324 0 0.49999999999999961 -0.21637331863695819 0 0.48006841998572208 -0.20808990240084899 0 0.49999999999999961 -0.21637331863695819 0 0.48006841998572208 -0.20808990240084899 0 0.49999999999999961 -0.21637331863695819 0 0.4862545149737133 -0.22430099187442659 0 0.49999999999999961 -0.21637331863695819 0 0.5 -0.2322286651118938 0 0.4862545149737133 -0.22430099187442659 0 0.5 -0.2322286651118938 0 0.4862545149737133 -0.22430099187442659 0 0.48731543898686108 -0.23834171508702701 0 0.4862545149737133 -0.22430099187442659 0 0.47005683011064803 -0.22590290220369119 0 0.48731543898686108 -0.23834171508702701 0 0.48006841998572208 -0.20808990240084899 0 0.4862545149737133 -0.22430099187442659 0 0.47005683011064803 -0.22590290220369119 0 0.46661169077989217 -0.2415165845456661 0 0.47005683011064803 -0.22590290220369119 0 0.48731543898686108 -0.23834171508702701 0 0.46661169077989217 -0.2415165845456661 0 0.47785808936807489 -0.24877368548012899 0 0.48731543898686108 -0.23834171508702701 0 0.47785808936807489 -0.24877368548012899 0 0.50000000000000333 -0.24808401158682941 0 0.48731543898686108 -0.23834171508702701 0 0.5 -0.2322286651118938 0 0.50000000000000333 -0.24808401158682941 0 0.48731543898686108 -0.23834171508702701 0 0.47785808936807489 -0.24877368548012899 0 0.50000000000000333 -0.24808401158682941 0 0.50000000000000333 -0.24808401158682941 0 0.48656724266228879 -0.26126228076250718 0 0.5 -0.26842994380811291 0 0.47785808936807489 -0.24877368548012899 0 0.50000000000000333 -0.24808401158682941 0 0.48656724266228879 -0.26126228076250718 0 0.5 -0.26842994380811291 0 0.48208681399926079 -0.27581357356502773 0 0.50000000000000111 -0.28877587602939642 0 0.48656724266228879 -0.26126228076250718 0 0.5 -0.26842994380811291 0 0.48208681399926079 -0.27581357356502773 0 0.48208681399926079 -0.27581357356502773 0 0.46068671901070851 -0.28535474144655731 0 0.48208681399926079 -0.27581357356502773 0 0.46768981413575761 -0.2649492641288182 0 0.46068671901070851 -0.28535474144655731 0 0.48656724266228879 -0.26126228076250718 0 0.48208681399926079 -0.27581357356502773 0 0.46768981413575761 -0.2649492641288182 0 0.47785808936807489 -0.24877368548012899 0 0.48656724266228879 -0.26126228076250718 0 0.46768981413575761 -0.2649492641288182 0 0.45571617873614662 -0.24946335937342859 0 0.47785808936807489 -0.24877368548012899 0 0.46768981413575761 -0.2649492641288182 0 0.45571617873614662 -0.24946335937342859 0 0.46768981413575761 -0.2649492641288182 0 0.44713049355746243 -0.26775388735664418 0 0.46768981413575761 -0.2649492641288182 0 0.44713049355746243 -0.26775388735664418 0 0.46068671901070851 -0.28535474144655731 0 0.44713049355746243 -0.26775388735664418 0 0.46068671901070851 -0.28535474144655731 0 0.45571617873614662 -0.24946335937342859 0 0.44713049355746243 -0.26775388735664418 0 0.43357426810421817 -0.25015303326672972 0 0.44713049355746243 -0.26775388735664418 0 0.43357426810421817 -0.25015303326672972 0 0.43808872290812301 -0.29542998993102848 0 0.44582747314286902 -0.31276753443956201 0 0.43031487288344161 -0.31703067604683871 0 0.43808872290812301 -0.29542998993102848 0 0.45932525709009708 -0.30194153040829069 0 0.44582747314286902 -0.31276753443956201 0 0.43808872290812301 -0.29542998993102848 0 0.46068671901070851 -0.28535474144655731 0 0.45932525709009708 -0.30194153040829069 0 0.43808872290812301 -0.29542998993102848 0 0.46068671901070851 -0.28535474144655731 0 0.44713049355746243 -0.26775388735664418 0 0.43808872290812301 -0.29542998993102848 0 0.46068671901070851 -0.28535474144655731 0 0.46068671901070851 -0.28535474144655731 0 0.47654280981399377 -0.30594164756046982 0 0.46068671901070851 -0.28535474144655731 0 0.45932525709009708 -0.30194153040829069 0 0.47654280981399377 -0.30594164756046982 0 0.45932525709009708 -0.30194153040829069 0 0.46020140703816609 -0.31790014661013011 0 0.44582747314286902 -0.31276753443956201 0 0.47654280981399377 -0.30594164756046982 0 0.46020140703816609 -0.31790014661013011 0 0.45932525709009708 -0.30194153040829069 0 0.47654280981399377 -0.30594164756046982 0 0.46020140703816609 -0.31790014661013011 0 0.47654280981399377 -0.30594164756046982 0 0.48452590656705868 -0.31630657706248883 0 0.48208681399926079 -0.27581357356502773 0 0.46068671901070851 -0.28535474144655731 0 0.47654280981399377 -0.30594164756046982 0 0.48208681399926079 -0.27581357356502773 0 0.47654280981399377 -0.30594164756046982 0 0.50000000000000111 -0.28877587602939642 0 0.50000000000000111 -0.28877587602939642 0 0.5 -0.31627016595707702 0 0.48452590656705868 -0.31630657706248883 0 0.47654280981399377 -0.30594164756046982 0 0.50000000000000111 -0.28877587602939642 0 0.47654280981399377 -0.30594164756046982 0 0.50000000000000111 -0.28877587602939642 0 0.48452590656705868 -0.31630657706248883 0 0.5 -0.31627016595707702 0 0.48452590656705868 -0.31630657706248883 0 0.4798244965011923 -0.33203805400226027 0 0.5 -0.31627016595707702 0 0.4798244965011923 -0.33203805400226027 0 0.5 -0.34376445588475768 0 0.4798244965011923 -0.33203805400226027 0 0.46847105179670839 -0.34389899480205388 0 0.46020140703816609 -0.31790014661013011 0 0.47654280981399377 -0.30594164756046982 0 0.47527365498010271 -0.31804660630883719 0 0.46020140703816609 -0.31790014661013011 0 0.48452590656705868 -0.31630657706248883 0 0.4798244965011923 -0.33203805400226027 0 0.47527365498010271 -0.31804660630883719 0 0.4798244965011923 -0.33203805400226027 0 0.47527365498010271 -0.31804660630883719 0 0.46020140703816609 -0.31790014661013011 0 0.47654280981399377 -0.30594164756046982 0 0.48452590656705868 -0.31630657706248883 0 0.47527365498010271 -0.31804660630883719 0 0.49999999999999711 -0.37125874581243851 0 0.48806042456369142 -0.35612155968098341 0 0.47674069655525092 -0.3698978429939776 0 0.4798244965011923 -0.33203805400226027 0 0.48806042456369142 -0.35612155968098341 0 0.5 -0.34376445588475768 0 0.49999999999999711 -0.37125874581243851 0 0.48806042456369142 -0.35612155968098341 0 0.5 -0.34376445588475768 0 0.4798244965011923 -0.33203805400226027 0 0.48806042456369142 -0.35612155968098341 0 0.46847105179670839 -0.34389899480205388 0 0.48806042456369142 -0.35612155968098341 0 0.47674069655525092 -0.3698978429939776 0 0.46847105179670839 -0.34389899480205388 0 0.47674069655525092 -0.3698978429939776 0 0.46847105179670839 -0.34389899480205388 0 0.47674069655525092 -0.3698978429939776 0 0.45392603783110008 -0.37108838658624999 0 0.46847105179670839 -0.34389899480205388 0 0.45392603783110008 -0.37108838658624999 0 0.46847105179670839 -0.34389899480205388 0 0.44672977628043381 -0.35017364189741718 0 0.45392603783110008 -0.37108838658624999 0 0.44672977628043381 -0.35017364189741718 0 0.42785183481717409 -0.36595316276467199 0 0.45392603783110008 -0.37108838658624999 0 0.42785183481717409 -0.36595316276467199 0 0.43242581624588322 -0.38730115333965082 0 0.46847105179670839 -0.34389899480205388 0 0.46020140703816609 -0.31790014661013011 0 0.46847105179670839 -0.34389899480205388 0 0.46020140703816609 -0.31790014661013011 0 0.45431986664039198 -0.33607192194780172 0 0.46847105179670839 -0.34389899480205388 0 0.44672977628043381 -0.35017364189741718 0 0.45431986664039198 -0.33607192194780172 0 0.44672977628043381 -0.35017364189741718 0 0.44127539957872802 -0.33175003730325792 0 0.42823689835664952 -0.34636857782623809 0 0.44672977628043381 -0.35017364189741718 0 0.45431986664039198 -0.33607192194780172 0 0.44127539957872802 -0.33175003730325792 0 0.46020140703816609 -0.31790014661013011 0 0.45431986664039198 -0.33607192194780172 0 0.44127539957872802 -0.33175003730325792 0 0.44127539957872802 -0.33175003730325792 0 0.44582747314286902 -0.31276753443956201 0 0.43031487288344161 -0.31703067604683871 0 0.46020140703816609 -0.31790014661013011 0 0.44127539957872802 -0.33175003730325792 0 0.46020140703816609 -0.31790014661013011 0 0.44127539957872802 -0.33175003730325792 0 0.44582747314286902 -0.31276753443956201 0 0.44127539957872802 -0.33175003730325792 0 0.43031487288344161 -0.31703067604683871 0 0.41707429101309201 -0.3297381436533145 0 0.44127539957872802 -0.33175003730325792 0 0.41707429101309201 -0.3297381436533145 0 0.42823689835664952 -0.34636857782623809 0 0.41707429101309201 -0.3297381436533145 0 0.42823689835664952 -0.34636857782623809 0 0.40866613474490449 -0.35252068697126149 0 0.41707429101309201 -0.3297381436533145 0 0.39289273070295128 -0.31558048689996993 0 0.41549072680553711 -0.30550523841549909 0 0.43031487288344161 -0.31703067604683871 0 0.41707429101309201 -0.3297381436533145 0 0.41549072680553711 -0.30550523841549909 0 0.44672977628043381 -0.35017364189741718 0 0.42785183481717409 -0.36595316276467199 0 0.42823689835664952 -0.34636857782623809 0 0.42785183481717409 -0.36595316276467199 0 0.40866613474490449 -0.35252068697126149 0 0.42785183481717409 -0.36595316276467199 0 0.42823689835664952 -0.34636857782623809 0 0.40866613474490449 -0.35252068697126149 0 0.42785183481717409 -0.36595316276467199 0 0.4111933065081313 -0.36805982019164402 0 0.41287057948892703 -0.38518927514730122 0 0.42785183481717409 -0.36595316276467199 0 0.40866613474490449 -0.35252068697126149 0 0.4111933065081313 -0.36805982019164402 0 0.39290052262193498 -0.35565000096393579 0 0.38249634533461108 -0.36797477098799591 0 0.39650622041158878 -0.3765742856902482 0 0.4111933065081313 -0.36805982019164402 0 0.39290052262193498 -0.35565000096393579 0 0.39650622041158878 -0.3765742856902482 0 0.40866613474490449 -0.35252068697126149 0 0.39290052262193498 -0.35565000096393579 0 0.38948043467263488 -0.33908821117785082 0 0.40866613474490449 -0.35252068697126149 0 0.38948043467263488 -0.33908821117785082 0 0.40866613474490449 -0.35252068697126149 0 0.4111933065081313 -0.36805982019164402 0 0.39290052262193498 -0.35565000096393579 0 0.39290052262193498 -0.35565000096393579 0 0.37818146540529818 -0.34934783795600571 0 0.38249634533461108 -0.36797477098799591 0 0.39290052262193498 -0.35565000096393579 0 0.37818146540529818 -0.34934783795600571 0 0.38948043467263488 -0.33908821117785082 0 0.37818146540529818 -0.34934783795600571 0 0.38249634533461108 -0.36797477098799591 0 0.37305712147220338 -0.36102055586376819 0 0.41707429101309201 -0.3297381436533145 0 0.40866613474490449 -0.35252068697126149 0 0.38948043467263488 -0.33908821117785082 0 0.41707429101309201 -0.3297381436533145 0 0.39289273070295128 -0.31558048689996993 0 0.38948043467263488 -0.33908821117785082 0 0.37818146540529818 -0.34934783795600571 0 0.38948043467263488 -0.33908821117785082 0 0.37212478857772979 -0.33864880005647208 0 0.38948043467263488 -0.33908821117785082 0 0.37029473460036533 -0.32565573538444043 0 0.38948043467263488 -0.33908821117785082 0 0.37029473460036533 -0.32565573538444043 0 0.37212478857772979 -0.33864880005647208 0 0.39289273070295128 -0.31558048689996993 0 0.38064079273778262 -0.31288188218018531 0 0.37029473460036533 -0.32565573538444043 0 0.39289273070295128 -0.31558048689996993 0 0.37029473460036533 -0.32565573538444043 0 0.39289273070295128 -0.31558048689996993 0 0.38948043467263488 -0.33908821117785082 0 0.37029473460036533 -0.32565573538444043 0 0.38064079273778262 -0.31288188218018531 0 0.37804720550635529 -0.30651687721429538 0 0.38870969627640167 -0.30439929484627132 0 0.38064079273778262 -0.31288188218018531 0 0.37804720550635529 -0.30651687721429538 0 0.37325959660283969 -0.31225701655594912 0 0.37804720550635529 -0.30651687721429538 0 0.38032829646105881 -0.29636137241382532 0 0.36761344479238373 -0.29508033606196837 0 0.37804720550635529 -0.30651687721429538 0 0.38870969627640167 -0.30439929484627132 0 0.38032829646105881 -0.29636137241382532 0 0.38870969627640167 -0.30439929484627132 0 0.3879772147484597 -0.29176707856862888 0 0.38032829646105881 -0.29636137241382532 0 0.39289273070295128 -0.31558048689996993 0 0.38064079273778262 -0.31288188218018531 0 0.38870969627640167 -0.30439929484627132 0 0.39289273070295128 -0.31558048689996993 0 0.39985527598894161 -0.30920798579428682 0 0.41549072680553711 -0.30550523841549909 0 0.39985527598894161 -0.30920798579428682 0 0.39681295496079538 -0.29611275996065012 0 0.40939030264251791 -0.28957609748361951 0 0.39985527598894161 -0.30920798579428682 0 0.40939030264251791 -0.28957609748361951 0 0.39289273070295128 -0.31558048689996993 0 0.41549072680553711 -0.30550523841549909 0 0.39289273070295128 -0.31558048689996993 0 0.38870969627640167 -0.30439929484627132 0 0.39985527598894161 -0.30920798579428682 0 0.38870969627640167 -0.30439929484627132 0 0.39681295496079538 -0.29611275996065012 0 0.3879772147484597 -0.29176707856862888 0 0.38870969627640167 -0.30439929484627132 0 0.39985527598894161 -0.30920798579428682 0 0.39681295496079538 -0.29611275996065012 0 0.39922652050867191 -0.28295197323892363 0 0.39681295496079538 -0.29611275996065012 0 0.40939030264251791 -0.28957609748361951 0 0.39922652050867191 -0.28295197323892363 0 0.39681295496079538 -0.29611275996065012 0 0.3879772147484597 -0.29176707856862888 0 0.39922652050867191 -0.28295197323892363 0 0.3879772147484597 -0.29176707856862888 0 0.38840358504398731 -0.28029486931936831 0 0.3879772147484597 -0.29176707856862888 0 0.37929392098169401 -0.28404327537796259 0 0.38840358504398731 -0.28029486931936831 0 0.38032829646105881 -0.29636137241382532 0 0.37929392098169401 -0.28404327537796259 0 0.36761344479238373 -0.29508033606196837 0 0.3879772147484597 -0.29176707856862888 0 0.38032829646105881 -0.29636137241382532 0 0.37929392098169401 -0.28404327537796259 0 0.37929392098169401 -0.28404327537796259 0 0.38326599173650672 -0.27147868498013239 0 0.3725796289452375 -0.26579697317357759 0 0.37929392098169401 -0.28404327537796259 0 0.38326599173650672 -0.27147868498013239 0 0.38840358504398731 -0.28029486931936831 0 0.38326599173650672 -0.27147868498013239 0 0.38840358504398731 -0.28029486931936831 0 0.39544519547575041 -0.26880031542545191 0 0.37754581309809132 -0.23651361028518689 0 0.3725796289452375 -0.26579697317357759 0 0.37754581309809132 -0.23651361028518689 0 0.3871149211879113 -0.25548270742864421 0 0.3725796289452375 -0.26579697317357759 0 0.38326599173650672 -0.27147868498013239 0 0.3871149211879113 -0.25548270742864421 0 0.39544519547575041 -0.26880031542545191 0 0.38326599173650672 -0.27147868498013239 0 0.3871149211879113 -0.25548270742864421 0 0.3725796289452375 -0.26579697317357759 0 0.3871149211879113 -0.25548270742864421 0 0.40207495352916539 -0.25113417058953519 0 0.39544519547575041 -0.26880031542545191 0 0.40207495352916539 -0.25113417058953519 0 0.39544519547575041 -0.26880031542545191 0 0.41892532929609411 -0.26994420917295231 0 0.39922652050867191 -0.28295197323892363 0 0.39544519547575041 -0.26880031542545191 0 0.41892532929609411 -0.26994420917295231 0 0.39922652050867191 -0.28295197323892363 0 0.38840358504398731 -0.28029486931936831 0 0.39544519547575041 -0.26880031542545191 0 0.41892532929609411 -0.26994420917295231 0 0.40939030264251791 -0.28957609748361951 0 0.41892532929609411 -0.26994420917295231 0 0.42674472615619141 -0.28201696019190231 0 0.40939030264251791 -0.28957609748361951 0 0.39922652050867191 -0.28295197323892363 0 0.41892532929609411 -0.26994420917295231 0 0.40939030264251791 -0.28957609748361951 0 0.40207495352916539 -0.25113417058953519 0 0.41892532929609411 -0.26994420917295231 0 0.42846035594967069 -0.25031232086228522 0 0.40207495352916539 -0.25113417058953519 0 0.42846035594967069 -0.25031232086228522 0 0.44713049355746243 -0.26775388735664418 0 0.4314427817274139 -0.26389233879167029 0 0.43357426810421817 -0.25015303326672972 0 0.41892532929609411 -0.26994420917295231 0 0.42846035594967069 -0.25031232086228522 0 0.41892532929609411 -0.26994420917295231 0 0.42846035594967069 -0.25031232086228522 0 0.4314427817274139 -0.26389233879167029 0 0.42846035594967069 -0.25031232086228522 0 0.4314427817274139 -0.26389233879167029 0 0.43357426810421817 -0.25015303326672972 0 0.42846035594967069 -0.25031232086228522 0 0.43357426810421817 -0.25015303326672972 0 0.41892532929609411 -0.26994420917295231 0 0.4314427817274139 -0.26389233879167029 0 0.42674472615619141 -0.28201696019190231 0 0.44713049355746243 -0.26775388735664418 0 0.4314427817274139 -0.26389233879167029 0 0.42674472615619141 -0.28201696019190231 0 0.43808872290812301 -0.29542998993102848 0 0.42674472615619141 -0.28201696019190231 0 0.41549072680553711 -0.30550523841549909 0 0.44713049355746243 -0.26775388735664418 0 0.43808872290812301 -0.29542998993102848 0 0.42674472615619141 -0.28201696019190231 0 0.43808872290812301 -0.29542998993102848 0 0.43031487288344161 -0.31703067604683871 0 0.41549072680553711 -0.30550523841549909 0 0.43808872290812301 -0.29542998993102848 0 0.41549072680553711 -0.30550523841549909 0 0.39985527598894161 -0.30920798579428682 0 0.41549072680553711 -0.30550523841549909 0 0.40939030264251791 -0.28957609748361951 0 0.42674472615619141 -0.28201696019190231 0 0.41549072680553711 -0.30550523841549909 0 0.40939030264251791 -0.28957609748361951 0 0.43773802119989941 -0.49999999999999978 0 0.45890943729545802 -0.4823892052391901 0 0.4796611806106722 -0.48718440019654963 0 0.43773802119989941 -0.49999999999999978 0 0.44535189907423273 -0.48425652050154361 0 0.43773802119989941 -0.49999999999999978 0 0.44535189907423273 -0.48425652050154361 0 0.45890943729545802 -0.4823892052391901 0 0.43920548674920379 -0.47249175324936749 0 0.44535189907423273 -0.48425652050154361 0 0.45296577694856682 -0.46851304100308783 0 0.43920548674920379 -0.47249175324936749 0 0.44535189907423273 -0.48425652050154361 0 0.42866409193048188 -0.47676758270227471 0 0.44535189907423273 -0.48425652050154361 0 0.45589009982111051 -0.4775459799915327 0 0.45296577694856682 -0.46851304100308783 0 0.44535189907423273 -0.48425652050154361 0 0.45296577694856682 -0.46851304100308783 0 0.45589009982111051 -0.4775459799915327 0 0.45890943729545802 -0.4823892052391901 0 0.46145872075250199 -0.4714816097570898 0 0.44535189907423273 -0.48425652050154361 0 0.45589009982111051 -0.4775459799915327 0 0.45890943729545802 -0.4823892052391901 0 0.45890943729545802 -0.4823892052391901 0 0.46145872075250199 -0.4714816097570898 0 0.47563876839417468 -0.4748936591889994 0 0.46145872075250199 -0.4714816097570898 0 0.45296577694856682 -0.46851304100308783 0 0.45589009982111051 -0.4775459799915327 0 0.46145872075250199 -0.4714816097570898 0 0.45296577694856682 -0.46851304100308783 0 0.43773802119989941 -0.49999999999999978 0 0.4796611806106722 -0.48718440019654963 0 0.5 -0.5 0 0.4796611806106722 -0.48718440019654963 0 0.5 -0.5 0 0.5 -0.47026069904804169 0 0.5 -0.47026069904804169 0 0.47563876839417468 -0.4748936591889994 0 0.47905351322328699 -0.46315238170412548 0 0.4796611806106722 -0.48718440019654963 0 0.5 -0.47026069904804169 0 0.47563876839417468 -0.4748936591889994 0 0.46145872075250199 -0.4714816097570898 0 0.47563876839417468 -0.4748936591889994 0 0.47905351322328699 -0.46315238170412548 0 0.45890943729545802 -0.4823892052391901 0 0.4796611806106722 -0.48718440019654963 0 0.47563876839417468 -0.4748936591889994 0 0.47905351322328699 -0.46315238170412548 0 0.45899603635761982 -0.45604406436020939 0 0.47905351322328699 -0.46315238170412548 0 0.4788951805990147 -0.44564391983896778 0 0.45899603635761982 -0.45604406436020939 0 0.5 -0.47026069904804169 0 0.47905351322328699 -0.46315238170412548 0 0.5 -0.44373220895607401 0 0.5 -0.47026069904804169 0 0.47905351322328699 -0.46315238170412548 0 0.5 -0.44373220895607401 0 0.4788951805990147 -0.44564391983896778 0 0.48552804520920678 -0.42799216931292611 0 0.47905351322328699 -0.46315238170412548 0 0.5 -0.44373220895607401 0 0.4788951805990147 -0.44564391983896778 0 0.4788951805990147 -0.44564391983896778 0 0.45899603635761982 -0.45604406436020939 0 0.46924702726821282 -0.43484773472326599 0 0.45899603635761982 -0.45604406436020939 0 0.46924702726821282 -0.43484773472326599 0 0.45899603635761982 -0.45604406436020939 0 0.44838303037477362 -0.43447900987216292 0 0.46924702726821282 -0.43484773472326599 0 0.46145872075250199 -0.4714816097570898 0 0.47905351322328699 -0.46315238170412548 0 0.45899603635761982 -0.45604406436020939 0 0.46145872075250199 -0.4714816097570898 0 0.45899603635761982 -0.45604406436020939 0 0.45296577694856682 -0.46851304100308783 0 0.45899603635761982 -0.45604406436020939 0 0.45296577694856682 -0.46851304100308783 0 0.44562172027540892 -0.45801600689332289 0 0.45296577694856682 -0.46851304100308783 0 0.42984017904353489 -0.46042986879056458 0 0.43920548674920379 -0.47249175324936749 0 0.45296577694856682 -0.46851304100308783 0 0.42984017904353489 -0.46042986879056458 0 0.44562172027540892 -0.45801600689332289 0 0.43764883001816302 -0.44847867026387339 0 0.42984017904353489 -0.46042986879056458 0 0.45899603635761982 -0.45604406436020939 0 0.44562172027540892 -0.45801600689332289 0 0.45296577694856682 -0.46851304100308783 0 0.45296577694856682 -0.46851304100308783 0 0.42984017904353489 -0.46042986879056458 0 0.45899603635761982 -0.45604406436020939 0 0.44562172027540892 -0.45801600689332289 0 0.43764883001816302 -0.44847867026387339 0 0.45899603635761982 -0.45604406436020939 0 0.43764883001816302 -0.44847867026387339 0 0.44838303037477362 -0.43447900987216292 0 0.43764883001816302 -0.44847867026387339 0 0.44838303037477362 -0.43447900987216292 0 0.43199803478474752 -0.43480066315574151 0 0.45899603635761982 -0.45604406436020939 0 0.43764883001816302 -0.44847867026387339 0 0.44838303037477362 -0.43447900987216292 0 0.43524810038533429 -0.42324892749070769 0 0.43199803478474752 -0.43480066315574151 0 0.44838303037477362 -0.43447900987216292 0 0.45481320319103757 -0.41743251132042969 0 0.43524810038533429 -0.42324892749070769 0 0.45481320319103757 -0.41743251132042969 0 0.43477646914432833 -0.40550992295969079 0 0.43524810038533429 -0.42324892749070769 0 0.45481320319103757 -0.41743251132042969 0 0.46680969583490778 -0.41274858841526157 0 0.46924702726821282 -0.43484773472326599 0 0.45481320319103757 -0.41743251132042969 0 0.46680969583490778 -0.41274858841526157 0 0.46697148891275431 -0.40002921638500172 0 0.44838303037477362 -0.43447900987216292 0 0.45481320319103757 -0.41743251132042969 0 0.46924702726821282 -0.43484773472326599 0 0.5 -0.44373220895607401 0 0.48552804520920678 -0.42799216931292611 0 0.5 -0.40208557795999961 0 0.46924702726821282 -0.43484773472326599 0 0.48552804520920678 -0.42799216931292611 0 0.47949801817880677 -0.41365140508632309 0 0.4788951805990147 -0.44564391983896778 0 0.46924702726821282 -0.43484773472326599 0 0.48552804520920678 -0.42799216931292611 0 0.46924702726821282 -0.43484773472326599 0 0.47949801817880677 -0.41365140508632309 0 0.48552804520920678 -0.42799216931292611 0 0.47949801817880677 -0.41365140508632309 0 0.5 -0.40208557795999961 0 0.46680969583490778 -0.41274858841526157 0 0.46924702726821282 -0.43484773472326599 0 0.47949801817880677 -0.41365140508632309 0 0.46680969583490778 -0.41274858841526157 0 0.47949801817880677 -0.41365140508632309 0 0.47485796399023311 -0.40328323013715978 0 0.47949801817880677 -0.41365140508632309 0 0.47485796399023311 -0.40328323013715978 0 0.48501034131379339 -0.39589669118590137 0 0.46680969583490778 -0.41274858841526157 0 0.47485796399023311 -0.40328323013715978 0 0.46697148891275431 -0.40002921638500172 0 0.47485796399023311 -0.40328323013715978 0 0.47548297721973709 -0.39513831255209197 0 0.46697148891275431 -0.40002921638500172 0 0.47548297721973709 -0.39513831255209197 0 0.47310568845609052 -0.38536867418522291 0 0.46697148891275431 -0.40002921638500172 0 0.47548297721973709 -0.39513831255209197 0 0.48501034131379339 -0.39589669118590137 0 0.47310568845609052 -0.38536867418522291 0 0.47485796399023311 -0.40328323013715978 0 0.47548297721973709 -0.39513831255209197 0 0.48501034131379339 -0.39589669118590137 0 0.47949801817880677 -0.41365140508632309 0 0.48974900908940078 -0.39245507544938019 0 0.47949801817880677 -0.41365140508632309 0 0.5 -0.40208557795999961 0 0.48974900908940078 -0.39245507544938019 0 0.47949801817880677 -0.41365140508632309 0 0.48974900908940078 -0.39245507544938019 0 0.48501034131379339 -0.39589669118590137 0 0.49999999999999711 -0.37125874581243851 0 0.5 -0.40208557795999961 0 0.48974900908940078 -0.39245507544938019 0 0.49999999999999711 -0.37125874581243851 0 0.47674069655525092 -0.3698978429939776 0 0.48974900908940078 -0.39245507544938019 0 0.49999999999999711 -0.37125874581243851 0 0.48974900908940078 -0.39245507544938019 0 0.47674069655525092 -0.3698978429939776 0 0.48501034131379339 -0.39589669118590137 0 0.47310568845609052 -0.38536867418522291 0 0.47674069655525092 -0.3698978429939776 0 0.48974900908940078 -0.39245507544938019 0 0.48501034131379339 -0.39589669118590137 0 0.47674069655525092 -0.3698978429939776 0 0.48501034131379339 -0.39589669118590137 0 0.45392603783110008 -0.37108838658624999 0 0.47310568845609052 -0.38536867418522291 0 0.45155556879862868 -0.3944603689424081 0 0.47674069655525092 -0.3698978429939776 0 0.45392603783110008 -0.37108838658624999 0 0.47310568845609052 -0.38536867418522291 0 0.45481320319103757 -0.41743251132042969 0 0.46697148891275431 -0.40002921638500172 0 0.45155556879862868 -0.3944603689424081 0 0.47310568845609052 -0.38536867418522291 0 0.46697148891275431 -0.40002921638500172 0 0.45155556879862868 -0.3944603689424081 0 0.45481320319103757 -0.41743251132042969 0 0.45155556879862868 -0.3944603689424081 0 0.43477646914432833 -0.40550992295969079 0 0.45155556879862868 -0.3944603689424081 0 0.43242581624588322 -0.38730115333965082 0 0.43477646914432833 -0.40550992295969079 0 0.45392603783110008 -0.37108838658624999 0 0.45155556879862868 -0.3944603689424081 0 0.43242581624588322 -0.38730115333965082 0 0.42785183481717409 -0.36595316276467199 0 0.43242581624588322 -0.38730115333965082 0 0.41287057948892703 -0.38518927514730122 0 0.43242581624588322 -0.38730115333965082 0 0.43477646914432833 -0.40550992295969079 0 0.41749483707519452 -0.40538692165420498 0 0.43242581624588322 -0.38730115333965082 0 0.41749483707519452 -0.40538692165420498 0 0.41287057948892703 -0.38518927514730122 0 0.41749483707519452 -0.40538692165420498 0 0.41287057948892703 -0.38518927514730122 0 0.40336078828097621 -0.40362515372992341 0 0.4111933065081313 -0.36805982019164402 0 0.41287057948892703 -0.38518927514730122 0 0.39650622041158878 -0.3765742856902482 0 0.41287057948892703 -0.38518927514730122 0 0.39650622041158878 -0.3765742856902482 0 0.39372170841196569 -0.3925803949292499 0 0.38249634533461108 -0.36797477098799591 0 0.39650622041158878 -0.3765742856902482 0 0.37900977316023637 -0.39091548517495972 0 0.39650622041158878 -0.3765742856902482 0 0.37900977316023637 -0.39091548517495972 0 0.39372170841196569 -0.3925803949292499 0 0.38249634533461108 -0.36797477098799591 0 0.37900977316023637 -0.39091548517495972 0 0.36724772315424481 -0.38247146420994571 0 0.37900977316023637 -0.39091548517495972 0 0.39372170841196569 -0.3925803949292499 0 0.37842665921942997 -0.40887405987875969 0 0.37900977316023637 -0.39091548517495972 0 0.37842665921942997 -0.40887405987875969 0 0.36824105802713031 -0.4000969440192842 0 0.39372170841196569 -0.3925803949292499 0 0.39194747191700757 -0.41402513481906722 0 0.37842665921942997 -0.40887405987875969 0 0.41287057948892703 -0.38518927514730122 0 0.39372170841196569 -0.3925803949292499 0 0.40336078828097621 -0.40362515372992341 0 0.39372170841196569 -0.3925803949292499 0 0.40336078828097621 -0.40362515372992341 0 0.39194747191700757 -0.41402513481906722 0 0.40336078828097621 -0.40362515372992341 0 0.39194747191700757 -0.41402513481906722 0 0.41036500379586138 -0.42217021861448573 0 0.39194747191700757 -0.41402513481906722 0 0.37842665921942997 -0.40887405987875969 0 0.3754845505291648 -0.42231636227288599 0 0.39194747191700757 -0.41402513481906722 0 0.38276612650569841 -0.43173139982273478 0 0.39495441733924969 -0.43334788207120151 0 0.39194747191700757 -0.41402513481906722 0 0.3754845505291648 -0.42231636227288599 0 0.38276612650569841 -0.43173139982273478 0 0.38276612650569841 -0.43173139982273478 0 0.39495441733924969 -0.43334788207120151 0 0.38358898323347101 -0.44426352436551808 0 0.39495441733924969 -0.43334788207120151 0 0.41630162367870638 -0.44091327616753739 0 0.39194747191700757 -0.41402513481906722 0 0.39495441733924969 -0.43334788207120151 0 0.41036500379586138 -0.42217021861448573 0 0.41036500379586138 -0.42217021861448573 0 0.42295569064062533 -0.42699492369753778 0 0.41630162367870638 -0.44091327616753739 0 0.39495441733924969 -0.43334788207120151 0 0.41036500379586138 -0.42217021861448573 0 0.41630162367870638 -0.44091327616753739 0 0.41749483707519452 -0.40538692165420498 0 0.40336078828097621 -0.40362515372992341 0 0.41036500379586138 -0.42217021861448573 0 0.41749483707519452 -0.40538692165420498 0 0.41036500379586138 -0.42217021861448573 0 0.42458756094721539 -0.41613405657310448 0 0.41036500379586138 -0.42217021861448573 0 0.42458756094721539 -0.41613405657310448 0 0.42295569064062533 -0.42699492369753778 0 0.43477646914432833 -0.40550992295969079 0 0.41749483707519452 -0.40538692165420498 0 0.42458756094721539 -0.41613405657310448 0 0.43477646914432833 -0.40550992295969079 0 0.42458756094721539 -0.41613405657310448 0 0.43524810038533429 -0.42324892749070769 0 0.43199803478474752 -0.43480066315574151 0 0.42295569064062533 -0.42699492369753778 0 0.41630162367870638 -0.44091327616753739 0 0.43524810038533429 -0.42324892749070769 0 0.43199803478474752 -0.43480066315574151 0 0.42295569064062533 -0.42699492369753778 0 0.42458756094721539 -0.41613405657310448 0 0.43524810038533429 -0.42324892749070769 0 0.42295569064062533 -0.42699492369753778 0 0.43764883001816302 -0.44847867026387339 0 0.41630162367870638 -0.44091327616753739 0 0.43764883001816302 -0.44847867026387339 0 0.42984017904353489 -0.46042986879056458 0 0.41630162367870638 -0.44091327616753739 0 0.43764883001816302 -0.44847867026387339 0 0.43199803478474752 -0.43480066315574151 0 0.41630162367870638 -0.44091327616753739 0 0.42984017904353489 -0.46042986879056458 0 0.41583716859034447 -0.46620520778226737 0 0.42866409193048188 -0.47676758270227471 0 0.42984017904353489 -0.46042986879056458 0 0.4067145811385029 -0.45234669657804139 0 0.42984017904353489 -0.46042986879056458 0 0.41583716859034447 -0.46620520778226737 0 0.4067145811385029 -0.45234669657804139 0 0.41583716859034447 -0.46620520778226737 0 0.4067145811385029 -0.45234669657804139 0 0.40148396946935899 -0.46677367853588281 0 0.42984017904353489 -0.46042986879056458 0 0.4067145811385029 -0.45234669657804139 0 0.41630162367870638 -0.44091327616753739 0 0.4067145811385029 -0.45234669657804139 0 0.38358898323347101 -0.44426352436551808 0 0.39182712026942329 -0.45690385307896481 0 0.39495441733924969 -0.43334788207120151 0 0.4067145811385029 -0.45234669657804139 0 0.41630162367870638 -0.44091327616753739 0 0.39495441733924969 -0.43334788207120151 0 0.4067145811385029 -0.45234669657804139 0 0.38358898323347101 -0.44426352436551808 0 0.4067145811385029 -0.45234669657804139 0 0.38358898323347101 -0.44426352436551808 0 0.38358898323347101 -0.44426352436551808 0 0.37514595674159079 -0.45476526552439389 0 0.39182712026942329 -0.45690385307896481 0 0.38276612650569841 -0.43173139982273478 0 0.38358898323347101 -0.44426352436551808 0 0.36596817218281208 -0.43846752572535042 0 0.37514595674159079 -0.45476526552439389 0 0.38538716437757631 -0.46842775420537441 0 0.39182712026942329 -0.45690385307896481 0 0.37514595674159079 -0.45476526552439389 0 0.38538716437757631 -0.46842775420537441 0 0.37212180294075042 -0.46808428500039262 0 0.38538716437757631 -0.46842775420537441 0 0.39182712026942329 -0.45690385307896481 0 0.40148396946935899 -0.46677367853588281 0 0.4067145811385029 -0.45234669657804139 0 0.39182712026942329 -0.45690385307896481 0 0.40148396946935899 -0.46677367853588281 0 0.39434508200087892 -0.48168095957978257 0 0.4057717135424021 -0.48929931529832937 0 0.41138522724611992 -0.47610642689805982 0 0.38538716437757631 -0.46842775420537441 0 0.40148396946935899 -0.46677367853588281 0 0.39434508200087892 -0.48168095957978257 0 0.40148396946935899 -0.46677367853588281 0 0.39434508200087892 -0.48168095957978257 0 0.41138522724611992 -0.47610642689805982 0 0.38538716437757631 -0.46842775420537441 0 0.39434508200087892 -0.48168095957978257 0 0.37586822855092661 -0.48439202442808083 0 0.38538716437757631 -0.46842775420537441 0 0.37586822855092661 -0.48439202442808083 0 0.37212180294075042 -0.46808428500039262 0 0.39434508200087892 -0.48168095957978257 0 0.37586822855092661 -0.48439202442808083 0 0.39289039342582149 -0.5 0 0.37586822855092661 -0.48439202442808083 0 0.39289039342582149 -0.5 0 0.3704665795387827 -0.49999999999999961 0 0.39434508200087892 -0.48168095957978257 0 0.39289039342582149 -0.5 0 0.4057717135424021 -0.48929931529832937 0 0.39289039342582149 -0.5 0 0.4057717135424021 -0.48929931529832937 0 0.41531420731286051 -0.5 0 0.4057717135424021 -0.48929931529832937 0 0.41138522724611992 -0.47610642689805982 0 0.425256426736628 -0.48969697811313823 0 0.4057717135424021 -0.48929931529832937 0 0.41531420731286051 -0.5 0 0.425256426736628 -0.48969697811313823 0 0.41583716859034447 -0.46620520778226737 0 0.41138522724611992 -0.47610642689805982 0 0.42866409193048188 -0.47676758270227471 0 0.41138522724611992 -0.47610642689805982 0 0.42866409193048188 -0.47676758270227471 0 0.425256426736628 -0.48969697811313823 0 0.41583716859034447 -0.46620520778226737 0 0.40148396946935899 -0.46677367853588281 0 0.41138522724611992 -0.47610642689805982 0 0.44535189907423273 -0.48425652050154361 0 0.42866409193048188 -0.47676758270227471 0 0.425256426736628 -0.48969697811313823 0 0.43920548674920379 -0.47249175324936749 0 0.42984017904353489 -0.46042986879056458 0 0.42866409193048188 -0.47676758270227471 0 0.43773802119989941 -0.49999999999999978 0 0.44535189907423273 -0.48425652050154361 0 0.425256426736628 -0.48969697811313823 0 0.43773802119989941 -0.49999999999999978 0 0.41531420731286051 -0.5 0 0.425256426736628 -0.48969697811313823 0 0.32577547594680167 -0.48549728563522948 0 0.313100747974287 -0.5 0 0.34178366375653479 -0.5 0 0.32577547594680167 -0.48549728563522948 0 0.33309118936964399 -0.46704031311580291 0 0.30810638268294871 -0.47012115952174682 0 0.353331436476917 -0.48488928282810861 0 0.33309118936964399 -0.46704031311580291 0 0.32577547594680167 -0.48549728563522948 0 0.353331436476917 -0.48488928282810861 0 0.33309118936964399 -0.46704031311580291 0 0.32577547594680167 -0.48549728563522948 0 0.353331436476917 -0.48488928282810861 0 0.32577547594680167 -0.48549728563522948 0 0.34178366375653479 -0.5 0 0.353331436476917 -0.48488928282810861 0 0.34178366375653479 -0.5 0 0.353331436476917 -0.48488928282810861 0 0.3704665795387827 -0.49999999999999961 0 0.353331436476917 -0.48488928282810861 0 0.3704665795387827 -0.49999999999999961 0 0.37586822855092661 -0.48439202442808083 0 0.353331436476917 -0.48488928282810861 0 0.37586822855092661 -0.48439202442808083 0 0.353331436476917 -0.48488928282810861 0 0.3704665795387827 -0.49999999999999961 0 0.37586822855092661 -0.48439202442808083 0 0.353331436476917 -0.48488928282810861 0 0.36174609683149922 -0.47333229839911978 0 0.37586822855092661 -0.48439202442808083 0 0.36174609683149922 -0.47333229839911978 0 0.37212180294075042 -0.46808428500039262 0 0.353331436476917 -0.48488928282810861 0 0.3511187368843669 -0.46644655109408317 0 0.33309118936964399 -0.46704031311580291 0 0.353331436476917 -0.48488928282810861 0 0.36174609683149922 -0.47333229839911978 0 0.3511187368843669 -0.46644655109408317 0 0.3511187368843669 -0.46644655109408317 0 0.34821094164401439 -0.44963138573543099 0 0.33309118936964399 -0.46704031311580291 0 0.3511187368843669 -0.46644655109408317 0 0.36000734278227892 -0.4581682973830864 0 0.34821094164401439 -0.44963138573543099 0 0.36174609683149922 -0.47333229839911978 0 0.3511187368843669 -0.46644655109408317 0 0.36000734278227892 -0.4581682973830864 0 0.36174609683149922 -0.47333229839911978 0 0.36000734278227892 -0.4581682973830864 0 0.37212180294075042 -0.46808428500039262 0 0.37514595674159079 -0.45476526552439389 0 0.36000734278227892 -0.4581682973830864 0 0.37212180294075042 -0.46808428500039262 0 0.38358898323347101 -0.44426352436551808 0 0.37514595674159079 -0.45476526552439389 0 0.36596817218281208 -0.43846752572535042 0 0.37514595674159079 -0.45476526552439389 0 0.36000734278227892 -0.4581682973830864 0 0.36596817218281208 -0.43846752572535042 0 0.36596817218281208 -0.43846752572535042 0 0.34821094164401439 -0.44963138573543099 0 0.34622956703096991 -0.43300533851794337 0 0.36000734278227892 -0.4581682973830864 0 0.36596817218281208 -0.43846752572535042 0 0.34821094164401439 -0.44963138573543099 0 0.34821094164401439 -0.44963138573543099 0 0.33295970409203041 -0.44505156475946112 0 0.34622956703096991 -0.43300533851794337 0 0.34821094164401439 -0.44963138573543099 0 0.33295970409203041 -0.44505156475946112 0 0.33309118936964399 -0.46704031311580291 0 0.33295970409203041 -0.44505156475946112 0 0.33309118936964399 -0.46704031311580291 0 0.31285094226236981 -0.44919134340349842 0 0.33309118936964399 -0.46704031311580291 0 0.31285094226236981 -0.44919134340349842 0 0.33309118936964399 -0.46704031311580291 0 0.31285094226236981 -0.44919134340349842 0 0.30810638268294871 -0.47012115952174682 0 0.33295970409203041 -0.44505156475946112 0 0.31285094226236981 -0.44919134340349842 0 0.32443481461114221 -0.42819348402864749 0 0.31285094226236981 -0.44919134340349842 0 0.32443481461114221 -0.42819348402864749 0 0.30716585811758268 -0.42152601893676211 0 0.32443481461114221 -0.42819348402864749 0 0.3377381929345476 -0.41993594981441068 0 0.31826237910007699 -0.40611857650776678 0 0.32443481461114221 -0.42819348402864749 0 0.31826237910007699 -0.40611857650776678 0 0.30716585811758268 -0.42152601893676211 0 0.3377381929345476 -0.41993594981441068 0 0.33955155732169001 -0.40481801647484189 0 0.31826237910007699 -0.40611857650776678 0 0.32443481461114221 -0.42819348402864749 0 0.3377381929345476 -0.41993594981441068 0 0.34622956703096991 -0.43300533851794337 0 0.33295970409203041 -0.44505156475946112 0 0.32443481461114221 -0.42819348402864749 0 0.34622956703096991 -0.43300533851794337 0 0.3377381929345476 -0.41993594981441068 0 0.34622956703096991 -0.43300533851794337 0 0.35818280584871282 -0.41603879828427831 0 0.36596817218281208 -0.43846752572535042 0 0.34622956703096991 -0.43300533851794337 0 0.35818280584871282 -0.41603879828427831 0 0.3754845505291648 -0.42231636227288599 0 0.36596817218281208 -0.43846752572535042 0 0.35818280584871282 -0.41603879828427831 0 0.3754845505291648 -0.42231636227288599 0 0.38276612650569841 -0.43173139982273478 0 0.36596817218281208 -0.43846752572535042 0 0.37842665921942997 -0.40887405987875969 0 0.3754845505291648 -0.42231636227288599 0 0.35818280584871282 -0.41603879828427831 0 0.37842665921942997 -0.40887405987875969 0 0.35818280584871282 -0.41603879828427831 0 0.36824105802713031 -0.4000969440192842 0 0.3377381929345476 -0.41993594981441068 0 0.35818280584871282 -0.41603879828427831 0 0.33955155732169001 -0.40481801647484189 0 0.35818280584871282 -0.41603879828427831 0 0.35120943534252291 -0.3914849644630724 0 0.33955155732169001 -0.40481801647484189 0 0.35818280584871282 -0.41603879828427831 0 0.35120943534252291 -0.3914849644630724 0 0.36824105802713031 -0.4000969440192842 0 0.37900977316023637 -0.39091548517495972 0 0.36824105802713031 -0.4000969440192842 0 0.36724772315424481 -0.38247146420994571 0 0.35120943534252291 -0.3914849644630724 0 0.36824105802713031 -0.4000969440192842 0 0.36724772315424481 -0.38247146420994571 0 0.36724772315424481 -0.38247146420994571 0 0.3553956415560332 -0.375446985373177 0 0.36664078794155069 -0.36853845970684512 0 0.35120943534252291 -0.3914849644630724 0 0.3553956415560332 -0.375446985373177 0 0.34024068493209042 -0.37145909403295352 0 0.35120943534252291 -0.3914849644630724 0 0.36724772315424481 -0.38247146420994571 0 0.3553956415560332 -0.375446985373177 0 0.35120943534252291 -0.3914849644630724 0 0.33045907805143321 -0.38798152631774108 0 0.34024068493209042 -0.37145909403295352 0 0.33045907805143321 -0.38798152631774108 0 0.34024068493209042 -0.37145909403295352 0 0.32473595581008968 -0.36877041147622941 0 0.33045907805143321 -0.38798152631774108 0 0.33955155732169001 -0.40481801647484189 0 0.31826237910007699 -0.40611857650776678 0 0.35120943534252291 -0.3914849644630724 0 0.33045907805143321 -0.38798152631774108 0 0.33955155732169001 -0.40481801647484189 0 0.33045907805143321 -0.38798152631774108 0 0.31826237910007699 -0.40611857650776678 0 0.30852465471842783 -0.38296478278532459 0 0.33045907805143321 -0.38798152631774108 0 0.30852465471842783 -0.38296478278532459 0 0.32473595581008968 -0.36877041147622941 0 0.30852465471842783 -0.38296478278532459 0 0.30157177088572762 -0.39984768184154418 0 0.28524522637625171 -0.38748256695808048 0 0.31826237910007699 -0.40611857650776678 0 0.30852465471842783 -0.38296478278532459 0 0.30157177088572762 -0.39984768184154418 0 0.30157177088572762 -0.39984768184154418 0 0.28524522637625171 -0.38748256695808048 0 0.28909827497095891 -0.41314244090476959 0 0.30852465471842783 -0.38296478278532459 0 0.28524522637625171 -0.38748256695808048 0 0.29576167506738288 -0.36584798696867898 0 0.28524522637625171 -0.38748256695808048 0 0.26194523537769671 -0.38343407302417171 0 0.27628411724202862 -0.36524783617958329 0 0.26194523537769671 -0.38343407302417171 0 0.2677956642119742 -0.40840362680373948 0 0.24730388124056729 -0.40448370284608931 0 0.28524522637625171 -0.38748256695808048 0 0.26194523537769671 -0.38343407302417171 0 0.2677956642119742 -0.40840362680373948 0 0.28524522637625171 -0.38748256695808048 0 0.2677956642119742 -0.40840362680373948 0 0.28909827497095891 -0.41314244090476959 0 0.2677956642119742 -0.40840362680373948 0 0.27472650047210662 -0.43131219108599711 0 0.28909827497095891 -0.41314244090476959 0 0.2677956642119742 -0.40840362680373948 0 0.24845486683426421 -0.43056678600332871 0 0.24730388124056729 -0.40448370284608931 0 0.2677956642119742 -0.40840362680373948 0 0.27472650047210662 -0.43131219108599711 0 0.24845486683426421 -0.43056678600332871 0 0.27472650047210662 -0.43131219108599711 0 0.26710508502781599 -0.44926171113960661 0 0.24845486683426421 -0.43056678600332871 0 0.27472650047210662 -0.43131219108599711 0 0.29418269027227539 -0.43431919247607059 0 0.28909827497095891 -0.41314244090476959 0 0.29418269027227539 -0.43431919247607059 0 0.28909827497095891 -0.41314244090476959 0 0.30716585811758268 -0.42152601893676211 0 0.31826237910007699 -0.40611857650776678 0 0.30157177088572762 -0.39984768184154418 0 0.30716585811758268 -0.42152601893676211 0 0.30157177088572762 -0.39984768184154418 0 0.28909827497095891 -0.41314244090476959 0 0.30716585811758268 -0.42152601893676211 0 0.31285094226236981 -0.44919134340349842 0 0.29418269027227539 -0.43431919247607059 0 0.30716585811758268 -0.42152601893676211 0 0.31285094226236981 -0.44919134340349842 0 0.29418269027227539 -0.43431919247607059 0 0.28597809560131299 -0.4567624239266439 0 0.31285094226236981 -0.44919134340349842 0 0.28597809560131299 -0.4567624239266439 0 0.30810638268294871 -0.47012115952174682 0 0.28597809560131299 -0.4567624239266439 0 0.27356505094757272 -0.46654042127887851 0 0.28658471780149791 -0.47429793876749549 0 0.28597809560131299 -0.4567624239266439 0 0.28658471780149791 -0.47429793876749549 0 0.30810638268294871 -0.47012115952174682 0 0.27472650047210662 -0.43131219108599711 0 0.29418269027227539 -0.43431919247607059 0 0.28597809560131299 -0.4567624239266439 0 0.27472650047210662 -0.43131219108599711 0 0.28597809560131299 -0.4567624239266439 0 0.26710508502781599 -0.44926171113960661 0 0.26710508502781599 -0.44926171113960661 0 0.25055382002994903 -0.45112655962101422 0 0.24845486683426421 -0.43056678600332871 0 0.25055382002994903 -0.45112655962101422 0 0.25749380142066591 -0.46566674131117769 0 0.24452211955108941 -0.47321082899062988 0 0.26710508502781599 -0.44926171113960661 0 0.25055382002994903 -0.45112655962101422 0 0.25749380142066591 -0.46566674131117769 0 0.26710508502781599 -0.44926171113960661 0 0.25749380142066591 -0.46566674131117769 0 0.27356505094757272 -0.46654042127887851 0 0.28597809560131299 -0.4567624239266439 0 0.26710508502781599 -0.44926171113960661 0 0.27356505094757272 -0.46654042127887851 0 0.25749380142066591 -0.46566674131117769 0 0.27356505094757272 -0.46654042127887851 0 0.27066355488657068 -0.48671329124946883 0 0.27356505094757272 -0.46654042127887851 0 0.27066355488657068 -0.48671329124946883 0 0.28658471780149791 -0.47429793876749549 0 0.27066355488657068 -0.48671329124946883 0 0.24310759435645521 -0.48732129405658853 0 0.24452211955108941 -0.47321082899062988 0 0.25749380142066591 -0.46566674131117769 0 0.27066355488657068 -0.48671329124946883 0 0.24452211955108941 -0.47321082899062988 0 0.25573491640979129 -0.5 0 0.27066355488657068 -0.48671329124946883 0 0.24310759435645521 -0.48732129405658853 0 0.27066355488657068 -0.48671329124946883 0 0.24310759435645521 -0.48732129405658853 0 0.25573491640979129 -0.5 0 0.27066355488657068 -0.48671329124946883 0 0.2844178321920392 -0.5 0 0.27066355488657068 -0.48671329124946883 0 0.2844178321920392 -0.5 0 0.29821951541668618 -0.48610528844234918 0 0.27066355488657068 -0.48671329124946883 0 0.29821951541668618 -0.48610528844234918 0 0.27066355488657068 -0.48671329124946883 0 0.28658471780149791 -0.47429793876749549 0 0.29821951541668618 -0.48610528844234918 0 0.28658471780149791 -0.47429793876749549 0 0.30810638268294871 -0.47012115952174682 0 0.29821951541668618 -0.48610528844234918 0 0.32577547594680167 -0.48549728563522948 0 0.30810638268294871 -0.47012115952174682 0 0.29821951541668618 -0.48610528844234918 0 0.313100747974287 -0.5 0 0.2844178321920392 -0.5 0 0.29821951541668618 -0.48610528844234918 0 0.32577547594680167 -0.48549728563522948 0 0.29821951541668618 -0.48610528844234918 0 0.32577547594680167 -0.48549728563522948 0 0.313100747974287 -0.5 0 0.29821951541668618 -0.48610528844234918 0 0.330274064289036 -0.28402767586280209 0 0.34332234684577362 -0.29793808318023329 0 0.34457666422559302 -0.26801309975333321 0 0.330274064289036 -0.28402767586280209 0 0.34332234684577362 -0.29793808318023329 0 0.32977293544345387 -0.30596193421111573 0 0.34332234684577362 -0.29793808318023329 0 0.32977293544345387 -0.30596193421111573 0 0.34206802946595682 -0.32786306660713371 0 0.31744302567780058 -0.29875438106107682 0 0.32081511337912821 -0.31891284763754968 0 0.29956219729229971 -0.30996262866796498 0 0.32977293544345387 -0.30596193421111573 0 0.31744302567780058 -0.29875438106107682 0 0.32081511337912821 -0.31891284763754968 0 0.31744302567780058 -0.29875438106107682 0 0.315203972569992 -0.28599406388836862 0 0.30893165249025939 -0.29458973757352408 0 0.330274064289036 -0.28402767586280209 0 0.32977293544345387 -0.30596193421111573 0 0.31744302567780058 -0.29875438106107682 0 0.330274064289036 -0.28402767586280209 0 0.31744302567780058 -0.29875438106107682 0 0.315203972569992 -0.28599406388836862 0 0.31616400359283131 -0.27140021809428472 0 0.31565659849655159 -0.26881006701694032 0 0.34457666422559302 -0.26801309975333321 0 0.31616400359283131 -0.27140021809428472 0 0.31565659849655159 -0.26881006701694032 0 0.330274064289036 -0.28402767586280209 0 0.315203972569992 -0.28599406388836862 0 0.31616400359283131 -0.27140021809428472 0 0.31140457280844042 -0.24710474912070499 0 0.31565659849655159 -0.26881006701694032 0 0.31140457280844042 -0.24710474912070499 0 0.31565659849655159 -0.26881006701694032 0 0.32909477526671738 -0.25319804842994992 0 0.34542116247921317 -0.24786541093840589 0 0.32909477526671738 -0.25319804842994992 0 0.34457666422559302 -0.26801309975333321 0 0.31565659849655159 -0.26881006701694032 0 0.32909477526671738 -0.25319804842994992 0 0.34457666422559302 -0.26801309975333321 0 0.31565659849655159 -0.26881006701694032 0 0.34457666422559302 -0.26801309975333321 0 0.330274064289036 -0.28402767586280209 0 0.31616400359283131 -0.27140021809428472 0 0.34457666422559302 -0.26801309975333321 0 0.35327842571551671 -0.2677733001931194 0 0.36211004630048071 -0.25874315800932568 0 0.36139056500297317 -0.28258450191058321 0 0.34457666422559302 -0.26801309975333321 0 0.35327842571551671 -0.2677733001931194 0 0.36139056500297317 -0.28258450191058321 0 0.34457666422559302 -0.26801309975333321 0 0.35327842571551671 -0.2677733001931194 0 0.34542116247921317 -0.24786541093840589 0 0.35327842571551671 -0.2677733001931194 0 0.36211004630048071 -0.25874315800932568 0 0.34542116247921317 -0.24786541093840589 0 0.34457666422559302 -0.26801309975333321 0 0.34542116247921317 -0.24786541093840589 0 0.34457666422559302 -0.26801309975333321 0 0.35327842571551671 -0.2677733001931194 0 0.36876625398544938 -0.24898888889403961 0 0.37754581309809132 -0.23651361028518689 0 0.3725796289452375 -0.26579697317357759 0 0.36876625398544938 -0.24898888889403961 0 0.36211004630048071 -0.25874315800932568 0 0.3725796289452375 -0.26579697317357759 0 0.36211004630048071 -0.25874315800932568 0 0.36139056500297317 -0.28258450191058321 0 0.36211004630048071 -0.25874315800932568 0 0.3725796289452375 -0.26579697317357759 0 0.36139056500297317 -0.28258450191058321 0 0.3725796289452375 -0.26579697317357759 0 0.36761344479238373 -0.29508033606196837 0 0.3725796289452375 -0.26579697317357759 0 0.36139056500297317 -0.28258450191058321 0 0.36761344479238373 -0.29508033606196837 0 0.36139056500297317 -0.28258450191058321 0 0.36067108370546558 -0.30642584581184062 0 0.36139056500297317 -0.28258450191058321 0 0.36761344479238373 -0.29508033606196837 0 0.36067108370546558 -0.30642584581184062 0 0.37929392098169401 -0.28404327537796259 0 0.3725796289452375 -0.26579697317357759 0 0.36761344479238373 -0.29508033606196837 0 0.34332234684577362 -0.29793808318023329 0 0.36139056500297317 -0.28258450191058321 0 0.36067108370546558 -0.30642584581184062 0 0.34332234684577362 -0.29793808318023329 0 0.34457666422559302 -0.26801309975333321 0 0.34332234684577362 -0.29793808318023329 0 0.34457666422559302 -0.26801309975333321 0 0.36139056500297317 -0.28258450191058321 0 0.34332234684577362 -0.29793808318023329 0 0.36067108370546558 -0.30642584581184062 0 0.35385294866325562 -0.31815161708919842 0 0.37804720550635529 -0.30651687721429538 0 0.36761344479238373 -0.29508033606196837 0 0.37325959660283969 -0.31225701655594912 0 0.36761344479238373 -0.29508033606196837 0 0.37325959660283969 -0.31225701655594912 0 0.36522996683296982 -0.32210974174446261 0 0.36761344479238373 -0.29508033606196837 0 0.3626472606395299 -0.32436369895035932 0 0.36761344479238373 -0.29508033606196837 0 0.36067108370546558 -0.30642584581184062 0 0.3626472606395299 -0.32436369895035932 0 0.36067108370546558 -0.30642584581184062 0 0.35995160240795782 -0.33026718971309799 0 0.37325959660283969 -0.31225701655594912 0 0.36522996683296982 -0.32210974174446261 0 0.37029473460036533 -0.32565573538444043 0 0.36761344479238373 -0.29508033606196837 0 0.3626472606395299 -0.32436369895035932 0 0.36522996683296982 -0.32210974174446261 0 0.36067108370546558 -0.30642584581184062 0 0.3626472606395299 -0.32436369895035932 0 0.35995160240795782 -0.33026718971309799 0 0.38064079273778262 -0.31288188218018531 0 0.37325959660283969 -0.31225701655594912 0 0.37029473460036533 -0.32565573538444043 0 0.3626472606395299 -0.32436369895035932 0 0.37029473460036533 -0.32565573538444043 0 0.35995160240795782 -0.33026718971309799 0 0.37029473460036533 -0.32565573538444043 0 0.35995160240795782 -0.33026718971309799 0 0.3626472606395299 -0.32436369895035932 0 0.36522996683296982 -0.32210974174446261 0 0.37029473460036533 -0.32565573538444043 0 0.36522996683296982 -0.32210974174446261 0 0.37029473460036533 -0.32565573538444043 0 0.35995160240795782 -0.33026718971309799 0 0.35941557651728179 -0.34802939929915899 0 0.37029473460036533 -0.32565573538444043 0 0.37212478857772979 -0.33864880005647208 0 0.35995160240795782 -0.33026718971309799 0 0.3654326502107581 -0.34245967622864359 0 0.35995160240795782 -0.33026718971309799 0 0.35941557651728179 -0.34802939929915899 0 0.37212478857772979 -0.33864880005647208 0 0.3654326502107581 -0.34245967622864359 0 0.37040156667629781 -0.34671437794913718 0 0.37212478857772979 -0.33864880005647208 0 0.3654326502107581 -0.34245967622864359 0 0.35995160240795782 -0.33026718971309799 0 0.35995160240795782 -0.33026718971309799 0 0.35941557651728179 -0.34802939929915899 0 0.34162477060798069 -0.33843815246039383 0 0.35941557651728179 -0.34802939929915899 0 0.34146637893605181 -0.3422169952266676 0 0.34162477060798069 -0.33843815246039383 0 0.35995160240795782 -0.33026718971309799 0 0.34162477060798069 -0.33843815246039383 0 0.35995160240795782 -0.33026718971309799 0 0.34764647170350632 -0.33021231032179682 0 0.34162477060798069 -0.33843815246039383 0 0.35995160240795782 -0.33026718971309799 0 0.34764647170350632 -0.33021231032179682 0 0.35274785573456591 -0.3260756163463463 0 0.34764647170350632 -0.33021231032179682 0 0.34206802946595682 -0.32786306660713371 0 0.34162477060798069 -0.33843815246039383 0 0.34764647170350632 -0.33021231032179682 0 0.34206802946595682 -0.32786306660713371 0 0.35385294866325562 -0.31815161708919842 0 0.35274785573456591 -0.3260756163463463 0 0.34206802946595682 -0.32786306660713371 0 0.34764647170350632 -0.33021231032179682 0 0.35274785573456591 -0.3260756163463463 0 0.34206802946595682 -0.32786306660713371 0 0.34332234684577362 -0.29793808318023329 0 0.35385294866325562 -0.31815161708919842 0 0.34206802946595682 -0.32786306660713371 0 0.36067108370546558 -0.30642584581184062 0 0.35995160240795782 -0.33026718971309799 0 0.35385294866325562 -0.31815161708919842 0 0.35995160240795782 -0.33026718971309799 0 0.35385294866325562 -0.31815161708919842 0 0.35274785573456591 -0.3260756163463463 0 0.38249634533461108 -0.36797477098799591 0 0.36724772315424481 -0.38247146420994571 0 0.36664078794155069 -0.36853845970684512 0 0.38249634533461108 -0.36797477098799591 0 0.36664078794155069 -0.36853845970684512 0 0.37305712147220338 -0.36102055586376819 0 0.3553956415560332 -0.375446985373177 0 0.36664078794155069 -0.36853845970684512 0 0.35901533294662008 -0.36129221050145399 0 0.36664078794155069 -0.36853845970684512 0 0.37305712147220338 -0.36102055586376819 0 0.36517854466496658 -0.35714892472411869 0 0.36664078794155069 -0.36853845970684512 0 0.36517854466496658 -0.35714892472411869 0 0.35901533294662008 -0.36129221050145399 0 0.36517854466496658 -0.35714892472411869 0 0.35941557651728179 -0.34802939929915899 0 0.35901533294662008 -0.36129221050145399 0 0.36517854466496658 -0.35714892472411869 0 0.36469303305047901 -0.34973837317986511 0 0.35941557651728179 -0.34802939929915899 0 0.36517854466496658 -0.35714892472411869 0 0.37030234625384911 -0.35279401393457888 0 0.36469303305047901 -0.34973837317986511 0 0.37818146540529818 -0.34934783795600571 0 0.37305712147220338 -0.36102055586376819 0 0.37030234625384911 -0.35279401393457888 0 0.37305712147220338 -0.36102055586376819 0 0.36517854466496658 -0.35714892472411869 0 0.37030234625384911 -0.35279401393457888 0 0.37818146540529818 -0.34934783795600571 0 0.37212478857772979 -0.33864880005647208 0 0.37040156667629781 -0.34671437794913718 0 0.37818146540529818 -0.34934783795600571 0 0.37030234625384911 -0.35279401393457888 0 0.37040156667629781 -0.34671437794913718 0 0.37030234625384911 -0.35279401393457888 0 0.37040156667629781 -0.34671437794913718 0 0.36469303305047901 -0.34973837317986511 0 0.3654326502107581 -0.34245967622864359 0 0.37040156667629781 -0.34671437794913718 0 0.36469303305047901 -0.34973837317986511 0 0.36469303305047901 -0.34973837317986511 0 0.35941557651728179 -0.34802939929915899 0 0.3654326502107581 -0.34245967622864359 0 0.36469303305047901 -0.34973837317986511 0 0.35941557651728179 -0.34802939929915899 0 0.35003449333301101 -0.35574942476505861 0 0.34024068493209042 -0.37145909403295352 0 0.34146637893605181 -0.3422169952266676 0 0.35941557651728179 -0.34802939929915899 0 0.35003449333301101 -0.35574942476505861 0 0.34146637893605181 -0.3422169952266676 0 0.35941557651728179 -0.34802939929915899 0 0.34146637893605181 -0.3422169952266676 0 0.35941557651728179 -0.34802939929915899 0 0.35901533294662008 -0.36129221050145399 0 0.35941557651728179 -0.34802939929915899 0 0.35003449333301101 -0.35574942476505861 0 0.35901533294662008 -0.36129221050145399 0 0.35003449333301101 -0.35574942476505861 0 0.35901533294662008 -0.36129221050145399 0 0.34024068493209042 -0.37145909403295352 0 0.3553956415560332 -0.375446985373177 0 0.35901533294662008 -0.36129221050145399 0 0.34024068493209042 -0.37145909403295352 0 0.34024068493209042 -0.37145909403295352 0 0.33264239376833749 -0.35548373211026962 0 0.32473595581008968 -0.36877041147622941 0 0.34024068493209042 -0.37145909403295352 0 0.33264239376833749 -0.35548373211026962 0 0.34146637893605181 -0.3422169952266676 0 0.34024068493209042 -0.37145909403295352 0 0.34146637893605181 -0.3422169952266676 0 0.33264239376833749 -0.35548373211026962 0 0.32969677432389999 -0.34883746930945858 0 0.32350037713642671 -0.3535383953733186 0 0.33264239376833749 -0.35548373211026962 0 0.33484083241944268 -0.34588391539316982 0 0.34146637893605181 -0.3422169952266676 0 0.33264239376833749 -0.35548373211026962 0 0.33484083241944268 -0.34588391539316982 0 0.32969677432389999 -0.34883746930945858 0 0.33484083241944268 -0.34588391539316982 0 0.32969677432389999 -0.34883746930945858 0 0.33080291213000951 -0.34437854531234752 0 0.32969677432389999 -0.34883746930945858 0 0.33080291213000951 -0.34437854531234752 0 0.32576759743036687 -0.34544500479448842 0 0.32576759743036687 -0.34544500479448842 0 0.32008489300350967 -0.34478001059398899 0 0.32350037713642671 -0.3535383953733186 0 0.32969677432389999 -0.34883746930945858 0 0.32576759743036687 -0.34544500479448842 0 0.32350037713642671 -0.3535383953733186 0 0.32576759743036687 -0.34544500479448842 0 0.32008489300350967 -0.34478001059398899 0 0.3230261242077439 -0.3426129045732173 0 0.32008489300350967 -0.34478001059398899 0 0.31455300750316167 -0.34989325112993808 0 0.32350037713642671 -0.3535383953733186 0 0.32008489300350967 -0.34478001059398899 0 0.31455300750316167 -0.34989325112993808 0 0.31278358272303802 -0.34129775444127147 0 0.31455300750316167 -0.34989325112993808 0 0.32350037713642671 -0.3535383953733186 0 0.31266700858965563 -0.36105898834543543 0 0.33264239376833749 -0.35548373211026962 0 0.32350037713642671 -0.3535383953733186 0 0.32473595581008968 -0.36877041147622941 0 0.30852465471842783 -0.38296478278532459 0 0.31266700858965563 -0.36105898834543543 0 0.32473595581008968 -0.36877041147622941 0 0.32350037713642671 -0.3535383953733186 0 0.31266700858965563 -0.36105898834543543 0 0.32473595581008968 -0.36877041147622941 0 0.34332234684577362 -0.29793808318023329 0 0.34206802946595682 -0.32786306660713371 0 0.32977293544345387 -0.30596193421111573 0 0.34206802946595682 -0.32786306660713371 0 0.32081511337912821 -0.31891284763754968 0 0.34206802946595682 -0.32786306660713371 0 0.32602109842812482 -0.32927153728442071 0 0.32081511337912821 -0.31891284763754968 0 0.34206802946595682 -0.32786306660713371 0 0.32081511337912821 -0.31891284763754968 0 0.34206802946595682 -0.32786306660713371 0 0.34162477060798069 -0.33843815246039383 0 0.33801441914131958 -0.33597980122333287 0 0.34206802946595682 -0.32786306660713371 0 0.34162477060798069 -0.33843815246039383 0 0.34206802946595682 -0.32786306660713371 0 0.33503975802439162 -0.33352730776002742 0 0.32602109842812482 -0.32927153728442071 0 0.34206802946595682 -0.32786306660713371 0 0.33801441914131958 -0.33597980122333287 0 0.33503975802439162 -0.33352730776002742 0 0.34146637893605181 -0.3422169952266676 0 0.34162477060798069 -0.33843815246039383 0 0.33664845261102122 -0.34065682884787418 0 0.34146637893605181 -0.3422169952266676 0 0.34162477060798069 -0.33843815246039383 0 0.34162477060798069 -0.33843815246039383 0 0.33801441914131958 -0.33597980122333287 0 0.33664845261102122 -0.34065682884787418 0 0.34162477060798069 -0.33843815246039383 0 0.33664845261102122 -0.34065682884787418 0 0.33801441914131958 -0.33597980122333287 0 0.33664845261102122 -0.34065682884787418 0 0.334556636173299 -0.33621284741772872 0 0.33484083241944268 -0.34588391539316982 0 0.34146637893605181 -0.3422169952266676 0 0.33664845261102122 -0.34065682884787418 0 0.34146637893605181 -0.3422169952266676 0 0.33664845261102122 -0.34065682884787418 0 0.33080291213000951 -0.34437854531234752 0 0.33664845261102122 -0.34065682884787418 0 0.32753883147517121 -0.34023469067202677 0 0.33664845261102122 -0.34065682884787418 0 0.334556636173299 -0.33621284741772872 0 0.32852391491646382 -0.33468745183968091 0 0.33484083241944268 -0.34588391539316982 0 0.33080291213000951 -0.34437854531234752 0 0.33664845261102122 -0.34065682884787418 0 0.33503975802439162 -0.33352730776002742 0 0.32852391491646382 -0.33468745183968091 0 0.32602109842812482 -0.32927153728442071 0 0.334556636173299 -0.33621284741772872 0 0.33503975802439162 -0.33352730776002742 0 0.32852391491646382 -0.33468745183968091 0 0.33801441914131958 -0.33597980122333287 0 0.334556636173299 -0.33621284741772872 0 0.33503975802439162 -0.33352730776002742 0 0.32753883147517121 -0.34023469067202677 0 0.31871317492192791 -0.33999191223236508 0 0.30992165968220392 -0.33200201743577268 0 0.32852391491646382 -0.33468745183968091 0 0.32602109842812482 -0.32927153728442071 0 0.30992165968220392 -0.33200201743577268 0 0.33664845261102122 -0.34065682884787418 0 0.32852391491646382 -0.33468745183968091 0 0.30992165968220392 -0.33200201743577268 0 0.33664845261102122 -0.34065682884787418 0 0.32753883147517121 -0.34023469067202677 0 0.30992165968220392 -0.33200201743577268 0 0.32602109842812482 -0.32927153728442071 0 0.31516553794356478 -0.32688419612254632 0 0.30992165968220392 -0.33200201743577268 0 0.33664845261102122 -0.34065682884787418 0 0.30992165968220392 -0.33200201743577268 0 0.32753883147517121 -0.34023469067202677 0 0.3230261242077439 -0.3426129045732173 0 0.31871317492192791 -0.33999191223236508 0 0.33080291213000951 -0.34437854531234752 0 0.32576759743036687 -0.34544500479448842 0 0.32753883147517121 -0.34023469067202677 0 0.32576759743036687 -0.34544500479448842 0 0.32753883147517121 -0.34023469067202677 0 0.3230261242077439 -0.3426129045732173 0 0.32008489300350967 -0.34478001059398899 0 0.3230261242077439 -0.3426129045732173 0 0.31871317492192791 -0.33999191223236508 0 0.31871317492192791 -0.33999191223236508 0 0.31278358272303802 -0.34129775444127147 0 0.30992165968220392 -0.33200201743577268 0 0.32008489300350967 -0.34478001059398899 0 0.31871317492192791 -0.33999191223236508 0 0.31278358272303802 -0.34129775444127147 0 0.32602109842812482 -0.32927153728442071 0 0.31516553794356478 -0.32688419612254632 0 0.32081511337912821 -0.31891284763754968 0 0.31516553794356478 -0.32688419612254632 0 0.32081511337912821 -0.31891284763754968 0 0.29956219729229971 -0.30996262866796498 0 0.31516553794356478 -0.32688419612254632 0 0.30992165968220392 -0.33200201743577268 0 0.29956219729229971 -0.30996262866796498 0 0.30992165968220392 -0.33200201743577268 0 0.28319486675338662 -0.32334720602367162 0 0.29956219729229971 -0.30996262866796498 0 0.32081511337912821 -0.31891284763754968 0 0.29956219729229971 -0.30996262866796498 0 0.31516553794356478 -0.32688419612254632 0 0.29956219729229971 -0.30996262866796498 0 0.31278358272303802 -0.34129775444127147 0 0.30544777269898171 -0.33968681455295602 0 0.30372917606317851 -0.34879110689567611 0 0.31278358272303802 -0.34129775444127147 0 0.30992165968220392 -0.33200201743577268 0 0.30544777269898171 -0.33968681455295602 0 0.30992165968220392 -0.33200201743577268 0 0.30544777269898171 -0.33968681455295602 0 0.29535667232750618 -0.33665637943910393 0 0.30544777269898171 -0.33968681455295602 0 0.29535667232750618 -0.33665637943910393 0 0.30372917606317851 -0.34879110689567611 0 0.30992165968220392 -0.33200201743577268 0 0.29535667232750618 -0.33665637943910393 0 0.28319486675338662 -0.32334720602367162 0 0.29535667232750618 -0.33665637943910393 0 0.28811986741475609 -0.34954264064797458 0 0.28056009198101312 -0.33712721632873971 0 0.29535667232750618 -0.33665637943910393 0 0.28319486675338662 -0.32334720602367162 0 0.28056009198101312 -0.33712721632873971 0 0.30992165968220392 -0.33200201743577268 0 0.28319486675338662 -0.32334720602367162 0 0.30852465471842783 -0.38296478278532459 0 0.31266700858965563 -0.36105898834543543 0 0.29576167506738288 -0.36584798696867898 0 0.31266700858965563 -0.36105898834543543 0 0.30372917606317851 -0.34879110689567611 0 0.29576167506738288 -0.36584798696867898 0 0.31455300750316167 -0.34989325112993808 0 0.31266700858965563 -0.36105898834543543 0 0.30372917606317851 -0.34879110689567611 0 0.31455300750316167 -0.34989325112993808 0 0.31278358272303802 -0.34129775444127147 0 0.30372917606317851 -0.34879110689567611 0 0.30372917606317851 -0.34879110689567611 0 0.28811986741475609 -0.34954264064797458 0 0.29576167506738288 -0.36584798696867898 0 0.29535667232750618 -0.33665637943910393 0 0.30372917606317851 -0.34879110689567611 0 0.28811986741475609 -0.34954264064797458 0 0.28811986741475609 -0.34954264064797458 0 0.29576167506738288 -0.36584798696867898 0 0.27628411724202862 -0.36524783617958329 0 0.28524522637625171 -0.38748256695808048 0 0.29576167506738288 -0.36584798696867898 0 0.27628411724202862 -0.36524783617958329 0 0.27628411724202862 -0.36524783617958329 0 0.26970242523906313 -0.3463930650348116 0 0.25620327224306561 -0.36049072758523892 0 0.28811986741475609 -0.34954264064797458 0 0.27628411724202862 -0.36524783617958329 0 0.26970242523906313 -0.3463930650348116 0 0.28811986741475609 -0.34954264064797458 0 0.26970242523906313 -0.3463930650348116 0 0.28056009198101312 -0.33712721632873971 0 0.26970242523906313 -0.3463930650348116 0 0.25620327224306561 -0.36049072758523892 0 0.25110761996098008 -0.33756133299550262 0 0.26194523537769671 -0.38343407302417171 0 0.27628411724202862 -0.36524783617958329 0 0.25620327224306561 -0.36049072758523892 0 0.26194523537769671 -0.38343407302417171 0 0.25620327224306561 -0.36049072758523892 0 0.2380746425401753 -0.37739124482652259 0 0.28319486675338662 -0.32334720602367162 0 0.25646807382456938 -0.31469239461157061 0 0.28319486675338662 -0.32334720602367162 0 0.25646807382456938 -0.31469239461157061 0 0.26668910057358802 -0.30550764638795852 0 0.28319486675338662 -0.32334720602367162 0 0.26642662817035351 -0.32969679049813649 0 0.25646807382456938 -0.31469239461157061 0 0.26970242523906313 -0.3463930650348116 0 0.26642662817035351 -0.32969679049813649 0 0.28056009198101312 -0.33712721632873971 0 0.28319486675338662 -0.32334720602367162 0 0.26642662817035351 -0.32969679049813649 0 0.28056009198101312 -0.33712721632873971 0 0.26970242523906313 -0.3463930650348116 0 0.26642662817035351 -0.32969679049813649 0 0.25110761996098008 -0.33756133299550262 0 0.26642662817035351 -0.32969679049813649 0 0.25110761996098008 -0.33756133299550262 0 0.25646807382456938 -0.31469239461157061 0 0.26020915296869068 -0.2933899210744732 0 0.26668910057358802 -0.30550764638795852 0 0.24613976577650579 -0.30323365481969039 0 0.25646807382456938 -0.31469239461157061 0 0.26668910057358802 -0.30550764638795852 0 0.24613976577650579 -0.30323365481969039 0 0.26020915296869068 -0.2933899210744732 0 0.25058364390229548 -0.28023087545190861 0 0.26295470628353768 -0.27026240406269297 0 0.26020915296869068 -0.2933899210744732 0 0.25058364390229548 -0.28023087545190861 0 0.24053263080688631 -0.28510356727772701 0 0.26020915296869068 -0.2933899210744732 0 0.24053263080688631 -0.28510356727772701 0 0.26020915296869068 -0.2933899210744732 0 0.28125845178791892 -0.29011251636532881 0 0.26295470628353768 -0.27026240406269297 0 0.26020915296869068 -0.2933899210744732 0 0.27988567513049512 -0.30167627487121951 0 0.28125845178791892 -0.29011251636532881 0 0.26020915296869068 -0.2933899210744732 0 0.26668910057358802 -0.30550764638795852 0 0.27988567513049512 -0.30167627487121951 0 0.26020915296869068 -0.2933899210744732 0 0.27988567513049512 -0.30167627487121951 0 0.28319486675338662 -0.32334720602367162 0 0.26668910057358802 -0.30550764638795852 0 0.27988567513049512 -0.30167627487121951 0 0.27988567513049512 -0.30167627487121951 0 0.29956219729229971 -0.30996262866796498 0 0.28125845178791892 -0.29011251636532881 0 0.29956219729229971 -0.30996262866796498 0 0.27988567513049512 -0.30167627487121951 0 0.28125845178791892 -0.29011251636532881 0 0.29956219729229971 -0.30996262866796498 0 0.28319486675338662 -0.32334720602367162 0 0.27988567513049512 -0.30167627487121951 0 0.29956219729229971 -0.30996262866796498 0 0.28125845178791892 -0.29011251636532881 0 0.30351741442094582 -0.28364787667668517 0 0.29956219729229971 -0.30996262866796498 0 0.30351741442094582 -0.28364787667668517 0 0.30893165249025939 -0.29458973757352408 0 0.29956219729229971 -0.30996262866796498 0 0.315203972569992 -0.28599406388836862 0 0.30351741442094582 -0.28364787667668517 0 0.30893165249025939 -0.29458973757352408 0 0.31744302567780058 -0.29875438106107682 0 0.30893165249025939 -0.29458973757352408 0 0.29956219729229971 -0.30996262866796498 0 0.31140457280844042 -0.24710474912070499 0 0.31565659849655159 -0.26881006701694032 0 0.29718577407036301 -0.25519814195989071 0 0.31565659849655159 -0.26881006701694032 0 0.29718577407036301 -0.25519814195989071 0 0.28930565239004458 -0.26953623553981648 0 0.31565659849655159 -0.26881006701694032 0 0.28930565239004458 -0.26953623553981648 0 0.31565659849655159 -0.26881006701694032 0 0.30351741442094582 -0.28364787667668517 0 0.28930565239004458 -0.26953623553981648 0 0.315203972569992 -0.28599406388836862 0 0.31616400359283131 -0.27140021809428472 0 0.30351741442094582 -0.28364787667668517 0 0.31616400359283131 -0.27140021809428472 0 0.31565659849655159 -0.26881006701694032 0 0.30351741442094582 -0.28364787667668517 0 0.28125845178791892 -0.29011251636532881 0 0.30351741442094582 -0.28364787667668517 0 0.28930565239004458 -0.26953623553981648 0 0.29234931722919649 -0.23956849287787771 0 0.29718577407036301 -0.25519814195989071 0 0.28009493911397709 -0.25531812806766069 0 0.29718577407036301 -0.25519814195989071 0 0.28930565239004458 -0.26953623553981648 0 0.28009493911397709 -0.25531812806766069 0 0.28009493911397709 -0.25531812806766069 0 0.26295470628353768 -0.27026240406269297 0 0.26515279713901752 -0.25474276698909742 0 0.28930565239004458 -0.26953623553981648 0 0.28009493911397709 -0.25531812806766069 0 0.26295470628353768 -0.27026240406269297 0 0.27362138757170362 -0.2426007269765893 0 0.28009493911397709 -0.25531812806766069 0 0.26515279713901752 -0.25474276698909742 0 0.28930565239004458 -0.26953623553981648 0 0.26295470628353768 -0.27026240406269297 0 0.28125845178791892 -0.29011251636532881 0 0.28930565239004458 -0.26953623553981648 0 0.26295470628353768 -0.27026240406269297 0 0.28125845178791892 -0.29011251636532881 0 0.26295470628353768 -0.27026240406269297 0 0.26295470628353768 -0.27026240406269297 0 0.25920525151110962 -0.26619618175379239 0 0.2333624491378041 -0.27107789530058801 0 0.26295470628353768 -0.27026240406269297 0 0.25920525151110962 -0.26619618175379239 0 0.26515279713901752 -0.25474276698909742 0 0.25909559454287789 -0.26033526294480458 0 0.25575058308532189 -0.25269357128633052 0 0.26295470628353768 -0.27026240406269297 0 0.25920525151110962 -0.26619618175379239 0 0.25909559454287789 -0.26033526294480458 0 0.26295470628353768 -0.27026240406269297 0 0.26515279713901752 -0.25474276698909742 0 0.25909559454287789 -0.26033526294480458 0 0.25920525151110962 -0.26619618175379239 0 0.25909559454287789 -0.26033526294480458 0 0.2525593813984649 -0.26013433662011259 0 0.2525593813984649 -0.26013433662011259 0 0.25575058308532189 -0.25269357128633052 0 0.2462907050713771 -0.25204034373521428 0 0.25909559454287789 -0.26033526294480458 0 0.2525593813984649 -0.26013433662011259 0 0.25575058308532189 -0.25269357128633052 0 0.2525593813984649 -0.26013433662011259 0 0.2372713891187809 -0.25677075628574592 0 0.2333624491378041 -0.27107789530058801 0 0.2525593813984649 -0.26013433662011259 0 0.2462907050713771 -0.25204034373521428 0 0.2372713891187809 -0.25677075628574592 0 0.2525593813984649 -0.26013433662011259 0 0.2372713891187809 -0.25677075628574592 0 0.2462907050713771 -0.25204034373521428 0 0.2372713891187809 -0.25677075628574592 0 0.2374752251495614 -0.24157268794541539 0 0.26295470628353768 -0.27026240406269297 0 0.2333624491378041 -0.27107789530058801 0 0.25058364390229548 -0.28023087545190861 0 0.2333624491378041 -0.27107789530058801 0 0.24053263080688631 -0.28510356727772701 0 0.25920525151110962 -0.26619618175379239 0 0.2525593813984649 -0.26013433662011259 0 0.2333624491378041 -0.27107789530058801 0 0.25058364390229548 -0.28023087545190861 0 0.26295470628353768 -0.27026240406269297 0 0.2333624491378041 -0.27107789530058801 0 0.2333624491378041 -0.27107789530058801 0 0.22391874229476511 -0.2824004848955064 0 0.24053263080688631 -0.28510356727772701 0 0.2333624491378041 -0.27107789530058801 0 0.22198339683909701 -0.25340717595137879 0 0.22391874229476511 -0.2824004848955064 0 0.22198339683909701 -0.25340717595137879 0 0.21277476220729311 -0.27908963951381288 0 0.22391874229476511 -0.2824004848955064 0 0.22198339683909701 -0.25340717595137879 0 0.22391874229476511 -0.2824004848955064 0 0.2372713891187809 -0.25677075628574592 0 0.2333624491378041 -0.27107789530058801 0 0.22198339683909701 -0.25340717595137879 0 0.2372713891187809 -0.25677075628574592 0 0.22198339683909701 -0.25340717595137879 0 0.2374752251495614 -0.24157268794541539 0 0.2372713891187809 -0.25677075628574592 0 0.22198339683909701 -0.25340717595137879 0 0.22198339683909701 -0.25340717595137879 0 0.19767743283581299 -0.26201501502554969 0 0.19815896102696709 -0.24816545406213189 0 0.22198339683909701 -0.25340717595137879 0 0.19815896102696709 -0.24816545406213189 0 0.22198339683909701 -0.25340717595137879 0 0.2070014623020448 -0.26844420161526761 0 0.19767743283581299 -0.26201501502554969 0 0.22198339683909701 -0.25340717595137879 0 0.21277476220729311 -0.27908963951381288 0 0.2070014623020448 -0.26844420161526761 0 0.21277476220729311 -0.27908963951381288 0 0.19627752834655959 -0.27465633278028612 0 0.20552852767052071 -0.28818040814850709 0 0.21277476220729311 -0.27908963951381288 0 0.2070014623020448 -0.26844420161526761 0 0.19627752834655959 -0.27465633278028612 0 0.2070014623020448 -0.26844420161526761 0 0.19627752834655959 -0.27465633278028612 0 0.19767743283581299 -0.26201501502554969 0 0.19627752834655959 -0.27465633278028612 0 0.19767743283581299 -0.26201501502554969 0 0.1861358052291735 -0.26379397041404468 0 0.19767743283581299 -0.26201501502554969 0 0.1861358052291735 -0.26379397041404468 0 0.19815896102696709 -0.24816545406213189 0 0.1861358052291735 -0.26379397041404468 0 0.18066177981631051 -0.25348299893649828 0 0.19815896102696709 -0.24816545406213189 0 0.20129939135720101 -0.31175464383988888 0 0.20552852767052071 -0.28818040814850709 0 0.1861316223780578 -0.30340045511113362 0 0.20552852767052071 -0.28818040814850709 0 0.18615950714984131 -0.28714944863913389 0 0.1861316223780578 -0.30340045511113362 0 0.19627752834655959 -0.27465633278028612 0 0.20552852767052071 -0.28818040814850709 0 0.18615950714984131 -0.28714944863913389 0 0.21277476220729311 -0.27908963951381288 0 0.20552852767052071 -0.28818040814850709 0 0.22391874229476511 -0.2824004848955064 0 0.20552852767052071 -0.28818040814850709 0 0.21283890344555609 -0.30228465628523993 0 0.22391874229476511 -0.2824004848955064 0 0.20129939135720101 -0.31175464383988888 0 0.20552852767052071 -0.28818040814850709 0 0.21283890344555609 -0.30228465628523993 0 0.225854087750432 -0.31139379383963389 0 0.22391874229476511 -0.2824004848955064 0 0.21283890344555609 -0.30228465628523993 0 0.225854087750432 -0.31139379383963389 0 0.22391874229476511 -0.2824004848955064 0 0.225854087750432 -0.31139379383963389 0 0.22391874229476511 -0.2824004848955064 0 0.24053263080688631 -0.28510356727772701 0 0.26020915296869068 -0.2933899210744732 0 0.24053263080688631 -0.28510356727772701 0 0.24613976577650579 -0.30323365481969039 0 0.225854087750432 -0.31139379383963389 0 0.24053263080688631 -0.28510356727772701 0 0.24613976577650579 -0.30323365481969039 0 0.225854087750432 -0.31139379383963389 0 0.24613976577650579 -0.30323365481969039 0 0.24147179610371719 -0.32145365581003182 0 0.25110761996098008 -0.33756133299550262 0 0.25646807382456938 -0.31469239461157061 0 0.24147179610371719 -0.32145365581003182 0 0.25646807382456938 -0.31469239461157061 0 0.24613976577650579 -0.30323365481969039 0 0.24147179610371719 -0.32145365581003182 0 0.25110761996098008 -0.33756133299550262 0 0.24147179610371719 -0.32145365581003182 0 0.2277894332060989 -0.3403871027837615 0 0.225854087750432 -0.31139379383963389 0 0.24147179610371719 -0.32145365581003182 0 0.2277894332060989 -0.3403871027837615 0 0.225854087750432 -0.31139379383963389 0 0.2277894332060989 -0.3403871027837615 0 0.2131017443993804 -0.32550716011161479 0 0.225854087750432 -0.31139379383963389 0 0.2277894332060989 -0.3403871027837615 0 0.25620327224306561 -0.36049072758523892 0 0.23939100935974761 -0.35412122659527612 0 0.2380746425401753 -0.37739124482652259 0 0.25110761996098008 -0.33756133299550262 0 0.2277894332060989 -0.3403871027837615 0 0.23939100935974761 -0.35412122659527612 0 0.25620327224306561 -0.36049072758523892 0 0.25110761996098008 -0.33756133299550262 0 0.23939100935974761 -0.35412122659527612 0 0.2277894332060989 -0.3403871027837615 0 0.23939100935974761 -0.35412122659527612 0 0.22160146260088931 -0.35672021721344238 0 0.2277894332060989 -0.3403871027837615 0 0.22160146260088931 -0.35672021721344238 0 0.21393580002607371 -0.34141846605291087 0 0.23939100935974761 -0.35412122659527612 0 0.22160146260088931 -0.35672021721344238 0 0.2380746425401753 -0.37739124482652259 0 0.22160146260088931 -0.35672021721344238 0 0.21646245367279571 -0.38358476595235552 0 0.22160146260088931 -0.35672021721344238 0 0.2380746425401753 -0.37739124482652259 0 0.21646245367279571 -0.38358476595235552 0 0.22160146260088931 -0.35672021721344238 0 0.19836301469614079 -0.36402790855933592 0 0.2025217842010896 -0.37807387373583923 0 0.22160146260088931 -0.35672021721344238 0 0.21646245367279571 -0.38358476595235552 0 0.2025217842010896 -0.37807387373583923 0 0.22160146260088931 -0.35672021721344238 0 0.20535211274276649 -0.35018034328080122 0 0.21393580002607371 -0.34141846605291087 0 0.22160146260088931 -0.35672021721344238 0 0.20535211274276649 -0.35018034328080122 0 0.19836301469614079 -0.36402790855933592 0 0.20535211274276649 -0.35018034328080122 0 0.19180082998577391 -0.35029167033112268 0 0.20100079568597551 -0.33875735092892167 0 0.19180082998577391 -0.35029167033112268 0 0.19836301469614079 -0.36402790855933592 0 0.18636698824462991 -0.36225910140511608 0 0.19180082998577391 -0.35029167033112268 0 0.18636698824462991 -0.36225910140511608 0 0.18448777755487131 -0.35210036546502188 0 0.20535211274276649 -0.35018034328080122 0 0.19180082998577391 -0.35029167033112268 0 0.19836301469614079 -0.36402790855933592 0 0.19836301469614079 -0.36402790855933592 0 0.19083927531350181 -0.37426462870353422 0 0.18636698824462991 -0.36225910140511608 0 0.19836301469614079 -0.36402790855933592 0 0.19083927531350181 -0.37426462870353422 0 0.2025217842010896 -0.37807387373583923 0 0.20129939135720101 -0.31175464383988888 0 0.21283890344555609 -0.30228465628523993 0 0.2131017443993804 -0.32550716011161479 0 0.21283890344555609 -0.30228465628523993 0 0.225854087750432 -0.31139379383963389 0 0.2131017443993804 -0.32550716011161479 0 0.2277894332060989 -0.3403871027837615 0 0.2131017443993804 -0.32550716011161479 0 0.21393580002607371 -0.34141846605291087 0 0.2131017443993804 -0.32550716011161479 0 0.21393580002607371 -0.34141846605291087 0 0.20100079568597551 -0.33875735092892167 0 0.20535211274276649 -0.35018034328080122 0 0.21393580002607371 -0.34141846605291087 0 0.20100079568597551 -0.33875735092892167 0 0.19180082998577391 -0.35029167033112268 0 0.20100079568597551 -0.33875735092892167 0 0.1840044286915227 -0.33601373309634508 0 0.20100079568597551 -0.33875735092892167 0 0.19352690233448341 -0.32516644492614982 0 0.1840044286915227 -0.33601373309634508 0 0.2131017443993804 -0.32550716011161479 0 0.20100079568597551 -0.33875735092892167 0 0.19352690233448341 -0.32516644492614982 0 0.20129939135720101 -0.31175464383988888 0 0.2131017443993804 -0.32550716011161479 0 0.19352690233448341 -0.32516644492614982 0 0.20129939135720101 -0.31175464383988888 0 0.19352690233448341 -0.32516644492614982 0 0.1861316223780578 -0.30340045511113362 0 0.19352690233448341 -0.32516644492614982 0 0.17526094699071121 -0.32121364916979261 0 0.1840044286915227 -0.33601373309634508 0 0.19352690233448341 -0.32516644492614982 0 0.17526094699071121 -0.32121364916979261 0 0.1861316223780578 -0.30340045511113362 0 0.17526094699071121 -0.32121364916979261 0 0.1840044286915227 -0.33601373309634508 0 0.17670370261134591 -0.35101137430815987 0 0.17526094699071121 -0.32121364916979261 0 0.16632300769682529 -0.33914532989683449 0 0.17670370261134591 -0.35101137430815987 0 0.17526094699071121 -0.32121364916979261 0 0.17670370261134591 -0.35101137430815987 0 0.16632300769682529 -0.33914532989683449 0 0.15635532043033851 -0.32762317205032648 0 0.15384528835215919 -0.34888323103730828 0 0.17526094699071121 -0.32121364916979261 0 0.16632300769682529 -0.33914532989683449 0 0.15635532043033851 -0.32762317205032648 0 0.17526094699071121 -0.32121364916979261 0 0.15635532043033851 -0.32762317205032648 0 0.16613015085753399 -0.29794196337136208 0 0.19083927531350181 -0.37426462870353422 0 0.18636698824462991 -0.36225910140511608 0 0.17814645823198061 -0.38080909944652741 0 0.17670370261134591 -0.35101137430815987 0 0.1695008882053643 -0.3539014675276998 0 0.17814645823198061 -0.38080909944652741 0 0.17670370261134591 -0.35101137430815987 0 0.17814645823198061 -0.38080909944652741 0 0.18636698824462991 -0.36225910140511608 0 0.17670370261134591 -0.35101137430815987 0 0.17814645823198061 -0.38080909944652741 0 0.18636698824462991 -0.36225910140511608 0 0.18448777755487131 -0.35210036546502188 0 0.17670370261134591 -0.35101137430815987 0 0.18448777755487131 -0.35210036546502188 0 0.18424918471087839 -0.34735428580016242 0 0.17670370261134591 -0.35101137430815987 0 0.19180082998577391 -0.35029167033112268 0 0.1840044286915227 -0.33601373309634508 0 0.18424918471087839 -0.34735428580016242 0 0.1840044286915227 -0.33601373309634508 0 0.18424918471087839 -0.34735428580016242 0 0.17670370261134591 -0.35101137430815987 0 0.19180082998577391 -0.35029167033112268 0 0.18448777755487131 -0.35210036546502188 0 0.18424918471087839 -0.34735428580016242 0 0.16632300769682529 -0.33914532989683449 0 0.1695008882053643 -0.3539014675276998 0 0.15384528835215919 -0.34888323103730828 0 0.1695008882053643 -0.3539014675276998 0 0.15622266046030589 -0.36560529067035252 0 0.15384528835215919 -0.34888323103730828 0 0.16632300769682529 -0.33914532989683449 0 0.17670370261134591 -0.35101137430815987 0 0.1695008882053643 -0.3539014675276998 0 0.1695008882053643 -0.3539014675276998 0 0.15622266046030589 -0.36560529067035252 0 0.1662516937484437 -0.37945746017663878 0 0.1695008882053643 -0.3539014675276998 0 0.17814645823198061 -0.38080909944652741 0 0.1662516937484437 -0.37945746017663878 0 0.1695008882053643 -0.3539014675276998 0 0.1662516937484437 -0.37945746017663878 0 0.15622266046030589 -0.36560529067035252 0 0.15384528835215919 -0.34888323103730828 0 0.13913284643621729 -0.36987147755796063 0 0.15622266046030589 -0.36560529067035252 0 0.13913284643621729 -0.36987147755796063 0 0.15122325216971341 -0.38057118911269922 0 0.15384528835215919 -0.34888323103730828 0 0.13913284643621729 -0.36987147755796063 0 0.1385684583736729 -0.34280877879487409 0 0.1385684583736729 -0.34280877879487409 0 0.1245186505824013 -0.36113750934922573 0 0.1203073559828662 -0.34481831064573482 0 0.13913284643621729 -0.36987147755796063 0 0.1385684583736729 -0.34280877879487409 0 0.13913284643621729 -0.36987147755796063 0 0.1385684583736729 -0.34280877879487409 0 0.1245186505824013 -0.36113750934922573 0 0.13913284643621729 -0.36987147755796063 0 0.12672469353237761 -0.38193719477194499 0 0.1245186505824013 -0.36113750934922573 0 0.15635532043033851 -0.32762317205032648 0 0.13800407031112841 -0.31574608003178772 0 0.16613015085753399 -0.29794196337136208 0 0.15635532043033851 -0.32762317205032648 0 0.15384528835215919 -0.34888323103730828 0 0.1385684583736729 -0.34280877879487409 0 0.15635532043033851 -0.32762317205032648 0 0.1385684583736729 -0.34280877879487409 0 0.13800407031112841 -0.31574608003178772 0 0.1385684583736729 -0.34280877879487409 0 0.13800407031112841 -0.31574608003178772 0 0.1385684583736729 -0.34280877879487409 0 0.1252730154641265 -0.33501756179834041 0 0.127277047630593 -0.32368123984794023 0 0.1385684583736729 -0.34280877879487409 0 0.1252730154641265 -0.33501756179834041 0 0.1203073559828662 -0.34481831064573482 0 0.13800407031112841 -0.31574608003178772 0 0.127277047630593 -0.32368123984794023 0 0.1207194796176513 -0.31206082339016011 0 0.1385684583736729 -0.34280877879487409 0 0.13800407031112841 -0.31574608003178772 0 0.127277047630593 -0.32368123984794023 0 0.13800407031112841 -0.31574608003178772 0 0.13743968224858391 -0.28868338126870119 0 0.1207194796176513 -0.31206082339016011 0 0.13800407031112841 -0.31574608003178772 0 0.13743968224858391 -0.28868338126870119 0 0.13800407031112841 -0.31574608003178772 0 0.13743968224858391 -0.28868338126870119 0 0.16613015085753399 -0.29794196337136208 0 0.13743968224858391 -0.28868338126870119 0 0.16013622185265231 -0.27370264407204231 0 0.16613015085753399 -0.29794196337136208 0 0.13743968224858391 -0.28868338126870119 0 0.13687529418603939 -0.26162068250561471 0 0.13743968224858391 -0.28868338126870119 0 0.13687529418603939 -0.26162068250561471 0 0.12122917553908071 -0.27280048239714111 0 0.13687529418603939 -0.26162068250561471 0 0.15867772839633809 -0.25707915377424612 0 0.15532271566916761 -0.23874085795770611 0 0.13687529418603939 -0.26162068250561471 0 0.16013622185265231 -0.27370264407204231 0 0.15867772839633809 -0.25707915377424612 0 0.13743968224858391 -0.28868338126870119 0 0.13687529418603939 -0.26162068250561471 0 0.16013622185265231 -0.27370264407204231 0 0.16013622185265231 -0.27370264407204231 0 0.17163424862532001 -0.26348395238230132 0 0.17866520103123101 -0.27392164610568698 0 0.16013622185265231 -0.27370264407204231 0 0.15867772839633809 -0.25707915377424612 0 0.17163424862532001 -0.26348395238230132 0 0.15867772839633809 -0.25707915377424612 0 0.17163424862532001 -0.26348395238230132 0 0.17304535898525439 -0.24904788565112909 0 0.17163424862532001 -0.26348395238230132 0 0.18066177981631051 -0.25348299893649828 0 0.17304535898525439 -0.24904788565112909 0 0.17163424862532001 -0.26348395238230132 0 0.1861358052291735 -0.26379397041404468 0 0.18066177981631051 -0.25348299893649828 0 0.19627752834655959 -0.27465633278028612 0 0.17866520103123101 -0.27392164610568698 0 0.18615950714984131 -0.28714944863913389 0 0.19627752834655959 -0.27465633278028612 0 0.1861358052291735 -0.26379397041404468 0 0.17866520103123101 -0.27392164610568698 0 0.17163424862532001 -0.26348395238230132 0 0.1861358052291735 -0.26379397041404468 0 0.17866520103123101 -0.27392164610568698 0 0.17866520103123101 -0.27392164610568698 0 0.18615950714984131 -0.28714944863913389 0 0.16613015085753399 -0.29794196337136208 0 0.18615950714984131 -0.28714944863913389 0 0.1861316223780578 -0.30340045511113362 0 0.16613015085753399 -0.29794196337136208 0 0.17526094699071121 -0.32121364916979261 0 0.1861316223780578 -0.30340045511113362 0 0.16613015085753399 -0.29794196337136208 0 0.16013622185265231 -0.27370264407204231 0 0.17866520103123101 -0.27392164610568698 0 0.16613015085753399 -0.29794196337136208 0 0.19650118937966099 -0.48458767462136337 0 0.18247472509388471 -0.47020227486163019 0 0.1839174807145193 -0.49999999999999789 0 0.19650118937966099 -0.48458767462136337 0 0.2054847406710314 -0.5 0 0.1839174807145193 -0.49999999999999789 0 0.19650118937966099 -0.48458767462136337 0 0.1995265252191368 -0.47051219141525807 0 0.18247472509388471 -0.47020227486163019 0 0.19650118937966099 -0.48458767462136337 0 0.1995265252191368 -0.47051219141525807 0 0.21142085222808771 -0.48158275099342862 0 0.1995265252191368 -0.47051219141525807 0 0.21142085222808771 -0.48158275099342862 0 0.21140626781342409 -0.46122374827882839 0 0.21142085222808771 -0.48158275099342862 0 0.23068219321441441 -0.47630316546961982 0 0.21140626781342409 -0.46122374827882839 0 0.19650118937966099 -0.48458767462136337 0 0.21142085222808771 -0.48158275099342862 0 0.2054847406710314 -0.5 0 0.21142085222808771 -0.48158275099342862 0 0.2054847406710314 -0.5 0 0.22705200062754341 -0.49999999999999972 0 0.21142085222808771 -0.48158275099342862 0 0.22705200062754341 -0.49999999999999972 0 0.23068219321441441 -0.47630316546961982 0 0.22705200062754341 -0.49999999999999972 0 0.24310759435645521 -0.48732129405658853 0 0.23068219321441441 -0.47630316546961982 0 0.22705200062754341 -0.49999999999999972 0 0.23068219321441441 -0.47630316546961982 0 0.25573491640979129 -0.5 0 0.22705200062754341 -0.49999999999999972 0 0.24310759435645521 -0.48732129405658853 0 0.24310759435645521 -0.48732129405658853 0 0.24452211955108941 -0.47321082899062988 0 0.23068219321441441 -0.47630316546961982 0 0.23068219321441441 -0.47630316546961982 0 0.23431238580128549 -0.45260633093924002 0 0.23068219321441441 -0.47630316546961982 0 0.23431238580128549 -0.45260633093924002 0 0.21140626781342409 -0.46122374827882839 0 0.24452211955108941 -0.47321082899062988 0 0.23068219321441441 -0.47630316546961982 0 0.23431238580128549 -0.45260633093924002 0 0.25055382002994903 -0.45112655962101422 0 0.24452211955108941 -0.47321082899062988 0 0.23431238580128549 -0.45260633093924002 0 0.25055382002994903 -0.45112655962101422 0 0.23431238580128549 -0.45260633093924002 0 0.24845486683426421 -0.43056678600332871 0 0.23431238580128549 -0.45260633093924002 0 0.2061844358166085 -0.43731386343018219 0 0.22816721351006641 -0.42382217308135922 0 0.23431238580128549 -0.45260633093924002 0 0.21140626781342409 -0.46122374827882839 0 0.2061844358166085 -0.43731386343018219 0 0.21140626781342409 -0.46122374827882839 0 0.1958295915806266 -0.45496450832104018 0 0.2061844358166085 -0.43731386343018219 0 0.1995265252191368 -0.47051219141525807 0 0.1958295915806266 -0.45496450832104018 0 0.18247472509388471 -0.47020227486163019 0 0.1995265252191368 -0.47051219141525807 0 0.21140626781342409 -0.46122374827882839 0 0.1958295915806266 -0.45496450832104018 0 0.1958295915806266 -0.45496450832104018 0 0.2061844358166085 -0.43731386343018219 0 0.18103196947325001 -0.44040454972326271 0 0.19189840580791451 -0.42494462472696731 0 0.2061844358166085 -0.43731386343018219 0 0.18103196947325001 -0.44040454972326271 0 0.19189840580791451 -0.42494462472696731 0 0.1954291475964339 -0.41062193775622902 0 0.2113234447447021 -0.41044931469126889 0 0.19189840580791451 -0.42494462472696731 0 0.1954291475964339 -0.41062193775622902 0 0.17958921385261531 -0.41060682458489489 0 0.19189840580791451 -0.42494462472696731 0 0.2113234447447021 -0.41044931469126889 0 0.2061844358166085 -0.43731386343018219 0 0.2113234447447021 -0.41044931469126889 0 0.2061844358166085 -0.43731386343018219 0 0.22816721351006641 -0.42382217308135922 0 0.2113234447447021 -0.41044931469126889 0 0.2061844358166085 -0.43731386343018219 0 0.23431238580128549 -0.45260633093924002 0 0.22816721351006641 -0.42382217308135922 0 0.24845486683426421 -0.43056678600332871 0 0.22816721351006641 -0.42382217308135922 0 0.24845486683426421 -0.43056678600332871 0 0.24730388124056729 -0.40448370284608931 0 0.22816721351006641 -0.42382217308135922 0 0.22802948983690591 -0.39972126622214238 0 0.24730388124056729 -0.40448370284608931 0 0.2113234447447021 -0.41044931469126889 0 0.22816721351006641 -0.42382217308135922 0 0.22802948983690591 -0.39972126622214238 0 0.22802948983690591 -0.39972126622214238 0 0.24730388124056729 -0.40448370284608931 0 0.2380746425401753 -0.37739124482652259 0 0.26194523537769671 -0.38343407302417171 0 0.24730388124056729 -0.40448370284608931 0 0.2380746425401753 -0.37739124482652259 0 0.22802948983690591 -0.39972126622214238 0 0.2380746425401753 -0.37739124482652259 0 0.21646245367279571 -0.38358476595235552 0 0.21646245367279571 -0.38358476595235552 0 0.19890552598050351 -0.3964869870217847 0 0.2025217842010896 -0.37807387373583923 0 0.2113234447447021 -0.41044931469126889 0 0.22802948983690591 -0.39972126622214238 0 0.21646245367279571 -0.38358476595235552 0 0.2113234447447021 -0.41044931469126889 0 0.21646245367279571 -0.38358476595235552 0 0.2113234447447021 -0.41044931469126889 0 0.21646245367279571 -0.38358476595235552 0 0.19890552598050351 -0.3964869870217847 0 0.1954291475964339 -0.41062193775622902 0 0.2113234447447021 -0.41044931469126889 0 0.19890552598050351 -0.3964869870217847 0 0.1954291475964339 -0.41062193775622902 0 0.19890552598050351 -0.3964869870217847 0 0.17958921385261531 -0.41060682458489489 0 0.19890552598050351 -0.3964869870217847 0 0.19000045151593811 -0.3880482826985161 0 0.17958921385261531 -0.41060682458489489 0 0.19890552598050351 -0.3964869870217847 0 0.19000045151593811 -0.3880482826985161 0 0.2025217842010896 -0.37807387373583923 0 0.19083927531350181 -0.37426462870353422 0 0.19000045151593811 -0.3880482826985161 0 0.2025217842010896 -0.37807387373583923 0 0.19083927531350181 -0.37426462870353422 0 0.19000045151593811 -0.3880482826985161 0 0.17814645823198061 -0.38080909944652741 0 0.17814645823198061 -0.38080909944652741 0 0.17958921385261531 -0.41060682458489489 0 0.19000045151593811 -0.3880482826985161 0 0.17814645823198061 -0.38080909944652741 0 0.17958921385261531 -0.41060682458489489 0 0.17814645823198061 -0.38080909944652741 0 0.17073561596382039 -0.39301209499015272 0 0.17958921385261531 -0.41060682458489489 0 0.16300249929152311 -0.40501345282557782 0 0.1662516937484437 -0.37945746017663878 0 0.1548118257048379 -0.39098754083749682 0 0.17073561596382039 -0.39301209499015272 0 0.16300249929152311 -0.40501345282557782 0 0.1662516937484437 -0.37945746017663878 0 0.17073561596382039 -0.39301209499015272 0 0.16300249929152311 -0.40501345282557782 0 0.17958921385261531 -0.41060682458489489 0 0.16300249929152311 -0.40501345282557782 0 0.1662516937484437 -0.37945746017663878 0 0.1662516937484437 -0.37945746017663878 0 0.15122325216971341 -0.38057118911269922 0 0.1548118257048379 -0.39098754083749682 0 0.17814645823198061 -0.38080909944652741 0 0.17073561596382039 -0.39301209499015272 0 0.1662516937484437 -0.37945746017663878 0 0.15622266046030589 -0.36560529067035252 0 0.1662516937484437 -0.37945746017663878 0 0.15122325216971341 -0.38057118911269922 0 0.15122325216971341 -0.38057118911269922 0 0.13969723449876181 -0.39693417632104711 0 0.1548118257048379 -0.39098754083749682 0 0.13913284643621729 -0.36987147755796063 0 0.15122325216971341 -0.38057118911269922 0 0.13969723449876181 -0.39693417632104711 0 0.13913284643621729 -0.36987147755796063 0 0.12672469353237761 -0.38193719477194499 0 0.13969723449876181 -0.39693417632104711 0 0.13913284643621729 -0.36987147755796063 0 0.13969723449876181 -0.39693417632104711 0 0.12672469353237761 -0.38193719477194499 0 0.13969723449876181 -0.39693417632104711 0 0.1219351525082772 -0.40864131998943182 0 0.16300249929152311 -0.40501345282557782 0 0.13969723449876181 -0.39693417632104711 0 0.1524997256598466 -0.41582351463554701 0 0.16300249929152311 -0.40501345282557782 0 0.13969723449876181 -0.39693417632104711 0 0.1548118257048379 -0.39098754083749682 0 0.13969723449876181 -0.39693417632104711 0 0.1524997256598466 -0.41582351463554701 0 0.14026162256130631 -0.42399687508413381 0 0.13969723449876181 -0.39693417632104711 0 0.14026162256130631 -0.42399687508413381 0 0.13969723449876181 -0.39693417632104711 0 0.14026162256130631 -0.42399687508413381 0 0.1219351525082772 -0.40864131998943182 0 0.1272554141007321 -0.42571201066291808 0 0.14026162256130631 -0.42399687508413381 0 0.1219351525082772 -0.40864131998943182 0 0.13018508541287829 -0.43658956786597553 0 0.14026162256130631 -0.42399687508413381 0 0.14082601062385081 -0.45105957384722029 0 0.13018508541287829 -0.43658956786597553 0 0.1272554141007321 -0.42571201066291808 0 0.14026162256130631 -0.42399687508413381 0 0.1524997256598466 -0.41582351463554701 0 0.14026162256130631 -0.42399687508413381 0 0.15975330483460251 -0.43056944547451692 0 0.14026162256130631 -0.42399687508413381 0 0.15975330483460251 -0.43056944547451692 0 0.14082601062385081 -0.45105957384722029 0 0.16300249929152311 -0.40501345282557782 0 0.15975330483460251 -0.43056944547451692 0 0.17958921385261531 -0.41060682458489489 0 0.16300249929152311 -0.40501345282557782 0 0.15975330483460251 -0.43056944547451692 0 0.16300249929152311 -0.40501345282557782 0 0.1524997256598466 -0.41582351463554701 0 0.15975330483460251 -0.43056944547451692 0 0.15975330483460251 -0.43056944547451692 0 0.17958921385261531 -0.41060682458489489 0 0.18103196947325001 -0.44040454972326271 0 0.17958921385261531 -0.41060682458489489 0 0.18103196947325001 -0.44040454972326271 0 0.19189840580791451 -0.42494462472696731 0 0.17958921385261531 -0.41060682458489489 0 0.18103196947325001 -0.44040454972326271 0 0.18103196947325001 -0.44040454972326271 0 0.16491961284223791 -0.45249038001545161 0 0.18247472509388471 -0.47020227486163019 0 0.18103196947325001 -0.44040454972326271 0 0.18247472509388471 -0.47020227486163019 0 0.1958295915806266 -0.45496450832104018 0 0.18103196947325001 -0.44040454972326271 0 0.18247472509388471 -0.47020227486163019 0 0.16491961284223791 -0.45249038001545161 0 0.1605120541856016 -0.47021605617062739 0 0.18247472509388471 -0.47020227486163019 0 0.15975330483460251 -0.43056944547451692 0 0.18103196947325001 -0.44040454972326271 0 0.16491961284223791 -0.45249038001545161 0 0.15975330483460251 -0.43056944547451692 0 0.16491961284223791 -0.45249038001545161 0 0.14082601062385081 -0.45105957384722029 0 0.14026162256130631 -0.42399687508413381 0 0.14082601062385081 -0.45105957384722029 0 0.14082601062385081 -0.45105957384722029 0 0.12543676829432579 -0.44683393452868708 0 0.12531186358948529 -0.45757018679138572 0 0.13018508541287829 -0.43658956786597553 0 0.14082601062385081 -0.45105957384722029 0 0.12543676829432579 -0.44683393452868708 0 0.14082601062385081 -0.45105957384722029 0 0.12842365125323091 -0.46593607888014599 0 0.13328939848609819 -0.47119455711627289 0 0.14082601062385081 -0.45105957384722029 0 0.14139039868639619 -0.47812227261030682 0 0.13328939848609819 -0.47119455711627289 0 0.12842365125323091 -0.46593607888014599 0 0.12531186358948529 -0.45757018679138572 0 0.1232316263288145 -0.46410889533344052 0 0.12842365125323091 -0.46593607888014599 0 0.1245497287119053 -0.47085317529077592 0 0.12311265484265969 -0.46777846846391841 0 0.14082601062385081 -0.45105957384722029 0 0.12842365125323091 -0.46593607888014599 0 0.12531186358948529 -0.45757018679138572 0 0.16491961284223791 -0.45249038001545161 0 0.14082601062385081 -0.45105957384722029 0 0.1605120541856016 -0.47021605617062739 0 0.14082601062385081 -0.45105957384722029 0 0.14139039868639619 -0.47812227261030682 0 0.14082601062385081 -0.45105957384722029 0 0.14139039868639619 -0.47812227261030682 0 0.1605120541856016 -0.47021605617062739 0 0.14139039868639619 -0.47812227261030682 0 0.15939735020609169 -0.48906113630515408 0 0.1605120541856016 -0.47021605617062739 0 0.14139039868639619 -0.47812227261030682 0 0.15939735020609169 -0.48906113630515408 0 0.14139039868639619 -0.47812227261030682 0 0.13328939848609819 -0.47119455711627289 0 0.13520794413867351 -0.47916570768291911 0 0.14139039868639619 -0.47812227261030682 0 0.13520794413867351 -0.47916570768291911 0 0.13309005864575499 -0.48654881223837643 0 0.13328939848609819 -0.47119455711627289 0 0.13520794413867351 -0.47916570768291911 0 0.1282166063692238 -0.47963436787526348 0 0.13520794413867351 -0.47916570768291911 0 0.1282166063692238 -0.47963436787526348 0 0.13309005864575499 -0.48654881223837643 0 0.12842365125323091 -0.46593607888014599 0 0.1275076222339897 -0.47406719287555171 0 0.1245497287119053 -0.47085317529077592 0 0.12842365125323091 -0.46593607888014599 0 0.13328939848609819 -0.47119455711627289 0 0.1275076222339897 -0.47406719287555171 0 0.13328939848609819 -0.47119455711627289 0 0.1282166063692238 -0.47963436787526348 0 0.1275076222339897 -0.47406719287555171 0 0.1282166063692238 -0.47963436787526348 0 0.1275076222339897 -0.47406719287555171 0 0.12271037357175291 -0.47562361121234281 0 0.14139039868639619 -0.47812227261030682 0 0.13309005864575499 -0.48654881223837643 0 0.1417493920694651 -0.49533619053082339 0 0.1325088383252874 -0.49999999999999689 0 0.11946717228548211 -0.4870343347309507 0 0.1325088383252874 -0.49999999999999689 0 0.13309005864575499 -0.48654881223837643 0 0.11946717228548211 -0.4870343347309507 0 0.1282166063692238 -0.47963436787526348 0 0.13309005864575499 -0.48654881223837643 0 0.11946717228548211 -0.4870343347309507 0 0.1325088383252874 -0.49999999999999689 0 0.13309005864575499 -0.48654881223837643 0 0.1417493920694651 -0.49533619053082339 0 0.1325088383252874 -0.49999999999999689 0 0.1417493920694651 -0.49533619053082339 0 0.15495657002553739 -0.5 0 0.14139039868639619 -0.47812227261030682 0 0.14937342774687271 -0.49062989986157102 0 0.15939735020609169 -0.48906113630515408 0 0.14139039868639619 -0.47812227261030682 0 0.1417493920694651 -0.49533619053082339 0 0.14139039868639619 -0.47812227261030682 0 0.1417493920694651 -0.49533619053082339 0 0.14937342774687271 -0.49062989986157102 0 0.1417493920694651 -0.49533619053082339 0 0.14937342774687271 -0.49062989986157102 0 0.15495657002553739 -0.5 0 0.14937342774687271 -0.49062989986157102 0 0.15495657002553739 -0.5 0 0.15939735020609169 -0.48906113630515408 0 0.15939735020609169 -0.48906113630515408 0 0.17467337585270831 -0.48420504396041608 0 0.1774043017257875 -0.50000000000000111 0 0.15939735020609169 -0.48906113630515408 0 0.1774043017257875 -0.50000000000000111 0 0.15495657002553739 -0.5 0 0.15939735020609169 -0.48906113630515408 0 0.1774043017257875 -0.50000000000000111 0 0.15939735020609169 -0.48906113630515408 0 0.1605120541856016 -0.47021605617062739 0 0.17467337585270831 -0.48420504396041608 0 0.1605120541856016 -0.47021605617062739 0 0.17467337585270831 -0.48420504396041608 0 0.18247472509388471 -0.47020227486163019 0 0.18247472509388471 -0.47020227486163019 0 0.1839174807145193 -0.49999999999999789 0 0.17467337585270831 -0.48420504396041608 0 0.18247472509388471 -0.47020227486163019 0 0.1839174807145193 -0.49999999999999789 0 0.17467337585270831 -0.48420504396041608 0 0.1839174807145193 -0.49999999999999789 0 0.1774043017257875 -0.50000000000000111 0 0.065949985054517032 -0.48884997455687013 0 0.080677891680827868 -0.48404188118506331 0 0.084758324792090334 -0.49999999999999989 0 0.065949985054517032 -0.48884997455687013 0 0.084758324792090334 -0.49999999999999989 0 0.055728539092515517 -0.5 0 0.065949985054517032 -0.48884997455687013 0 0.069113753880103546 -0.47032146630200872 0 0.080677891680827868 -0.48404188118506331 0 0.065949985054517032 -0.48884997455687013 0 0.069113753880103546 -0.47032146630200872 0 0.057596711449277201 -0.48334309492942701 0 0.069113753880103546 -0.47032146630200872 0 0.080677891680827868 -0.48404188118506331 0 0.088790870678748121 -0.47481427013272492 0 0.069113753880103546 -0.47032146630200872 0 0.088790870678748121 -0.47481427013272492 0 0.09506323621333454 -0.46277261346061632 0 0.080677891680827868 -0.48404188118506331 0 0.088790870678748121 -0.47481427013272492 0 0.094776523998680279 -0.48622369493371298 0 0.080677891680827868 -0.48404188118506331 0 0.084758324792090334 -0.49999999999999989 0 0.094776523998680279 -0.48622369493371298 0 0.084758324792090334 -0.49999999999999989 0 0.10099043700106421 -0.499999999999999 0 0.094776523998680279 -0.48622369493371298 0 0.084758324792090334 -0.49999999999999989 0 0.094776523998680279 -0.48622369493371298 0 0.10099043700106421 -0.499999999999999 0 0.1064255062456735 -0.47406866946190801 0 0.10099043700106421 -0.499999999999999 0 0.094776523998680279 -0.48622369493371298 0 0.1064255062456735 -0.47406866946190801 0 0.10099043700106421 -0.499999999999999 0 0.11946717228548211 -0.4870343347309507 0 0.1064255062456735 -0.47406866946190801 0 0.1325088383252874 -0.49999999999999689 0 0.1167496376631757 -0.5 0 0.11946717228548211 -0.4870343347309507 0 0.10099043700106421 -0.499999999999999 0 0.1167496376631757 -0.5 0 0.11946717228548211 -0.4870343347309507 0 0.12074084002908721 -0.47045370359981148 0 0.12271037357175291 -0.47562361121234281 0 0.11625567037499381 -0.47238364776222469 0 0.12074084002908721 -0.47045370359981148 0 0.11625567037499381 -0.47238364776222469 0 0.1192823524431306 -0.4663394170250621 0 0.12074084002908721 -0.47045370359981148 0 0.1245497287119053 -0.47085317529077592 0 0.12271037357175291 -0.47562361121234281 0 0.12074084002908721 -0.47045370359981148 0 0.1245497287119053 -0.47085317529077592 0 0.12311265484265969 -0.46777846846391841 0 0.1275076222339897 -0.47406719287555171 0 0.1245497287119053 -0.47085317529077592 0 0.12271037357175291 -0.47562361121234281 0 0.1282166063692238 -0.47963436787526348 0 0.11946717228548211 -0.4870343347309507 0 0.12271037357175291 -0.47562361121234281 0 0.11946717228548211 -0.4870343347309507 0 0.12271037357175291 -0.47562361121234281 0 0.11625567037499381 -0.47238364776222469 0 0.11946717228548211 -0.4870343347309507 0 0.1064255062456735 -0.47406866946190801 0 0.11946717228548211 -0.4870343347309507 0 0.11625567037499381 -0.47238364776222469 0 0.1064255062456735 -0.47406866946190801 0 0.11625567037499381 -0.47238364776222469 0 0.1064255062456735 -0.47406866946190801 0 0.11129693947086181 -0.46795476393154728 0 0.1064255062456735 -0.47406866946190801 0 0.10479472320527 -0.47244738986742602 0 0.1075632658294263 -0.46864028970971422 0 0.1064255062456735 -0.47406866946190801 0 0.1075632658294263 -0.46864028970971422 0 0.11129693947086181 -0.46795476393154728 0 0.088790870678748121 -0.47481427013272492 0 0.094776523998680279 -0.48622369493371298 0 0.10479472320527 -0.47244738986742602 0 0.1064255062456735 -0.47406866946190801 0 0.1075632658294263 -0.46864028970971422 0 0.088790870678748121 -0.47481427013272492 0 0.10479472320527 -0.47244738986742602 0 0.09506323621333454 -0.46277261346061632 0 0.10479472320527 -0.47244738986742602 0 0.1075632658294263 -0.46864028970971422 0 0.1064255062456735 -0.47406866946190801 0 0.10479472320527 -0.47244738986742602 0 0.094776523998680279 -0.48622369493371298 0 0.1064255062456735 -0.47406866946190801 0 0.10479472320527 -0.47244738986742602 0 0.094776523998680279 -0.48622369493371298 0 0.10479472320527 -0.47244738986742602 0 0.10479472320527 -0.47244738986742602 0 0.09506323621333454 -0.46277261346061632 0 0.1060131744550812 -0.45411466011360518 0 0.1075632658294263 -0.46864028970971422 0 0.11260152047704799 -0.44460220652757759 0 0.09506323621333454 -0.46277261346061632 0 0.10011436795704159 -0.45274002486564408 0 0.091519926973447546 -0.44626784630584138 0 0.09506323621333454 -0.46277261346061632 0 0.10386028492466159 -0.46021350167150438 0 0.09506323621333454 -0.46277261346061632 0 0.10386028492466159 -0.46021350167150438 0 0.10011436795704159 -0.45274002486564408 0 0.10386028492466159 -0.46021350167150438 0 0.1060131744550812 -0.45411466011360518 0 0.10011436795704159 -0.45274002486564408 0 0.10386028492466159 -0.46021350167150438 0 0.1060131744550812 -0.45411466011360518 0 0.1075632658294263 -0.46864028970971422 0 0.10479472320527 -0.47244738986742602 0 0.09506323621333454 -0.46277261346061632 0 0.1075632658294263 -0.46864028970971422 0 0.09506323621333454 -0.46277261346061632 0 0.10386028492466159 -0.46021350167150438 0 0.1075632658294263 -0.46864028970971422 0 0.1075632658294263 -0.46864028970971422 0 0.1123560704600764 -0.46204957042440498 0 0.11260152047704799 -0.44460220652757759 0 0.1075632658294263 -0.46864028970971422 0 0.1123560704600764 -0.46204957042440498 0 0.1075632658294263 -0.46864028970971422 0 0.11129693947086181 -0.46795476393154728 0 0.1123560704600764 -0.46204957042440498 0 0.1075632658294263 -0.46864028970971422 0 0.11260152047704799 -0.44460220652757759 0 0.11129693947086181 -0.46795476393154728 0 0.1123560704600764 -0.46204957042440498 0 0.11129693947086181 -0.46795476393154728 0 0.1149697984784732 -0.46556593525158491 0 0.1123560704600764 -0.46204957042440498 0 0.11625567037499381 -0.47238364776222469 0 0.1149697984784732 -0.46556593525158491 0 0.1192823524431306 -0.4663394170250621 0 0.11625567037499381 -0.47238364776222469 0 0.11129693947086181 -0.46795476393154728 0 0.1149697984784732 -0.46556593525158491 0 0.1149697984784732 -0.46556593525158491 0 0.1123560704600764 -0.46204957042440498 0 0.118705430672609 -0.46205297743075813 0 0.1123560704600764 -0.46204957042440498 0 0.11635977570981471 -0.45654396370023359 0 0.118705430672609 -0.46205297743075813 0 0.1123560704600764 -0.46204957042440498 0 0.11635977570981471 -0.45654396370023359 0 0.12531186358948529 -0.45757018679138572 0 0.11635977570981471 -0.45654396370023359 0 0.118705430672609 -0.46205297743075813 0 0.12543676829432579 -0.44683393452868708 0 0.12531186358948529 -0.45757018679138572 0 0.11635977570981471 -0.45654396370023359 0 0.12531186358948529 -0.45757018679138572 0 0.1232316263288145 -0.46410889533344052 0 0.118705430672609 -0.46205297743075813 0 0.1232316263288145 -0.46410889533344052 0 0.12311265484265969 -0.46777846846391841 0 0.1192823524431306 -0.4663394170250621 0 0.12842365125323091 -0.46593607888014599 0 0.1232316263288145 -0.46410889533344052 0 0.12311265484265969 -0.46777846846391841 0 0.12074084002908721 -0.47045370359981148 0 0.12311265484265969 -0.46777846846391841 0 0.1192823524431306 -0.4663394170250621 0 0.1149697984784732 -0.46556593525158491 0 0.1192823524431306 -0.4663394170250621 0 0.118705430672609 -0.46205297743075813 0 0.1232316263288145 -0.46410889533344052 0 0.1192823524431306 -0.4663394170250621 0 0.118705430672609 -0.46205297743075813 0 0.1123560704600764 -0.46204957042440498 0 0.11714561148417681 -0.43534544520691831 0 0.1123560704600764 -0.46204957042440498 0 0.11260152047704799 -0.44460220652757759 0 0.11714561148417681 -0.43534544520691831 0 0.1123560704600764 -0.46204957042440498 0 0.11635977570981471 -0.45654396370023359 0 0.11714561148417681 -0.43534544520691831 0 0.12543676829432579 -0.44683393452868708 0 0.11635977570981471 -0.45654396370023359 0 0.11714561148417681 -0.43534544520691831 0 0.13018508541287829 -0.43658956786597553 0 0.12543676829432579 -0.44683393452868708 0 0.11714561148417681 -0.43534544520691831 0 0.10592643308722841 -0.44437727779358549 0 0.083881602994700072 -0.43088647549478237 0 0.10592643308722841 -0.44437727779358549 0 0.091519926973447546 -0.44626784630584138 0 0.083881602994700072 -0.43088647549478237 0 0.11260152047704799 -0.44460220652757759 0 0.10592643308722841 -0.44437727779358549 0 0.1086116799951807 -0.43095684568344572 0 0.1060131744550812 -0.45411466011360518 0 0.10592643308722841 -0.44437727779358549 0 0.10011436795704159 -0.45274002486564408 0 0.1060131744550812 -0.45411466011360518 0 0.11260152047704799 -0.44460220652757759 0 0.10592643308722841 -0.44437727779358549 0 0.10592643308722841 -0.44437727779358549 0 0.10011436795704159 -0.45274002486564408 0 0.091519926973447546 -0.44626784630584138 0 0.09506323621333454 -0.46277261346061632 0 0.073976492589610171 -0.44180875358221461 0 0.09506323621333454 -0.46277261346061632 0 0.091519926973447546 -0.44626784630584138 0 0.073976492589610171 -0.44180875358221461 0 0.091519926973447546 -0.44626784630584138 0 0.073976492589610171 -0.44180875358221461 0 0.083881602994700072 -0.43088647549478237 0 0.069113753880103546 -0.47032146630200872 0 0.09506323621333454 -0.46277261346061632 0 0.09506323621333454 -0.46277261346061632 0 0.075948319170580939 -0.45709497223106438 0 0.073976492589610171 -0.44180875358221461 0 0.069113753880103546 -0.47032146630200872 0 0.09506323621333454 -0.46277261346061632 0 0.075948319170580939 -0.45709497223106438 0 0.069113753880103546 -0.47032146630200872 0 0.075948319170580939 -0.45709497223106438 0 0.064267892493667544 -0.45245405090636609 0 0.064267892493667544 -0.45245405090636609 0 0.073976492589610171 -0.44180875358221461 0 0.061221704008603092 -0.43412854505433712 0 0.075948319170580939 -0.45709497223106438 0 0.064267892493667544 -0.45245405090636609 0 0.073976492589610171 -0.44180875358221461 0 0.083881602994700072 -0.43088647549478237 0 0.061836772902171017 -0.41739567319598042 0 0.061221704008603092 -0.43412854505433712 0 0.073976492589610171 -0.44180875358221461 0 0.083881602994700072 -0.43088647549478237 0 0.061221704008603092 -0.43412854505433712 0 0.083881602994700072 -0.43088647549478237 0 0.061836772902171017 -0.41739567319598042 0 0.087852613914545186 -0.40334306140395609 0 0.070156507476487037 -0.39917662383738439 0 0.061836772902171017 -0.41739567319598042 0 0.087852613914545186 -0.40334306140395609 0 0.061836772902171017 -0.41739567319598042 0 0.090204007114443943 -0.4177400312392191 0 0.087852613914545186 -0.40334306140395609 0 0.061836772902171017 -0.41739567319598042 0 0.090204007114443943 -0.4177400312392191 0 0.083881602994700072 -0.43088647549478237 0 0.061836772902171017 -0.41739567319598042 0 0.090204007114443943 -0.4177400312392191 0 0.083881602994700072 -0.43088647549478237 0 0.10022705322515101 -0.42809075962971732 0 0.10592643308722841 -0.44437727779358549 0 0.083881602994700072 -0.43088647549478237 0 0.10022705322515101 -0.42809075962971732 0 0.10592643308722841 -0.44437727779358549 0 0.10022705322515101 -0.42809075962971732 0 0.1086116799951807 -0.43095684568344572 0 0.10022705322515101 -0.42809075962971732 0 0.1086116799951807 -0.43095684568344572 0 0.10561771621597441 -0.41891116251106192 0 0.11260152047704799 -0.44460220652757759 0 0.11714561148417681 -0.43534544520691831 0 0.11763977512467 -0.42056412334544119 0 0.11714561148417681 -0.43534544520691831 0 0.1219351525082772 -0.40864131998943182 0 0.11260152047704799 -0.44460220652757759 0 0.11763977512467 -0.42056412334544119 0 0.11260152047704799 -0.44460220652757759 0 0.1086116799951807 -0.43095684568344572 0 0.11763977512467 -0.42056412334544119 0 0.1272554141007321 -0.42571201066291808 0 0.11714561148417681 -0.43534544520691831 0 0.1219351525082772 -0.40864131998943182 0 0.1086116799951807 -0.43095684568344572 0 0.11763977512467 -0.42056412334544119 0 0.10561771621597441 -0.41891116251106192 0 0.13018508541287829 -0.43658956786597553 0 0.1272554141007321 -0.42571201066291808 0 0.11714561148417681 -0.43534544520691831 0 0.1219351525082772 -0.40864131998943182 0 0.11763977512467 -0.42056412334544119 0 0.1226780297722921 -0.39652604016330478 0 0.11763977512467 -0.42056412334544119 0 0.1063857367604352 -0.40565829933023112 0 0.1226780297722921 -0.39652604016330478 0 0.11714561148417681 -0.43534544520691831 0 0.1219351525082772 -0.40864131998943182 0 0.11763977512467 -0.42056412334544119 0 0.11763977512467 -0.42056412334544119 0 0.1226780297722921 -0.39652604016330478 0 0.11763977512467 -0.42056412334544119 0 0.10561771621597441 -0.41891116251106192 0 0.1063857367604352 -0.40565829933023112 0 0.090204007114443943 -0.4177400312392191 0 0.1063857367604352 -0.40565829933023112 0 0.087852613914545186 -0.40334306140395609 0 0.090204007114443943 -0.4177400312392191 0 0.10561771621597441 -0.41891116251106192 0 0.1063857367604352 -0.40565829933023112 0 0.090204007114443943 -0.4177400312392191 0 0.10022705322515101 -0.42809075962971732 0 0.10561771621597441 -0.41891116251106192 0 0.1063857367604352 -0.40565829933023112 0 0.11269819459067421 -0.38831450138448881 0 0.097085641119374302 -0.38571424072610178 0 0.1063857367604352 -0.40565829933023112 0 0.097085641119374302 -0.38571424072610178 0 0.087852613914545186 -0.40334306140395609 0 0.12672469353237761 -0.38193719477194499 0 0.1219351525082772 -0.40864131998943182 0 0.1063857367604352 -0.40565829933023112 0 0.1226780297722921 -0.39652604016330478 0 0.11269819459067421 -0.38831450138448881 0 0.12672469353237761 -0.38193719477194499 0 0.1219351525082772 -0.40864131998943182 0 0.1226780297722921 -0.39652604016330478 0 0.12672469353237761 -0.38193719477194499 0 0.11269819459067421 -0.38831450138448881 0 0.1080928822255358 -0.3703790814713866 0 0.12672469353237761 -0.38193719477194499 0 0.1226780297722921 -0.39652604016330478 0 0.11269819459067421 -0.38831450138448881 0 0.11269819459067421 -0.38831450138448881 0 0.097085641119374302 -0.38571424072610178 0 0.1080928822255358 -0.3703790814713866 0 0.097085641119374302 -0.38571424072610178 0 0.078524092076429908 -0.38558307009035819 0 0.085574671404253372 -0.36606529366265911 0 0.097085641119374302 -0.38571424072610178 0 0.078524092076429908 -0.38558307009035819 0 0.087852613914545186 -0.40334306140395609 0 0.078524092076429908 -0.38558307009035819 0 0.087852613914545186 -0.40334306140395609 0 0.070156507476487037 -0.39917662383738439 0 0.078524092076429908 -0.38558307009035819 0 0.070156507476487037 -0.39917662383738439 0 0.064141871653705745 -0.38905297891460661 0 0.070156507476487037 -0.39917662383738439 0 0.058427186835583247 -0.40050833558202109 0 0.061836772902171017 -0.41739567319598042 0 0.070156507476487037 -0.39917662383738439 0 0.064141871653705745 -0.38905297891460661 0 0.058427186835583247 -0.40050833558202109 0 0.078524092076429908 -0.38558307009035819 0 0.064141871653705745 -0.38905297891460661 0 0.064781398010314309 -0.37536455347105108 0 0.078524092076429908 -0.38558307009035819 0 0.064781398010314309 -0.37536455347105108 0 0.085574671404253372 -0.36606529366265911 0 0.064781398010314309 -0.37536455347105108 0 0.05115882120843647 -0.38571757356542352 0 0.043890455581289831 -0.3709268115488259 0 0.05115882120843647 -0.38571757356542352 0 0.043890455581289831 -0.3709268115488259 0 0.064141871653705745 -0.38905297891460661 0 0.064781398010314309 -0.37536455347105108 0 0.05115882120843647 -0.38571757356542352 0 0.064141871653705745 -0.38905297891460661 0 0.05115882120843647 -0.38571757356542352 0 0.058427186835583247 -0.40050833558202109 0 0.05115882120843647 -0.38571757356542352 0 0.058427186835583247 -0.40050833558202109 0 0.05115882120843647 -0.38571757356542352 0 0.058427186835583247 -0.40050833558202109 0 0.039291666751458072 -0.38953557003537942 0 0.058427186835583247 -0.40050833558202109 0 0.03861507037192409 -0.403184658796582 0 0.039291666751458072 -0.38953557003537942 0 0.039291666751458072 -0.38953557003537942 0 0.030780854092194759 -0.38031894893150719 0 0.043890455581289831 -0.3709268115488259 0 0.05115882120843647 -0.38571757356542352 0 0.039291666751458072 -0.38953557003537942 0 0.043890455581289831 -0.3709268115488259 0 0.030780854092194759 -0.38031894893150719 0 0.043890455581289831 -0.3709268115488259 0 0.030780854092194759 -0.38031894893150719 0 0.0132535835722172 -0.37610527220974688 0 0.01539336784167648 -0.38897364439718468 0 0.039291666751458072 -0.38953557003537942 0 0.030780854092194759 -0.38031894893150719 0 0.01539336784167648 -0.38897364439718468 0 0.030780854092194759 -0.38031894893150719 0 0.0132535835722172 -0.37610527220974688 0 0.022072978528308879 -0.36937310690127451 0 -0.0078283346885702904 -0.37476262999778609 0 -0.0023576536845698339 -0.39611583857600319 0 0.01539336784167648 -0.38897364439718468 0 -0.0078283346885702904 -0.37476262999778609 0 0.01539336784167648 -0.38897364439718468 0 -0.0078283346885702904 -0.37476262999778609 0 0.0132535835722172 -0.37610527220974688 0 0.01539336784167648 -0.38897364439718468 0 -0.0023576536845698339 -0.39611583857600319 0 -0.0081630895937607941 -0.41129335178386173 0 0.01158543002224671 -0.40754374071996963 0 -0.0023576536845698339 -0.39611583857600319 0 0.01539336784167648 -0.38897364439718468 0 0.01158543002224671 -0.40754374071996963 0 0.03861507037192409 -0.403184658796582 0 0.039291666751458072 -0.38953557003537942 0 0.01539336784167648 -0.38897364439718468 0 0.03861507037192409 -0.403184658796582 0 0.01539336784167648 -0.38897364439718468 0 0.026736383496206509 -0.41290648431754168 0 0.01539336784167648 -0.38897364439718468 0 0.026736383496206509 -0.41290648431754168 0 0.01158543002224671 -0.40754374071996963 0 0.03861507037192409 -0.403184658796582 0 0.01539336784167648 -0.38897364439718468 0 0.026736383496206509 -0.41290648431754168 0 0.01158543002224671 -0.40754374071996963 0 0.01747615232015888 -0.42514842909431222 0 0.026736383496206509 -0.41290648431754168 0 0.01747615232015888 -0.42514842909431222 0 0.02768083642208749 -0.42593076319487821 0 0.01158543002224671 -0.40754374071996963 0 0.0026957591361241309 -0.41958824334712869 0 0.01747615232015888 -0.42514842909431222 0 -0.0081630895937607941 -0.41129335178386173 0 0.01158543002224671 -0.40754374071996963 0 0.0026957591361241309 -0.41958824334712869 0 0.0026957591361241309 -0.41958824334712869 0 0.003851027954898749 -0.43172418954792041 0 0.01747615232015888 -0.42514842909431222 0 0.003851027954898749 -0.43172418954792041 0 0.01410030331848921 -0.43483725365991388 0 0.01747615232015888 -0.42514842909431222 0 0.003851027954898749 -0.43172418954792041 0 0.01410030331848921 -0.43483725365991388 0 0.011432193992105429 -0.44462200732167467 0 0.01747615232015888 -0.42514842909431222 0 0.023728282280598981 -0.43798020184644493 0 0.01410030331848921 -0.43483725365991388 0 0.01747615232015888 -0.42514842909431222 0 0.023728282280598981 -0.43798020184644493 0 0.01747615232015888 -0.42514842909431222 0 0.02768083642208749 -0.42593076319487821 0 0.023728282280598981 -0.43798020184644493 0 0.026736383496206509 -0.41290648431754168 0 0.02768083642208749 -0.42593076319487821 0 0.042782527591385587 -0.42768793752121392 0 0.042782527591385587 -0.42768793752121392 0 0.023728282280598981 -0.43798020184644493 0 0.02768083642208749 -0.42593076319487821 0 0.042782527591385587 -0.42768793752121392 0 0.023728282280598981 -0.43798020184644493 0 0.042782527591385587 -0.42768793752121392 0 0.038339333849137569 -0.44224603439757942 0 0.023728282280598981 -0.43798020184644493 0 0.03861507037192409 -0.403184658796582 0 0.026736383496206509 -0.41290648431754168 0 0.042782527591385587 -0.42768793752121392 0 0.03861507037192409 -0.403184658796582 0 0.042782527591385587 -0.42768793752121392 0 0.061836772902171017 -0.41739567319598042 0 0.03861507037192409 -0.403184658796582 0 0.061836772902171017 -0.41739567319598042 0 0.058427186835583247 -0.40050833558202109 0 0.03861507037192409 -0.403184658796582 0 0.061836772902171017 -0.41739567319598042 0 0.042782527591385587 -0.42768793752121392 0 0.061836772902171017 -0.41739567319598042 0 0.061221704008603092 -0.43412854505433712 0 0.042782527591385587 -0.42768793752121392 0 0.061836772902171017 -0.41739567319598042 0 0.042782527591385587 -0.42768793752121392 0 0.061221704008603092 -0.43412854505433712 0 0.052693917870023622 -0.44730825455084611 0 0.064267892493667544 -0.45245405090636609 0 0.061221704008603092 -0.43412854505433712 0 0.052693917870023622 -0.44730825455084611 0 0.069113753880103546 -0.47032146630200872 0 0.064267892493667544 -0.45245405090636609 0 0.052594011880735161 -0.46258963849414558 0 0.064267892493667544 -0.45245405090636609 0 0.052693917870023622 -0.44730825455084611 0 0.052594011880735161 -0.46258963849414558 0 0.033446276913734967 -0.45792526049492271 0 0.024747075647264399 -0.46972246297684461 0 0.043164271546872197 -0.4778703191434 0 0.052693917870023622 -0.44730825455084611 0 0.052594011880735161 -0.46258963849414558 0 0.033446276913734967 -0.45792526049492271 0 0.052594011880735161 -0.46258963849414558 0 0.033446276913734967 -0.45792526049492271 0 0.043164271546872197 -0.4778703191434 0 0.033446276913734967 -0.45792526049492271 0 0.043164271546872197 -0.4778703191434 0 0.042782527591385587 -0.42768793752121392 0 0.052693917870023622 -0.44730825455084611 0 0.038339333849137569 -0.44224603439757942 0 0.033446276913734967 -0.45792526049492271 0 0.038339333849137569 -0.44224603439757942 0 0.023728282280598981 -0.43798020184644493 0 0.052693917870023622 -0.44730825455084611 0 0.033446276913734967 -0.45792526049492271 0 0.038339333849137569 -0.44224603439757942 0 0.023728282280598981 -0.43798020184644493 0 0.011432193992105429 -0.44462200732167467 0 0.01779212199045099 -0.45571080357091009 0 0.033446276913734967 -0.45792526049492271 0 0.023728282280598981 -0.43798020184644493 0 0.033446276913734967 -0.45792526049492271 0 0.023728282280598981 -0.43798020184644493 0 0.01779212199045099 -0.45571080357091009 0 0.023728282280598981 -0.43798020184644493 0 0.011432193992105429 -0.44462200732167467 0 0.01410030331848921 -0.43483725365991388 0 0.023728282280598981 -0.43798020184644493 0 0.011432193992105429 -0.44462200732167467 0 -0.01027783979290609 -0.4450418277695869 0 0.011432193992105429 -0.44462200732167467 0 0.0031349746952128348 -0.45732154608844711 0 -0.01027783979290609 -0.4450418277695869 0 0.003851027954898749 -0.43172418954792041 0 0.011432193992105429 -0.44462200732167467 0 0.011432193992105429 -0.44462200732167467 0 0.0031349746952128348 -0.45732154608844711 0 0.01779212199045099 -0.45571080357091009 0 -0.00094907817261298132 -0.47112804672216879 0 0.0031349746952128348 -0.45732154608844711 0 0.01026392841378935 -0.46669334269712659 0 0.0031349746952128348 -0.45732154608844711 0 0.01026392841378935 -0.46669334269712659 0 0.01779212199045099 -0.45571080357091009 0 0.01026392841378935 -0.46669334269712659 0 0.01779212199045099 -0.45571080357091009 0 0.024747075647264399 -0.46972246297684461 0 0.033446276913734967 -0.45792526049492271 0 0.01779212199045099 -0.45571080357091009 0 0.024747075647264399 -0.46972246297684461 0 0.024747075647264399 -0.46972246297684461 0 0.019392481307258409 -0.48478566889839131 0 0.043164271546872197 -0.4778703191434 0 0.01026392841378935 -0.46669334269712659 0 0.024747075647264399 -0.46972246297684461 0 0.019392481307258409 -0.48478566889839131 0 0.01026392841378935 -0.46669334269712659 0 0.0053352152350804568 -0.4807791696356124 0 0.019392481307258409 -0.48478566889839131 0 -0.0043176495648967151 -0.48070428616945038 0 -0.00094907817261298132 -0.47112804672216879 0 0.0053352152350804568 -0.4807791696356124 0 -0.00094907817261298132 -0.47112804672216879 0 0.01026392841378935 -0.46669334269712659 0 0.0053352152350804568 -0.4807791696356124 0 -0.0023310323066341181 -0.5 0 -0.0043793089323552817 -0.49170101865338262 0 0.019392481307258409 -0.48478566889839131 0 -0.0043793089323552817 -0.49170101865338262 0 0.019392481307258409 -0.48478566889839131 0 -0.0043793089323552817 -0.49170101865338262 0 0.0053352152350804568 -0.4807791696356124 0 0.019392481307258409 -0.48478566889839131 0 -0.0023310323066341181 -0.5 0 0.019392481307258409 -0.48478566889839131 0 0.026698753392940699 -0.5 0 0.019392481307258409 -0.48478566889839131 0 0.026698753392940699 -0.5 0 0.035353585390671842 -0.48974665193930511 0 0.035353585390671842 -0.48974665193930511 0 0.043164271546872197 -0.4778703191434 0 0.052158835315616027 -0.49633061971542908 0 0.026698753392940699 -0.5 0 0.055728539092515517 -0.5 0 0.052158835315616027 -0.49633061971542908 0 0.026698753392940699 -0.5 0 0.035353585390671842 -0.48974665193930511 0 0.052158835315616027 -0.49633061971542908 0 0.019392481307258409 -0.48478566889839131 0 0.035353585390671842 -0.48974665193930511 0 0.043164271546872197 -0.4778703191434 0 0.019392481307258409 -0.48478566889839131 0 0.043164271546872197 -0.4778703191434 0 0.069113753880103546 -0.47032146630200872 0 0.052594011880735161 -0.46258963849414558 0 0.043164271546872197 -0.4778703191434 0 0.069113753880103546 -0.47032146630200872 0 0.043164271546872197 -0.4778703191434 0 0.057596711449277201 -0.48334309492942701 0 0.069113753880103546 -0.47032146630200872 0 0.043164271546872197 -0.4778703191434 0 0.043164271546872197 -0.4778703191434 0 0.057596711449277201 -0.48334309492942701 0 0.052158835315616027 -0.49633061971542908 0 0.065949985054517032 -0.48884997455687013 0 0.057596711449277201 -0.48334309492942701 0 0.052158835315616027 -0.49633061971542908 0 0.043164271546872197 -0.4778703191434 0 0.052158835315616027 -0.49633061971542908 0 0.065949985054517032 -0.48884997455687013 0 0.055728539092515517 -0.5 0 0.052158835315616027 -0.49633061971542908 0 0.091646396761647708 -0.28947790237370968 0 0.07071546022358817 -0.28620470259943642 0 0.079999995207784586 -0.26983589460815821 0 0.091646396761647708 -0.28947790237370968 0 0.072783535289555654 -0.30157633939854622 0 0.07071546022358817 -0.28620470259943642 0 0.091646396761647708 -0.28947790237370968 0 0.087363613427391865 -0.30807629250996549 0 0.072783535289555654 -0.30157633939854622 0 0.072783535289555654 -0.30157633939854622 0 0.073259594084162577 -0.32259772896999273 0 0.056038135353808333 -0.31320409925325249 0 0.087363613427391865 -0.30807629250996549 0 0.072783535289555654 -0.30157633939854622 0 0.073259594084162577 -0.32259772896999273 0 0.072783535289555654 -0.30157633939854622 0 0.07071546022358817 -0.28620470259943642 0 0.04944647540011983 -0.29680206833493911 0 0.07071546022358817 -0.28620470259943642 0 0.079999995207784586 -0.26983589460815821 0 0.059700898458833078 -0.27333130828182889 0 0.06835359365392131 -0.25019388684260668 0 0.079999995207784586 -0.26983589460815821 0 0.08421140423371333 -0.243891226620808 0 0.06835359365392131 -0.25019388684260668 0 0.079999995207784586 -0.26983589460815821 0 0.06835359365392131 -0.25019388684260668 0 0.079999995207784586 -0.26983589460815821 0 0.059700898458833078 -0.27333130828182889 0 0.079999995207784586 -0.26983589460815821 0 0.097662046653794854 -0.25561444261418242 0 0.08421140423371333 -0.243891226620808 0 0.079999995207784586 -0.26983589460815821 0 0.1034904733698796 -0.27103876000237981 0 0.097662046653794854 -0.25561444261418242 0 0.091646396761647708 -0.28947790237370968 0 0.079999995207784586 -0.26983589460815821 0 0.091646396761647708 -0.28947790237370968 0 0.079999995207784586 -0.26983589460815821 0 0.1034904733698796 -0.27103876000237981 0 0.1034904733698796 -0.27103876000237981 0 0.097662046653794854 -0.25561444261418242 0 0.1147239364606354 -0.25215539330366038 0 0.13687529418603939 -0.26162068250561471 0 0.1147239364606354 -0.25215539330366038 0 0.1223190960555403 -0.2394332616338683 0 0.1034904733698796 -0.27103876000237981 0 0.1147239364606354 -0.25215539330366038 0 0.12122917553908071 -0.27280048239714111 0 0.13687529418603939 -0.26162068250561471 0 0.1147239364606354 -0.25215539330366038 0 0.12122917553908071 -0.27280048239714111 0 0.1034904733698796 -0.27103876000237981 0 0.12122917553908071 -0.27280048239714111 0 0.11361649143026541 -0.29050419490534962 0 0.13743968224858391 -0.28868338126870119 0 0.12122917553908071 -0.27280048239714111 0 0.11361649143026541 -0.29050419490534962 0 0.091646396761647708 -0.28947790237370968 0 0.11361649143026541 -0.29050419490534962 0 0.10329279831551071 -0.3091199101392611 0 0.091646396761647708 -0.28947790237370968 0 0.1034904733698796 -0.27103876000237981 0 0.11361649143026541 -0.29050419490534962 0 0.091646396761647708 -0.28947790237370968 0 0.10329279831551071 -0.3091199101392611 0 0.091646396761647708 -0.28947790237370968 0 0.087363613427391865 -0.30807629250996549 0 0.10329279831551071 -0.3091199101392611 0 0.11361649143026541 -0.29050419490534962 0 0.10329279831551071 -0.3091199101392611 0 0.1207194796176513 -0.31206082339016011 0 0.13743968224858391 -0.28868338126870119 0 0.11361649143026541 -0.29050419490534962 0 0.1207194796176513 -0.31206082339016011 0 0.10329279831551071 -0.3091199101392611 0 0.11030782598785099 -0.32334328523235578 0 0.1149391998693738 -0.32876191790481257 0 0.10329279831551071 -0.3091199101392611 0 0.1207194796176513 -0.31206082339016011 0 0.1149391998693738 -0.32876191790481257 0 0.127277047630593 -0.32368123984794023 0 0.1207194796176513 -0.31206082339016011 0 0.1149391998693738 -0.32876191790481257 0 0.1252730154641265 -0.33501756179834041 0 0.127277047630593 -0.32368123984794023 0 0.1149391998693738 -0.32876191790481257 0 0.11030782598785099 -0.32334328523235578 0 0.1149391998693738 -0.32876191790481257 0 0.1071562875265276 -0.34088406714172798 0 0.1252730154641265 -0.33501756179834041 0 0.1149391998693738 -0.32876191790481257 0 0.1203073559828662 -0.34481831064573482 0 0.1149391998693738 -0.32876191790481257 0 0.1071562875265276 -0.34088406714172798 0 0.1203073559828662 -0.34481831064573482 0 0.11030782598785099 -0.32334328523235578 0 0.1071562875265276 -0.34088406714172798 0 0.088168702518997374 -0.33920446067117932 0 0.11030782598785099 -0.32334328523235578 0 0.088168702518997374 -0.33920446067117932 0 0.11030782598785099 -0.32334328523235578 0 0.092685396428672781 -0.32103820683708328 0 0.088168702518997374 -0.33920446067117932 0 0.10329279831551071 -0.3091199101392611 0 0.11030782598785099 -0.32334328523235578 0 0.092685396428672781 -0.32103820683708328 0 0.087363613427391865 -0.30807629250996549 0 0.10329279831551071 -0.3091199101392611 0 0.092685396428672781 -0.32103820683708328 0 0.10329279831551071 -0.3091199101392611 0 0.1149391998693738 -0.32876191790481257 0 0.1245186505824013 -0.36113750934922573 0 0.111761677400382 -0.35565256239397869 0 0.1080928822255358 -0.3703790814713866 0 0.12672469353237761 -0.38193719477194499 0 0.1245186505824013 -0.36113750934922573 0 0.1080928822255358 -0.3703790814713866 0 0.1245186505824013 -0.36113750934922573 0 0.111761677400382 -0.35565256239397869 0 0.1203073559828662 -0.34481831064573482 0 0.1071562875265276 -0.34088406714172798 0 0.111761677400382 -0.35565256239397869 0 0.1203073559828662 -0.34481831064573482 0 0.1071562875265276 -0.34088406714172798 0 0.09828664694928807 -0.35383226801130691 0 0.088168702518997374 -0.33920446067117932 0 0.1071562875265276 -0.34088406714172798 0 0.111761677400382 -0.35565256239397869 0 0.09828664694928807 -0.35383226801130691 0 0.097085641119374302 -0.38571424072610178 0 0.1080928822255358 -0.3703790814713866 0 0.085574671404253372 -0.36606529366265911 0 0.111761677400382 -0.35565256239397869 0 0.09828664694928807 -0.35383226801130691 0 0.1080928822255358 -0.3703790814713866 0 0.09828664694928807 -0.35383226801130691 0 0.1080928822255358 -0.3703790814713866 0 0.085574671404253372 -0.36606529366265911 0 0.085574671404253372 -0.36606529366265911 0 0.066029579050143783 -0.35506563611000291 0 0.088168702518997374 -0.33920446067117932 0 0.09828664694928807 -0.35383226801130691 0 0.085574671404253372 -0.36606529366265911 0 0.088168702518997374 -0.33920446067117932 0 0.066029579050143783 -0.35506563611000291 0 0.088168702518997374 -0.33920446067117932 0 0.064781398010314309 -0.37536455347105108 0 0.085574671404253372 -0.36606529366265911 0 0.066029579050143783 -0.35506563611000291 0 0.066029579050143783 -0.35506563611000291 0 0.088168702518997374 -0.33920446067117932 0 0.073259594084162577 -0.32259772896999273 0 0.066029579050143783 -0.35506563611000291 0 0.073259594084162577 -0.32259772896999273 0 0.048222299164917798 -0.333319266554439 0 0.092685396428672781 -0.32103820683708328 0 0.088168702518997374 -0.33920446067117932 0 0.073259594084162577 -0.32259772896999273 0 0.087363613427391865 -0.30807629250996549 0 0.092685396428672781 -0.32103820683708328 0 0.073259594084162577 -0.32259772896999273 0 0.073259594084162577 -0.32259772896999273 0 0.056038135353808333 -0.31320409925325249 0 0.048222299164917798 -0.333319266554439 0 0.056038135353808333 -0.31320409925325249 0 0.048222299164917798 -0.333319266554439 0 0.036478772830285791 -0.31172509300834528 0 0.048222299164917798 -0.333319266554439 0 0.033610930591278822 -0.35000849021355163 0 0.023331405601267931 -0.32909016887827719 0 0.048222299164917798 -0.333319266554439 0 0.023331405601267931 -0.32909016887827719 0 0.036478772830285791 -0.31172509300834528 0 0.066029579050143783 -0.35506563611000291 0 0.048355778033110031 -0.35315995845717169 0 0.043890455581289831 -0.3709268115488259 0 0.066029579050143783 -0.35506563611000291 0 0.043890455581289831 -0.3709268115488259 0 0.064781398010314309 -0.37536455347105108 0 0.066029579050143783 -0.35506563611000291 0 0.043890455581289831 -0.3709268115488259 0 0.066029579050143783 -0.35506563611000291 0 0.048222299164917798 -0.333319266554439 0 0.048355778033110031 -0.35315995845717169 0 0.048222299164917798 -0.333319266554439 0 0.048355778033110031 -0.35315995845717169 0 0.033610930591278822 -0.35000849021355163 0 0.048355778033110031 -0.35315995845717169 0 0.033610930591278822 -0.35000849021355163 0 0.043890455581289831 -0.3709268115488259 0 0.033610930591278822 -0.35000849021355163 0 0.03286340713970079 -0.36889202113574671 0 0.043890455581289831 -0.3709268115488259 0 0.033610930591278822 -0.35000849021355163 0 0.043890455581289831 -0.3709268115488259 0 0.030780854092194759 -0.38031894893150719 0 0.03286340713970079 -0.36889202113574671 0 0.043890455581289831 -0.3709268115488259 0 0.033610930591278822 -0.35000849021355163 0 0.03286340713970079 -0.36889202113574671 0 0.022072978528308879 -0.36937310690127451 0 0.030780854092194759 -0.38031894893150719 0 0.03286340713970079 -0.36889202113574671 0 0.022072978528308879 -0.36937310690127451 0 0.033610930591278822 -0.35000849021355163 0 0.022072978528308879 -0.36937310690127451 0 0.014393680356963701 -0.35536411395587292 0 0.033610930591278822 -0.35000849021355163 0 0.014393680356963701 -0.35536411395587292 0 0.0105762414372169 -0.3395135522035268 0 -0.00014080085946228561 -0.35082738964002957 0 0.014393680356963701 -0.35536411395587292 0 0.0105762414372169 -0.3395135522035268 0 -0.00014080085946228561 -0.35082738964002957 0 0.014393680356963701 -0.35536411395587292 0 0.0058490520874761691 -0.36709803082098191 0 0.022072978528308879 -0.36937310690127451 0 0.014393680356963701 -0.35536411395587292 0 0.0058490520874761691 -0.36709803082098191 0 0.022072978528308879 -0.36937310690127451 0 0.0058490520874761691 -0.36709803082098191 0 0.0132535835722172 -0.37610527220974688 0 0.022072978528308879 -0.36937310690127451 0 0.0058490520874761691 -0.36709803082098191 0 -0.0078283346885702904 -0.37476262999778609 0 0.0132535835722172 -0.37610527220974688 0 0.0058490520874761691 -0.36709803082098191 0 0.023331405601267931 -0.32909016887827719 0 0.013051880611257029 -0.30817184754300292 0 0.023331405601267931 -0.32909016887827719 0 0.013051880611257029 -0.30817184754300292 0 0.036478772830285791 -0.31172509300834528 0 0.033610930591278822 -0.35000849021355163 0 0.023331405601267931 -0.32909016887827719 0 0.0105762414372169 -0.3395135522035268 0 0.033610930591278822 -0.35000849021355163 0 0.023331405601267931 -0.32909016887827719 0 0.023331405601267931 -0.32909016887827719 0 0.0105762414372169 -0.3395135522035268 0 3.5896068887442723e-05 -0.32803491845883598 0 -0.00014080085946228561 -0.35082738964002957 0 0.0105762414372169 -0.3395135522035268 0 3.5896068887442723e-05 -0.32803491845883598 0 -0.0063780240591087903 -0.31078717533589839 0 3.5896068887442723e-05 -0.32803491845883598 0 0.013051880611257029 -0.30817184754300292 0 0.023331405601267931 -0.32909016887827719 0 3.5896068887442723e-05 -0.32803491845883598 0 0.013051880611257029 -0.30817184754300292 0 0.013051880611257029 -0.30817184754300292 0 0.0027723556212477219 -0.28725352620772771 0 0.0027723556212477219 -0.28725352620772771 0 0.026109415510684009 -0.29202779727133188 0 -0.0017476628817073611 -0.27805551369469472 0 0.0027723556212477219 -0.28725352620772771 0 0.01602201902671789 -0.28191194131808539 0 0.013051880611257029 -0.30817184754300292 0 0.0027723556212477219 -0.28725352620772771 0 0.026109415510684009 -0.29202779727133188 0 0.0027723556212477219 -0.28725352620772771 0 0.026109415510684009 -0.29202779727133188 0 0.01602201902671789 -0.28191194131808539 0 -0.0074917523477661804 -0.29461577546968681 0 0.013051880611257029 -0.30817184754300292 0 0.0027723556212477219 -0.28725352620772771 0 -0.0017476628817073611 -0.27805551369469472 0 0.0027723556212477219 -0.28725352620772771 0 0.026109415510684009 -0.29202779727133188 0 0.01602201902671789 -0.28191194131808539 0 0.036314123194761641 -0.27872041929058161 0 0.013051880611257029 -0.30817184754300292 0 0.026109415510684009 -0.29202779727133188 0 0.036478772830285791 -0.31172509300834528 0 0.026109415510684009 -0.29202779727133188 0 0.036478772830285791 -0.31172509300834528 0 0.04944647540011983 -0.29680206833493911 0 0.026109415510684009 -0.29202779727133188 0 0.04944647540011983 -0.29680206833493911 0 0.036314123194761641 -0.27872041929058161 0 0.026109415510684009 -0.29202779727133188 0 0.04944647540011983 -0.29680206833493911 0 0.04944647540011983 -0.29680206833493911 0 0.059700898458833078 -0.27333130828182889 0 0.036314123194761641 -0.27872041929058161 0 0.07071546022358817 -0.28620470259943642 0 0.04944647540011983 -0.29680206833493911 0 0.059700898458833078 -0.27333130828182889 0 0.072783535289555654 -0.30157633939854622 0 0.04944647540011983 -0.29680206833493911 0 0.056038135353808333 -0.31320409925325249 0 0.036478772830285791 -0.31172509300834528 0 0.04944647540011983 -0.29680206833493911 0 0.072783535289555654 -0.30157633939854622 0 0.056038135353808333 -0.31320409925325249 0 0.04944647540011983 -0.29680206833493911 0 0.06835359365392131 -0.25019388684260668 0 0.044986508142045613 -0.25948109579330381 0 0.047362788675733028 -0.24199119006041811 0 0.06835359365392131 -0.25019388684260668 0 0.059700898458833078 -0.27333130828182889 0 0.044986508142045613 -0.25948109579330381 0 0.06835359365392131 -0.25019388684260668 0 0.044986508142045613 -0.25948109579330381 0 0.059700898458833078 -0.27333130828182889 0 0.036314123194761641 -0.27872041929058161 0 0.044986508142045613 -0.25948109579330381 0 0.036314123194761641 -0.27872041929058161 0 0.044986508142045613 -0.25948109579330381 0 0.02161942263016943 -0.26876830474400021 0 0.044986508142045613 -0.25948109579330381 0 0.02161942263016943 -0.26876830474400021 0 0.044986508142045613 -0.25948109579330381 0 0.029973277209287209 -0.25054958921230208 0 0.02161942263016943 -0.26876830474400021 0 0.044986508142045613 -0.25948109579330381 0 0.029973277209287209 -0.25054958921230208 0 0.047362788675733028 -0.24199119006041811 0 0.029973277209287209 -0.25054958921230208 0 0.015960739131678031 -0.25406337006458851 0 0.02161942263016943 -0.26876830474400021 0 0.01602201902671789 -0.28191194131808539 0 0.036314123194761641 -0.27872041929058161 0 0.02161942263016943 -0.26876830474400021 0 -0.0017476628817073611 -0.27805551369469472 0 0.01602201902671789 -0.28191194131808539 0 0.02161942263016943 -0.26876830474400021 0 -0.0017476628817073611 -0.27805551369469472 0 0.02161942263016943 -0.26876830474400021 0 -0.0017476628817073611 -0.27805551369469472 0 0.02161942263016943 -0.26876830474400021 0 0.0057386521092319797 -0.26220041049146298 0 0.015960739131678031 -0.25406337006458851 0 0.02161942263016943 -0.26876830474400021 0 0.0057386521092319797 -0.26220041049146298 0 0.015960739131678031 -0.25406337006458851 0 0.0057386521092319797 -0.26220041049146298 0 0.0025328853753160741 -0.24958102673793139 0 0.0010854142569982001 -0.23807309260292489 0 0.010575476039053681 -0.22730954243123891 0 0.017210747296828609 -0.24036453645492739 0 0.0010854142569982001 -0.23807309260292489 0 0.0025328853753160741 -0.24958102673793139 0 0.017210747296828609 -0.24036453645492739 0 0.015960739131678031 -0.25406337006458851 0 0.0025328853753160741 -0.24958102673793139 0 0.017210747296828609 -0.24036453645492739 0 -0.0061584899570064598 -0.22962027277065361 0 0.0010854142569982001 -0.23807309260292489 0 0.010575476039053681 -0.22730954243123891 0 -0.0061584899570064598 -0.22962027277065361 0 0.010575476039053681 -0.22730954243123891 0 0.0064165675551885711 -0.21575046092143421 0 -0.0061584899570064598 -0.22962027277065361 0 0.0064165675551885711 -0.21575046092143421 0 0.010575476039053681 -0.22730954243123891 0 0.0064165675551885711 -0.21575046092143421 0 0.021509429760601551 -0.21557394742371069 0 0.010575476039053681 -0.22730954243123891 0 0.0064165675551885711 -0.21575046092143421 0 0.010575476039053681 -0.22730954243123891 0 0.02225812238200572 -0.22838936745028471 0 0.017210747296828609 -0.24036453645492739 0 0.010575476039053681 -0.22730954243123891 0 0.02225812238200572 -0.22838936745028471 0 0.021509429760601551 -0.21557394742371069 0 0.02225812238200572 -0.22838936745028471 0 0.029479073121619459 -0.22118232130399371 0 0.021509429760601551 -0.21557394742371069 0 0.02225812238200572 -0.22838936745028471 0 0.029479073121619459 -0.22118232130399371 0 0.031866256870133697 -0.23515517363185631 0 0.029973277209287209 -0.25054958921230208 0 0.017210747296828609 -0.24036453645492739 0 0.031866256870133697 -0.23515517363185631 0 0.02225812238200572 -0.22838936745028471 0 0.017210747296828609 -0.24036453645492739 0 0.031866256870133697 -0.23515517363185631 0 0.029973277209287209 -0.25054958921230208 0 0.015960739131678031 -0.25406337006458851 0 0.017210747296828609 -0.24036453645492739 0 -0.0015622250741301779 -0.1935745667631632 0 0.01896638504685547 -0.20190848785827681 0 0.0091962193441852118 -0.18107109871456811 0 -0.0015622250741301779 -0.1935745667631632 0 0.0064165675551885711 -0.21575046092143421 0 0.01896638504685547 -0.20190848785827681 0 -0.0015622250741301779 -0.1935745667631632 0 0.0064165675551885711 -0.21575046092143421 0 0.0064165675551885711 -0.21575046092143421 0 0.01896638504685547 -0.20190848785827681 0 0.0064165675551885711 -0.21575046092143421 0 0.021509429760601551 -0.21557394742371069 0 0.01896638504685547 -0.20190848785827681 0 0.029479073121619459 -0.22118232130399371 0 0.021509429760601551 -0.21557394742371069 0 0.033558692489570878 -0.21195100443687931 0 0.021509429760601551 -0.21557394742371069 0 0.029251690937081031 -0.20258635003767089 0 0.033558692489570878 -0.21195100443687931 0 0.021509429760601551 -0.21557394742371069 0 0.01896638504685547 -0.20190848785827681 0 0.029251690937081031 -0.20258635003767089 0 0.01896638504685547 -0.20190848785827681 0 0.031516202538524517 -0.1880665147951214 0 0.0091962193441852118 -0.18107109871456811 0 0.01896638504685547 -0.20190848785827681 0 0.029251690937081031 -0.20258635003767089 0 0.031516202538524517 -0.1880665147951214 0 0.01896638504685547 -0.20190848785827681 0 0.031516202538524517 -0.1880665147951214 0 0.043838458457815248 -0.18986676967386279 0 0.039506267971797952 -0.20154200132731501 0 0.055741541871671067 -0.19352675789948551 0 0.043838458457815248 -0.18986676967386279 0 0.031516202538524517 -0.1880665147951214 0 0.039506267971797952 -0.20154200132731501 0 0.031516202538524517 -0.1880665147951214 0 0.039506267971797952 -0.20154200132731501 0 0.029251690937081031 -0.20258635003767089 0 0.031516202538524517 -0.1880665147951214 0 0.039506267971797952 -0.20154200132731501 0 0.039506267971797952 -0.20154200132731501 0 0.033558692489570878 -0.21195100443687931 0 0.047496333405074677 -0.2150174878595065 0 0.039506267971797952 -0.20154200132731501 0 0.047496333405074677 -0.2150174878595065 0 0.029251690937081031 -0.20258635003767089 0 0.039506267971797952 -0.20154200132731501 0 0.033558692489570878 -0.21195100443687931 0 0.033558692489570878 -0.21195100443687931 0 0.047496333405074677 -0.2150174878595065 0 0.033558692489570878 -0.21195100443687931 0 0.047496333405074677 -0.2150174878595065 0 0.039554961726260877 -0.22474601638733641 0 0.039506267971797952 -0.20154200132731501 0 0.047496333405074677 -0.2150174878595065 0 0.05523956109653505 -0.20714630445374671 0 0.047496333405074677 -0.2150174878595065 0 0.05523956109653505 -0.20714630445374671 0 0.064206587222380762 -0.21869398638814641 0 0.047496333405074677 -0.2150174878595065 0 0.064206587222380762 -0.21869398638814641 0 0.039506267971797952 -0.20154200132731501 0 0.05523956109653505 -0.20714630445374671 0 0.055741541871671067 -0.19352675789948551 0 0.05523956109653505 -0.20714630445374671 0 0.055741541871671067 -0.19352675789948551 0 0.069247075011750078 -0.20695128879428309 0 0.055741541871671067 -0.19352675789948551 0 0.069247075011750078 -0.20695128879428309 0 0.029973277209287209 -0.25054958921230208 0 0.031866256870133697 -0.23515517363185631 0 0.047362788675733028 -0.24199119006041811 0 0.031866256870133697 -0.23515517363185631 0 0.039554961726260877 -0.22474601638733641 0 0.047362788675733028 -0.24199119006041811 0 0.029479073121619459 -0.22118232130399371 0 0.031866256870133697 -0.23515517363185631 0 0.039554961726260877 -0.22474601638733641 0 0.029479073121619459 -0.22118232130399371 0 0.033558692489570878 -0.21195100443687931 0 0.039554961726260877 -0.22474601638733641 0 0.047496333405074677 -0.2150174878595065 0 0.05536207860111314 -0.2282833045590259 0 0.064206587222380762 -0.21869398638814641 0 0.05536207860111314 -0.2282833045590259 0 0.063311866646695691 -0.24149928944984211 0 0.064206587222380762 -0.21869398638814641 0 0.039554961726260877 -0.22474601638733641 0 0.05536207860111314 -0.2282833045590259 0 0.047362788675733028 -0.24199119006041811 0 0.047496333405074677 -0.2150174878595065 0 0.039554961726260877 -0.22474601638733641 0 0.05536207860111314 -0.2282833045590259 0 0.047496333405074677 -0.2150174878595065 0 0.05536207860111314 -0.2282833045590259 0 0.05536207860111314 -0.2282833045590259 0 0.063311866646695691 -0.24149928944984211 0 0.06835359365392131 -0.25019388684260668 0 0.047362788675733028 -0.24199119006041811 0 0.063311866646695691 -0.24149928944984211 0 0.05536207860111314 -0.2282833045590259 0 0.047362788675733028 -0.24199119006041811 0 0.063311866646695691 -0.24149928944984211 0 0.06835359365392131 -0.25019388684260668 0 0.08421140423371333 -0.243891226620808 0 0.06835359365392131 -0.25019388684260668 0 0.063311866646695691 -0.24149928944984211 0 0.063311866646695691 -0.24149928944984211 0 0.074219814037010917 -0.24224782663387789 0 0.081086434463253185 -0.23335707181355411 0 0.06835359365392131 -0.25019388684260668 0 0.063311866646695691 -0.24149928944984211 0 0.074219814037010917 -0.24224782663387789 0 0.06835359365392131 -0.25019388684260668 0 0.074219814037010917 -0.24224782663387789 0 0.08421140423371333 -0.243891226620808 0 0.08421140423371333 -0.243891226620808 0 0.081086434463253185 -0.23335707181355411 0 0.10006921481350529 -0.2375885663990091 0 0.08421140423371333 -0.243891226620808 0 0.10006921481350529 -0.2375885663990091 0 0.074219814037010917 -0.24224782663387789 0 0.08421140423371333 -0.243891226620808 0 0.081086434463253185 -0.23335707181355411 0 0.081086434463253185 -0.23335707181355411 0 0.085851572697872774 -0.2234561975504171 0 0.10006921481350529 -0.2375885663990091 0 0.085851572697872774 -0.2234561975504171 0 0.08275260815182911 -0.2203758196890806 0 0.098293187803831117 -0.21887499219370271 0 0.085851572697872774 -0.2234561975504171 0 0.10006921481350529 -0.2375885663990091 0 0.081086434463253185 -0.23335707181355411 0 0.085851572697872774 -0.2234561975504171 0 0.080916841039686133 -0.2223704849167896 0 0.085851572697872774 -0.2234561975504171 0 0.080916841039686133 -0.2223704849167896 0 0.085851572697872774 -0.2234561975504171 0 0.08275260815182911 -0.2203758196890806 0 0.080916841039686133 -0.2223704849167896 0 0.085851572697872774 -0.2234561975504171 0 0.08275260815182911 -0.2203758196890806 0 0.08275260815182911 -0.2203758196890806 0 0.080916841039686133 -0.2223704849167896 0 0.063311866646695691 -0.24149928944984211 0 0.080916841039686133 -0.2223704849167896 0 0.063311866646695691 -0.24149928944984211 0 0.080916841039686133 -0.2223704849167896 0 0.064206587222380762 -0.21869398638814641 0 0.080916841039686133 -0.2223704849167896 0 0.064206587222380762 -0.21869398638814641 0 0.063311866646695691 -0.24149928944984211 0 0.081086434463253185 -0.23335707181355411 0 0.080916841039686133 -0.2223704849167896 0 0.080916841039686133 -0.2223704849167896 0 0.064206587222380762 -0.21869398638814641 0 0.069247075011750078 -0.20695128879428309 0 0.05523956109653505 -0.20714630445374671 0 0.064206587222380762 -0.21869398638814641 0 0.069247075011750078 -0.20695128879428309 0 0.08275260815182911 -0.2203758196890806 0 0.069247075011750078 -0.20695128879428309 0 0.08275260815182911 -0.2203758196890806 0 0.080916841039686133 -0.2223704849167896 0 0.069247075011750078 -0.20695128879428309 0 0.055741541871671067 -0.19352675789948551 0 0.069247075011750078 -0.20695128879428309 0 0.070887819862862286 -0.1914088031202833 0 0.069247075011750078 -0.20695128879428309 0 0.070887819862862286 -0.1914088031202833 0 0.082832551139222166 -0.19914513048671481 0 0.070887819862862286 -0.1914088031202833 0 0.082832551139222166 -0.19914513048671481 0 0.081821336385090343 -0.18186245165470949 0 0.082832551139222166 -0.19914513048671481 0 0.097084301305641635 -0.20480362112478781 0 0.095405874932467813 -0.18887779734800569 0 0.082832551139222166 -0.19914513048671481 0 0.095405874932467813 -0.18887779734800569 0 0.081821336385090343 -0.18186245165470949 0 0.08275260815182911 -0.2203758196890806 0 0.082832551139222166 -0.19914513048671481 0 0.097084301305641635 -0.20480362112478781 0 0.08275260815182911 -0.2203758196890806 0 0.069247075011750078 -0.20695128879428309 0 0.082832551139222166 -0.19914513048671481 0 0.08275260815182911 -0.2203758196890806 0 0.097084301305641635 -0.20480362112478781 0 0.098293187803831117 -0.21887499219370271 0 0.08275260815182911 -0.2203758196890806 0 0.097084301305641635 -0.20480362112478781 0 0.097084301305641635 -0.20480362112478781 0 0.1146962174531268 -0.21673223195775559 0 0.098293187803831117 -0.21887499219370271 0 0.097084301305641635 -0.20480362112478781 0 0.095405874932467813 -0.18887779734800569 0 0.11141599445945349 -0.1892314225604943 0 0.097084301305641635 -0.20480362112478781 0 0.11141599445945349 -0.1892314225604943 0 0.097084301305641635 -0.20480362112478781 0 0.1210323504124224 -0.2015702574875764 0 0.11141599445945349 -0.1892314225604943 0 0.1210323504124224 -0.2015702574875764 0 0.11141599445945349 -0.1892314225604943 0 0.13523084618428721 -0.18276855246186111 0 0.1210323504124224 -0.2015702574875764 0 0.1146962174531268 -0.21673223195775559 0 0.13583218450739579 -0.2116030352811932 0 0.097084301305641635 -0.20480362112478781 0 0.1210323504124224 -0.2015702574875764 0 0.1146962174531268 -0.21673223195775559 0 0.1110812394106853 -0.22900709064647229 0 0.12594488917549271 -0.2231145762792166 0 0.1363109061234978 -0.23455798374252809 0 0.1110812394106853 -0.22900709064647229 0 0.1223190960555403 -0.2394332616338683 0 0.1363109061234978 -0.23455798374252809 0 0.1110812394106853 -0.22900709064647229 0 0.1363109061234978 -0.23455798374252809 0 0.1146962174531268 -0.21673223195775559 0 0.1110812394106853 -0.22900709064647229 0 0.12594488917549271 -0.2231145762792166 0 0.1110812394106853 -0.22900709064647229 0 0.1223190960555403 -0.2394332616338683 0 0.1084330749156753 -0.23426436422737831 0 0.1147239364606354 -0.25215539330366038 0 0.1223190960555403 -0.2394332616338683 0 0.1084330749156753 -0.23426436422737831 0 0.097662046653794854 -0.25561444261418242 0 0.1147239364606354 -0.25215539330366038 0 0.10006921481350529 -0.2375885663990091 0 0.1147239364606354 -0.25215539330366038 0 0.10006921481350529 -0.2375885663990091 0 0.1084330749156753 -0.23426436422737831 0 0.097662046653794854 -0.25561444261418242 0 0.08421140423371333 -0.243891226620808 0 0.10006921481350529 -0.2375885663990091 0 0.10006921481350529 -0.2375885663990091 0 0.1084330749156753 -0.23426436422737831 0 0.1147239364606354 -0.25215539330366038 0 0.10006921481350529 -0.2375885663990091 0 0.085851572697872774 -0.2234561975504171 0 0.1110812394106853 -0.22900709064647229 0 0.1146962174531268 -0.21673223195775559 0 0.1110812394106853 -0.22900709064647229 0 0.098293187803831117 -0.21887499219370271 0 0.085851572697872774 -0.2234561975504171 0 0.1110812394106853 -0.22900709064647229 0 0.098293187803831117 -0.21887499219370271 0 0.085851572697872774 -0.2234561975504171 0 0.1110812394106853 -0.22900709064647229 0 0.10006921481350529 -0.2375885663990091 0 0.1110812394106853 -0.22900709064647229 0 0.10006921481350529 -0.2375885663990091 0 0.1084330749156753 -0.23426436422737831 0 0.1040552578412003 -0.15282191894301261 0 0.1005807427949069 -0.13366374688330029 0 0.11727103389215909 -0.1361484369810822 0 0.1005807427949069 -0.13366374688330029 0 0.11727103389215909 -0.1361484369810822 0 0.1051359327507693 -0.1227177542784853 0 0.1040552578412003 -0.15282191894301261 0 0.1005807427949069 -0.13366374688330029 0 0.082362828069140165 -0.1319846138898183 0 0.11727103389215909 -0.1361484369810822 0 0.1154331983948798 -0.1174886032934183 0 0.13404900744611239 -0.12609877526333699 0 0.11727103389215909 -0.1361484369810822 0 0.1051359327507693 -0.1227177542784853 0 0.1154331983948798 -0.1174886032934183 0 0.1040552578412003 -0.15282191894301261 0 0.11727103389215909 -0.1361484369810822 0 0.1232701832726428 -0.15427141090171109 0 0.11727103389215909 -0.1361484369810822 0 0.1232701832726428 -0.15427141090171109 0 0.13444198148756639 -0.1449420832838656 0 0.1040552578412003 -0.15282191894301261 0 0.12574768761326591 -0.17365922399620121 0 0.1040552578412003 -0.15282191894301261 0 0.1002282447692335 -0.17458527697826651 0 0.12574768761326591 -0.17365922399620121 0 0.1040552578412003 -0.15282191894301261 0 0.1232701832726428 -0.15427141090171109 0 0.12574768761326591 -0.17365922399620121 0 0.11141599445945349 -0.1892314225604943 0 0.1002282447692335 -0.17458527697826651 0 0.12574768761326591 -0.17365922399620121 0 0.11141599445945349 -0.1892314225604943 0 0.12574768761326591 -0.17365922399620121 0 0.13523084618428721 -0.18276855246186111 0 0.11141599445945349 -0.1892314225604943 0 0.12574768761326591 -0.17365922399620121 0 0.095405874932467813 -0.18887779734800569 0 0.11141599445945349 -0.1892314225604943 0 0.1002282447692335 -0.17458527697826651 0 0.1040552578412003 -0.15282191894301261 0 0.1002282447692335 -0.17458527697826651 0 0.08311303581058499 -0.16124853818171381 0 0.095405874932467813 -0.18887779734800569 0 0.1002282447692335 -0.17458527697826651 0 0.081821336385090343 -0.18186245165470949 0 0.1002282447692335 -0.17458527697826651 0 0.08311303581058499 -0.16124853818171381 0 0.081821336385090343 -0.18186245165470949 0 0.08311303581058499 -0.16124853818171381 0 0.081821336385090343 -0.18186245165470949 0 0.066780308608768796 -0.17493307235476979 0 0.070887819862862286 -0.1914088031202833 0 0.081821336385090343 -0.18186245165470949 0 0.066780308608768796 -0.17493307235476979 0 0.055741541871671067 -0.19352675789948551 0 0.070887819862862286 -0.1914088031202833 0 0.066780308608768796 -0.17493307235476979 0 0.08311303581058499 -0.16124853818171381 0 0.066780308608768796 -0.17493307235476979 0 0.065413952892267702 -0.150678580858252 0 0.065413952892267702 -0.150678580858252 0 0.082362828069140165 -0.1319846138898183 0 0.08311303581058499 -0.16124853818171381 0 0.065413952892267702 -0.150678580858252 0 0.082362828069140165 -0.1319846138898183 0 0.1040552578412003 -0.15282191894301261 0 0.08311303581058499 -0.16124853818171381 0 0.082362828069140165 -0.1319846138898183 0 0.1040552578412003 -0.15282191894301261 0 0.082362828069140165 -0.1319846138898183 0 0.1005807427949069 -0.13366374688330029 0 0.082362828069140165 -0.1319846138898183 0 0.095577299328253623 -0.1174095529111252 0 0.082362828069140165 -0.1319846138898183 0 0.070308403876621794 -0.13238109852993221 0 0.069837722907261313 -0.1199532536492431 0 0.065413952892267702 -0.150678580858252 0 0.082362828069140165 -0.1319846138898183 0 0.070308403876621794 -0.13238109852993221 0 0.082362828069140165 -0.1319846138898183 0 0.069837722907261313 -0.1199532536492431 0 0.065413952892267702 -0.150678580858252 0 0.070308403876621794 -0.13238109852993221 0 0.06118566078759103 -0.13005342953014129 0 0.070308403876621794 -0.13238109852993221 0 0.06118566078759103 -0.13005342953014129 0 0.069837722907261313 -0.1199532536492431 0 0.065413952892267702 -0.150678580858252 0 0.06118566078759103 -0.13005342953014129 0 0.053245925046226952 -0.14076102386291889 0 0.06118566078759103 -0.13005342953014129 0 0.049352038069647858 -0.1295439288512826 0 0.048525659269531229 -0.11802361343548989 0 0.049352038069647858 -0.1295439288512826 0 0.053245925046226952 -0.14076102386291889 0 0.041700188437408421 -0.13409859591225329 0 0.06118566078759103 -0.13005342953014129 0 0.049352038069647858 -0.1295439288512826 0 0.053245925046226952 -0.14076102386291889 0 0.065413952892267702 -0.150678580858252 0 0.053245925046226952 -0.14076102386291889 0 0.048465077715394989 -0.16937254782668559 0 0.053245925046226952 -0.14076102386291889 0 0.040505841312838547 -0.14468304457988079 0 0.048465077715394989 -0.16937254782668559 0 0.040505841312838547 -0.14468304457988079 0 0.03393783807298914 -0.14093707321474161 0 0.030230252537669321 -0.1566253376229266 0 0.040505841312838547 -0.14468304457988079 0 0.030230252537669321 -0.1566253376229266 0 0.040505841312838547 -0.14468304457988079 0 0.03393783807298914 -0.14093707321474161 0 0.041700188437408421 -0.13409859591225329 0 0.03393783807298914 -0.14093707321474161 0 0.041700188437408421 -0.13409859591225329 0 0.024480650806643651 -0.1375151559245551 0 0.041700188437408421 -0.13409859591225329 0 0.042102756807481732 -0.1247829815156095 0 0.031290738437872938 -0.1201921761368282 0 0.049352038069647858 -0.1295439288512826 0 0.041700188437408421 -0.13409859591225329 0 0.042102756807481732 -0.1247829815156095 0 0.053245925046226952 -0.14076102386291889 0 0.040505841312838547 -0.14468304457988079 0 0.041700188437408421 -0.13409859591225329 0 0.055741541871671067 -0.19352675789948551 0 0.066780308608768796 -0.17493307235476979 0 0.048465077715394989 -0.16937254782668559 0 0.043838458457815248 -0.18986676967386279 0 0.055741541871671067 -0.19352675789948551 0 0.048465077715394989 -0.16937254782668559 0 0.066780308608768796 -0.17493307235476979 0 0.065413952892267702 -0.150678580858252 0 0.048465077715394989 -0.16937254782668559 0 0.065413952892267702 -0.150678580858252 0 0.048465077715394989 -0.16937254782668559 0 0.040505841312838547 -0.14468304457988079 0 0.048465077715394989 -0.16937254782668559 0 0.030230252537669321 -0.1566253376229266 0 0.048465077715394989 -0.16937254782668559 0 0.033338822752702377 -0.1705348433046637 0 0.030230252537669321 -0.1566253376229266 0 0.043838458457815248 -0.18986676967386279 0 0.031516202538524517 -0.1880665147951214 0 0.048465077715394989 -0.16937254782668559 0 0.031516202538524517 -0.1880665147951214 0 0.048465077715394989 -0.16937254782668559 0 0.031516202538524517 -0.1880665147951214 0 0.048465077715394989 -0.16937254782668559 0 0.033338822752702377 -0.1705348433046637 0 0.031516202538524517 -0.1880665147951214 0 0.033338822752702377 -0.1705348433046637 0 0.01995466376250531 -0.16856763066597699 0 0.031516202538524517 -0.1880665147951214 0 0.01995466376250531 -0.16856763066597699 0 0.031516202538524517 -0.1880665147951214 0 0.01995466376250531 -0.16856763066597699 0 0.0091962193441852118 -0.18107109871456811 0 0.01995466376250531 -0.16856763066597699 0 0.030230252537669321 -0.1566253376229266 0 0.008868239412810253 -0.14987004135808221 0 0.033338822752702377 -0.1705348433046637 0 0.01995466376250531 -0.16856763066597699 0 0.030230252537669321 -0.1566253376229266 0 0.01995466376250531 -0.16856763066597699 0 0.030230252537669321 -0.1566253376229266 0 -0.0025999653858941639 -0.16131422913783491 0 0.0067086063528142403 -0.16809244781376179 0 0.008868239412810253 -0.14987004135808221 0 0.01995466376250531 -0.16856763066597699 0 0.008868239412810253 -0.14987004135808221 0 0.01995466376250531 -0.16856763066597699 0 0.0067086063528142403 -0.16809244781376179 0 0.008868239412810253 -0.14987004135808221 0 -0.0084927016390539001 -0.17431231470194719 0 0.0067086063528142403 -0.16809244781376179 0 0.0091962193441852118 -0.18107109871456811 0 0.01995466376250531 -0.16856763066597699 0 0.0091962193441852118 -0.18107109871456811 0 0.01995466376250531 -0.16856763066597699 0 0.0067086063528142403 -0.16809244781376179 0 0.0091962193441852118 -0.18107109871456811 0 -0.0015622250741301779 -0.1935745667631632 0 0.0091962193441852118 -0.18107109871456811 0 0.041700188437408421 -0.13409859591225329 0 0.014197789575412951 -0.12328672932727321 0 0.031290738437872938 -0.1201921761368282 0 0.041700188437408421 -0.13409859591225329 0 0.024480650806643651 -0.1375151559245551 0 0.014197789575412951 -0.12328672932727321 0 0.041700188437408421 -0.13409859591225329 0 0.014197789575412951 -0.12328672932727321 0 0.024480650806643651 -0.1375151559245551 0 0.011332123714495041 -0.13546109466502479 0 0.014197789575412951 -0.12328672932727321 0 0.03393783807298914 -0.14093707321474161 0 0.030230252537669321 -0.1566253376229266 0 0.024480650806643651 -0.1375151559245551 0 0.030230252537669321 -0.1566253376229266 0 0.024480650806643651 -0.1375151559245551 0 0.008868239412810253 -0.14987004135808221 0 0.024480650806643651 -0.1375151559245551 0 0.008868239412810253 -0.14987004135808221 0 0.011332123714495041 -0.13546109466502479 0 -0.00221818493688669 -0.13117245205018849 0 -0.0031786103040098569 -0.14705450477373769 0 0.008868239412810253 -0.14987004135808221 0 -0.0031786103040098569 -0.14705450477373769 0 -0.0025999653858941639 -0.16131422913783491 0 0.008868239412810253 -0.14987004135808221 0 -0.00221818493688669 -0.13117245205018849 0 0.008868239412810253 -0.14987004135808221 0 -0.00221818493688669 -0.13117245205018849 0 0.011332123714495041 -0.13546109466502479 0 0.014197789575412951 -0.12328672932727321 0 -0.00221818493688669 -0.13117245205018849 0 0.008868239412810253 -0.14987004135808221 0 0.011332123714495041 -0.13546109466502479 0 -0.013304609286582791 -0.1124748627422944 0 0.014197789575412951 -0.12328672932727321 0 0.014197789575412951 -0.12328672932727321 0 0.020945276257035669 -0.1055296092587116 0 0.0046245275045138064 -0.1076828264142336 0 -0.013304609286582791 -0.1124748627422944 0 0.014197789575412951 -0.12328672932727321 0 0.0046245275045138064 -0.1076828264142336 0 0.014197789575412951 -0.12328672932727321 0 0.020945276257035669 -0.1055296092587116 0 0.031290738437872938 -0.1201921761368282 0 0.020945276257035669 -0.1055296092587116 0 0.031290738437872938 -0.1201921761368282 0 0.040241467446851142 -0.1026788937802551 0 0.020945276257035669 -0.1055296092587116 0 0.028115865357471449 -0.087896533900266943 0 0.040241467446851142 -0.1026788937802551 0 0.020945276257035669 -0.1055296092587116 0 0.0072012692200917657 -0.09144049599341271 0 0.028115865357471449 -0.087896533900266943 0 -0.0070294542012635762 -0.10327829347153671 0 0.0046245275045138064 -0.1076828264142336 0 0.0072012692200917657 -0.09144049599341271 0 0.020945276257035669 -0.1055296092587116 0 0.0046245275045138064 -0.1076828264142336 0 0.0072012692200917657 -0.09144049599341271 0 0.0072012692200917657 -0.09144049599341271 0 0.0054575408194632406 -0.073720759659108445 0 0.018511759797904249 -0.077210571545524964 0 -0.0056293594721457006 -0.082036805430144924 0 0.0072012692200917657 -0.09144049599341271 0 0.0054575408194632406 -0.073720759659108445 0 0.0054575408194632406 -0.073720759659108445 0 0.018354718881549058 -0.065167425818499949 0 0.003426744450576454 -0.054815297075420773 0 -0.0072319765520409062 -0.068818796064575097 0 0.0054575408194632406 -0.073720759659108445 0 0.003426744450576454 -0.054815297075420773 0 0.0054575408194632406 -0.073720759659108445 0 0.018354718881549058 -0.065167425818499949 0 0.018511759797904249 -0.077210571545524964 0 0.018511759797904249 -0.077210571545524964 0 0.028115865357471449 -0.087896533900266943 0 0.033429404710945708 -0.067827642356336801 0 0.018354718881549058 -0.065167425818499949 0 0.018511759797904249 -0.077210571545524964 0 0.033429404710945708 -0.067827642356336801 0 0.0072012692200917657 -0.09144049599341271 0 0.018511759797904249 -0.077210571545524964 0 0.028115865357471449 -0.087896533900266943 0 0.028115865357471449 -0.087896533900266943 0 0.044094628308957058 -0.087651847290754856 0 0.040241467446851142 -0.1026788937802551 0 0.028115865357471449 -0.087896533900266943 0 0.044094628308957058 -0.087651847290754856 0 0.033429404710945708 -0.067827642356336801 0 0.044094628308957058 -0.087651847290754856 0 0.033429404710945708 -0.067827642356336801 0 0.052580487019044733 -0.06457445167855122 0 0.052580487019044733 -0.06457445167855122 0 0.057640786708643768 -0.07951032993234286 0 0.068682665651441266 -0.069637891440837665 0 0.044094628308957058 -0.087651847290754856 0 0.052580487019044733 -0.06457445167855122 0 0.057640786708643768 -0.07951032993234286 0 0.044094628308957058 -0.087651847290754856 0 0.057640786708643768 -0.07951032993234286 0 0.064045145718632748 -0.088800152685812248 0 0.056223070490067702 -0.1049071233711502 0 0.048525659269531229 -0.11802361343548989 0 0.040241467446851142 -0.1026788937802551 0 0.044094628308957058 -0.087651847290754856 0 0.056223070490067702 -0.1049071233711502 0 0.064045145718632748 -0.088800152685812248 0 0.06118566078759103 -0.13005342953014129 0 0.056223070490067702 -0.1049071233711502 0 0.048525659269531229 -0.11802361343548989 0 0.048525659269531229 -0.11802361343548989 0 0.042102756807481732 -0.1247829815156095 0 0.031290738437872938 -0.1201921761368282 0 0.048525659269531229 -0.11802361343548989 0 0.031290738437872938 -0.1201921761368282 0 0.040241467446851142 -0.1026788937802551 0 0.049352038069647858 -0.1295439288512826 0 0.048525659269531229 -0.11802361343548989 0 0.042102756807481732 -0.1247829815156095 0 0.044094628308957058 -0.087651847290754856 0 0.056223070490067702 -0.1049071233711502 0 0.040241467446851142 -0.1026788937802551 0 0.020415517075116841 0.0076517724901667356 0 0.020207185183206099 -0.010785841930981459 0 0.039787151186370009 -0.0039594854922263374 0 0.020207185183206099 -0.010785841930981459 0 0.0047038114401232534 -0.001040937293712483 0 0.0026421611525163911 -0.019923693291100199 0 0.020415517075116841 0.0076517724901667356 0 0.020207185183206099 -0.010785841930981459 0 0.0047038114401232534 -0.001040937293712483 0 0.020207185183206099 -0.010785841930981459 0 0.0026421611525163911 -0.019923693291100199 0 0.018057611388834851 -0.030223969914345401 0 0.0026421611525163911 -0.019923693291100199 0 0.018057611388834851 -0.030223969914345401 0 0.001114662024295677 -0.034644724797188199 0 0.018057611388834851 -0.030223969914345401 0 0.03214982838215158 -0.036550164909951742 0 0.03396684481877061 -0.021771474300517551 0 0.020207185183206099 -0.010785841930981459 0 0.018057611388834851 -0.030223969914345401 0 0.03396684481877061 -0.021771474300517551 0 0.018057611388834851 -0.030223969914345401 0 0.010882918392325341 -0.043546784918672053 0 0.022583515379492949 -0.04946345385366932 0 0.018057611388834851 -0.030223969914345401 0 0.022583515379492949 -0.04946345385366932 0 0.03214982838215158 -0.036550164909951742 0 0.010882918392325341 -0.043546784918672053 0 0.001114662024295677 -0.034644724797188199 0 0.003426744450576454 -0.054815297075420773 0 0.018057611388834851 -0.030223969914345401 0 0.010882918392325341 -0.043546784918672053 0 0.001114662024295677 -0.034644724797188199 0 0.018354718881549058 -0.065167425818499949 0 0.003426744450576454 -0.054815297075420773 0 0.022583515379492949 -0.04946345385366932 0 0.010882918392325341 -0.043546784918672053 0 0.003426744450576454 -0.054815297075420773 0 0.022583515379492949 -0.04946345385366932 0 0.018354718881549058 -0.065167425818499949 0 0.033429404710945708 -0.067827642356336801 0 0.022583515379492949 -0.04946345385366932 0 0.033429404710945708 -0.067827642356336801 0 0.022583515379492949 -0.04946345385366932 0 0.040434423972952403 -0.049093231793294147 0 0.033429404710945708 -0.067827642356336801 0 0.052580487019044733 -0.06457445167855122 0 0.040434423972952403 -0.049093231793294147 0 0.052580487019044733 -0.06457445167855122 0 0.040434423972952403 -0.049093231793294147 0 0.05544232884238081 -0.044875881875575382 0 0.052580487019044733 -0.06457445167855122 0 0.05544232884238081 -0.044875881875575382 0 0.068339170937992105 -0.053424337060716878 0 0.040434423972952403 -0.049093231793294147 0 0.05544232884238081 -0.044875881875575382 0 0.045706746350707102 -0.032198694687932281 0 0.05544232884238081 -0.044875881875575382 0 0.045706746350707102 -0.032198694687932281 0 0.061157621829282929 -0.025231604425866621 0 0.040434423972952403 -0.049093231793294147 0 0.045706746350707102 -0.032198694687932281 0 0.03214982838215158 -0.036550164909951742 0 0.022583515379492949 -0.04946345385366932 0 0.040434423972952403 -0.049093231793294147 0 0.03214982838215158 -0.036550164909951742 0 0.045706746350707102 -0.032198694687932281 0 0.03214982838215158 -0.036550164909951742 0 0.03396684481877061 -0.021771474300517551 0 0.045706746350707102 -0.032198694687932281 0 0.03396684481877061 -0.021771474300517551 0 0.047710046720236987 -0.018368172826886429 0 0.061157621829282929 -0.025231604425866621 0 0.047710046720236987 -0.018368172826886429 0 0.057931869416054299 -0.0086796052278893948 0 0.045706746350707102 -0.032198694687932281 0 0.061157621829282929 -0.025231604425866621 0 0.047710046720236987 -0.018368172826886429 0 0.053306813386582982 0.0056008818424343951 0 0.057931869416054299 -0.0086796052278893948 0 0.039787151186370009 -0.0039594854922263374 0 0.047710046720236987 -0.018368172826886429 0 0.057931869416054299 -0.0086796052278893948 0 0.039787151186370009 -0.0039594854922263374 0 0.053306813386582982 0.0056008818424343951 0 0.065940651683257009 0.0024831850618150888 0 0.057931869416054299 -0.0086796052278893948 0 0.020207185183206099 -0.010785841930981459 0 0.03396684481877061 -0.021771474300517551 0 0.039787151186370009 -0.0039594854922263374 0 0.03396684481877061 -0.021771474300517551 0 0.047710046720236987 -0.018368172826886429 0 0.039787151186370009 -0.0039594854922263374 0 0.07992851590561921 0.0082161523869754144 0 0.085319843464057188 -0.007629982329875426 0 0.074177093133044117 -0.010507922444979889 0 0.07992851590561921 0.0082161523869754144 0 0.085319843464057188 -0.007629982329875426 0 0.09649789417263642 -0.0037639840011086311 0 0.093491186985964037 -0.01472799792969565 0 0.085319843464057188 -0.007629982329875426 0 0.09649789417263642 -0.0037639840011086311 0 0.093491186985964037 -0.01472799792969565 0 0.085319843464057188 -0.007629982329875426 0 0.083581835824733053 -0.016535058395947159 0 0.085319843464057188 -0.007629982329875426 0 0.074177093133044117 -0.010507922444979889 0 0.083581835824733053 -0.016535058395947159 0 0.061157621829282929 -0.025231604425866621 0 0.057931869416054299 -0.0086796052278893948 0 0.074177093133044117 -0.010507922444979889 0 0.065940651683257009 0.0024831850618150888 0 0.057931869416054299 -0.0086796052278893948 0 0.074177093133044117 -0.010507922444979889 0 0.061157621829282929 -0.025231604425866621 0 0.077044537184394621 -0.024954964190685061 0 0.071280738265345076 -0.03811759874850193 0 0.061157621829282929 -0.025231604425866621 0 0.074177093133044117 -0.010507922444979889 0 0.077044537184394621 -0.024954964190685061 0 0.077044537184394621 -0.024954964190685061 0 0.087876518356205288 -0.024854425084499782 0 0.083696735197635597 -0.035074751153617953 0 0.077044537184394621 -0.024954964190685061 0 0.083581835824733053 -0.016535058395947159 0 0.087876518356205288 -0.024854425084499782 0 0.074177093133044117 -0.010507922444979889 0 0.077044537184394621 -0.024954964190685061 0 0.083581835824733053 -0.016535058395947159 0 0.093491186985964037 -0.01472799792969565 0 0.083581835824733053 -0.016535058395947159 0 0.087876518356205288 -0.024854425084499782 0 0.093491186985964037 -0.01472799792969565 0 0.087876518356205288 -0.024854425084499782 0 0.096892307268332672 -0.02266252034611416 0 0.087876518356205288 -0.024854425084499782 0 0.093921030959280866 -0.033511072873054298 0 0.096892307268332672 -0.02266252034611416 0 0.087876518356205288 -0.024854425084499782 0 0.083696735197635597 -0.035074751153617953 0 0.093921030959280866 -0.033511072873054298 0 0.088828324516270887 -0.041348533459236683 0 0.095977453204919599 -0.050472192210401508 0 0.093921030959280866 -0.033511072873054298 0 0.088828324516270887 -0.041348533459236683 0 0.083696735197635597 -0.035074751153617953 0 0.093921030959280866 -0.033511072873054298 0 0.088828324516270887 -0.041348533459236683 0 0.081718078703247488 -0.046336117599872988 0 0.095977453204919599 -0.050472192210401508 0 0.088828324516270887 -0.041348533459236683 0 0.081718078703247488 -0.046336117599872988 0 0.083696735197635597 -0.035074751153617953 0 0.081718078703247488 -0.046336117599872988 0 0.083696735197635597 -0.035074751153617953 0 0.071280738265345076 -0.03811759874850193 0 0.05544232884238081 -0.044875881875575382 0 0.061157621829282929 -0.025231604425866621 0 0.071280738265345076 -0.03811759874850193 0 0.05544232884238081 -0.044875881875575382 0 0.071280738265345076 -0.03811759874850193 0 0.068339170937992105 -0.053424337060716878 0 0.077044537184394621 -0.024954964190685061 0 0.083696735197635597 -0.035074751153617953 0 0.071280738265345076 -0.03811759874850193 0 0.081718078703247488 -0.046336117599872988 0 0.071280738265345076 -0.03811759874850193 0 0.068339170937992105 -0.053424337060716878 0 0.081718078703247488 -0.046336117599872988 0 0.068339170937992105 -0.053424337060716878 0 0.079819511512682115 -0.059373961925762081 0 0.068339170937992105 -0.053424337060716878 0 0.079819511512682115 -0.059373961925762081 0 0.068682665651441266 -0.069637891440837665 0 0.079819511512682115 -0.059373961925762081 0 0.095977453204919599 -0.050472192210401508 0 0.084380189065810102 -0.076999271316981366 0 0.081718078703247488 -0.046336117599872988 0 0.079819511512682115 -0.059373961925762081 0 0.095977453204919599 -0.050472192210401508 0 0.095977453204919599 -0.050472192210401508 0 0.1084893608633546 -0.054995312108922077 0 0.1003826539890946 -0.069656067773248523 0 0.095977453204919599 -0.050472192210401508 0 0.1084893608633546 -0.054995312108922077 0 0.10497618281608501 -0.042163163930312997 0 0.1084893608633546 -0.054995312108922077 0 0.12021542192502691 -0.05736310542253667 0 0.11225492598618329 -0.067700646346746801 0 0.12021542192502691 -0.05736310542253667 0 0.1181844865236701 -0.045884275653046647 0 0.1350650896680477 -0.050994701792827862 0 0.1084893608633546 -0.054995312108922077 0 0.12021542192502691 -0.05736310542253667 0 0.1181844865236701 -0.045884275653046647 0 0.1084893608633546 -0.054995312108922077 0 0.1181844865236701 -0.045884275653046647 0 0.10497618281608501 -0.042163163930312997 0 0.1181844865236701 -0.045884275653046647 0 0.1169603374125384 -0.034526050343312617 0 0.10497618281608501 -0.042163163930312997 0 0.10497618281608501 -0.042163163930312997 0 0.1139069069496291 -0.021464697665753471 0 0.1169603374125384 -0.034526050343312617 0 0.10497618281608501 -0.042163163930312997 0 0.1139069069496291 -0.021464697665753471 0 0.1181844865236701 -0.045884275653046647 0 0.1169603374125384 -0.034526050343312617 0 0.1283586559847627 -0.040725310836502493 0 0.095977453204919599 -0.050472192210401508 0 0.10497618281608501 -0.042163163930312997 0 0.1075747173440291 -0.023945113103821601 0 0.095977453204919599 -0.050472192210401508 0 0.093921030959280866 -0.033511072873054298 0 0.1075747173440291 -0.023945113103821601 0 0.095977453204919599 -0.050472192210401508 0 0.1075747173440291 -0.023945113103821601 0 0.10497618281608501 -0.042163163930312997 0 0.1075747173440291 -0.023945113103821601 0 0.1139069069496291 -0.021464697665753471 0 0.093921030959280866 -0.033511072873054298 0 0.096892307268332672 -0.02266252034611416 0 0.1075747173440291 -0.023945113103821601 0 0.093491186985964037 -0.01472799792969565 0 0.096892307268332672 -0.02266252034611416 0 0.10169828607787421 -0.015923098960230999 0 0.096892307268332672 -0.02266252034611416 0 0.10169828607787421 -0.015923098960230999 0 0.1075747173440291 -0.023945113103821601 0 0.10169828607787421 -0.015923098960230999 0 0.1075747173440291 -0.023945113103821601 0 0.1082483433893755 -0.0084409933366877514 0 0.1169603374125384 -0.034526050343312617 0 0.1213672368215104 -0.025634276355807499 0 0.12969235634276979 -0.031284000123743903 0 0.1169603374125384 -0.034526050343312617 0 0.1213672368215104 -0.025634276355807499 0 0.1139069069496291 -0.021464697665753471 0 0.1213672368215104 -0.025634276355807499 0 0.1139069069496291 -0.021464697665753471 0 0.12490934658110441 -0.01526235729042 0 0.11917198148314 0.002581966002757949 0 0.1075747173440291 -0.023945113103821601 0 0.1139069069496291 -0.021464697665753471 0 0.11917198148314 0.002581966002757949 0 0.1139069069496291 -0.021464697665753471 0 0.1228376310831711 -0.00076623140119310329 0 0.11917198148314 0.002581966002757949 0 0.1075747173440291 -0.023945113103821601 0 0.1082483433893755 -0.0084409933366877514 0 0.1139069069496291 -0.021464697665753471 0 0.12490934658110441 -0.01526235729042 0 0.1228376310831711 -0.00076623140119310329 0 0.1139069069496291 -0.021464697665753471 0 0.1228376310831711 -0.00076623140119310329 0 0.11917198148314 0.002581966002757949 0 0.1075747173440291 -0.023945113103821601 0 0.11917198148314 0.002581966002757949 0 0.1105415625726717 -0.0014271332550589229 0 0.1082483433893755 -0.0084409933366877514 0 0.1078625722471533 0.0022823866337398822 0 0.1105415625726717 -0.0014271332550589229 0 0.1039166904039584 -0.0028966343462391718 0 0.1039166904039584 -0.0028966343462391718 0 0.1082483433893755 -0.0084409933366877514 0 0.10154047648190589 -0.00941290969201335 0 0.1105415625726717 -0.0014271332550589229 0 0.1039166904039584 -0.0028966343462391718 0 0.1082483433893755 -0.0084409933366877514 0 0.10169828607787421 -0.015923098960230999 0 0.1082483433893755 -0.0084409933366877514 0 0.10154047648190589 -0.00941290969201335 0 0.093491186985964037 -0.01472799792969565 0 0.10154047648190589 -0.00941290969201335 0 0.09649789417263642 -0.0037639840011086311 0 0.093491186985964037 -0.01472799792969565 0 0.10169828607787421 -0.015923098960230999 0 0.10154047648190589 -0.00941290969201335 0 0.1039166904039584 -0.0028966343462391718 0 0.10154047648190589 -0.00941290969201335 0 0.09649789417263642 -0.0037639840011086311 0 0.088046088292129038 -0.10430519341125349 0 0.072782924926700548 -0.1035263504235614 0 0.088717560391344957 -0.092993146067331611 0 0.088046088292129038 -0.10430519341125349 0 0.080670658246847674 -0.112136361820053 0 0.072782924926700548 -0.1035263504235614 0 0.088046088292129038 -0.10430519341125349 0 0.088717560391344957 -0.092993146067331611 0 0.100171096126226 -0.096028489315426471 0 0.088046088292129038 -0.10430519341125349 0 0.089116900718008318 -0.11226838151764811 0 0.096817389343646892 -0.1088784313235004 0 0.088046088292129038 -0.10430519341125349 0 0.089116900718008318 -0.11226838151764811 0 0.080670658246847674 -0.112136361820053 0 0.089116900718008318 -0.11226838151764811 0 0.082844213492092533 -0.1195429602861619 0 0.095577299328253623 -0.1174095529111252 0 0.082362828069140165 -0.1319846138898183 0 0.082844213492092533 -0.1195429602861619 0 0.095577299328253623 -0.1174095529111252 0 0.082362828069140165 -0.1319846138898183 0 0.095577299328253623 -0.1174095529111252 0 0.082362828069140165 -0.1319846138898183 0 0.082844213492092533 -0.1195429602861619 0 0.069837722907261313 -0.1199532536492431 0 0.089116900718008318 -0.11226838151764811 0 0.082844213492092533 -0.1195429602861619 0 0.080670658246847674 -0.112136361820053 0 0.080670658246847674 -0.112136361820053 0 0.069837722907261313 -0.1199532536492431 0 0.072782924926700548 -0.1035263504235614 0 0.06118566078759103 -0.13005342953014129 0 0.072782924926700548 -0.1035263504235614 0 0.06118566078759103 -0.13005342953014129 0 0.069837722907261313 -0.1199532536492431 0 0.072782924926700548 -0.1035263504235614 0 0.06118566078759103 -0.13005342953014129 0 0.056223070490067702 -0.1049071233711502 0 0.072782924926700548 -0.1035263504235614 0 0.082844213492092533 -0.1195429602861619 0 0.080670658246847674 -0.112136361820053 0 0.069837722907261313 -0.1199532536492431 0 0.056223070490067702 -0.1049071233711502 0 0.072782924926700548 -0.1035263504235614 0 0.064045145718632748 -0.088800152685812248 0 0.057640786708643768 -0.07951032993234286 0 0.064045145718632748 -0.088800152685812248 0 0.068682665651441266 -0.069637891440837665 0 0.064045145718632748 -0.088800152685812248 0 0.068682665651441266 -0.069637891440837665 0 0.084380189065810102 -0.076999271316981366 0 0.072782924926700548 -0.1035263504235614 0 0.064045145718632748 -0.088800152685812248 0 0.084380189065810102 -0.076999271316981366 0 0.052580487019044733 -0.06457445167855122 0 0.068339170937992105 -0.053424337060716878 0 0.068682665651441266 -0.069637891440837665 0 0.079819511512682115 -0.059373961925762081 0 0.068682665651441266 -0.069637891440837665 0 0.084380189065810102 -0.076999271316981366 0 0.095977453204919599 -0.050472192210401508 0 0.084380189065810102 -0.076999271316981366 0 0.1003826539890946 -0.069656067773248523 0 0.095977453204919599 -0.050472192210401508 0 0.084380189065810102 -0.076999271316981366 0 0.084380189065810102 -0.076999271316981366 0 0.095693843046354268 -0.0841642264331387 0 0.1003826539890946 -0.069656067773248523 0 0.072782924926700548 -0.1035263504235614 0 0.084380189065810102 -0.076999271316981366 0 0.072782924926700548 -0.1035263504235614 0 0.084380189065810102 -0.076999271316981366 0 0.088717560391344957 -0.092993146067331611 0 0.084380189065810102 -0.076999271316981366 0 0.088717560391344957 -0.092993146067331611 0 0.095693843046354268 -0.0841642264331387 0 0.088717560391344957 -0.092993146067331611 0 0.095693843046354268 -0.0841642264331387 0 0.100171096126226 -0.096028489315426471 0 0.095693843046354268 -0.0841642264331387 0 0.1061825878765964 -0.082065358753895937 0 0.100171096126226 -0.096028489315426471 0 0.095693843046354268 -0.0841642264331387 0 0.1061825878765964 -0.082065358753895937 0 0.1003826539890946 -0.069656067773248523 0 0.1061825878765964 -0.082065358753895937 0 0.1152940355071756 -0.093458773729521216 0 0.100171096126226 -0.096028489315426471 0 0.1061825878765964 -0.082065358753895937 0 0.1003826539890946 -0.069656067773248523 0 0.11225492598618329 -0.067700646346746801 0 0.1084893608633546 -0.054995312108922077 0 0.1003826539890946 -0.069656067773248523 0 0.11225492598618329 -0.067700646346746801 0 0.1061825878765964 -0.082065358753895937 0 0.11225492598618329 -0.067700646346746801 0 0.1171317857577618 -0.078667044940758796 0 0.1171317857577618 -0.078667044940758796 0 0.12857779857738699 -0.078718698725873171 0 0.12708324658387871 -0.067240591211139955 0 0.11225492598618329 -0.067700646346746801 0 0.1171317857577618 -0.078667044940758796 0 0.12708324658387871 -0.067240591211139955 0 0.12021542192502691 -0.05736310542253667 0 0.11225492598618329 -0.067700646346746801 0 0.12708324658387871 -0.067240591211139955 0 0.1061825878765964 -0.082065358753895937 0 0.1152940355071756 -0.093458773729521216 0 0.1171317857577618 -0.078667044940758796 0 0.1171317857577618 -0.078667044940758796 0 0.1286838548293292 -0.09135300801218077 0 0.12857779857738699 -0.078718698725873171 0 0.1152940355071756 -0.093458773729521216 0 0.1171317857577618 -0.078667044940758796 0 0.1286838548293292 -0.09135300801218077 0 0.1152940355071756 -0.093458773729521216 0 0.1230450488982011 -0.098166020395255585 0 0.1286838548293292 -0.09135300801218077 0 0.1152940355071756 -0.093458773729521216 0 0.1230450488982011 -0.098166020395255585 0 0.1196469902177196 -0.1061558951397697 0 0.1230450488982011 -0.098166020395255585 0 0.1196469902177196 -0.1061558951397697 0 0.12917406780106669 -0.1036793655145172 0 0.1196469902177196 -0.1061558951397697 0 0.1094725419179296 -0.1044020385603272 0 0.1154331983948798 -0.1174886032934183 0 0.1152940355071756 -0.093458773729521216 0 0.1196469902177196 -0.1061558951397697 0 0.1094725419179296 -0.1044020385603272 0 0.1152940355071756 -0.093458773729521216 0 0.1094725419179296 -0.1044020385603272 0 0.100171096126226 -0.096028489315426471 0 0.1094725419179296 -0.1044020385603272 0 0.096817389343646892 -0.1088784313235004 0 0.100171096126226 -0.096028489315426471 0 0.088046088292129038 -0.10430519341125349 0 0.096817389343646892 -0.1088784313235004 0 0.100171096126226 -0.096028489315426471 0 0.096817389343646892 -0.1088784313235004 0 0.1051359327507693 -0.1227177542784853 0 0.1154331983948798 -0.1174886032934183 0 0.096817389343646892 -0.1088784313235004 0 0.1154331983948798 -0.1174886032934183 0 0.1005807427949069 -0.13366374688330029 0 0.095577299328253623 -0.1174095529111252 0 0.1051359327507693 -0.1227177542784853 0 0.1094725419179296 -0.1044020385603272 0 0.096817389343646892 -0.1088784313235004 0 0.1154331983948798 -0.1174886032934183 0 0.089116900718008318 -0.11226838151764811 0 0.096817389343646892 -0.1088784313235004 0 0.095577299328253623 -0.1174095529111252 0 0.096817389343646892 -0.1088784313235004 0 0.095577299328253623 -0.1174095529111252 0 0.1051359327507693 -0.1227177542784853 0 0.1154331983948798 -0.1174886032934183 0 0.13404900744611239 -0.12609877526333699 0 0.1196469902177196 -0.1061558951397697 0 0.1154331983948798 -0.1174886032934183 0 0.12686113813069899 -0.1114359576666621 0 0.1154331983948798 -0.1174886032934183 0 0.12686113813069899 -0.1114359576666621 0 0.13390982127973511 -0.11942472678041111 0 0.1154331983948798 -0.1174886032934183 0 0.13390982127973511 -0.11942472678041111 0 0.13404900744611239 -0.12609877526333699 0 0.12686113813069899 -0.1114359576666621 0 0.13614161296009411 -0.11043119760519431 0 0.13390982127973511 -0.11942472678041111 0 0.13614161296009411 -0.11043119760519431 0 0.14023431030656019 -0.11642081500581559 0 0.13390982127973511 -0.11942472678041111 0 0.13614161296009411 -0.11043119760519431 0 0.14023431030656019 -0.11642081500581559 0 0.14347338005148061 -0.1082488085161593 0 0.13773130733042549 -0.12113088311922759 0 0.1427320902892944 -0.12257921542734659 0 0.13404900744611239 -0.12609877526333699 0 0.13390982127973511 -0.11942472678041111 0 0.13773130733042549 -0.12113088311922759 0 0.13404900744611239 -0.12609877526333699 0 0.13390982127973511 -0.11942472678041111 0 0.13404900744611239 -0.12609877526333699 0 0.14023431030656019 -0.11642081500581559 0 0.13773130733042549 -0.12113088311922759 0 0.1427320902892944 -0.12257921542734659 0 0.14023431030656019 -0.11642081500581559 0 0.13390982127973511 -0.11942472678041111 0 0.13773130733042549 -0.12113088311922759 0 0.1427320902892944 -0.12257921542734659 0 0.15192118682329561 -0.12273271218809589 0 0.1490682445489844 -0.1279194233146575 0 0.1427320902892944 -0.12257921542734659 0 0.1474293378639818 -0.11515719203513899 0 0.15192118682329561 -0.12273271218809589 0 0.14023431030656019 -0.11642081500581559 0 0.1427320902892944 -0.12257921542734659 0 0.1474293378639818 -0.11515719203513899 0 0.1474293378639818 -0.11515719203513899 0 0.15201290161170181 -0.107226104105896 0 0.14347338005148061 -0.1082488085161593 0 0.14023431030656019 -0.11642081500581559 0 0.1474293378639818 -0.11515719203513899 0 0.14347338005148061 -0.1082488085161593 0 0.1474293378639818 -0.11515719203513899 0 0.15419764536576119 -0.1149677746217292 0 0.15201290161170181 -0.107226104105896 0 0.15419764536576119 -0.1149677746217292 0 0.15201290161170181 -0.107226104105896 0 0.1590985184781393 -0.1107939778183322 0 0.15419764536576119 -0.1149677746217292 0 0.15192118682329561 -0.12273271218809589 0 0.1605262820516872 -0.11892888696118289 0 0.1474293378639818 -0.11515719203513899 0 0.15419764536576119 -0.1149677746217292 0 0.15192118682329561 -0.12273271218809589 0 0.153855148049276 -0.097460838801678593 0 0.15201290161170181 -0.107226104105896 0 0.1462355681673109 -0.099255024001954253 0 0.153855148049276 -0.097460838801678593 0 0.1462355681673109 -0.099255024001954253 0 0.1490737095502995 -0.088653392770718792 0 0.153855148049276 -0.097460838801678593 0 0.15201290161170181 -0.107226104105896 0 0.16008969536972259 -0.10263897543636979 0 0.14347338005148061 -0.1082488085161593 0 0.1462355681673109 -0.099255024001954253 0 0.13800617896953651 -0.1013117005447786 0 0.15201290161170181 -0.107226104105896 0 0.14347338005148061 -0.1082488085161593 0 0.1462355681673109 -0.099255024001954253 0 0.1462355681673109 -0.099255024001954253 0 0.13800617896953651 -0.1013117005447786 0 0.14099209077157121 -0.092629299272494275 0 0.13800617896953651 -0.1013117005447786 0 0.1286838548293292 -0.09135300801218077 0 0.14099209077157121 -0.092629299272494275 0 0.13614161296009411 -0.11043119760519431 0 0.13800617896953651 -0.1013117005447786 0 0.12917406780106669 -0.1036793655145172 0 0.13614161296009411 -0.11043119760519431 0 0.14347338005148061 -0.1082488085161593 0 0.13800617896953651 -0.1013117005447786 0 0.1196469902177196 -0.1061558951397697 0 0.12686113813069899 -0.1114359576666621 0 0.12917406780106669 -0.1036793655145172 0 0.12686113813069899 -0.1114359576666621 0 0.13614161296009411 -0.11043119760519431 0 0.12917406780106669 -0.1036793655145172 0 0.1230450488982011 -0.098166020395255585 0 0.12917406780106669 -0.1036793655145172 0 0.1286838548293292 -0.09135300801218077 0 0.13800617896953651 -0.1013117005447786 0 0.12917406780106669 -0.1036793655145172 0 0.1286838548293292 -0.09135300801218077 0 0.1286838548293292 -0.09135300801218077 0 0.12857779857738699 -0.078718698725873171 0 0.13748132505412469 -0.08396770010957226 0 0.13748132505412469 -0.08396770010957226 0 0.1367334774756912 -0.073531819827653083 0 0.14538989296775451 -0.078880163337803719 0 0.12857779857738699 -0.078718698725873171 0 0.13748132505412469 -0.08396770010957226 0 0.1367334774756912 -0.073531819827653083 0 0.1286838548293292 -0.09135300801218077 0 0.13748132505412469 -0.08396770010957226 0 0.14099209077157121 -0.092629299272494275 0 0.12857779857738699 -0.078718698725873171 0 0.12708324658387871 -0.067240591211139955 0 0.1367334774756912 -0.073531819827653083 0 0.12708324658387871 -0.067240591211139955 0 0.1367334774756912 -0.073531819827653083 0 0.14110971147140131 -0.064913967020147179 0 0.1367334774756912 -0.073531819827653083 0 0.14110971147140131 -0.064913967020147179 0 0.14964674351361701 -0.070099729323911744 0 0.14110971147140131 -0.064913967020147179 0 0.14964674351361701 -0.070099729323911744 0 0.15194569281242609 -0.056105127932606663 0 0.1367334774756912 -0.073531819827653083 0 0.14964674351361701 -0.070099729323911744 0 0.14538989296775451 -0.078880163337803719 0 0.14964674351361701 -0.070099729323911744 0 0.14538989296775451 -0.078880163337803719 0 0.15822082836811369 -0.079982126599630443 0 0.14964674351361701 -0.070099729323911744 0 0.15822082836811369 -0.079982126599630443 0 0.1603896916223197 -0.069044426588861466 0 0.14964674351361701 -0.070099729323911744 0 0.1603896916223197 -0.069044426588861466 0 0.15194569281242609 -0.056105127932606663 0 0.13748132505412469 -0.08396770010957226 0 0.14099209077157121 -0.092629299272494275 0 0.1490737095502995 -0.088653392770718792 0 0.1462355681673109 -0.099255024001954253 0 0.14099209077157121 -0.092629299272494275 0 0.1490737095502995 -0.088653392770718792 0 0.13748132505412469 -0.08396770010957226 0 0.14538989296775451 -0.078880163337803719 0 0.1490737095502995 -0.088653392770718792 0 0.14538989296775451 -0.078880163337803719 0 0.1490737095502995 -0.088653392770718792 0 0.15822082836811369 -0.079982126599630443 0 0.153855148049276 -0.097460838801678593 0 0.1490737095502995 -0.088653392770718792 0 0.1594354292934542 -0.091737259282716963 0 0.1490737095502995 -0.088653392770718792 0 0.1594354292934542 -0.091737259282716963 0 0.15822082836811369 -0.079982126599630443 0 0.1594354292934542 -0.091737259282716963 0 0.15822082836811369 -0.079982126599630443 0 0.1684140015429216 -0.087293140772549349 0 0.15822082836811369 -0.079982126599630443 0 0.1684140015429216 -0.087293140772549349 0 0.1694423915093585 -0.075846288749261012 0 0.1684140015429216 -0.087293140772549349 0 0.1776016981043757 -0.094466756631608209 0 0.16825903644140999 -0.098606158866582916 0 0.1594354292934542 -0.091737259282716963 0 0.1684140015429216 -0.087293140772549349 0 0.16825903644140999 -0.098606158866582916 0 0.15822082836811369 -0.079982126599630443 0 0.1603896916223197 -0.069044426588861466 0 0.1694423915093585 -0.075846288749261012 0 0.1603896916223197 -0.069044426588861466 0 0.1694423915093585 -0.075846288749261012 0 0.17187576892014289 -0.062138750134232333 0 0.17971720707086189 -0.073145871694163048 0 0.17187576892014289 -0.062138750134232333 0 0.19180584502786041 -0.068172372335855602 0 0.17187576892014289 -0.062138750134232333 0 0.19180584502786041 -0.068172372335855602 0 0.1694423915093585 -0.075846288749261012 0 0.17971720707086189 -0.073145871694163048 0 0.17187576892014289 -0.062138750134232333 0 0.1694423915093585 -0.075846288749261012 0 0.17971720707086189 -0.073145871694163048 0 0.17803685153179119 -0.083473416706129469 0 0.17971720707086189 -0.073145871694163048 0 0.18645595400882431 -0.078186102724248294 0 0.19180584502786041 -0.068172372335855602 0 0.1684140015429216 -0.087293140772549349 0 0.17803685153179119 -0.083473416706129469 0 0.1776016981043757 -0.094466756631608209 0 0.1684140015429216 -0.087293140772549349 0 0.1694423915093585 -0.075846288749261012 0 0.17803685153179119 -0.083473416706129469 0 0.17803685153179119 -0.083473416706129469 0 0.18645595400882431 -0.078186102724248294 0 0.18748362772352481 -0.090285751384613616 0 0.17971720707086189 -0.073145871694163048 0 0.17803685153179119 -0.083473416706129469 0 0.18645595400882431 -0.078186102724248294 0 0.17803685153179119 -0.083473416706129469 0 0.18748362772352481 -0.090285751384613616 0 0.1776016981043757 -0.094466756631608209 0 0.1776016981043757 -0.094466756631608209 0 0.1757785255420414 -0.1036637588673371 0 0.18737718651252391 -0.1018645954104864 0 0.18748362772352481 -0.090285751384613616 0 0.1776016981043757 -0.094466756631608209 0 0.18737718651252391 -0.1018645954104864 0 0.1776016981043757 -0.094466756631608209 0 0.1757785255420414 -0.1036637588673371 0 0.16825903644140999 -0.098606158866582916 0 0.1757785255420414 -0.1036637588673371 0 0.17797479248166551 -0.1125427820454727 0 0.16787713834435419 -0.11000951374301229 0 0.1757785255420414 -0.1036637588673371 0 0.18737718651252391 -0.1018645954104864 0 0.17797479248166551 -0.1125427820454727 0 0.18737718651252391 -0.1018645954104864 0 0.18701697985041221 -0.11880972375357141 0 0.17797479248166551 -0.1125427820454727 0 0.18701697985041221 -0.11880972375357141 0 0.173543926957343 -0.1211375462363173 0 0.17990838590865871 -0.12844737664361131 0 0.18701697985041221 -0.11880972375357141 0 0.173543926957343 -0.1211375462363173 0 0.17797479248166551 -0.1125427820454727 0 0.173543926957343 -0.1211375462363173 0 0.17797479248166551 -0.1125427820454727 0 0.16787713834435419 -0.11000951374301229 0 0.173543926957343 -0.1211375462363173 0 0.16787713834435419 -0.11000951374301229 0 0.1605262820516872 -0.11892888696118289 0 0.173543926957343 -0.1211375462363173 0 0.1605262820516872 -0.11892888696118289 0 0.1641162962428066 -0.126449221113482 0 0.15192118682329561 -0.12273271218809589 0 0.1605262820516872 -0.11892888696118289 0 0.1587247560068413 -0.12564209046719049 0 0.1605262820516872 -0.11892888696118289 0 0.1587247560068413 -0.12564209046719049 0 0.1641162962428066 -0.126449221113482 0 0.15419764536576119 -0.1149677746217292 0 0.1605262820516872 -0.11892888696118289 0 0.1590985184781393 -0.1107939778183322 0 0.16787713834435419 -0.11000951374301229 0 0.1605262820516872 -0.11892888696118289 0 0.1590985184781393 -0.1107939778183322 0 0.15201290161170181 -0.107226104105896 0 0.1590985184781393 -0.1107939778183322 0 0.16008969536972259 -0.10263897543636979 0 0.16787713834435419 -0.11000951374301229 0 0.1590985184781393 -0.1107939778183322 0 0.16008969536972259 -0.10263897543636979 0 0.1594354292934542 -0.091737259282716963 0 0.16008969536972259 -0.10263897543636979 0 0.16825903644140999 -0.098606158866582916 0 0.153855148049276 -0.097460838801678593 0 0.1594354292934542 -0.091737259282716963 0 0.16008969536972259 -0.10263897543636979 0 0.1757785255420414 -0.1036637588673371 0 0.16787713834435419 -0.11000951374301229 0 0.16825903644140999 -0.098606158866582916 0 0.16787713834435419 -0.11000951374301229 0 0.16008969536972259 -0.10263897543636979 0 0.16825903644140999 -0.098606158866582916 0 0.1552076984021574 -0.0047487866015848753 0 0.1380919344669613 -0.01469948322874493 0 0.1606476670511833 -0.017066892083396779 0 0.14127976741107601 0.00215554095495248 0 0.1552076984021574 -0.0047487866015848753 0 0.1380919344669613 -0.01469948322874493 0 0.14127976741107601 0.00215554095495248 0 0.1228376310831711 -0.00076623140119310329 0 0.1380919344669613 -0.01469948322874493 0 0.1228376310831711 -0.00076623140119310329 0 0.1380919344669613 -0.01469948322874493 0 0.12490934658110441 -0.01526235729042 0 0.1228376310831711 -0.00076623140119310329 0 0.1380919344669613 -0.01469948322874493 0 0.1380919344669613 -0.01469948322874493 0 0.1415761600091012 -0.038003691908970592 0 0.12969235634276979 -0.031284000123743903 0 0.1213672368215104 -0.025634276355807499 0 0.12490934658110441 -0.01526235729042 0 0.12969235634276979 -0.031284000123743903 0 0.12490934658110441 -0.01526235729042 0 0.1380919344669613 -0.01469948322874493 0 0.12969235634276979 -0.031284000123743903 0 0.1380919344669613 -0.01469948322874493 0 0.15334623785075199 -0.02863273505629621 0 0.1415761600091012 -0.038003691908970592 0 0.1380919344669613 -0.01469948322874493 0 0.15334623785075199 -0.02863273505629621 0 0.1606476670511833 -0.017066892083396779 0 0.1380919344669613 -0.01469948322874493 0 0.15334623785075199 -0.02863273505629621 0 0.15437572795414581 -0.042117567211766717 0 0.1415761600091012 -0.038003691908970592 0 0.15194569281242609 -0.056105127932606663 0 0.15334623785075199 -0.02863273505629621 0 0.15437572795414581 -0.042117567211766717 0 0.1415761600091012 -0.038003691908970592 0 0.1181844865236701 -0.045884275653046647 0 0.1283586559847627 -0.040725310836502493 0 0.1350650896680477 -0.050994701792827862 0 0.1415761600091012 -0.038003691908970592 0 0.12969235634276979 -0.031284000123743903 0 0.1283586559847627 -0.040725310836502493 0 0.1169603374125384 -0.034526050343312617 0 0.12969235634276979 -0.031284000123743903 0 0.1283586559847627 -0.040725310836502493 0 0.1415761600091012 -0.038003691908970592 0 0.1283586559847627 -0.040725310836502493 0 0.1350650896680477 -0.050994701792827862 0 0.1181844865236701 -0.045884275653046647 0 0.1350650896680477 -0.050994701792827862 0 0.12021542192502691 -0.05736310542253667 0 0.12708324658387871 -0.067240591211139955 0 0.1350650896680477 -0.050994701792827862 0 0.12708324658387871 -0.067240591211139955 0 0.14110971147140131 -0.064913967020147179 0 0.1350650896680477 -0.050994701792827862 0 0.14110971147140131 -0.064913967020147179 0 0.15194569281242609 -0.056105127932606663 0 0.1415761600091012 -0.038003691908970592 0 0.1350650896680477 -0.050994701792827862 0 0.15194569281242609 -0.056105127932606663 0 0.1350650896680477 -0.050994701792827862 0 0.15194569281242609 -0.056105127932606663 0 0.14110971147140131 -0.064913967020147179 0 0.1350650896680477 -0.050994701792827862 0 0.15194569281242609 -0.056105127932606663 0 0.15194569281242609 -0.056105127932606663 0 0.16860054123454279 -0.042565986883847551 0 0.15437572795414581 -0.042117567211766717 0 0.15194569281242609 -0.056105127932606663 0 0.16860054123454279 -0.042565986883847551 0 0.1603896916223197 -0.069044426588861466 0 0.15194569281242609 -0.056105127932606663 0 0.17187576892014289 -0.062138750134232333 0 0.15194569281242609 -0.056105127932606663 0 0.165016394264413 -0.053661354003145263 0 0.17187576892014289 -0.062138750134232333 0 0.15194569281242609 -0.056105127932606663 0 0.165016394264413 -0.053661354003145263 0 0.16860054123454279 -0.042565986883847551 0 0.15194569281242609 -0.056105127932606663 0 0.17187576892014289 -0.062138750134232333 0 0.165016394264413 -0.053661354003145263 0 0.17187576892014289 -0.062138750134232333 0 0.18345715790010181 -0.056135992415964377 0 0.165016394264413 -0.053661354003145263 0 0.18345715790010181 -0.056135992415964377 0 0.16860054123454279 -0.042565986883847551 0 0.17187576892014289 -0.062138750134232333 0 0.18345715790010181 -0.056135992415964377 0 0.19180584502786041 -0.068172372335855602 0 0.18345715790010181 -0.056135992415964377 0 0.17385144243116649 -0.043269821226828903 0 0.18595588634396351 -0.043176695624854357 0 0.18345715790010181 -0.056135992415964377 0 0.17385144243116649 -0.043269821226828903 0 0.16860054123454279 -0.042565986883847551 0 0.18345715790010181 -0.056135992415964377 0 0.16860054123454279 -0.042565986883847551 0 0.18595588634396351 -0.043176695624854357 0 0.1782733089797521 -0.034702753096601993 0 0.1941468740000297 -0.021798736782002521 0 0.17385144243116649 -0.043269821226828903 0 0.18595588634396351 -0.043176695624854357 0 0.1782733089797521 -0.034702753096601993 0 0.17385144243116649 -0.043269821226828903 0 0.1782733089797521 -0.034702753096601993 0 0.16860054123454279 -0.042565986883847551 0 0.1782733089797521 -0.034702753096601993 0 0.16860054123454279 -0.042565986883847551 0 0.17385144243116649 -0.043269821226828903 0 0.1782733089797521 -0.034702753096601993 0 0.1782733089797521 -0.034702753096601993 0 0.16860054123454279 -0.042565986883847551 0 0.1670526359884773 -0.02836254214418232 0 0.15334623785075199 -0.02863273505629621 0 0.16860054123454279 -0.042565986883847551 0 0.1670526359884773 -0.02836254214418232 0 0.15334623785075199 -0.02863273505629621 0 0.15437572795414581 -0.042117567211766717 0 0.16860054123454279 -0.042565986883847551 0 0.15334623785075199 -0.02863273505629621 0 0.16860054123454279 -0.042565986883847551 0 0.15334623785075199 -0.02863273505629621 0 0.1606476670511833 -0.017066892083396779 0 0.1670526359884773 -0.02836254214418232 0 0.1606476670511833 -0.017066892083396779 0 0.1670526359884773 -0.02836254214418232 0 0.1743954248261565 -0.018844343600769399 0 0.1782733089797521 -0.034702753096601993 0 0.1743954248261565 -0.018844343600769399 0 0.1918659379284415 -0.0083679514935210662 0 0.1782733089797521 -0.034702753096601993 0 0.1670526359884773 -0.02836254214418232 0 0.1743954248261565 -0.018844343600769399 0 0.1782733089797521 -0.034702753096601993 0 0.1918659379284415 -0.0083679514935210662 0 0.1782733089797521 -0.034702753096601993 0 0.1941468740000297 -0.021798736782002521 0 0.1743954248261565 -0.018844343600769399 0 0.17983697574181159 -0.0080573062328258595 0 0.1918659379284415 -0.0083679514935210662 0 0.1743954248261565 -0.018844343600769399 0 0.17983697574181159 -0.0080573062328258595 0 0.17056947168728639 -0.0076341498549102596 0 0.17983697574181159 -0.0080573062328258595 0 0.18580903226614379 -0.0011502469314075439 0 0.17786282304025339 -0.001583287003114023 0 0.17983697574181159 -0.0080573062328258595 0 0.18580903226614379 -0.0011502469314075439 0 0.1918659379284415 -0.0083679514935210662 0 0.17983697574181159 -0.0080573062328258595 0 0.17786282304025339 -0.001583287003114023 0 0.17056947168728639 -0.0076341498549102596 0 0.17227434920368959 0.00081991249798677823 0 0.17786282304025339 -0.001583287003114023 0 0.17056947168728639 -0.0076341498549102596 0 0.17227434920368959 0.00081991249798677823 0 0.16550177429739321 0.001625335581948511 0 0.17056947168728639 -0.0076341498549102596 0 0.1606476670511833 -0.017066892083396779 0 0.1743954248261565 -0.018844343600769399 0 0.17056947168728639 -0.0076341498549102596 0 0.1552076984021574 -0.0047487866015848753 0 0.1606476670511833 -0.017066892083396779 0 0.17056947168728639 -0.0076341498549102596 0 0.15830422717032419 0.0026668804518291322 0 0.16550177429739321 0.001625335581948511 0 0.1552076984021574 -0.0047487866015848753 0 0.16550177429739321 0.001625335581948511 0 0.1552076984021574 -0.0047487866015848753 0 0.17056947168728639 -0.0076341498549102596 0 0.21653748859829491 -0.0035968485671754561 0 0.20239897911060981 -0.0049616950454924097 0 0.1941468740000297 -0.021798736782002521 0 0.21653748859829491 -0.0035968485671754561 0 0.1941468740000297 -0.021798736782002521 0 0.20955206102217341 -0.019021580532265901 0 0.21653748859829491 -0.0035968485671754561 0 0.20955206102217341 -0.019021580532265901 0 0.22864161374710179 -0.024239001361894639 0 0.21653748859829491 -0.0035968485671754561 0 0.1941468740000297 -0.021798736782002521 0 0.20938161325362409 0.0025060029461209908 0 0.21653748859829491 -0.0035968485671754561 0 0.20239897911060981 -0.0049616950454924097 0 0.19981118715584381 0.0070254328827108366 0 0.20239897911060981 -0.0049616950454924097 0 0.1918659379284415 -0.0083679514935210662 0 0.19981118715584381 0.0070254328827108366 0 0.1918659379284415 -0.0083679514935210662 0 0.20239897911060981 -0.0049616950454924097 0 0.1918659379284415 -0.0083679514935210662 0 0.1941468740000297 -0.021798736782002521 0 0.1894192936343001 0.0060385698470956234 0 0.18580903226614379 -0.0011502469314075439 0 0.1918659379284415 -0.0083679514935210662 0 0.1894192936343001 0.0060385698470956234 0 0.1918659379284415 -0.0083679514935210662 0 0.1918659379284415 -0.0083679514935210662 0 0.1941468740000297 -0.021798736782002521 0 0.1782733089797521 -0.034702753096601993 0 0.1918659379284415 -0.0083679514935210662 0 0.1941468740000297 -0.021798736782002521 0 0.1941468740000297 -0.021798736782002521 0 0.2031559883210855 -0.029985938475911671 0 0.20955206102217341 -0.019021580532265901 0 0.20955206102217341 -0.019021580532265901 0 0.21066165658577479 -0.033085676709690801 0 0.22864161374710179 -0.024239001361894639 0 0.2031559883210855 -0.029985938475911671 0 0.20955206102217341 -0.019021580532265901 0 0.21066165658577479 -0.033085676709690801 0 0.21864271396698939 -0.038649087319523719 0 0.21066165658577479 -0.033085676709690801 0 0.21034122995680221 -0.050048420551560682 0 0.21066165658577479 -0.033085676709690801 0 0.1982633616763636 -0.046037759879686967 0 0.21034122995680221 -0.050048420551560682 0 0.2031559883210855 -0.029985938475911671 0 0.21066165658577479 -0.033085676709690801 0 0.1982633616763636 -0.046037759879686967 0 0.21864271396698939 -0.038649087319523719 0 0.21034122995680221 -0.050048420551560682 0 0.21819242210762169 -0.050823402618315167 0 0.1941468740000297 -0.021798736782002521 0 0.2031559883210855 -0.029985938475911671 0 0.1982633616763636 -0.046037759879686967 0 0.18595588634396351 -0.043176695624854357 0 0.1941468740000297 -0.021798736782002521 0 0.1982633616763636 -0.046037759879686967 0 0.1941468740000297 -0.021798736782002521 0 0.1982633616763636 -0.046037759879686967 0 0.1982633616763636 -0.046037759879686967 0 0.19180584502786041 -0.068172372335855602 0 0.20237984935269879 -0.070276782977371152 0 0.1982633616763636 -0.046037759879686967 0 0.20237984935269879 -0.070276782977371152 0 0.18345715790010181 -0.056135992415964377 0 0.1982633616763636 -0.046037759879686967 0 0.19180584502786041 -0.068172372335855602 0 0.18345715790010181 -0.056135992415964377 0 0.18595588634396351 -0.043176695624854357 0 0.1982633616763636 -0.046037759879686967 0 0.21034122995680221 -0.050048420551560682 0 0.21390737605136481 -0.061417813804776289 0 0.20237984935269879 -0.070276782977371152 0 0.1982633616763636 -0.046037759879686967 0 0.21034122995680221 -0.050048420551560682 0 0.20237984935269879 -0.070276782977371152 0 0.21034122995680221 -0.050048420551560682 0 0.21819242210762169 -0.050823402618315167 0 0.21390737605136481 -0.061417813804776289 0 0.2255736282180465 -0.056882305063223393 0 0.23627526009844421 -0.049694667024589079 0 0.23165324526163639 -0.065502610206523884 0 0.21390737605136481 -0.061417813804776289 0 0.2255736282180465 -0.056882305063223393 0 0.2221192681341374 -0.068345353637844553 0 0.21819242210762169 -0.050823402618315167 0 0.21390737605136481 -0.061417813804776289 0 0.2255736282180465 -0.056882305063223393 0 0.21819242210762169 -0.050823402618315167 0 0.2255736282180465 -0.056882305063223393 0 0.22546512762764079 -0.044057692677509197 0 0.2255736282180465 -0.056882305063223393 0 0.23627526009844421 -0.049694667024589079 0 0.22546512762764079 -0.044057692677509197 0 0.24617004458672351 -0.058202332164817121 0 0.23627526009844421 -0.049694667024589079 0 0.24390890644978661 -0.075150332687283522 0 0.23627526009844421 -0.049694667024589079 0 0.24390890644978661 -0.075150332687283522 0 0.25164978009717781 -0.053061021673298493 0 0.24617004458672351 -0.058202332164817121 0 0.24422464309495209 -0.046986837608536558 0 0.24617004458672351 -0.058202332164817121 0 0.24422464309495209 -0.046986837608536558 0 0.23627526009844421 -0.049694667024589079 0 0.25164978009717781 -0.053061021673298493 0 0.2539732262079259 -0.044675773385505282 0 0.24422464309495209 -0.046986837608536558 0 0.24422464309495209 -0.046986837608536558 0 0.23627526009844421 -0.049694667024589079 0 0.24524507923365879 -0.0330622213940093 0 0.25845033672230949 -0.02738613623275089 0 0.24422464309495209 -0.046986837608536558 0 0.24524507923365879 -0.0330622213940093 0 0.23627526009844421 -0.049694667024589079 0 0.24524507923365879 -0.0330622213940093 0 0.22864161374710179 -0.024239001361894639 0 0.21864271396698939 -0.038649087319523719 0 0.21066165658577479 -0.033085676709690801 0 0.22864161374710179 -0.024239001361894639 0 0.23627526009844421 -0.049694667024589079 0 0.22864161374710179 -0.024239001361894639 0 0.21864271396698939 -0.038649087319523719 0 0.22546512762764079 -0.044057692677509197 0 0.22864161374710179 -0.024239001361894639 0 0.23627526009844421 -0.049694667024589079 0 0.22546512762764079 -0.044057692677509197 0 0.22864161374710179 -0.024239001361894639 0 0.21864271396698939 -0.038649087319523719 0 0.21819242210762169 -0.050823402618315167 0 0.22546512762764079 -0.044057692677509197 0 0.22864161374710179 -0.024239001361894639 0 0.24437070500465241 -0.019757014484825589 0 0.23246643938152739 -0.0092251246746631842 0 0.24524507923365879 -0.0330622213940093 0 0.22864161374710179 -0.024239001361894639 0 0.24437070500465241 -0.019757014484825589 0 0.25013504981522988 -0.025019616072594848 0 0.24524507923365879 -0.0330622213940093 0 0.24437070500465241 -0.019757014484825589 0 0.25247407830029878 -0.019873092178793648 0 0.25006914023697918 -0.01208141302270524 0 0.24437070500465241 -0.019757014484825589 0 0.25013504981522988 -0.025019616072594848 0 0.25247407830029878 -0.019873092178793648 0 0.24437070500465241 -0.019757014484825589 0 0.24437070500465241 -0.019757014484825589 0 0.242989310538931 -0.0092135161021761666 0 0.23246643938152739 -0.0092251246746631842 0 0.25006914023697918 -0.01208141302270524 0 0.242989310538931 -0.0092135161021761666 0 0.2479891295484222 -0.0022684572774312019 0 0.25006914023697918 -0.01208141302270524 0 0.24437070500465241 -0.019757014484825589 0 0.242989310538931 -0.0092135161021761666 0 0.2429424487767215 0.0026164120279975069 0 0.2479891295484222 -0.0022684572774312019 0 0.24005113852307369 -0.0027355710512556022 0 0.242989310538931 -0.0092135161021761666 0 0.2479891295484222 -0.0022684572774312019 0 0.24005113852307369 -0.0027355710512556022 0 0.23517440673197429 0.0051848507458196356 0 0.24005113852307369 -0.0027355710512556022 0 0.23246643938152739 -0.0092251246746631842 0 0.242989310538931 -0.0092135161021761666 0 0.24005113852307369 -0.0027355710512556022 0 0.23246643938152739 -0.0092251246746631842 0 0.22100796739575951 0.001216664300799794 0 0.22864161374710179 -0.024239001361894639 0 0.23246643938152739 -0.0092251246746631842 0 0.23517440673197429 0.0051848507458196356 0 0.22100796739575951 0.001216664300799794 0 0.23246643938152739 -0.0092251246746631842 0 0.22100796739575951 0.001216664300799794 0 0.21653748859829491 -0.0035968485671754561 0 0.22864161374710179 -0.024239001361894639 0 0.22100796739575951 0.001216664300799794 0 0.22864161374710179 -0.024239001361894639 0 0.206496337029034 -0.094515806075055359 0 0.21061282470536921 -0.1187548291727395 0 0.206496337029034 -0.094515806075055359 0 0.22623965631488491 -0.089683688039789988 0 0.22333782165884589 -0.10574313483481231 0 0.206496337029034 -0.094515806075055359 0 0.21061282470536921 -0.1187548291727395 0 0.22333782165884589 -0.10574313483481231 0 0.18737718651252391 -0.1018645954104864 0 0.18701697985041221 -0.11880972375357141 0 0.21061282470536921 -0.1187548291727395 0 0.18701697985041221 -0.11880972375357141 0 0.21061282470536921 -0.1187548291727395 0 0.19260125287660149 -0.13207131947283501 0 0.18748362772352481 -0.090285751384613616 0 0.18737718651252391 -0.1018645954104864 0 0.206496337029034 -0.094515806075055359 0 0.18737718651252391 -0.1018645954104864 0 0.206496337029034 -0.094515806075055359 0 0.21061282470536921 -0.1187548291727395 0 0.18748362772352481 -0.090285751384613616 0 0.206496337029034 -0.094515806075055359 0 0.19448955746265811 -0.082220240722777116 0 0.206496337029034 -0.094515806075055359 0 0.19448955746265811 -0.082220240722777116 0 0.20237984935269879 -0.070276782977371152 0 0.18645595400882431 -0.078186102724248294 0 0.18748362772352481 -0.090285751384613616 0 0.19448955746265811 -0.082220240722777116 0 0.18645595400882431 -0.078186102724248294 0 0.19448955746265811 -0.082220240722777116 0 0.19180584502786041 -0.068172372335855602 0 0.19448955746265811 -0.082220240722777116 0 0.19180584502786041 -0.068172372335855602 0 0.20237984935269879 -0.070276782977371152 0 0.21390737605136481 -0.061417813804776289 0 0.20237984935269879 -0.070276782977371152 0 0.21248527081093549 -0.070330245212121473 0 0.20237984935269879 -0.070276782977371152 0 0.21248527081093549 -0.070330245212121473 0 0.2145783618208984 -0.079628257083024359 0 0.21248527081093549 -0.070330245212121473 0 0.2145783618208984 -0.079628257083024359 0 0.2221192681341374 -0.068345353637844553 0 0.21390737605136481 -0.061417813804776289 0 0.21248527081093549 -0.070330245212121473 0 0.2221192681341374 -0.068345353637844553 0 0.206496337029034 -0.094515806075055359 0 0.20237984935269879 -0.070276782977371152 0 0.2145783618208984 -0.079628257083024359 0 0.206496337029034 -0.094515806075055359 0 0.2145783618208984 -0.079628257083024359 0 0.22623965631488491 -0.089683688039789988 0 0.206496337029034 -0.094515806075055359 0 0.20237984935269879 -0.070276782977371152 0 0.2145783618208984 -0.079628257083024359 0 0.22623965631488491 -0.089683688039789988 0 0.23038916340776741 -0.077440392619678861 0 0.22623965631488491 -0.089683688039789988 0 0.23038916340776741 -0.077440392619678861 0 0.23781669784438761 -0.088769324738514177 0 0.22623965631488491 -0.089683688039789988 0 0.23781669784438761 -0.088769324738514177 0 0.23714180950183539 -0.10160942858925499 0 0.2145783618208984 -0.079628257083024359 0 0.2221192681341374 -0.068345353637844553 0 0.23038916340776741 -0.077440392619678861 0 0.2255736282180465 -0.056882305063223393 0 0.2221192681341374 -0.068345353637844553 0 0.23165324526163639 -0.065502610206523884 0 0.2221192681341374 -0.068345353637844553 0 0.23038916340776741 -0.077440392619678861 0 0.23165324526163639 -0.065502610206523884 0 0.25256726729664603 -0.064532785491330763 0 0.24617004458672351 -0.058202332164817121 0 0.24390890644978661 -0.075150332687283522 0 0.23627526009844421 -0.049694667024589079 0 0.23165324526163639 -0.065502610206523884 0 0.24390890644978661 -0.075150332687283522 0 0.23038916340776741 -0.077440392619678861 0 0.23165324526163639 -0.065502610206523884 0 0.24390890644978661 -0.075150332687283522 0 0.25154255280112903 -0.1006059983499779 0 0.24390890644978661 -0.075150332687283522 0 0.25154255280112903 -0.1006059983499779 0 0.24390890644978661 -0.075150332687283522 0 0.23781669784438761 -0.088769324738514177 0 0.23038916340776741 -0.077440392619678861 0 0.24390890644978661 -0.075150332687283522 0 0.23781669784438761 -0.088769324738514177 0 0.25154255280112903 -0.1006059983499779 0 0.23714180950183539 -0.10160942858925499 0 0.24954668948061209 -0.11284283178631641 0 0.25154255280112903 -0.1006059983499779 0 0.23781669784438761 -0.088769324738514177 0 0.23714180950183539 -0.10160942858925499 0 0.23714180950183539 -0.10160942858925499 0 0.22333782165884589 -0.10574313483481231 0 0.23542538064511609 -0.1194854446592761 0 0.22623965631488491 -0.089683688039789988 0 0.23714180950183539 -0.10160942858925499 0 0.22333782165884589 -0.10574313483481231 0 0.21061282470536921 -0.1187548291727395 0 0.22333782165884589 -0.10574313483481231 0 0.23542538064511609 -0.1194854446592761 0 0.25741251913389712 -0.1305951081492244 0 0.23542538064511609 -0.1194854446592761 0 0.24954668948061209 -0.11284283178631641 0 0.23714180950183539 -0.10160942858925499 0 0.23542538064511609 -0.1194854446592761 0 0.24954668948061209 -0.11284283178631641 0 0.25741251913389712 -0.1305951081492244 0 0.25452239946831973 -0.14829655140993131 0 0.23191914561449989 -0.13726295483178369 0 0.25741251913389712 -0.1305951081492244 0 0.23542538064511609 -0.1194854446592761 0 0.23191914561449989 -0.13726295483178369 0 0.25452239946831973 -0.14829655140993131 0 0.23782434991563151 -0.15439369078169049 0 0.23191914561449989 -0.13726295483178369 0 0.23782434991563151 -0.15439369078169049 0 0.2147293123817042 -0.1429938522704238 0 0.23782434991563151 -0.15439369078169049 0 0.2147293123817042 -0.1429938522704238 0 0.21952864142792899 -0.1712536350637954 0 0.23782434991563151 -0.15439369078169049 0 0.23191914561449989 -0.13726295483178369 0 0.2147293123817042 -0.1429938522704238 0 0.21061282470536921 -0.1187548291727395 0 0.23542538064511609 -0.1194854446592761 0 0.23191914561449989 -0.13726295483178369 0 0.21061282470536921 -0.1187548291727395 0 0.23191914561449989 -0.13726295483178369 0 0.2147293123817042 -0.1429938522704238 0 0.2147293123817042 -0.1429938522704238 0 0.19260125287660149 -0.13207131947283501 0 0.21061282470536921 -0.1187548291727395 0 0.2147293123817042 -0.1429938522704238 0 0.19260125287660149 -0.13207131947283501 0 0.21061282470536921 -0.1187548291727395 0 0.2147293123817042 -0.1429938522704238 0 0.2147293123817042 -0.1429938522704238 0 0.20548350855114439 -0.15623176612928341 0 0.19677556980284089 -0.14597147697610061 0 0.20548350855114439 -0.15623176612928341 0 0.19677556980284089 -0.14597147697610061 0 0.19325106823209409 -0.153061144976989 0 0.19677556980284089 -0.14597147697610061 0 0.19325106823209409 -0.153061144976989 0 0.18786488322971459 -0.15098965934649999 0 0.19325106823209409 -0.153061144976989 0 0.18786488322971459 -0.15098965934649999 0 0.1842505296355367 -0.15589311325690541 0 0.19677556980284089 -0.14597147697610061 0 0.18786488322971459 -0.15098965934649999 0 0.188659048266132 -0.1418371739210742 0 0.2147293123817042 -0.1429938522704238 0 0.19677556980284089 -0.14597147697610061 0 0.19260125287660149 -0.13207131947283501 0 0.19677556980284089 -0.14597147697610061 0 0.188659048266132 -0.1418371739210742 0 0.19260125287660149 -0.13207131947283501 0 0.18830323417204939 -0.1765657128700695 0 0.20313295091115369 -0.1678787213591082 0 0.20600005448239761 -0.18645800734220749 0 0.18830323417204939 -0.1765657128700695 0 0.20600005448239761 -0.18645800734220749 0 0.1956377870383576 -0.1970896374814364 0 0.19325106823209409 -0.153061144976989 0 0.18830323417204939 -0.1765657128700695 0 0.19325106823209409 -0.153061144976989 0 0.18830323417204939 -0.1765657128700695 0 0.20313295091115369 -0.1678787213591082 0 0.19325106823209409 -0.153061144976989 0 0.18830323417204939 -0.1765657128700695 0 0.18144082188941271 -0.16389154531309821 0 0.20548350855114439 -0.15623176612928341 0 0.19325106823209409 -0.153061144976989 0 0.20313295091115369 -0.1678787213591082 0 0.20548350855114439 -0.15623176612928341 0 0.20313295091115369 -0.1678787213591082 0 0.21952864142792899 -0.1712536350637954 0 0.2147293123817042 -0.1429938522704238 0 0.21952864142792899 -0.1712536350637954 0 0.2147293123817042 -0.1429938522704238 0 0.20548350855114439 -0.15623176612928341 0 0.21952864142792899 -0.1712536350637954 0 0.20600005448239761 -0.18645800734220749 0 0.21952864142792899 -0.1712536350637954 0 0.22432797047415351 -0.19951341785716731 0 0.20313295091115369 -0.1678787213591082 0 0.20600005448239761 -0.18645800734220749 0 0.21952864142792899 -0.1712536350637954 0 0.21952864142792899 -0.1712536350637954 0 0.2437278363918948 -0.18195096812212239 0 0.22432797047415351 -0.19951341785716731 0 0.21952864142792899 -0.1712536350637954 0 0.22432797047415351 -0.19951341785716731 0 0.23782434991563151 -0.15439369078169049 0 0.21952864142792899 -0.1712536350637954 0 0.2437278363918948 -0.18195096812212239 0 0.260919387449559 -0.16579352929295721 0 0.23782434991563151 -0.15439369078169049 0 0.260919387449559 -0.16579352929295721 0 0.23782434991563151 -0.15439369078169049 0 0.2437278363918948 -0.18195096812212239 0 0.2437278363918948 -0.18195096812212239 0 0.24314545538918961 -0.20571013864437751 0 0.22432797047415351 -0.19951341785716731 0 0.2593871514889205 -0.19799184377322379 0 0.2437278363918948 -0.18195096812212239 0 0.24314545538918961 -0.20571013864437751 0 0.22432797047415351 -0.19951341785716731 0 0.2342802842193491 -0.2219117808856606 0 0.21564630723174069 -0.21833189921059021 0 0.24314545538918961 -0.20571013864437751 0 0.22432797047415351 -0.19951341785716731 0 0.2342802842193491 -0.2219117808856606 0 0.2462907050713771 -0.25204034373521428 0 0.2499607574480687 -0.24385609709525671 0 0.2374752251495614 -0.24157268794541539 0 0.25134951441318748 -0.22920843539767929 0 0.2499607574480687 -0.24385609709525671 0 0.2374752251495614 -0.24157268794541539 0 0.25134951441318748 -0.22920843539767929 0 0.24314545538918961 -0.20571013864437751 0 0.2342802842193491 -0.2219117808856606 0 0.25134951441318748 -0.22920843539767929 0 0.2374752251495614 -0.24157268794541539 0 0.2342802842193491 -0.2219117808856606 0 0.2374752251495614 -0.24157268794541539 0 0.22060620183210919 -0.232775489656291 0 0.2342802842193491 -0.2219117808856606 0 0.22060620183210919 -0.232775489656291 0 0.2342802842193491 -0.2219117808856606 0 0.21564630723174069 -0.21833189921059021 0 0.22198339683909701 -0.25340717595137879 0 0.2374752251495614 -0.24157268794541539 0 0.22060620183210919 -0.232775489656291 0 0.22198339683909701 -0.25340717595137879 0 0.22060620183210919 -0.232775489656291 0 0.22198339683909701 -0.25340717595137879 0 0.22060620183210919 -0.232775489656291 0 0.20573671357227499 -0.23448295905173899 0 0.22198339683909701 -0.25340717595137879 0 0.20573671357227499 -0.23448295905173899 0 0.19815896102696709 -0.24816545406213189 0 0.22060620183210919 -0.232775489656291 0 0.20573671357227499 -0.23448295905173899 0 0.21564630723174069 -0.21833189921059021 0 0.20573671357227499 -0.23448295905173899 0 0.19801089506944891 -0.22061097325298201 0 0.21564630723174069 -0.21833189921059021 0 0.20573671357227499 -0.23448295905173899 0 0.19801089506944891 -0.22061097325298201 0 0.18862314846194941 -0.23474346369713109 0 0.19801089506944891 -0.22061097325298201 0 0.18862314846194941 -0.23474346369713109 0 0.17884496266341901 -0.22149700646801701 0 0.20573671357227499 -0.23448295905173899 0 0.18862314846194941 -0.23474346369713109 0 0.19815896102696709 -0.24816545406213189 0 0.20600005448239761 -0.18645800734220749 0 0.22432797047415351 -0.19951341785716731 0 0.20571207111442141 -0.20503903284801611 0 0.22432797047415351 -0.19951341785716731 0 0.21564630723174069 -0.21833189921059021 0 0.20571207111442141 -0.20503903284801611 0 0.19801089506944891 -0.22061097325298201 0 0.21564630723174069 -0.21833189921059021 0 0.20571207111442141 -0.20503903284801611 0 0.19801089506944891 -0.22061097325298201 0 0.19227081910603411 -0.2100117569492751 0 0.17884496266341901 -0.22149700646801701 0 0.20571207111442141 -0.20503903284801611 0 0.19227081910603411 -0.2100117569492751 0 0.1956377870383576 -0.1970896374814364 0 0.19801089506944891 -0.22061097325298201 0 0.20571207111442141 -0.20503903284801611 0 0.19227081910603411 -0.2100117569492751 0 0.18830323417204939 -0.1765657128700695 0 0.1956377870383576 -0.1970896374814364 0 0.18335540011200491 -0.20007028076315 0 0.19227081910603411 -0.2100117569492751 0 0.1956377870383576 -0.1970896374814364 0 0.18335540011200491 -0.20007028076315 0 0.1956377870383576 -0.1970896374814364 0 0.18335540011200491 -0.20007028076315 0 0.20600005448239761 -0.18645800734220749 0 0.20571207111442141 -0.20503903284801611 0 0.1956377870383576 -0.1970896374814364 0 0.18830323417204939 -0.1765657128700695 0 0.18335540011200491 -0.20007028076315 0 0.18335540011200491 -0.20007028076315 0 0.16873688803845349 -0.19227854821165941 0 0.17543185729929969 -0.18273889272689711 0 0.19227081910603411 -0.2100117569492751 0 0.18335540011200491 -0.20007028076315 0 0.17884496266341901 -0.22149700646801701 0 0.18335540011200491 -0.20007028076315 0 0.17884496266341901 -0.22149700646801701 0 0.18335540011200491 -0.20007028076315 0 0.16621660047528611 -0.21253283526692829 0 0.17884496266341901 -0.22149700646801701 0 0.16621660047528611 -0.21253283526692829 0 0.1593158439583067 -0.2059041094785751 0 0.15302060169630469 -0.2217977003443504 0 0.18335540011200491 -0.20007028076315 0 0.16621660047528611 -0.21253283526692829 0 0.1593158439583067 -0.2059041094785751 0 0.16621660047528611 -0.21253283526692829 0 0.1593158439583067 -0.2059041094785751 0 0.1593158439583067 -0.2059041094785751 0 0.15759932706250929 -0.18907488386135229 0 0.16873688803845349 -0.19227854821165941 0 0.18335540011200491 -0.20007028076315 0 0.1593158439583067 -0.2059041094785751 0 0.18335540011200491 -0.20007028076315 0 0.1593158439583067 -0.2059041094785751 0 0.16873688803845349 -0.19227854821165941 0 0.18066177981631051 -0.25348299893649828 0 0.19815896102696709 -0.24816545406213189 0 0.17433452521483719 -0.24292373217288479 0 0.19815896102696709 -0.24816545406213189 0 0.17433452521483719 -0.24292373217288479 0 0.18862314846194941 -0.23474346369713109 0 0.19815896102696709 -0.24816545406213189 0 0.17433452521483719 -0.24292373217288479 0 0.18066177981631051 -0.25348299893649828 0 0.17304535898525439 -0.24904788565112909 0 0.17433452521483719 -0.24292373217288479 0 0.17304535898525439 -0.24904788565112909 0 0.17433452521483719 -0.24292373217288479 0 0.18862314846194941 -0.23474346369713109 0 0.17433452521483719 -0.24292373217288479 0 0.17884496266341901 -0.22149700646801701 0 0.17433452521483719 -0.24292373217288479 0 0.17884496266341901 -0.22149700646801701 0 0.17433452521483719 -0.24292373217288479 0 0.17884496266341901 -0.22149700646801701 0 0.16512535944417561 -0.22744738033917331 0 0.16512535944417561 -0.22744738033917331 0 0.15532271566916761 -0.23874085795770611 0 0.15302060169630469 -0.2217977003443504 0 0.16621660047528611 -0.21253283526692829 0 0.17884496266341901 -0.22149700646801701 0 0.16512535944417561 -0.22744738033917331 0 0.16621660047528611 -0.21253283526692829 0 0.16512535944417561 -0.22744738033917331 0 0.15302060169630469 -0.2217977003443504 0 0.17304535898525439 -0.24904788565112909 0 0.17433452521483719 -0.24292373217288479 0 0.15532271566916761 -0.23874085795770611 0 0.15867772839633809 -0.25707915377424612 0 0.17304535898525439 -0.24904788565112909 0 0.15532271566916761 -0.23874085795770611 0 0.17433452521483719 -0.24292373217288479 0 0.16512535944417561 -0.22744738033917331 0 0.15532271566916761 -0.23874085795770611 0 0.17433452521483719 -0.24292373217288479 0 0.15532271566916761 -0.23874085795770611 0 0.15532271566916761 -0.23874085795770611 0 0.1363109061234978 -0.23455798374252809 0 0.13687529418603939 -0.26162068250561471 0 0.15532271566916761 -0.23874085795770611 0 0.1363109061234978 -0.23455798374252809 0 0.15532271566916761 -0.23874085795770611 0 0.15302060169630469 -0.2217977003443504 0 0.1363109061234978 -0.23455798374252809 0 0.15302060169630469 -0.2217977003443504 0 0.1363109061234978 -0.23455798374252809 0 0.13583218450739579 -0.2116030352811932 0 0.12594488917549271 -0.2231145762792166 0 0.1363109061234978 -0.23455798374252809 0 0.13583218450739579 -0.2116030352811932 0 0.1363109061234978 -0.23455798374252809 0 0.13583218450739579 -0.2116030352811932 0 0.13687529418603939 -0.26162068250561471 0 0.1363109061234978 -0.23455798374252809 0 0.13687529418603939 -0.26162068250561471 0 0.1223190960555403 -0.2394332616338683 0 0.1363109061234978 -0.23455798374252809 0 0.1593158439583067 -0.2059041094785751 0 0.15759932706250929 -0.18907488386135229 0 0.14727334507129489 -0.19433633097022029 0 0.14727334507129489 -0.19433633097022029 0 0.13523084618428721 -0.18276855246186111 0 0.1593158439583067 -0.2059041094785751 0 0.14727334507129489 -0.19433633097022029 0 0.1593158439583067 -0.2059041094785751 0 0.14727334507129489 -0.19433633097022029 0 0.13583218450739579 -0.2116030352811932 0 0.1593158439583067 -0.2059041094785751 0 0.13583218450739579 -0.2116030352811932 0 0.1593158439583067 -0.2059041094785751 0 0.15302060169630469 -0.2217977003443504 0 0.13583218450739579 -0.2116030352811932 0 0.1146962174531268 -0.21673223195775559 0 0.12594488917549271 -0.2231145762792166 0 0.13583218450739579 -0.2116030352811932 0 0.1146962174531268 -0.21673223195775559 0 0.13583218450739579 -0.2116030352811932 0 0.13583218450739579 -0.2116030352811932 0 0.13523084618428721 -0.18276855246186111 0 0.1210323504124224 -0.2015702574875764 0 0.13583218450739579 -0.2116030352811932 0 0.13523084618428721 -0.18276855246186111 0 0.14727334507129489 -0.19433633097022029 0 0.13583218450739579 -0.2116030352811932 0 0.13523084618428721 -0.18276855246186111 0 0.13523084618428721 -0.18276855246186111 0 0.13483495552902119 -0.16378539130439421 0 0.13523084618428721 -0.18276855246186111 0 0.14953284821028701 -0.17659781711855899 0 0.13483495552902119 -0.16378539130439421 0 0.12574768761326591 -0.17365922399620121 0 0.13523084618428721 -0.18276855246186111 0 0.13483495552902119 -0.16378539130439421 0 0.12574768761326591 -0.17365922399620121 0 0.13523084618428721 -0.18276855246186111 0 0.15759932706250929 -0.18907488386135229 0 0.14727334507129489 -0.19433633097022029 0 0.14953284821028701 -0.17659781711855899 0 0.14727334507129489 -0.19433633097022029 0 0.13523084618428721 -0.18276855246186111 0 0.14953284821028701 -0.17659781711855899 0 0.15759932706250929 -0.18907488386135229 0 0.14953284821028701 -0.17659781711855899 0 0.16056198994912749 -0.17787080610445691 0 0.14953284821028701 -0.17659781711855899 0 0.15118562361057611 -0.16212531631630639 0 0.13483495552902119 -0.16378539130439421 0 0.15118562361057611 -0.16212531631630639 0 0.13483495552902119 -0.16378539130439421 0 0.15272907190244081 -0.1550331303974728 0 0.15118562361057611 -0.16212531631630639 0 0.15272907190244081 -0.1550331303974728 0 0.15987479688754311 -0.1572750313981319 0 0.14953284821028701 -0.17659781711855899 0 0.15118562361057611 -0.16212531631630639 0 0.1601367247146048 -0.167216461388007 0 0.1232701832726428 -0.15427141090171109 0 0.12574768761326591 -0.17365922399620121 0 0.13483495552902119 -0.16378539130439421 0 0.12574768761326591 -0.17365922399620121 0 0.13483495552902119 -0.16378539130439421 0 0.13483495552902119 -0.16378539130439421 0 0.13444198148756639 -0.1449420832838656 0 0.14315652521050079 -0.14523933820255211 0 0.1232701832726428 -0.15427141090171109 0 0.13483495552902119 -0.16378539130439421 0 0.13444198148756639 -0.1449420832838656 0 0.13483495552902119 -0.16378539130439421 0 0.13444198148756639 -0.1449420832838656 0 0.13444198148756639 -0.1449420832838656 0 0.1434537453928684 -0.13532839273855221 0 0.14315652521050079 -0.14523933820255211 0 0.13444198148756639 -0.1449420832838656 0 0.13404900744611239 -0.12609877526333699 0 0.13444198148756639 -0.1449420832838656 0 0.13404900744611239 -0.12609877526333699 0 0.1434537453928684 -0.13532839273855221 0 0.11727103389215909 -0.1361484369810822 0 0.13444198148756639 -0.1449420832838656 0 0.13404900744611239 -0.12609877526333699 0 0.13404900744611239 -0.12609877526333699 0 0.1490682445489844 -0.1279194233146575 0 0.1609569453379138 -0.13854421730491809 0 0.13404900744611239 -0.12609877526333699 0 0.1609569453379138 -0.13854421730491809 0 0.13404900744611239 -0.12609877526333699 0 0.1434537453928684 -0.13532839273855221 0 0.1609569453379138 -0.13854421730491809 0 0.1434537453928684 -0.13532839273855221 0 0.14993504674019009 -0.14021612160814689 0 0.1609569453379138 -0.13854421730491809 0 0.1427320902892944 -0.12257921542734659 0 0.13404900744611239 -0.12609877526333699 0 0.1490682445489844 -0.1279194233146575 0 0.1434537453928684 -0.13532839273855221 0 0.14993504674019009 -0.14021612160814689 0 0.14315652521050079 -0.14523933820255211 0 0.14993504674019009 -0.14021612160814689 0 0.15469010670848909 -0.14221164189652771 0 0.1609569453379138 -0.13854421730491809 0 0.15568199284830581 -0.1296421963895899 0 0.1490682445489844 -0.1279194233146575 0 0.1609569453379138 -0.13854421730491809 0 0.15192118682329561 -0.12273271218809589 0 0.15568199284830581 -0.1296421963895899 0 0.1587247560068413 -0.12564209046719049 0 0.15192118682329561 -0.12273271218809589 0 0.15568199284830581 -0.1296421963895899 0 0.1490682445489844 -0.1279194233146575 0 0.13483495552902119 -0.16378539130439421 0 0.15469010670848909 -0.14221164189652771 0 0.13483495552902119 -0.16378539130439421 0 0.14315652521050079 -0.14523933820255211 0 0.15469010670848909 -0.14221164189652771 0 0.13483495552902119 -0.16378539130439421 0 0.15469010670848909 -0.14221164189652771 0 0.15272907190244081 -0.1550331303974728 0 0.14993504674019009 -0.14021612160814689 0 0.14315652521050079 -0.14523933820255211 0 0.15469010670848909 -0.14221164189652771 0 0.15272907190244081 -0.1550331303974728 0 0.16278769519534109 -0.1503194818261428 0 0.15987479688754311 -0.1572750313981319 0 0.16278769519534109 -0.1503194818261428 0 0.15987479688754311 -0.1572750313981319 0 0.16866771310860729 -0.15951236945753941 0 0.15469010670848909 -0.14221164189652771 0 0.15272907190244081 -0.1550331303974728 0 0.16278769519534109 -0.1503194818261428 0 0.15469010670848909 -0.14221164189652771 0 0.16278769519534109 -0.1503194818261428 0 0.1609569453379138 -0.13854421730491809 0 0.16278769519534109 -0.1503194818261428 0 0.1609569453379138 -0.13854421730491809 0 0.17433915911560069 -0.15342176620747169 0 0.16278769519534109 -0.1503194818261428 0 0.17433915911560069 -0.15342176620747169 0 0.16866771310860729 -0.15951236945753941 0 0.1609569453379138 -0.13854421730491809 0 0.16898528270356589 -0.1319020538664718 0 0.17739448715537109 -0.13831623988886119 0 0.1587247560068413 -0.12564209046719049 0 0.1613780220681113 -0.13045743568360191 0 0.1641162962428066 -0.126449221113482 0 0.15568199284830581 -0.1296421963895899 0 0.1587247560068413 -0.12564209046719049 0 0.1613780220681113 -0.13045743568360191 0 0.15568199284830581 -0.1296421963895899 0 0.1613780220681113 -0.13045743568360191 0 0.1609569453379138 -0.13854421730491809 0 0.1613780220681113 -0.13045743568360191 0 0.1609569453379138 -0.13854421730491809 0 0.16898528270356589 -0.1319020538664718 0 0.173543926957343 -0.1211375462363173 0 0.16898528270356589 -0.1319020538664718 0 0.1641162962428066 -0.126449221113482 0 0.1613780220681113 -0.13045743568360191 0 0.16898528270356589 -0.1319020538664718 0 0.1641162962428066 -0.126449221113482 0 0.173543926957343 -0.1211375462363173 0 0.16898528270356589 -0.1319020538664718 0 0.17990838590865871 -0.12844737664361131 0 0.16898528270356589 -0.1319020538664718 0 0.17739448715537109 -0.13831623988886119 0 0.17990838590865871 -0.12844737664361131 0 0.188659048266132 -0.1418371739210742 0 0.19260125287660149 -0.13207131947283501 0 0.17739448715537109 -0.13831623988886119 0 0.19260125287660149 -0.13207131947283501 0 0.17739448715537109 -0.13831623988886119 0 0.17990838590865871 -0.12844737664361131 0 0.18701697985041221 -0.11880972375357141 0 0.19260125287660149 -0.13207131947283501 0 0.17990838590865871 -0.12844737664361131 0 0.18786488322971459 -0.15098965934649999 0 0.1609569453379138 -0.13854421730491809 0 0.17433915911560069 -0.15342176620747169 0 0.18786488322971459 -0.15098965934649999 0 0.1609569453379138 -0.13854421730491809 0 0.18786488322971459 -0.15098965934649999 0 0.1609569453379138 -0.13854421730491809 0 0.17739448715537109 -0.13831623988886119 0 0.18786488322971459 -0.15098965934649999 0 0.188659048266132 -0.1418371739210742 0 0.17739448715537109 -0.13831623988886119 0 0.18786488322971459 -0.15098965934649999 0 0.17433915911560069 -0.15342176620747169 0 0.1842505296355367 -0.15589311325690541 0 0.17433915911560069 -0.15342176620747169 0 0.1842505296355367 -0.15589311325690541 0 0.18144082188941271 -0.16389154531309821 0 0.19325106823209409 -0.153061144976989 0 0.1842505296355367 -0.15589311325690541 0 0.18144082188941271 -0.16389154531309821 0 0.18830323417204939 -0.1765657128700695 0 0.18144082188941271 -0.16389154531309821 0 0.17072519494025609 -0.1704686386871877 0 0.17433915911560069 -0.15342176620747169 0 0.18144082188941271 -0.16389154531309821 0 0.16866771310860729 -0.15951236945753941 0 0.18144082188941271 -0.16389154531309821 0 0.16866771310860729 -0.15951236945753941 0 0.17072519494025609 -0.1704686386871877 0 0.18830323417204939 -0.1765657128700695 0 0.18335540011200491 -0.20007028076315 0 0.17543185729929969 -0.18273889272689711 0 0.18830323417204939 -0.1765657128700695 0 0.17543185729929969 -0.18273889272689711 0 0.17072519494025609 -0.1704686386871877 0 0.17543185729929969 -0.18273889272689711 0 0.16056198994912749 -0.17787080610445691 0 0.17072519494025609 -0.1704686386871877 0 0.16873688803845349 -0.19227854821165941 0 0.17543185729929969 -0.18273889272689711 0 0.16056198994912749 -0.17787080610445691 0 0.15759932706250929 -0.18907488386135229 0 0.16873688803845349 -0.19227854821165941 0 0.16056198994912749 -0.17787080610445691 0 0.14953284821028701 -0.17659781711855899 0 0.16056198994912749 -0.17787080610445691 0 0.1601367247146048 -0.167216461388007 0 0.16056198994912749 -0.17787080610445691 0 0.1601367247146048 -0.167216461388007 0 0.17072519494025609 -0.1704686386871877 0 0.1601367247146048 -0.167216461388007 0 0.15987479688754311 -0.1572750313981319 0 0.16866771310860729 -0.15951236945753941 0 0.15118562361057611 -0.16212531631630639 0 0.1601367247146048 -0.167216461388007 0 0.15987479688754311 -0.1572750313981319 0 0.1601367247146048 -0.167216461388007 0 0.16866771310860729 -0.15951236945753941 0 0.17072519494025609 -0.1704686386871877 0 
</DataArray>
</Points>
<Cells>
<DataArray type="UInt32" Name="connectivity" format="ascii">
0 1 2 3 4 5 6 7 8 9 10 11 12 13 14 15 16 17 18 19 20 21 22 23 24 25 26 27 28 29 30 31 32 33 34 35 36 37 38 39 40 41 42 43 44 45 46 47 48 49 50 51 52 53 54 55 56 57 58 59 60 61 62 63 64 65 66 67 68 69 70 71 72 73 74 75 76 77 78 79 80 81 82 83 84 85 86 87 88 89 90 91 92 93 94 95 96 97 98 99 100 101 102 103 104 105 106 107 108 109 110 111 112 113 114 115 116 117 118 119 120 121 122 123 124 125 126 127 128 129 130 131 132 133 134 135 136 137 138 139 140 141 142 143 144 145 146 147 148 149 150 151 152 153 154 155 156 157 158 159 160 161 162 163 164 165 166 167 168 169 170 171 172 173 174 175 176 177 178 179 180 181 182 183 184 185 186 187 188 189 190 191 192 193 194 195 196 197 198 199 200 201 202 203 204 205 206 207 208 209 210 211 212 213 214 215 216 217 218 219 220 221 222 223 224 225 226 227 228 229 230 231 232 233 234 235 236 237 238 239 240 241 242 243 244 245 246 247 248 249 250 251 252 253 254 255 256 257 258 259 260 261 262 263 264 265 266 267 268 269 270 271 272 273 274 275 276 277 278 279 280 281 282 283 284 285 286 287 288 289 290 291 292 293 294 295 296 297 298 299 300 301 302 303 304 305 306 307 308 309 310 311 312 313 314 315 316 317 318 319 320 321 322 323 324 325 326 327 328 329 330 331 332 333 334 335 336 337 338 339 340 341 342 343 344 345 346 347 348 349 350 351 352 353 354 355 356 357 358 359 360 361 362 363 364 365 366 367 368 369 370 371 372 373 374 375 376 377 378 379 380 381 382 383 384 385 386 387 388 389 390 391 392 393 394 395 396 397 398 399 400 401 402 403 404 405 406 407 408 409 410 411 412 413 414 415 416 417 418 419 420 421 422 423 424 425 426 427 428 429 430 431 432 433 434 435 436 437 438 439 440 441 442 443 444 445 446 447 448 449 450 451 452 453 454 455 456 457 458 459 460 461 462 463 464 465 466 467 468 469 470 471 472 473 474 475 476 477 478 479 480 481 482 483 484 485 486 487 488 489 490 491 492 493 494 495 496 497 498 499 500 501 502 503 504 505 506 507 508 509 510 511 512 513 514 515 516 517 518 519 520 521 522 523 524 525 526 527 528 529 530 531 532 533 534 535 536 537 538 539 540 541 542 543 544 545 546 547 548 549 550 551 552 553 554 555 556 557 558 559 560 561 562 563 564 565 566 567 568 569 570 571 572 573 574 575 576 577 578 579 580 581 582 583 584 585 586 587 588 589 590 591 592 593 594 595 596 597 598 599 600 601 602 603 604 605 606 607 608 609 610 611 612 613 614 615 616 617 618 619 620 621 622 623 624 625 626 627 628 629 630 631 632 633 634 635 636 637 638 639 640 641 642 643 644 645 646 647 648 649 650 651 652 653 654 655 656 657 658 659 660 661 662 663 664 665 666 667 668 669 670 671 672 673 674 675 676 677 678 679 680 681 682 683 684 685 686 687 688 689 690 691 692 693 694 695 696 697 698 699 700 701 702 703 704 705 706 707 708 709 710 711 712 713 714 715 716 717 718 719 720 721 722 723 724 725 726 727 728 729 730 731 732 733 734 735 736 737 738 739 740 741 742 743 744 745 746 747 748 749 750 751 752 753 754 755 756 757 758 759 760 761 762 763 764 765 766 767 768 769 770 771 772 773 774 775 776 777 778 779 780 781 782 783 784 785 786 787 788 789 790 791 792 793 794 795 796 797 798 799 800 801 802 803 804 805 806 807 808 809 810 811 812 813 814 815 816 817 818 819 820 821 822 823 824 825 826 827 828 829 830 831 832 833 834 835 836 837 838 839 840 841 842 843 844 845 846 847 848 849 850 851 852 853 854 855 856 857 858 859 860 861 862 863 864 865 866 867 868 869 870 871 872 873 874 875 876 877 878 879 880 881 882 883 884 885 886 887 888 889 890 891 892 893 894 895 896 897 898 899 900 901 902 903 904 905 906 907 908 909 910 911 912 913 914 915 916 917 918 919 920 921 922 923 924 925 926 927 928 929 930 931 932 933 934 935 936 937 938 939 940 941 942 943 944 945 946 947 948 949 950 951 952 953 954 955 956 957 958 959 960 961 962 963 964 965 966 967 968 969 970 971 972 973 974 975 976 977 978 979 980 981 982 983 984 985 986 987 988 989 990 991 992 993 994 995 996 997 998 999 1000 1001 1002 1003 1004 1005 1006 1007 1008 1009 1010 1011 1012 1013 1014 1015 1016 1017 1018 1019 1020 1021 1022 1023 1024 1025 1026 1027 1028 1029 1030 1031 1032 1033 1034 1035 1036 1037 1038 1039 1040 1041 1042 1043 1044 1045 1046 1047 1048 1049 1050 1051 1052 1053 1054 1055 1056 1057 1058 1059 1060 1061 1062 1063 1064 1065 1066 1067 1068 1069 1070 1071 1072 1073 1074 1075 1076 1077 1078 1079 1080 1081 1082 1083 1084 1085 1086 1087 1088 1089 1090 1091 1092 1093 1094 1095 1096 1097 1098 1099 1100 1101 1102 1103 1104 1105 1106 1107 1108 1109 1110 1111 1112 1113 1114 1115 1116 1117 1118 1119 1120 1121 1122 1123 1124 1125 1126 1127 1128 1129 1130 1131 1132 1133 1134 1135 1136 1137 1138 1139 1140 1141 1142 1143 1144 1145 1146 1147 1148 1149 1150 1151 1152 1153 1154 1155 1156 1157 1158 1159 1160 1161 1162 1163 1164 1165 1166 1167 1168 1169 1170 1171 1172 1173 1174 1175 1176 1177 1178 1179 1180 1181 1182 1183 1184 1185 1186 1187 1188 1189 1190 1191 1192 1193 1194 1195 1196 1197 1198 1199 1200 1201 1202 1203 1204 1205 1206 1207 1208 1209 1210 1211 1212 1213 1214 1215 1216 1217 1218 1219 1220 1221 1222 1223 1224 1225 1226 1227 1228 1229 1230 1231 1232 1233 1234 1235 1236 1237 1238 1239 1240 1241 1242 1243 1244 1245 1246 1247 1248 1249 1250 1251 1252 1253 1254 1255 1256 1257 1258 1259 1260 1261 1262 1263 1264 1265 1266 1267 1268 1269 1270 1271 1272 1273 1274 1275 1276 1277 1278 1279 1280 1281 1282 1283 1284 1285 1286 1287 1288 1289 1290 1291 1292 1293 1294 1295 1296 1297 1298 1299 1300 1301 1302 1303 1304 1305 1306 1307 1308 1309 1310 1311 1312 1313 1314 1315 1316 1317 1318 1319 1320 1321 1322 1323 1324 1325 1326 1327 1328 1329 1330 1331 1332 1333 1334 1335 1336 1337 1338 1339 1340 1341 1342 1343 1344 1345 1346 1347 1348 1349 1350 1351 1352 1353 1354 1355 1356 1357 1358 1359 1360 1361 1362 1363 1364 1365 1366 1367 1368 1369 1370 1371 1372 1373 1374 1375 1376 1377 1378 1379 1380 1381 1382 1383 1384 1385 1386 1387 1388 1389 1390 1391 1392 1393 1394 1395 1396 1397 1398 1399 1400 1401 1402 1403 1404 1405 1406 1407 1408 1409 1410 1411 1412 1413 1414 1415 1416 1417 1418 1419 1420 1421 1422 1423 1424 1425 1426 1427 1428 1429 1430 1431 1432 1433 1434 1435 1436 1437 1438 1439 1440 1441 1442 1443 1444 1445 1446 1447 1448 1449 1450 1451 1452 1453 1454 1455 1456 1457 1458 1459 1460 1461 1462 1463 1464 1465 1466 1467 1468 1469 1470 1471 1472 1473 1474 1475 1476 1477 1478 1479 1480 1481 1482 1483 1484 1485 1486 1487 1488 1489 1490 1491 1492 1493 1494 1495 1496 1497 1498 1499 1500 1501 1502 1503 1504 1505 1506 1507 1508 1509 1510 1511 1512 1513 1514 1515 1516 1517 1518 1519 1520 1521 1522 1523 1524 1525 1526 1527 1528 1529 1530 1531 1532 1533 1534 1535 1536 1537 1538 1539 1540 1541 1542 1543 1544 1545 1546 1547 1548 1549 1550 1551 1552 1553 1554 1555 1556 1557 1558 1559 1560 1561 1562 1563 1564 1565 1566 1567 1568 1569 1570 1571 1572 1573 1574 1575 1576 1577 1578 1579 1580 1581 1582 1583 1584 1585 1586 1587 1588 1589 1590 1591 1592 1593 1594 1595 1596 1597 1598 1599 1600 1601 1602 1603 1604 1605 1606 1607 1608 1609 1610 1611 1612 1613 1614 1615 1616 1617 1618 1619 1620 1621 1622 1623 1624 1625 1626 1627 1628 1629 1630 1631 1632 1633 1634 1635 1636 1637 1638 1639 1640 1641 1642 1643 1644 1645 1646 1647 1648 1649 1650 1651 1652 1653 1654 1655 1656 1657 1658 1659 1660 1661 1662 1663 1664 1665 1666 1667 1668 1669 1670 1671 1672 1673 1674 1675 1676 1677 1678 1679 1680 1681 1682 1683 1684 1685 1686 1687 1688 1689 1690 1691 1692 1693 1694 1695 1696 1697 1698 1699 1700 1701 1702 1703 1704 1705 1706 1707 1708 1709 1710 1711 1712 1713 1714 1715 1716 1717 1718 1719 1720 1721 1722 1723 1724 1725 1726 1727 1728 1729 1730 1731 1732 1733 1734 1735 1736 1737 1738 1739 1740 1741 1742 1743 1744 1745 1746 1747 1748 1749 1750 1751 1752 1753 1754 1755 1756 1757 1758 1759 1760 1761 1762 1763 1764 1765 1766 1767 1768 1769 1770 1771 1772 1773 1774 1775 1776 1777 1778 1779 1780 1781 1782 1783 1784 1785 1786 1787 1788 1789 1790 1791 1792 1793 1794 1795 1796 1797 1798 1799 1800 1801 1802 1803 1804 1805 1806 1807 1808 1809 1810 1811 1812 1813 1814 1815 1816 1817 1818 1819 1820 1821 1822 1823 1824 1825 1826 1827 1828 1829 1830 1831 1832 1833 1834 1835 1836 1837 1838 1839 1840 1841 1842 1843 1844 1845 1846 1847 1848 1849 1850 1851 1852 1853 1854 1855 1856 1857 1858 1859 1860 1861 1862 1863 1864 1865 1866 1867 1868 1869 1870 1871 1872 1873 1874 1875 1876 1877 1878 1879 1880 1881 1882 1883 1884 1885 1886 1887 1888 1889 1890 1891 1892 1893 1894 1895 1896 1897 1898 1899 1900 1901 1902 1903 1904 1905 1906 1907 1908 1909 1910 1911 1912 1913 1914 1915 1916 1917 1918 1919 1920 1921 1922 1923 1924 1925 1926 1927 1928 1929 1930 1931 1932 1933 1934 1935 1936 1937 1938 1939 1940 1941 1942 1943 1944 1945 1946 1947 1948 1949 1950 1951 1952 1953 1954 1955 1956 1957 1958 1959 1960 1961 1962 1963 1964 1965 1966 1967 1968 1969 1970 1971 1972 1973 1974 1975 1976 1977 1978 1979 1980 1981 1982 1983 1984 1985 1986 1987 1988 1989 1990 1991 1992 1993 1994 1995 1996 1997 1998 1999 2000 2001 2002 2003 2004 2005 2006 2007 2008 2009 2010 2011 2012 2013 2014 2015 2016 2017 2018 2019 2020 2021 2022 2023 2024 2025 2026 2027 2028 2029 2030 2031 2032 2033 2034 2035 2036 2037 2038 2039 2040 2041 2042 2043 2044 2045 2046 2047 2048 2049 2050 2051 2052 2053 2054 2055 2056 2057 2058 2059 2060 2061 2062 2063 2064 2065 2066 2067 2068 2069 2070 2071 2072 2073 2074 2075 2076 2077 2078 2079 2080 2081 2082 2083 2084 2085 2086 2087 2088 2089 2090 2091 2092 2093 2094 2095 2096 2097 2098 2099 2100 2101 2102 2103 2104 2105 2106 2107 2108 2109 2110 2111 2112 2113 2114 2115 2116 2117 2118 2119 2120 2121 2122 2123 2124 2125 2126 2127 2128 2129 2130 2131 2132 2133 2134 2135 2136 2137 2138 2139 2140 2141 2142 2143 2144 2145 2146 2147 2148 2149 2150 2151 2152 2153 2154 2155 2156 2157 2158 2159 2160 2161 2162 2163 2164 2165 2166 2167 2168 2169 2170 2171 2172 2173 2174 2175 2176 2177 2178 2179 2180 2181 2182 2183 2184 2185 2186 2187 2188 2189 2190 2191 2192 2193 2194 2195 2196 2197 2198 2199 2200 2201 2202 2203 2204 2205 2206 2207 2208 2209 2210 2211 2212 2213 2214 2215 2216 2217 2218 2219 2220 2221 2222 2223 2224 2225 2226 2227 2228 2229 2230 2231 2232 2233 2234 2235 2236 2237 2238 2239 2240 2241 2242 2243 2244 2245 2246 2247 2248 2249 2250 2251 2252 2253 2254 2255 2256 2257 2258 2259 2260 2261 2262 2263 2264 2265 2266 2267 2268 2269 2270 2271 2272 2273 2274 2275 2276 2277 2278 2279 2280 2281 2282 2283 2284 2285 2286 2287 2288 2289 2290 2291 2292 2293 2294 2295 2296 2297 2298 2299 2300 2301 2302 2303 2304 2305 2306 2307 2308 2309 2310 2311 2312 2313 2314 2315 2316 2317 2318 2319 2320 2321 2322 2323 2324 2325 2326 2327 2328 2329 2330 2331 2332 2333 2334 2335 2336 2337 2338 2339 2340 2341 2342 2343 2344 2345 2346 2347 2348 2349 2350 2351 2352 2353 2354 2355 2356 2357 2358 2359 2360 2361 2362 2363 2364 2365 2366 2367 2368 2369 2370 2371 2372 2373 2374 2375 2376 2377 2378 2379 2380 2381 2382 2383 2384 2385 2386 2387 2388 2389 2390 2391 2392 2393 2394 2395 2396 2397 2398 2399 2400 2401 2402 2403 2404 2405 2406 2407 2408 2409 2410 2411 2412 2413 2414 2415 2416 2417 2418 2419 2420 2421 2422 2423 2424 2425 2426 2427 2428 2429 2430 2431 2432 2433 2434 2435 2436 2437 2438 2439 2440 2441 2442 2443 2444 2445 2446 2447 2448 2449 2450 2451 2452 2453 2454 2455 2456 2457 2458 2459 2460 2461 2462 2463 2464 2465 2466 2467 2468 2469 2470 2471 2472 2473 2474 2475 2476 2477 2478 2479 2480 2481 2482 2483 2484 2485 2486 2487 2488 2489 2490 2491 2492 2493 2494 2495 2496 2497 2498 2499 2500 2501 2502 2503 2504 2505 2506 2507 2508 2509 2510 2511 2512 2513 2514 2515 2516 2517 2518 2519 2520 2521 2522 2523 2524 2525 2526 2527 2528 2529 2530 2531 2532 2533 2534 2535 2536 2537 2538 2539 2540 2541 2542 2543 2544 2545 2546 2547 2548 2549 2550 2551 2552 2553 2554 2555 2556 2557 2558 2559 2560 2561 2562 2563 2564 2565 2566 2567 2568 2569 2570 2571 2572 2573 2574 2575 2576 2577 2578 2579 2580 2581 2582 2583 2584 2585 2586 2587 2588 2589 2590 2591 2592 2593 2594 2595 2596 2597 2598 2599 2600 2601 2602 2603 2604 2605 2606 2607 2608 2609 2610 2611 2612 2613 2614 2615 2616 2617 2618 2619 2620 2621 2622 2623 2624 2625 2626 2627 2628 2629 2630 2631 2632 2633 2634 2635 2636 2637 2638 2639 2640 2641 2642 2643 2644 2645 2646 2647 2648 2649 2650 2651 2652 2653 2654 2655 2656 2657 2658 2659 2660 2661 2662 2663 2664 2665 2666 2667 2668 2669 2670 2671 2672 2673 2674 2675 2676 2677 2678 2679 2680 2681 2682 2683 2684 2685 2686 2687 2688 2689 2690 2691 2692 2693 2694 2695 2696 2697 2698 2699 2700 2701 2702 2703 2704 2705 2706 2707 2708 2709 2710 2711 2712 2713 2714 2715 2716 2717 2718 2719 2720 2721 2722 2723 2724 2725 2726 2727 2728 2729 2730 2731 2732 2733 2734 2735 2736 2737 2738 2739 2740 2741 2742 2743 2744 2745 2746 2747 2748 2749 2750 2751 2752 2753 2754 2755 2756 2757 2758 2759 2760 2761 2762 2763 2764 2765 2766 2767 2768 2769 2770 2771 2772 2773 2774 2775 2776 2777 2778 2779 2780 2781 2782 2783 2784 2785 2786 2787 2788 2789 2790 2791 2792 2793 2794 2795 2796 2797 2798 2799 2800 2801 2802 2803 2804 2805 2806 2807 2808 2809 2810 2811 2812 2813 2814 2815 2816 2817 2818 2819 2820 2821 2822 2823 2824 2825 2826 2827 2828 2829 2830 2831 2832 2833 2834 2835 2836 2837 2838 2839 2840 2841 2842 2843 2844 2845 2846 2847 2848 2849 2850 2851 2852 2853 2854 2855 2856 2857 2858 2859 2860 2861 2862 2863 2864 2865 2866 2867 2868 2869 2870 2871 2872 2873 2874 2875 2876 2877 2878 2879 2880 2881 2882 2883 2884 2885 2886 2887 2888 2889 2890 2891 2892 2893 2894 2895 2896 2897 2898 2899 2900 2901 2902 2903 2904 2905 2906 2907 2908 2909 2910 2911 2912 2913 2914 2915 2916 2917 2918 2919 2920 2921 2922 2923 2924 2925 2926 2927 2928 2929 2930 2931 2932 2933 2934 2935 2936 2937 2938 2939 2940 2941 2942 2943 2944 2945 2946 2947 2948 2949 2950 2951 2952 2953 2954 2955 2956 2957 2958 2959 2960 2961 2962 2963 2964 2965 2966 2967 2968 2969 2970 2971 2972 2973 2974 2975 2976 2977 2978 2979 2980 2981 2982 2983 2984 2985 2986 2987 2988 2989 2990 2991 2992 2993 2994 2995 2996 2997 2998 2999 3000 3001 3002 3003 3004 3005 3006 3007 3008 3009 3010 3011 3012 3013 3014 3015 3016 3017 3018 3019 3020 3021 3022 3023 3024 3025 3026 3027 3028 3029 3030 3031 3032 3033 3034 3035 3036 3037 3038 3039 3040 3041 3042 3043 3044 3045 3046 3047 3048 3049 3050 3051 3052 3053 3054 3055 3056 3057 3058 3059 3060 3061 3062 3063 3064 3065 3066 3067 3068 3069 3070 3071 3072 3073 3074 3075 3076 3077 3078 3079 3080 3081 3082 3083 3084 3085 3086 3087 3088 3089 3090 3091 3092 3093 3094 3095 3096 3097 3098 3099 3100 3101 3102 3103 3104 3105 3106 3107 3108 3109 3110 3111 3112 3113 3114 3115 3116 3117 3118 3119 3120 3121 3122 3123 3124 3125 3126 3127 3128 3129 3130 3131 3132 3133 3134 3135 3136 3137 3138 3139 3140 3141 3142 3143 3144 3145 3146 3147 3148 3149 3150 3151 3152 3153 3154 3155 3156 3157 3158 3159 3160 3161 3162 3163 3164 3165 3166 3167 3168 3169 3170 3171 3172 3173 3174 3175 3176 3177 3178 3179 3180 3181 3182 3183 3184 3185 3186 3187 3188 3189 3190 3191 3192 3193 3194 3195 3196 3197 3198 3199 3200 3201 3202 3203 3204 3205 3206 3207 3208 3209 3210 3211 3212 3213 3214 3215 3216 3217 3218 3219 3220 3221 3222 3223 3224 3225 3226 3227 3228 3229 3230 3231 3232 3233 3234 3235 3236 3237 3238 3239 3240 3241 3242 3243 3244 3245 3246 3247 3248 3249 3250 3251 3252 3253 3254 3255 3256 3257 3258 3259 3260 3261 3262 3263 3264 3265 3266 3267 3268 3269 3270 3271 3272 3273 3274 3275 3276 3277 3278 3279 3280 3281 3282 3283 3284 3285 3286 3287 3288 3289 3290 3291 3292 3293 3294 3295 3296 3297 3298 3299 3300 3301 3302 3303 3304 3305 3306 3307 3308 3309 3310 3311 3312 3313 3314 3315 3316 3317 3318 3319 3320 3321 3322 3323 3324 3325 3326 3327 3328 3329 3330 3331 3332 3333 3334 3335 3336 3337 3338 3339 3340 3341 3342 3343 3344 3345 3346 3347 3348 3349 3350 3351 3352 3353 3354 3355 3356 3357 3358 3359 3360 3361 3362 3363 3364 3365 3366 3367 3368 3369 3370 3371 3372 3373 3374 3375 3376 3377 3378 3379 3380 3381 3382 3383 3384 3385 3386 3387 3388 3389 3390 3391 3392 3393 3394 3395 3396 3397 3398 3399 3400 3401 3402 3403 3404 3405 3406 3407 3408 3409 3410 3411 3412 3413 3414 3415 3416 3417 3418 3419 3420 3421 3422 3423 3424 3425 3426 3427 3428 3429 3430 3431 3432 3433 3434 3435 3436 3437 3438 3439 3440 3441 3442 3443 3444 3445 3446 3447 3448 3449 3450 3451 3452 3453 3454 3455 3456 3457 3458 3459 3460 3461 3462 3463 3464 3465 3466 3467 3468 3469 3470 3471 3472 3473 3474 3475 3476 3477 3478 3479 3480 3481 3482 3483 3484 3485 3486 3487 3488 3489 3490 3491 3492 3493 3494 3495 3496 3497 3498 3499 3500 3501 3502 3503 3504 3505 3506 3507 3508 3509 3510 3511 3512 3513 3514 3515 3516 3517 3518 3519 3520 3521 3522 3523 3524 3525 3526 3527 3528 3529 3530 3531 3532 3533 3534 3535 3536 3537 3538 3539 3540 3541 3542 3543 3544 3545 3546 3547 3548 3549 3550 3551 3552 3553 3554 3555 3556 3557 3558 3559 3560 3561 3562 3563 3564 3565 3566 3567 3568 3569 3570 3571 3572 3573 3574 3575 3576 3577 3578 3579 3580 3581 3582 3583 3584 3585 3586 3587 3588 3589 3590 3591 3592 3593 3594 3595 3596 3597 3598 3599 3600 3601 3602 3603 3604 3605 3606 3607 3608 3609 3610 3611 3612 3613 3614 3615 3616 3617 3618 3619 3620 3621 3622 3623 3624 3625 3626 3627 3628 3629 3630 3631 3632 3633 3634 3635 3636 3637 3638 3639 3640 3641 3642 3643 3644 3645 3646 3647 3648 3649 3650 3651 3652 3653 3654 3655 3656 3657 3658 3659 3660 3661 3662 3663 3664 3665 3666 3667 3668 3669 3670 3671 3672 3673 3674 3675 3676 3677 3678 3679 3680 3681 3682 3683 3684 3685 3686 3687 3688 3689 3690 3691 3692 3693 3694 3695 3696 3697 3698 3699 3700 3701 3702 3703 3704 3705 3706 3707 3708 3709 3710 3711 3712 3713 3714 3715 3716 3717 3718 3719 3720 3721 3722 3723 3724 3725 3726 3727 3728 3729 3730 3731 3732 3733 3734 3735 3736 3737 3738 3739 3740 3741 3742 3743 3744 3745 3746 3747 3748 3749 3750 3751 3752 3753 3754 3755 3756 3757 3758 3759 3760 3761 3762 3763 3764 3765 3766 3767 3768 3769 3770 3771 3772 3773 3774 3775 3776 3777 3778 3779 3780 3781 3782 3783 3784 3785 3786 3787 3788 3789 3790 3791 3792 3793 3794 3795 3796 3797 3798 3799 3800 3801 3802 3803 3804 3805 3806 3807 3808 3809 3810 3811 3812 3813 3814 3815 3816 3817 3818 3819 3820 3821 3822 3823 3824 3825 3826 3827 3828 3829 3830 3831 3832 3833 3834 3835 3836 3837 3838 3839 3840 3841 3842 3843 3844 3845 3846 3847 3848 3849 3850 3851 3852 3853 3854 3855 3856 3857 3858 3859 3860 3861 3862 3863 3864 3865 3866 3867 3868 3869 3870 3871 3872 3873 3874 3875 3876 3877 3878 3879 3880 3881 3882 3883 3884 3885 3886 3887 3888 3889 3890 3891 3892 3893 3894 3895 3896 3897 3898 3899 3900 3901 3902 3903 3904 3905 3906 3907 3908 3909 3910 3911 3912 3913 3914 3915 3916 3917 3918 3919 3920 3921 3922 3923 3924 3925 3926 3927 3928 3929 3930 3931 3932 3933 3934 3935 3936 3937 3938 3939 3940 3941 3942 3943 3944 3945 3946 3947 3948 3949 3950 3951 3952 3953 3954 3955 3956 3957 3958 3959 3960 3961 3962 3963 3964 3965 3966 3967 3968 3969 3970 3971 3972 3973 3974 3975 3976 3977 3978 3979 3980 3981 3982 3983 3984 3985 3986 3987 3988 3989 3990 3991 3992 3993 3994 3995 3996 3997 3998 3999 4000 4001 4002 4003 4004 4005 4006 4007 4008 4009 4010 4011 4012 4013 4014 4015 4016 4017 4018 4019 4020 4021 4022 4023 4024 4025 4026 4027 4028 4029 4030 4031 4032 4033 4034 4035 4036 4037 4038 4039 4040 4041 4042 4043 4044 4045 4046 4047 4048 4049 4050 4051 4052 4053 4054 4055 4056 4057 4058 4059 4060 4061 4062 4063 4064 4065 4066 4067 4068 4069 4070 4071 4072 4073 4074 4075 4076 4077 4078 4079 4080 4081 4082 4083 4084 4085 4086 4087 4088 4089 4090 4091 4092 4093 4094 4095 4096 4097 4098 4099 4100 4101 4102 4103 4104 4105 4106 4107 4108 4109 4110 4111 4112 4113 4114 4115 4116 4117 4118 4119 4120 4121 4122 4123 4124 4125 4126 4127 4128 4129 4130 4131 4132 4133 4134 4135 4136 4137 4138 4139 4140 4141 4142 4143 4144 4145 4146 4147 4148 4149 4150 4151 4152 4153 4154 4155 4156 4157 4158 4159 4160 4161 4162 4163 4164 4165 4166 4167 4168 4169 4170 4171 4172 4173 4174 4175 4176 4177 4178 4179 4180 4181 4182 4183 4184 4185 4186 4187 4188 4189 4190 4191 4192 4193 4194 4195 4196 4197 4198 4199 4200 4201 4202 4203 4204 4205 4206 4207 4208 4209 4210 4211 4212 4213 4214 4215 4216 4217 4218 4219 4220 4221 4222 4223 4224 4225 4226 4227 4228 4229 4230 4231 4232 4233 4234 4235 4236 4237 4238 4239 4240 4241 4242 4243 4244 4245 4246 4247 4248 4249 4250 4251 4252 4253 4254 4255 4256 4257 4258 4259 4260 4261 4262 4263 4264 4265 4266 4267 4268 4269 4270 4271 4272 4273 4274 4275 4276 4277 4278 4279 4280 4281 4282 4283 4284 4285 4286 4287 4288 4289 4290 4291 4292 4293 4294 4295 4296 4297 4298 4299 4300 4301 4302 4303 4304 4305 4306 4307 4308 4309 4310 4311 4312 4313 4314 4315 4316 4317 4318 4319 4320 4321 4322 4323 4324 4325 4326 4327 4328 4329 4330 4331 4332 4333 4334 4335 4336 4337 4338 4339 4340 4341 4342 4343 4344 4345 4346 4347 4348 4349 4350 4351 4352 4353 4354 4355 4356 4357 4358 4359 4360 4361 4362 4363 4364 4365 4366 4367 4368 4369 4370 4371 4372 4373 4374 4375 4376 4377 4378 4379 4380 4381 4382 4383 4384 4385 4386 4387 4388 4389 4390 4391 4392 4393 4394 4395 4396 4397 4398 4399 4400 4401 4402 4403 4404 4405 4406 4407 4408 4409 4410 4411 4412 4413 4414 4415 4416 4417 4418 4419 4420 4421 4422 4423 4424 4425 4426 4427 4428 4429 4430 4431 4432 4433 4434 4435 4436 4437 4438 4439 4440 4441 4442 4443 4444 4445 4446 4447 4448 4449 4450 4451 4452 4453 4454 4455 4456 4457 4458 4459 4460 4461 4462 4463 4464 4465 4466 4467 4468 4469 4470 4471 4472 4473 4474 4475 4476 4477 4478 4479 4480 4481 4482 4483 4484 4485 4486 4487 4488 4489 4490 4491 4492 4493 4494 4495 4496 4497 4498 4499 4500 4501 4502 4503 4504 4505 4506 4507 4508 4509 4510 4511 4512 4513 4514 4515 4516 4517 4518 4519 4520 4521 4522 4523 4524 4525 4526 4527 4528 4529 4530 4531 4532 4533 4534 4535 4536 4537 4538 4539 4540 4541 4542 4543 4544 4545 4546 4547 4548 4549 4550 4551 4552 4553 4554 4555 4556 4557 4558 4559 4560 4561 4562 4563 4564 4565 4566 4567 4568 4569 4570 4571 4572 4573 4574 4575 4576 4577 4578 4579 4580 4581 4582 4583 4584 4585 4586 4587 4588 4589 4590 4591 4592 4593 4594 4595 4596 4597 4598 4599 4600 4601 4602 4603 4604 4605 4606 4607 4608 4609 4610 4611 4612 4613 4614 4615 4616 4617 4618 4619 4620 4621 4622 4623 4624 4625 4626 4627 4628 4629 4630 4631 4632 4633 4634 4635 4636 4637 4638 4639 4640 4641 4642 4643 4644 4645 4646 4647 4648 4649 4650 4651 4652 4653 4654 4655 4656 4657 4658 4659 4660 4661 4662 4663 4664 4665 4666 4667 4668 4669 4670 4671 4672 4673 4674 4675 4676 4677 4678 4679 4680 4681 4682 4683 4684 4685 4686 4687 4688 4689 4690 4691 4692 4693 4694 4695 4696 4697 4698 4699 4700 4701 4702 4703 4704 4705 4706 4707 4708 4709 4710 4711 4712 4713 4714 4715 4716 4717 4718 4719 4720 4721 4722 4723 4724 4725 4726 4727 4728 4729 4730 4731 4732 4733 4734 4735 4736 4737 4738 4739 4740 4741 4742 4743 4744 4745 4746 4747 4748 4749 4750 4751 4752 4753 4754 4755 4756 4757 4758 4759 4760 4761 4762 4763 4764 4765 4766 4767 4768 4769 4770 4771 4772 4773 4774 4775 4776 4777 4778 4779 4780 4781 4782 4783 4784 4785 4786 4787 4788 4789 4790 4791 4792 4793 4794 4795 4796 4797 4798 4799 4800 4801 4802 4803 4804 4805 4806 4807 4808 4809 4810 4811 4812 4813 4814 4815 4816 4817 4818 4819 4820 4821 4822 4823 4824 4825 4826 4827 4828 4829 4830 4831 4832 4833 4834 4835 4836 4837 4838 4839 4840 4841 4842 4843 4844 4845 4846 4847 4848 4849 4850 4851 4852 4853 4854 4855 4856 4857 4858 4859 4860 4861 4862 4863 4864 4865 4866 4867 4868 4869 4870 4871 4872 4873 4874 4875 4876 4877 4878 4879 4880 4881 4882 4883 4884 4885 4886 4887 4888 4889 4890 4891 4892 4893 4894 4895 4896 4897 4898 4899 4900 4901 4902 4903 4904 4905 4906 4907 4908 4909 4910 4911 4912 4913 4914 4915 4916 4917 4918 4919 4920 4921 4922 4923 4924 4925 4926 4927 4928 4929 4930 4931 4932 4933 4934 4935 4936 4937 4938 4939 4940 4941 4942 4943 4944 4945 4946 4947 4948 4949 4950 4951 4952 4953 4954 4955 4956 4957 4958 4959 4960 4961 4962 4963 4964 4965 4966 4967 4968 4969 4970 4971 4972 4973 4974 4975 4976 4977 4978 4979 4980 4981 4982 4983 4984 4985 4986 4987 4988 4989 4990 4991 4992 4993 4994 4995 4996 4997 4998 4999 5000 5001 5002 5003 5004 5005 5006 5007 5008 5009 5010 5011 5012 5013 5014 5015 5016 5017 5018 5019 5020 5021 5022 5023 5024 5025 5026 5027 5028 5029 5030 5031 5032 5033 5034 5035 5036 5037 5038 5039 5040 5041 5042 5043 5044 5045 5046 5047 5048 5049 5050 5051 5052 5053 5054 5055 5056 5057 5058 5059 5060 5061 5062 5063 5064 5065 5066 5067 5068 5069 5070 5071 5072 5073 5074 5075 5076 5077 5078 5079 5080 5081 5082 5083 5084 5085 5086 5087 5088 5089 5090 5091 5092 5093 5094 5095 5096 5097 5098 5099 5100 5101 5102 5103 5104 5105 5106 5107 5108 5109 5110 5111 5112 5113 5114 5115 5116 5117 5118 5119 5120 5121 5122 5123 5124 5125 5126 5127 5128 5129 5130 5131 5132 5133 5134 5135 5136 5137 5138 5139 5140 5141 5142 5143 5144 5145 5146 5147 5148 5149 5150 5151 5152 5153 5154 5155 5156 5157 5158 5159 5160 5161 5162 5163 5164 5165 5166 5167 5168 5169 5170 5171 5172 5173 5174 5175 5176 5177 5178 5179 5180 5181 5182 5183 5184 5185 5186 5187 5188 5189 5190 5191 5192 5193 5194 5195 5196 5197 5198 5199 5200 5201 5202 5203 5204 5205 5206 5207 5208 5209 5210 5211 5212 5213 5214 5215 5216 5217 5218 5219 5220 5221 5222 5223 5224 5225 5226 5227 5228 5229 5230 5231 5232 5233 5234 5235 5236 5237 5238 5239 5240 5241 5242 5243 5244 5245 5246 5247 5248 5249 5250 5251 5252 5253 5254 5255 5256 5257 5258 5259 5260 5261 5262 5263 5264 5265 5266 5267 5268 5269 5270 5271 5272 5273 5274 5275 5276 5277 5278 5279 5280 5281 5282 5283 5284 5285 5286 5287 5288 5289 5290 5291 5292 5293 5294 5295 5296 5297 5298 5299 5300 5301 5302 5303 5304 5305 5306 5307 5308 5309 5310 5311 5312 5313 5314 5315 5316 5317 5318 5319 5320 5321 5322 5323 5324 5325 5326 5327 5328 5329 5330 5331 5332 5333 5334 5335 5336 5337 5338 5339 5340 5341 5342 5343 5344 5345 5346 5347 5348 5349 5350 5351 5352 5353 5354 5355 5356 5357 5358 5359 5360 5361 5362 5363 5364 5365 5366 5367 5368 5369 5370 5371 5372 5373 5374 5375 5376 5377 5378 5379 5380 5381 5382 5383 5384 5385 5386 5387 5388 5389 5390 5391 5392 5393 5394 5395 5396 5397 5398 5399 5400 5401 5402 5403 5404 5405 5406 5407 5408 5409 5410 5411 5412 5413 5414 5415 5416 5417 5418 5419 5420 5421 5422 5423 5424 5425 5426 5427 5428 5429 5430 5431 5432 5433 5434 5435 5436 5437 5438 5439 5440 5441 5442 5443 5444 5445 5446 5447 5448 5449 5450 5451 5452 5453 5454 5455 5456 5457 5458 5459 5460 5461 5462 5463 5464 5465 5466 5467 5468 5469 5470 5471 5472 5473 5474 5475 5476 5477 5478 5479 5480 5481 5482 5483 5484 5485 5486 5487 5488 5489 5490 5491 5492 5493 5494 5495 5496 5497 5498 5499 5500 5501 5502 5503 5504 5505 5506 5507 5508 5509 5510 5511 5512 5513 5514 5515 5516 5517 5518 5519 5520 5521 5522 5523 5524 5525 5526 5527 5528 5529 5530 5531 5532 5533 5534 5535 5536 5537 5538 5539 5540 5541 5542 5543 5544 5545 5546 5547 5548 5549 5550 5551 5552 5553 5554 5555 5556 5557 5558 5559 5560 5561 5562 5563 5564 5565 5566 5567 5568 5569 5570 5571 5572 5573 5574 5575 5576 5577 5578 5579 5580 5581 5582 5583 5584 5585 5586 5587 5588 5589 5590 5591 5592 5593 5594 5595 5596 5597 5598 5599 5600 5601 5602 5603 5604 5605 5606 5607 5608 5609 5610 5611 5612 5613 5614 5615 5616 5617 5618 5619 5620 5621 5622 5623 5624 5625 5626 5627 5628 5629 5630 5631 5632 5633 5634 5635 5636 5637 5638 5639 5640 5641 5642 5643 5644 5645 5646 5647 5648 5649 5650 5651 5652 5653 5654 5655 5656 5657 5658 5659 5660 5661 5662 5663 5664 5665 5666 5667 5668 5669 5670 5671 5672 5673 5674 5675 5676 5677 5678 5679 5680 5681 5682 5683 5684 5685 5686 5687 5688 5689 5690 5691 5692 5693 5694 5695 5696 5697 5698 5699 5700 5701 5702 5703 5704 5705 5706 5707 5708 5709 5710 5711 5712 5713 5714 5715 5716 5717 5718 5719 5720 5721 5722 5723 5724 5725 5726 5727 5728 5729 5730 5731 5732 5733 5734 5735 5736 5737 5738 5739 5740 5741 5742 5743 5744 5745 5746 5747 5748 5749 5750 5751 5752 5753 5754 5755 5756 5757 5758 5759 5760 5761 5762 5763 5764 5765 5766 5767 5768 5769 5770 5771 5772 5773 5774 5775 5776 5777 5778 5779 5780 5781 5782 5783 5784 5785 5786 5787 5788 5789 5790 5791 5792 5793 5794 5795 5796 5797 5798 5799 5800 5801 5802 5803 5804 5805 5806 5807 5808 5809 5810 5811 5812 5813 5814 5815 5816 5817 5818 5819 5820 5821 5822 5823 5824 5825 5826 5827 5828 5829 5830 5831 5832 5833 5834 5835 5836 5837 5838 5839 5840 5841 5842 5843 5844 5845 5846 5847 5848 5849 5850 5851 5852 5853 5854 5855 5856 5857 5858 5859 5860 5861 5862 5863 5864 5865 5866 5867 5868 5869 5870 5871 5872 5873 5874 5875 5876 5877 5878 5879 5880 5881 5882 5883 5884 5885 5886 5887 5888 5889 5890 5891 5892 5893 5894 5895 5896 5897 5898 5899 5900 5901 5902 5903 5904 5905 5906 5907 5908 5909 5910 5911 5912 5913 5914 5915 5916 5917 5918 5919 5920 5921 5922 5923 5924 5925 5926 5927 5928 5929 5930 5931 5932 5933 5934 5935 5936 5937 5938 5939 5940 5941 5942 5943 5944 5945 5946 5947 5948 5949 5950 5951 5952 5953 5954 5955 5956 5957 5958 5959 5960 5961 5962 5963 5964 5965 5966 5967 5968 5969 5970 5971 5972 5973 5974 5975 5976 5977 5978 5979 5980 5981 5982 5983 5984 5985 5986 5987 5988 5989 5990 5991 5992 5993 5994 5995 5996 5997 5998 5999 6000 6001 6002 6003 6004 6005 6006 6007 6008 6009 6010 6011 6012 6013 6014 6015 6016 6017 6018 6019 6020 6021 6022 6023 6024 6025 6026 6027 6028 6029 6030 6031 6032 6033 6034 6035 6036 6037 6038 6039 6040 6041 6042 6043 6044 6045 6046 6047 6048 6049 6050 6051 6052 6053 6054 6055 6056 6057 6058 6059 6060 6061 6062 6063 6064 6065 6066 6067 6068 6069 6070 6071 6072 6073 6074 6075 6076 6077 6078 6079 6080 6081 6082 6083 6084 6085 6086 6087 6088 6089 6090 6091 6092 6093 6094 6095 6096 6097 6098 6099 6100 6101 6102 6103 6104 6105 6106 6107 6108 6109 6110 6111 6112 6113 6114 6115 6116 6117 6118 6119 6120 6121 6122 6123 6124 6125 6126 6127 6128 6129 6130 6131 6132 6133 6134 6135 6136 6137 6138 6139 6140 6141 6142 6143 6144 6145 6146 6147 6148 6149 6150 6151 6152 6153 6154 6155 6156 6157 6158 6159 6160 6161 6162 6163 6164 6165 6166 6167 6168 6169 6170 6171 6172 6173 6174 6175 6176 6177 6178 6179 6180 6181 6182 6183 6184 6185 6186 6187 6188 6189 6190 6191 6192 6193 6194 6195 6196 6197 6198 6199 6200 6201 6202 6203 6204 6205 6206 6207 6208 6209 6210 6211 6212 6213 6214 6215 6216 6217 6218 6219 6220 6221 6222 6223 6224 6225 6226 6227 6228 6229 6230 6231 6232 6233 6234 6235 6236 6237 6238 6239 6240 6241 6242 6243 6244 6245 6246 6247 6248 6249 6250 6251 6252 6253 6254 6255 6256 6257 6258 6259 6260 6261 6262 6263 6264 6265 6266 6267 6268 6269 6270 6271 6272 6273 6274 6275 6276 6277 6278 6279 6280 6281 6282 6283 6284 6285 6286 6287 6288 6289 6290 6291 6292 6293 6294 6295 6296 6297 6298 6299 6300 6301 6302 6303 6304 6305 6306 6307 6308 6309 6310 6311 6312 6313 6314 6315 6316 6317 6318 6319 6320 6321 6322 6323 6324 6325 6326 6327 6328 6329 6330 6331 6332 6333 6334 6335 6336 6337 6338 6339 6340 6341 6342 6343 6344 6345 6346 6347 6348 6349 6350 6351 6352 6353 6354 6355 6356 6357 6358 6359 6360 6361 6362 6363 6364 6365 6366 6367 6368 6369 6370 6371 6372 6373 6374 6375 6376 6377 6378 6379 6380 6381 6382 6383 6384 6385 6386 6387 6388 6389 6390 6391 6392 6393 6394 6395 6396 6397 6398 6399 6400 6401 6402 6403 6404 6405 6406 6407 6408 6409 6410 6411 6412 6413 6414 6415 6416 6417 6418 6419 6420 6421 6422 6423 6424 6425 6426 6427 6428 6429 6430 6431 6432 6433 6434 6435 6436 6437 6438 6439 6440 6441 6442 6443 6444 6445 6446 6447 6448 6449 6450 6451 6452 6453 6454 6455 6456 6457 6458 6459 6460 6461 6462 6463 6464 6465 6466 6467 6468 6469 6470 6471 6472 6473 6474 6475 6476 6477 6478 6479 6480 6481 6482 6483 6484 6485 6486 6487 6488 6489 6490 6491 6492 6493 6494 6495 6496 6497 6498 6499 6500 6501 6502 6503 6504 6505 6506 6507 6508 6509 6510 6511 6512 6513 6514 6515 6516 6517 6518 6519 6520 6521 6522 6523 6524 6525 6526 6527 6528 6529 6530 6531 6532 6533 6534 6535 6536 6537 6538 6539 6540 6541 6542 6543 6544 6545 6546 6547 6548 6549 6550 6551 6552 6553 6554 6555 6556 6557 6558 6559 6560 6561 6562 6563 6564 6565 6566 6567 6568 6569 6570 6571 6572 6573 6574 6575 6576 6577 6578 6579 6580 6581 6582 6583 6584 6585 6586 6587 6588 6589 6590 6591 6592 6593 6594 6595 6596 6597 6598 6599 6600 6601 6602 6603 6604 6605 6606 6607 6608 6609 6610 6611 6612 6613 6614 6615 6616 6617 6618 6619 6620 6621 6622 6623 6624 6625 6626 6627 6628 6629 6630 6631 6632 6633 6634 6635 6636 6637 6638 6639 6640 6641 6642 6643 6644 6645 6646 6647 6648 6649 6650 6651 6652 6653 6654 6655 6656 6657 6658 6659 6660 6661 6662 6663 6664 6665 6666 6667 6668 6669 6670 6671 6672 6673 6674 6675 6676 6677 6678 6679 6680 6681 6682 6683 6684 6685 6686 6687 6688 6689 6690 6691 6692 6693 6694 6695 6696 6697 6698 6699 6700 6701 6702 6703 6704 6705 6706 6707 6708 6709 6710 6711 6712 6713 6714 6715 6716 6717 6718 6719 6720 6721 6722 6723 6724 6725 6726 6727 6728 6729 6730 6731 6732 6733 6734 6735 6736 6737 6738 6739 6740 6741 6742 6743 6744 6745 6746 6747 6748 6749 6750 6751 6752 6753 6754 6755 6756 6757 6758 6759 6760 6761 6762 6763 6764 6765 6766 6767 6768 6769 6770 6771 6772 6773 6774 6775 6776 6777 6778 6779 6780 6781 6782 6783 6784 6785 6786 6787 6788 6789 6790 6791 6792 6793 6794 6795 6796 6797 6798 6799 6800 6801 6802 6803 6804 6805 6806 6807 6808 6809 6810 6811 6812 6813 6814 6815 6816 6817 6818 6819 6820 6821 6822 6823 6824 6825 6826 6827 6828 6829 6830 6831 6832 6833 6834 6835 6836 6837 6838 6839 6840 6841 6842 6843 6844 6845 6846 6847 6848 6849 6850 6851 6852 6853 6854 6855 6856 6857 6858 6859 6860 6861 6862 6863 6864 6865 6866 6867 6868 6869 6870 6871 6872 6873 6874 6875 6876 6877 6878 6879 6880 6881 6882 6883 6884 6885 6886 6887 6888 6889 6890 6891 6892 6893 6894 6895 6896 6897 6898 6899 6900 6901 6902 6903 6904 6905 6906 6907 6908 6909 6910 6911 6912 6913 6914 6915 6916 6917 6918 6919 6920 6921 6922 6923 6924 6925 6926 6927 6928 6929 6930 6931 6932 6933 6934 6935 6936 6937 6938 6939 6940 6941 6942 6943 6944 6945 6946 6947 6948 6949 6950 6951 6952 6953 6954 6955 6956 6957 6958 6959 6960 6961 6962 6963 6964 6965 6966 6967 6968 6969 6970 6971 6972 6973 6974 6975 6976 6977 6978 6979 6980 6981 6982 6983 6984 6985 6986 6987 6988 6989 6990 6991 6992 6993 6994 6995 6996 6997 6998 6999 7000 7001 7002 7003 7004 7005 7006 7007 7008 7009 7010 7011 7012 7013 7014 7015 7016 7017 7018 7019 7020 7021 7022 7023 7024 7025 7026 7027 7028 7029 7030 7031 7032 7033 7034 7035 7036 7037 7038 7039 7040 7041 7042 7043 7044 7045 7046 7047 7048 7049 7050 7051 7052 7053 7054 7055 7056 7057 7058 7059 7060 7061 7062 7063 7064 7065 7066 7067 7068 7069 7070 7071 7072 7073 7074 7075 7076 7077 7078 7079 7080 7081 7082 7083 7084 7085 7086 7087 7088 7089 7090 7091 7092 7093 7094 7095 7096 7097 7098 7099 7100 7101 7102 7103 7104 7105 7106 7107 7108 7109 7110 7111 7112 7113 7114 7115 7116 7117 7118 7119 7120 7121 7122 7123 7124 7125 7126 7127 7128 7129 7130 7131 7132 7133 7134 7135 7136 7137 7138 7139 7140 7141 7142 7143 7144 7145 7146 7147 7148 7149 7150 7151 7152 7153 7154 7155 7156 7157 7158 7159 7160 7161 7162 7163 7164 7165 7166 7167 7168 7169 7170 7171 7172 7173 7174 7175 7176 7177 7178 7179 7180 7181 7182 7183 7184 7185 7186 7187 7188 7189 7190 7191 7192 7193 7194 7195 7196 7197 7198 7199 7200 7201 7202 7203 7204 7205 7206 7207 7208 7209 7210 7211 7212 7213 7214 7215 7216 7217 7218 7219 7220 7221 7222 7223 7224 7225 7226 7227 7228 7229 7230 7231 7232 7233 7234 7235 7236 7237 7238 7239 7240 7241 7242 7243 7244 7245 7246 7247 7248 7249 7250 7251 7252 7253 7254 7255 7256 7257 7258 7259 7260 7261 7262 7263 7264 7265 7266 7267 7268 7269 7270 7271 7272 7273 7274 7275 7276 7277 7278 7279 7280 7281 7282 7283 7284 7285 7286 7287 7288 7289 7290 7291 7292 7293 7294 7295 7296 7297 7298 7299 7300 7301 7302 7303 7304 7305 7306 7307 7308 7309 7310 7311 7312 7313 7314 7315 7316 7317 7318 7319 7320 7321 7322 7323 7324 7325 7326 7327 7328 7329 7330 7331 7332 7333 7334 7335 7336 7337 7338 7339 7340 7341 7342 7343 7344 7345 7346 7347 7348 7349 7350 7351 7352 7353 7354 7355 7356 7357 7358 7359 7360 7361 7362 7363 7364 7365 7366 7367 7368 7369 7370 7371 7372 7373 7374 7375 7376 7377 7378 7379 7380 7381 7382 7383 7384 7385 7386 7387 7388 7389 7390 7391 7392 7393 7394 7395 7396 7397 7398 7399 7400 7401 7402 7403 7404 7405 7406 7407 7408 7409 7410 7411 7412 7413 7414 7415 7416 7417 7418 7419 7420 7421 7422 7423 7424 7425 7426 7427 7428 7429 7430 7431 7432 7433 7434 7435 7436 7437 7438 7439 7440 7441 7442 7443 7444 7445 7446 7447 7448 7449 7450 7451 7452 7453 7454 7455 7456 7457 7458 7459 7460 7461 7462 7463 7464 7465 7466 7467 7468 7469 7470 7471 7472 7473 7474 7475 7476 7477 7478 7479 7480 7481 7482 7483 7484 7485 7486 7487 7488 7489 7490 7491 7492 7493 7494 7495 7496 7497 7498 7499 7500 7501 7502 7503 7504 7505 7506 7507 7508 7509 7510 7511 7512 7513 7514 7515 7516 7517 7518 7519 7520 7521 7522 7523 7524 7525 7526 7527 7528 7529 7530 7531 7532 7533 7534 7535 7536 7537 7538 7539 7540 7541 7542 7543 7544 7545 7546 7547 7548 7549 7550 7551 7552 7553 7554 7555 7556 7557 7558 7559 7560 7561 7562 7563 7564 7565 7566 7567 7568 7569 7570 7571 7572 7573 7574 7575 7576 7577 7578 7579 7580 7581 7582 7583 7584 7585 7586 7587 7588 7589 7590 7591 7592 7593 7594 7595 7596 7597 7598 7599 7600 7601 7602 7603 7604 7605 7606 7607 7608 7609 7610 7611 7612 7613 7614 7615 7616 7617 7618 7619 7620 7621 7622 7623 7624 7625 7626 7627 7628 7629 7630 7631 7632 7633 7634 7635 7636 7637 7638 7639 7640 7641 7642 7643 7644 7645 7646 7647 7648 7649 7650 7651 7652 7653 7654 7655 7656 7657 7658 7659 7660 7661 7662 7663 7664 7665 7666 7667 7668 7669 7670 7671 7672 7673 7674 7675 7676 7677 7678 7679 7680 7681 7682 7683 7684 7685 7686 7687 7688 7689 7690 7691 7692 7693 7694 7695 7696 7697 7698 7699 7700 7701 7702 7703 7704 7705 7706 7707 7708 7709 7710 7711 7712 7713 7714 7715 7716 7717 7718 7719 7720 7721 7722 7723 7724 7725 7726 7727 7728 7729 7730 7731 7732 7733 7734 7735 7736 7737 7738 7739 7740 7741 7742 7743 7744 7745 7746 7747 7748 7749 7750 7751 7752 7753 7754 7755 7756 7757 7758 7759 7760 7761 7762 7763 7764 7765 7766 7767 7768 7769 7770 7771 7772 7773 7774 7775 7776 7777 7778 7779 7780 7781 7782 7783 7784 7785 7786 7787 7788 7789 7790 7791 7792 7793 7794 7795 7796 7797 7798 7799 7800 7801 7802 7803 7804 7805 7806 7807 7808 7809 7810 7811 7812 7813 7814 7815 7816 7817 7818 7819 7820 7821 7822 7823 7824 7825 7826 7827 7828 7829 7830 7831 7832 7833 7834 7835 7836 7837 7838 7839 7840 7841 7842 7843 7844 7845 7846 7847 7848 7849 7850 7851 7852 7853 7854 7855 7856 7857 7858 7859 7860 7861 7862 7863 7864 7865 7866 7867 7868 7869 7870 7871 7872 7873 7874 7875 7876 7877 7878 7879 7880 7881 7882 7883 7884 7885 7886 7887 7888 7889 7890 7891 7892 7893 7894 7895 7896 7897 7898 7899 7900 7901 7902 7903 7904 7905 7906 7907 7908 7909 7910 7911 7912 7913 7914 7915 7916 7917 7918 7919 7920 7921 7922 7923 7924 7925 7926 7927 7928 7929 7930 7931 7932 7933 7934 7935 7936 7937 7938 7939 7940 7941 7942 7943 7944 7945 7946 7947 7948 7949 7950 7951 7952 7953 7954 7955 7956 7957 7958 7959 7960 7961 7962 7963 7964 7965 7966 7967 7968 7969 7970 7971 7972 7973 7974 7975 7976 7977 7978 7979 7980 7981 7982 7983 7984 7985 7986 7987 7988 7989 7990 7991 7992 7993 7994 7995 7996 7997 7998 7999 8000 8001 8002 8003 8004 8005 8006 8007 8008 8009 8010 8011 8012 8013 8014 8015 8016 8017 8018 8019 8020 8021 8022 8023 8024 8025 8026 8027 8028 8029 8030 8031 8032 8033 8034 8035 8036 8037 8038 8039 8040 8041 8042 8043 8044 8045 8046 8047 8048 8049 8050 8051 8052 8053 8054 8055 8056 8057 8058 8059 8060 8061 8062 8063 8064 8065 8066 8067 8068 8069 8070 8071 8072 8073 8074 8075 8076 8077 8078 8079 8080 8081 8082 8083 8084 8085 8086 8087 8088 8089 8090 8091 8092 8093 8094 8095 8096 8097 8098 8099 8100 8101 8102 8103 8104 8105 8106 8107 8108 8109 8110 8111 8112 8113 8114 8115 8116 8117 8118 8119 8120 8121 8122 8123 8124 8125 8126 8127 8128 8129 8130 8131 8132 8133 8134 8135 8136 8137 8138 8139 8140 8141 8142 8143 8144 8145 8146 8147 8148 8149 8150 8151 8152 8153 8154 8155 8156 8157 8158 8159 8160 8161 8162 8163 8164 8165 8166 8167 8168 8169 8170 8171 8172 8173 8174 8175 8176 8177 8178 8179 8180 8181 8182 8183 8184 8185 8186 8187 8188 8189 8190 8191 8192 8193 8194 8195 8196 8197 8198 8199 8200 8201 8202 8203 8204 8205 8206 8207 8208 8209 8210 8211 8212 8213 8214 8215 8216 8217 8218 8219 8220 8221 8222 8223 8224 8225 8226 8227 8228 8229 8230 8231 8232 8233 8234 8235 8236 8237 8238 8239 8240 8241 8242 8243 8244 8245 8246 8247 8248 8249 8250 8251 8252 8253 8254 8255 8256 8257 8258 8259 8260 8261 8262 8263 8264 8265 8266 8267 8268 8269 8270 8271 8272 8273 8274 8275 8276 8277 8278 8279 8280 8281 8282 8283 8284 8285 8286 8287 8288 8289 8290 8291 8292 8293 8294 8295 8296 8297 8298 8299 8300 8301 8302 8303 8304 8305 8306 8307 8308 8309 8310 8311 8312 8313 8314 8315 8316 8317 8318 8319 8320 8321 8322 8323 8324 8325 8326 8327 8328 8329 8330 8331 8332 8333 8334 8335 8336 8337 8338 8339 8340 8341 8342 8343 8344 8345 8346 8347 8348 8349 8350 8351 8352 8353 8354 8355 8356 8357 8358 8359 8360 8361 8362 8363 8364 8365 8366 8367 8368 8369 8370 8371 8372 8373 8374 8375 8376 8377 8378 8379 8380 8381 8382 8383 8384 8385 8386 8387 8388 8389 8390 8391 8392 8393 8394 8395 8396 8397 8398 8399 8400 8401 8402 8403 8404 8405 8406 8407 8408 8409 8410 8411 8412 8413 8414 8415 8416 8417 8418 8419 8420 8421 8422 8423 8424 8425 8426 8427 8428 8429 8430 8431 8432 8433 8434 8435 8436 8437 8438 8439 8440 8441 8442 8443 8444 8445 8446 8447 8448 8449 8450 8451 8452 8453 8454 8455 8456 8457 8458 8459 8460 8461 8462 8463 8464 8465 8466 8467 8468 8469 8470 8471 8472 8473 8474 8475 8476 8477 8478 8479 8480 8481 8482 8483 8484 8485 8486 8487 8488 8489 8490 8491 8492 8493 8494 8495 8496 8497 8498 8499 8500 8501 8502 8503 8504 8505 8506 8507 8508 8509 8510 8511 8512 8513 8514 8515 8516 8517 8518 8519 8520 8521 8522 8523 8524 8525 8526 8527 8528 8529 8530 8531 8532 8533 8534 8535 8536 8537 8538 8539 8540 8541 8542 8543 8544 8545 8546 8547 8548 8549 8550 8551 8552 8553 8554 8555 8556 8557 8558 8559 8560 8561 8562 8563 8564 8565 8566 8567 8568 8569 8570 8571 8572 8573 8574 8575 8576 8577 8578 8579 8580 8581 8582 8583 8584 8585 8586 8587 8588 8589 8590 8591 8592 8593 8594 8595 8596 8597 8598 8599 8600 8601 8602 8603 8604 8605 8606 8607 8608 8609 8610 8611 8612 8613 8614 8615 8616 8617 8618 8619 8620 8621 8622 8623 8624 8625 8626 8627 8628 8629 8630 8631 8632 8633 8634 8635 8636 8637 8638 8639 8640 8641 8642 8643 8644 8645 8646 8647 8648 8649 8650 8651 8652 8653 8654 8655 8656 8657 8658 8659 8660 8661 8662 8663 8664 8665 8666 8667 8668 8669 8670 8671 8672 8673 8674 8675 8676 8677 8678 8679 8680 8681 8682 8683 8684 8685 8686 8687 8688 8689 8690 8691 8692 8693 8694 8695 8696 8697 8698 8699 8700 8701 8702 8703 8704 8705 8706 8707 8708 8709 8710 8711 8712 8713 8714 8715 8716 8717 8718 8719 8720 8721 8722 8723 8724 8725 8726 8727 8728 8729 8730 8731 8732 8733 8734 8735 8736 8737 8738 8739 8740 8741 8742 8743 8744 8745 8746 8747 8748 8749 8750 8751 8752 8753 8754 8755 8756 8757 8758 8759 8760 8761 8762 8763 8764 8765 8766 8767 8768 8769 8770 8771 8772 8773 8774 8775 8776 8777 8778 8779 8780 8781 8782 8783 8784 8785 8786 8787 8788 8789 8790 8791 8792 8793 8794 8795 8796 8797 8798 8799 8800 8801 8802 8803 8804 8805 8806 8807 8808 8809 8810 8811 8812 8813 8814 8815 8816 8817 8818 8819 8820 8821 8822 8823 8824 8825 8826 8827 8828 8829 8830 8831 8832 8833 8834 8835 8836 8837 8838 8839 8840 8841 8842 8843 8844 8845 8846 8847 8848 8849 8850 8851 8852 8853 8854 8855 8856 8857 8858 8859 8860 8861 8862 8863 8864 8865 8866 8867 8868 8869 8870 8871 8872 8873 8874 8875 8876 8877 8878 8879 8880 8881 8882 8883 8884 8885 8886 8887 8888 8889 8890 8891 8892 8893 8894 8895 8896 8897 8898 8899 8900 8901 8902 8903 8904 8905 8906 8907 8908 8909 8910 8911 8912 8913 8914 8915 8916 8917 8918 8919 8920 8921 8922 8923 8924 8925 8926 8927 8928 8929 8930 8931 8932 8933 8934 8935 8936 8937 8938 8939 8940 8941 8942 8943 8944 8945 8946 8947 8948 8949 8950 8951 8952 8953 8954 8955 8956 8957 8958 8959 8960 8961 8962 8963 8964 8965 8966 8967 8968 8969 8970 8971 8972 8973 8974 8975 8976 8977 8978 8979 8980 8981 8982 8983 8984 8985 8986 8987 8988 8989 8990 8991 8992 8993 8994 8995 8996 8997 8998 8999 9000 9001 9002 9003 9004 9005 9006 9007 9008 9009 9010 9011 9012 9013 9014 9015 9016 9017 9018 9019 9020 9021 9022 9023 9024 9025 9026 9027 9028 9029 9030 9031 9032 9033 9034 9035 9036 9037 9038 9039 9040 9041 9042 9043 9044 9045 9046 9047 9048 9049 9050 9051 9052 9053 9054 9055 9056 9057 9058 9059 9060 9061 9062 9063 9064 9065 9066 9067 9068 9069 9070 9071 9072 9073 9074 9075 9076 9077 9078 9079 9080 9081 9082 9083 9084 9085 9086 9087 9088 9089 9090 9091 9092 9093 9094 9095 9096 9097 9098 9099 9100 9101 9102 9103 9104 9105 9106 9107 9108 9109 9110 9111 9112 9113 9114 9115 9116 9117 9118 9119 9120 9121 9122 9123 9124 9125 9126 9127 9128 9129 9130 9131 9132 9133 9134 9135 9136 9137 9138 9139 9140 9141 9142 9143 9144 9145 9146 9147 9148 9149 9150 9151 9152 9153 9154 9155 9156 9157 9158 9159 9160 9161 9162 9163 9164 9165 9166 9167 9168 9169 9170 9171 9172 9173 9174 9175 9176 9177 9178 9179 9180 9181 9182 9183 9184 9185 9186 9187 9188 9189 9190 9191 9192 9193 9194 9195 9196 9197 9198 9199 9200 9201 9202 9203 9204 9205 9206 9207 9208 9209 9210 9211 9212 9213 9214 9215 9216 9217 9218 9219 9220 9221 9222 9223 9224 9225 9226 9227 9228 9229 9230 9231 9232 9233 9234 9235 9236 9237 9238 9239 9240 9241 9242 9243 9244 9245 9246 9247 9248 9249 9250 9251 9252 9253 9254 9255 9256 9257 9258 9259 9260 9261 9262 9263 9264 9265 9266 9267 9268 9269 9270 9271 9272 9273 9274 9275 9276 9277 9278 9279 9280 9281 9282 9283 9284 9285 9286 9287 9288 9289 9290 9291 9292 9293 9294 9295 9296 9297 9298 9299 9300 9301 9302 9303 9304 9305 9306 9307 9308 9309 9310 9311 9312 9313 9314 9315 9316 9317 9318 9319 9320 9321 9322 9323 9324 9325 9326 9327 9328 9329 9330 9331 9332 9333 9334 9335 9336 9337 9338 9339 9340 9341 9342 9343 9344 9345 9346 9347 9348 9349 9350 9351 9352 9353 9354 9355 9356 9357 9358 9359 9360 9361 9362 9363 9364 9365 9366 9367 9368 9369 9370 9371 9372 9373 9374 9375 9376 9377 9378 9379 9380 9381 9382 9383 9384 9385 9386 9387 9388 9389 9390 9391 9392 9393 9394 9395 9396 9397 9398 9399 9400 9401 9402 9403 9404 9405 9406 9407 9408 9409 9410 9411 9412 9413 9414 9415 9416 9417 9418 9419 9420 9421 9422 9423 9424 9425 9426 9427 9428 9429 9430 9431 9432 9433 9434 9435 9436 9437 9438 9439 9440 9441 9442 9443 9444 9445 9446 9447 9448 9449 9450 9451 9452 9453 9454 9455 9456 9457 9458 9459 9460 9461 9462 9463 9464 9465 9466 9467 9468 9469 9470 9471 9472 9473 9474 9475 9476 9477 9478 9479 9480 9481 9482 9483 9484 9485 9486 9487 9488 9489 9490 9491 9492 9493 9494 9495 9496 9497 9498 9499 9500 9501 9502 9503 9504 9505 9506 9507 9508 9509 9510 9511 9512 9513 9514 9515 9516 9517 9518 9519 9520 9521 9522 9523 9524 9525 9526 9527 9528 9529 9530 9531 9532 9533 9534 9535 9536 9537 9538 9539 9540 9541 9542 9543 9544 9545 9546 9547 9548 9549 9550 9551 9552 9553 9554 9555 9556 9557 9558 9559 9560 9561 9562 9563 9564 9565 9566 9567 9568 9569 9570 9571 9572 9573 9574 9575 9576 9577 9578 9579 9580 9581 9582 9583 9584 9585 9586 9587 9588 9589 9590 9591 9592 9593 9594 9595 9596 9597 9598 9599 9600 9601 9602 9603 9604 9605 9606 9607 9608 9609 9610 9611 9612 9613 9614 9615 9616 9617 9618 9619 9620 9621 9622 9623 9624 9625 9626 9627 9628 9629 9630 9631 9632 9633 9634 9635 9636 9637 9638 9639 9640 9641 9642 9643 9644 9645 9646 9647 9648 9649 9650 9651 9652 9653 9654 9655 9656 9657 9658 9659 9660 9661 9662 9663 9664 9665 9666 9667 9668 9669 9670 9671 9672 9673 9674 9675 9676 9677 9678 9679 9680 9681 9682 9683 9684 9685 9686 9687 9688 9689 9690 9691 9692 9693 9694 9695 9696 9697 9698 9699 9700 9701 9702 9703 9704 9705 9706 9707 9708 9709 9710 9711 9712 9713 9714 9715 9716 9717 9718 9719 9720 9721 9722 9723 9724 9725 9726 9727 9728 9729 9730 9731 9732 9733 9734 9735 9736 9737 9738 9739 9740 9741 9742 9743 9744 9745 9746 9747 9748 9749 9750 9751 9752 9753 9754 9755 9756 9757 9758 9759 9760 9761 9762 9763 9764 9765 9766 9767 9768 9769 9770 9771 9772 9773 9774 9775 9776 9777 9778 9779 9780 9781 9782 9783 9784 9785 9786 9787 9788 9789 9790 9791 9792 9793 9794 9795 9796 9797 9798 9799 9800 9801 9802 9803 9804 9805 9806 9807 9808 9809 9810 9811 9812 9813 9814 9815 9816 9817 9818 9819 9820 9821 9822 9823 9824 9825 9826 9827 9828 9829 9830 9831 9832 9833 9834 9835 9836 9837 9838 9839 9840 9841 9842 9843 9844 9845 9846 9847 9848 9849 9850 9851 9852 9853 9854 9855 9856 9857 9858 9859 9860 9861 9862 9863 9864 9865 9866 9867 9868 9869 9870 9871 9872 9873 9874 9875 9876 9877 9878 9879 9880 9881 9882 9883 9884 9885 9886 9887 9888 9889 9890 9891 9892 9893 9894 9895 9896 9897 9898 9899 9900 9901 9902 9903 9904 9905 9906 9907 9908 9909 9910 9911 9912 9913 9914 9915 9916 9917 9918 9919 9920 9921 9922 9923 9924 9925 9926 9927 9928 9929 9930 9931 9932 9933 9934 9935 9936 9937 9938 9939 9940 9941 9942 9943 9944 9945 9946 9947 9948 9949 9950 9951 9952 9953 9954 9955 9956 9957 9958 9959 9960 9961 9962 9963 9964 9965 9966 9967 9968 9969 9970 9971 9972 9973 9974 9975 9976 9977 9978 9979 9980 9981 9982 9983 9984 9985 9986 9987 9988 9989 9990 9991 9992 9993 9994 9995 9996 9997 9998 9999 10000 10001 10002 10003 10004 10005 10006 10007 10008 10009 10010 10011 10012 10013 10014 10015 10016 10017 10018 10019 10020 10021 10022 10023 10024 10025 10026 10027 10028 10029 10030 10031 10032 10033 10034 10035 10036 10037 10038 10039 10040 10041 10042 10043 10044 10045 10046 10047 10048 10049 10050 10051 10052 10053 10054 10055 10056 10057 10058 10059 10060 10061 10062 10063 10064 10065 10066 10067 10068 10069 10070 10071 10072 10073 10074 10075 10076 10077 10078 10079 10080 10081 10082 10083 10084 10085 10086 10087 10088 10089 10090 10091 10092 10093 10094 10095 10096 10097 10098 10099 10100 10101 10102 10103 10104 10105 10106 10107 10108 10109 10110 10111 10112 10113 10114 10115 10116 10117 10118 10119 10120 10121 10122 10123 10124 10125 10126 10127 10128 10129 10130 10131 10132 10133 10134 10135 10136 10137 10138 10139 10140 10141 10142 10143 10144 10145 10146 10147 10148 10149 10150 10151 10152 10153 10154 10155 10156 10157 10158 10159 10160 10161 10162 10163 10164 10165 10166 10167 10168 10169 10170 10171 10172 10173 10174 10175 10176 10177 10178 10179 10180 10181 10182 10183 10184 10185 10186 10187 10188 10189 10190 10191 10192 10193 10194 10195 10196 10197 10198 10199 10200 10201 10202 10203 10204 10205 10206 10207 10208 10209 10210 10211 10212 10213 10214 10215 10216 10217 10218 10219 10220 10221 10222 10223 10224 10225 10226 10227 10228 10229 10230 10231 10232 10233 10234 10235 10236 10237 10238 10239 10240 10241 10242 10243 10244 10245 10246 10247 10248 10249 10250 10251 10252 10253 10254 10255 10256 10257 10258 10259 10260 10261 10262 10263 10264 10265 10266 10267 10268 10269 10270 10271 10272 10273 10274 10275 10276 10277 10278 10279 10280 10281 10282 10283 10284 10285 10286 10287 10288 10289 10290 10291 10292 10293 10294 10295 10296 10297 10298 10299 10300 10301 10302 10303 10304 10305 10306 10307 10308 10309 10310 10311 10312 10313 10314 10315 10316 10317 10318 10319 10320 10321 10322 10323 10324 10325 10326 10327 10328 10329 10330 10331 10332 10333 10334 10335 10336 10337 10338 10339 10340 10341 10342 10343 10344 10345 10346 10347 10348 10349 10350 10351 10352 10353 10354 10355 10356 10357 10358 10359 10360 10361 10362 10363 10364 10365 10366 10367 10368 10369 10370 10371 10372 10373 10374 10375 10376 10377 10378 10379 10380 10381 10382 10383 10384 10385 10386 10387 10388 10389 10390 10391 10392 10393 10394 10395 10396 10397 10398 10399 10400 10401 10402 10403 10404 10405 10406 10407 10408 10409 10410 10411 10412 10413 10414 10415 10416 10417 10418 10419 10420 10421 10422 10423 10424 10425 10426 10427 10428 10429 10430 10431 10432 10433 10434 10435 10436 10437 10438 10439 10440 10441 10442 10443 10444 10445 10446 10447 10448 10449 10450 10451 10452 10453 10454 10455 10456 10457 10458 10459 10460 10461 10462 10463 10464 10465 10466 10467 10468 10469 10470 10471 10472 10473 10474 10475 10476 10477 10478 10479 10480 10481 10482 10483 10484 10485 10486 10487 10488 10489 10490 10491 10492 10493 10494 10495 10496 10497 10498 10499 10500 10501 10502 10503 10504 10505 10506 10507 10508 10509 10510 10511 10512 10513 10514 10515 10516 10517 10518 10519 10520 10521 10522 10523 10524 10525 10526 10527 10528 10529 10530 10531 10532 10533 10534 10535 10536 10537 10538 10539 10540 10541 10542 10543 10544 10545 10546 10547 10548 10549 10550 10551 10552 10553 10554 10555 10556 10557 10558 10559 10560 10561 10562 10563 10564 10565 10566 10567 10568 10569 10570 10571 10572 10573 10574 10575 10576 10577 10578 10579 10580 10581 10582 10583 10584 10585 10586 10587 10588 10589 10590 10591 10592 10593 10594 10595 10596 10597 10598 10599 10600 10601 10602 10603 10604 10605 10606 10607 10608 10609 10610 10611 10612 10613 10614 10615 10616 10617 10618 10619 10620 10621 10622 10623 10624 10625 10626 10627 10628 10629 10630 10631 10632 10633 10634 10635 10636 10637 10638 10639 10640 10641 10642 10643 10644 10645 10646 10647 10648 10649 10650 10651 10652 10653 10654 10655 10656 10657 10658 10659 10660 10661 10662 10663 10664 10665 10666 10667 10668 10669 10670 10671 10672 10673 10674 10675 10676 10677 10678 10679 10680 10681 10682 10683 10684 10685 10686 10687 10688 10689 10690 10691 10692 10693 10694 10695 10696 10697 10698 10699 10700 10701 10702 10703 10704 10705 10706 10707 10708 10709 10710 10711 10712 10713 10714 10715 10716 10717 10718 10719 10720 10721 10722 10723 10724 10725 10726 10727 10728 10729 10730 10731 10732 10733 10734 10735 10736 10737 10738 10739 10740 10741 10742 10743 10744 10745 10746 10747 10748 10749 10750 10751 10752 10753 10754 10755 10756 10757 10758 10759 10760 10761 10762 10763 10764 10765 10766 10767 10768 10769 10770 10771 10772 10773 10774 10775 10776 10777 10778 10779 10780 10781 10782 10783 10784 10785 10786 10787 10788 10789 10790 10791 10792 10793 10794 10795 10796 10797 10798 10799 10800 10801 10802 10803 10804 10805 10806 10807 10808 10809 10810 10811 10812 10813 10814 10815 10816 10817 10818 10819 10820 10821 10822 10823 10824 10825 10826 10827 10828 10829 10830 10831 10832 10833 10834 10835 10836 10837 10838 10839 10840 10841 10842 10843 10844 10845 10846 10847 10848 10849 10850 10851 10852 10853 10854 10855 10856 10857 10858 10859 10860 10861 10862 10863 10864 10865 10866 10867 10868 10869 10870 10871 10872 10873 10874 10875 10876 10877 10878 10879 10880 10881 10882 10883 10884 10885 10886 10887 10888 10889 10890 10891 10892 10893 10894 10895 10896 10897 10898 10899 10900 10901 10902 10903 10904 10905 10906 10907 10908 10909 10910 10911 10912 10913 10914 10915 10916 10917 10918 10919 10920 10921 10922 10923 10924 10925 10926 10927 10928 10929 10930 10931 10932 10933 10934 10935 10936 10937 10938 10939 10940 10941 10942 10943 10944 10945 10946 10947 10948 10949 10950 10951 10952 10953 10954 10955 10956 10957 10958 10959 10960 10961 10962 10963 10964 10965 10966 10967 10968 10969 10970 10971 10972 10973 10974 10975 10976 10977 10978 10979 10980 10981 10982 10983 10984 10985 10986 10987 10988 10989 10990 10991 10992 10993 10994 10995 10996 10997 10998 10999 11000 11001 11002 11003 11004 11005 11006 11007 11008 11009 11010 11011 11012 11013 11014 11015 11016 11017 11018 11019 11020 11021 11022 11023 11024 11025 11026 11027 11028 11029 11030 11031 11032 11033 11034 11035 11036 11037 11038 11039 11040 11041 11042 11043 11044 11045 11046 11047 11048 11049 11050 11051 11052 11053 11054 11055 11056 11057 11058 11059 11060 11061 11062 11063 11064 11065 11066 11067 11068 11069 11070 11071 11072 11073 11074 11075 11076 11077 11078 11079 11080 11081 11082 11083 11084 11085 11086 11087 11088 11089 11090 11091 11092 11093 11094 11095 11096 11097 11098 11099 11100 11101 11102 11103 11104 11105 11106 11107 11108 11109 11110 11111 11112 11113 11114 11115 11116 11117 11118 11119 11120 11121 11122 11123 11124 11125 11126 11127 11128 11129 11130 11131 11132 11133 11134 11135 11136 11137 11138 11139 11140 11141 11142 11143 11144 11145 11146 11147 11148 11149 11150 11151 11152 11153 11154 11155 11156 11157 11158 11159 11160 11161 11162 11163 11164 11165 11166 11167 11168 11169 11170 11171 11172 11173 11174 11175 11176 11177 11178 11179 11180 11181 11182 11183 11184 11185 11186 11187 11188 11189 11190 11191 11192 11193 11194 11195 11196 11197 11198 11199 11200 11201 11202 11203 11204 11205 11206 11207 11208 11209 11210 11211 11212 11213 11214 11215 11216 11217 11218 11219 11220 11221 11222 11223 11224 11225 11226 11227 11228 11229 11230 11231 11232 11233 11234 11235 11236 11237 11238 11239 11240 11241 11242 11243 11244 11245 11246 11247 11248 11249 11250 11251 11252 11253 11254 11255 11256 11257 11258 11259 11260 11261 11262 11263 11264 11265 11266 11267 11268 11269 11270 11271 11272 11273 11274 11275 11276 11277 11278 11279 11280 11281 11282 11283 11284 11285 11286 11287 11288 11289 11290 11291 11292 11293 11294 11295 11296 11297 11298 11299 11300 11301 11302 11303 11304 11305 11306 11307 11308 11309 11310 11311 11312 11313 11314 11315 11316 11317 11318 11319 11320 11321 11322 11323 11324 11325 11326 11327 11328 11329 11330 11331 11332 11333 11334 11335 11336 11337 11338 11339 11340 11341 11342 11343 11344 11345 11346 11347 11348 11349 11350 11351 11352 11353 11354 11355 11356 11357 11358 11359 11360 11361 11362 11363 11364 11365 11366 11367 11368 11369 11370 11371 11372 11373 11374 11375 11376 11377 11378 11379 11380 11381 11382 11383 11384 11385 11386 11387 11388 11389 11390 11391 11392 11393 11394 11395 11396 11397 11398 11399 11400 11401 11402 11403 11404 11405 11406 11407 11408 11409 11410 11411 11412 11413 11414 11415 11416 11417 11418 11419 11420 11421 11422 11423 11424 11425 11426 11427 11428 11429 11430 11431 11432 11433 11434 11435 11436 11437 11438 11439 11440 11441 11442 11443 11444 11445 11446 11447 11448 11449 11450 11451 11452 11453 11454 11455 11456 11457 11458 11459 11460 11461 11462 11463 11464 11465 11466 11467 11468 11469 11470 11471 11472 11473 11474 11475 11476 11477 11478 11479 11480 11481 11482 11483 11484 11485 11486 11487 11488 11489 11490 11491 11492 11493 11494 11495 11496 11497 11498 11499 11500 11501 11502 11503 11504 11505 11506 11507 11508 11509 11510 11511 11512 11513 11514 11515 11516 11517 11518 11519 11520 11521 11522 11523 11524 11525 11526 11527 11528 11529 11530 11531 11532 11533 11534 11535 11536 11537 11538 11539 11540 11541 11542 11543 11544 11545 11546 11547 11548 11549 11550 11551 11552 11553 11554 11555 11556 11557 11558 11559 11560 11561 11562 11563 11564 11565 11566 11567 11568 11569 11570 11571 11572 11573 11574 11575 11576 11577 11578 11579 11580 11581 11582 11583 11584 11585 11586 11587 11588 11589 11590 11591 11592 11593 11594 11595 11596 11597 11598 11599 11600 11601 11602 11603 11604 11605 11606 11607 11608 11609 11610 11611 11612 11613 11614 11615 11616 11617 11618 11619 11620 11621 11622 11623 11624 11625 11626 11627 11628 11629 11630 11631 11632 11633 11634 11635 11636 11637 11638 11639 11640 11641 11642 11643 11644 11645 11646 11647 11648 11649 11650 11651 11652 11653 11654 11655 11656 11657 11658 11659 11660 11661 11662 11663 11664 11665 11666 11667 11668 11669 11670 11671 11672 11673 11674 11675 11676 11677 11678 11679 11680 11681 11682 11683 11684 11685 11686 11687 11688 11689 11690 11691 11692 11693 11694 11695 11696 11697 11698 11699 11700 11701 11702 11703 11704 11705 11706 11707 11708 11709 11710 11711 11712 11713 11714 11715 11716 11717 11718 11719 11720 11721 11722 11723 11724 11725 11726 11727 11728 11729 11730 11731 11732 11733 11734 11735 11736 11737 11738 11739 11740 11741 11742 11743 11744 11745 11746 11747 11748 11749 11750 11751 11752 11753 11754 11755 11756 11757 11758 11759 11760 11761 11762 11763 11764 11765 11766 11767 11768 11769 11770 11771 11772 11773 11774 11775 11776 11777 11778 11779 11780 11781 11782 11783 11784 11785 11786 11787 11788 11789 11790 11791 11792 11793 11794 11795 11796 11797 11798 11799 11800 11801 11802 11803 11804 11805 11806 11807 11808 11809 11810 11811 11812 11813 11814 11815 11816 11817 11818 11819 11820 11821 11822 11823 11824 11825 11826 11827 11828 11829 11830 11831 11832 11833 11834 11835 11836 11837 11838 11839 11840 11841 11842 11843 11844 11845 11846 11847 11848 11849 11850 11851 11852 11853 11854 11855 11856 11857 11858 11859 11860 11861 11862 11863 11864 11865 11866 11867 11868 11869 11870 11871 11872 11873 11874 11875 11876 11877 11878 11879 11880 11881 11882 11883 11884 11885 11886 11887 11888 11889 11890 11891 11892 11893 11894 11895 11896 11897 11898 11899 11900 11901 11902 11903 11904 11905 11906 11907 11908 11909 11910 11911 11912 11913 11914 11915 11916 11917 11918 11919 11920 11921 11922 11923 11924 11925 11926 11927 11928 11929 11930 11931 11932 11933 11934 11935 11936 11937 11938 11939 11940 11941 11942 11943 11944 11945 11946 11947 11948 11949 11950 11951 11952 11953 11954 11955 11956 11957 11958 11959 11960 11961 11962 11963 11964 11965 11966 11967 11968 11969 11970 11971 11972 11973 11974 11975 11976 11977 11978 11979 11980 11981 11982 11983 11984 11985 11986 11987 11988 11989 11990 11991 11992 11993 11994 11995 11996 11997 11998 11999 12000 12001 12002 12003 12004 12005 12006 12007 12008 12009 12010 12011 12012 12013 12014 12015 12016 12017 12018 12019 12020 12021 12022 12023 12024 12025 12026 12027 12028 12029 12030 12031 12032 12033 12034 12035 12036 12037 12038 12039 12040 12041 12042 12043 12044 12045 12046 12047 12048 12049 12050 12051 12052 12053 12054 12055 12056 12057 12058 12059 12060 12061 12062 12063 12064 12065 12066 12067 12068 12069 12070 12071 12072 12073 12074 12075 12076 12077 12078 12079 12080 12081 12082 12083 12084 12085 12086 12087 12088 12089 12090 12091 12092 12093 12094 12095 12096 12097 12098 12099 12100 12101 12102 12103 12104 12105 12106 12107 12108 12109 12110 12111 12112 12113 12114 12115 12116 12117 12118 12119 12120 12121 12122 12123 12124 12125 12126 12127 12128 12129 12130 12131 12132 12133 12134 12135 12136 12137 12138 12139 12140 12141 12142 12143 12144 12145 12146 12147 12148 12149 12150 12151 12152 12153 12154 12155 12156 12157 12158 12159 12160 12161 12162 12163 12164 12165 12166 12167 12168 12169 12170 12171 12172 12173 12174 12175 12176 12177 12178 12179 12180 12181 12182 12183 12184 12185 12186 12187 12188 12189 12190 12191 12192 12193 12194 12195 12196 12197 12198 12199 12200 12201 12202 12203 12204 12205 12206 12207 12208 12209 12210 12211 12212 12213 12214 12215 12216 12217 12218 12219 12220 12221 12222 12223 12224 12225 12226 12227 12228 12229 12230 12231 12232 12233 12234 12235 12236 12237 12238 12239 12240 12241 12242 12243 12244 12245 12246 12247 12248 12249 12250 12251 12252 12253 12254 12255 12256 12257 12258 12259 12260 12261 12262 12263 12264 12265 12266 12267 12268 12269 12270 12271 12272 12273 12274 12275 12276 12277 12278 12279 12280 12281 12282 12283 12284 12285 12286 12287 12288 12289 12290 12291 12292 12293 12294 12295 12296 12297 12298 12299 12300 12301 12302 12303 12304 12305 12306 12307 12308 12309 12310 12311 12312 12313 12314 12315 12316 12317 12318 12319 12320 12321 12322 12323 12324 12325 12326 12327 12328 12329 12330 12331 12332 12333 12334 12335 12336 12337 12338 12339 12340 12341 12342 12343 12344 12345 12346 12347 12348 12349 12350 12351 12352 12353 12354 12355 12356 12357 12358 12359 12360 12361 12362 12363 12364 12365 12366 12367 12368 12369 12370 12371 12372 12373 12374 12375 12376 12377 12378 12379 12380 12381 12382 12383 12384 12385 12386 12387 12388 12389 12390 12391 12392 12393 12394 12395 12396 12397 12398 12399 12400 12401 12402 12403 12404 12405 12406 12407 12408 12409 12410 12411 12412 12413 12414 12415 12416 12417 12418 12419 12420 12421 12422 12423 12424 12425 12426 12427 12428 12429 12430 12431 12432 12433 12434 12435 12436 12437 12438 12439 12440 12441 12442 12443 12444 12445 12446 12447 12448 12449 12450 12451 12452 12453 12454 12455 12456 12457 12458 12459 12460 12461 12462 12463 12464 12465 12466 12467 12468 12469 12470 12471 12472 12473 12474 12475 12476 12477 12478 12479 12480 12481 12482 12483 12484 12485 12486 12487 12488 12489 12490 12491 12492 12493 12494 12495 12496 12497 12498 12499 12500 12501 12502 12503 12504 12505 12506 12507 12508 12509 12510 12511 12512 12513 12514 12515 12516 12517 12518 12519 12520 12521 12522 12523 12524 12525 12526 12527 12528 12529 12530 12531 12532 12533 12534 12535 12536 12537 12538 12539 12540 12541 12542 12543 12544 12545 12546 12547 12548 12549 12550 12551 12552 12553 12554 12555 12556 12557 12558 12559 12560 12561 12562 12563 12564 12565 12566 12567 12568 12569 12570 12571 12572 12573 12574 12575 12576 12577 12578 12579 12580 12581 12582 12583 12584 12585 12586 12587 12588 12589 12590 12591 12592 12593 12594 12595 12596 12597 12598 12599 12600 12601 12602 12603 12604 12605 12606 12607 12608 12609 12610 12611 12612 12613 12614 12615 12616 12617 12618 12619 12620 12621 12622 12623 12624 12625 12626 12627 12628 12629 12630 12631 12632 12633 12634 12635 12636 12637 12638 12639 12640 12641 12642 12643 12644 12645 12646 12647 12648 12649 12650 12651 12652 12653 12654 12655 12656 12657 12658 12659 12660 12661 12662 12663 12664 12665 12666 12667 12668 12669 12670 12671 12672 12673 12674 12675 12676 12677 12678 12679 12680 12681 12682 12683 12684 12685 12686 12687 12688 12689 12690 12691 12692 12693 12694 12695 12696 12697 12698 12699 12700 12701 12702 12703 12704 12705 12706 12707 12708 12709 12710 12711 12712 12713 12714 12715 12716 12717 12718 12719 12720 12721 12722 12723 12724 12725 12726 12727 12728 12729 12730 12731 12732 12733 12734 12735 12736 12737 12738 12739 12740 12741 12742 12743 12744 12745 12746 12747 12748 12749 12750 12751 12752 12753 12754 12755 12756 12757 12758 12759 12760 12761 12762 12763 12764 12765 12766 12767 12768 12769 12770 12771 12772 12773 12774 12775 12776 12777 12778 12779 12780 12781 12782 12783 12784 12785 12786 12787 12788 12789 12790 12791 12792 12793 12794 12795 12796 12797 12798 12799 12800 12801 12802 12803 12804 12805 12806 12807 12808 12809 12810 12811 12812 12813 12814 12815 12816 12817 12818 12819 12820 12821 12822 12823 12824 12825 12826 12827 12828 12829 12830 12831 12832 12833 12834 12835 12836 12837 12838 12839 12840 12841 12842 12843 12844 12845 12846 12847 12848 12849 12850 12851 12852 12853 12854 12855 12856 12857 12858 12859 12860 12861 12862 12863 12864 12865 12866 12867 12868 12869 12870 12871 12872 12873 12874 12875 12876 12877 12878 12879 12880 12881 12882 12883 12884 12885 12886 12887 12888 12889 12890 12891 12892 12893 12894 12895 12896 12897 12898 12899 12900 12901 12902 12903 12904 12905 12906 12907 12908 12909 12910 12911 12912 12913 12914 12915 12916 12917 12918 12919 12920 12921 12922 12923 12924 12925 12926 12927 12928 12929 12930 12931 12932 12933 12934 12935 12936 12937 12938 12939 12940 12941 12942 12943 12944 12945 12946 12947 12948 12949 12950 12951 12952 12953 12954 12955 12956 12957 12958 12959 12960 12961 12962 12963 12964 12965 12966 12967 12968 12969 12970 12971 12972 12973 12974 12975 12976 12977 12978 12979 12980 12981 12982 12983 12984 12985 12986 12987 12988 12989 12990 12991 12992 12993 12994 12995 12996 12997 12998 12999 13000 13001 13002 13003 13004 13005 13006 13007 13008 13009 13010 13011 13012 13013 13014 13015 13016 13017 13018 13019 13020 13021 13022 13023 13024 13025 13026 13027 13028 13029 13030 13031 13032 13033 13034 13035 13036 13037 13038 13039 13040 13041 13042 13043 13044 13045 13046 13047 13048 13049 13050 13051 13052 13053 13054 13055 13056 13057 13058 13059 13060 13061 13062 13063 13064 13065 13066 13067 13068 13069 13070 13071 13072 13073 13074 13075 13076 13077 13078 13079 13080 13081 13082 13083 13084 13085 13086 13087 13088 13089 13090 13091 13092 13093 13094 13095 13096 13097 13098 13099 13100 13101 13102 13103 13104 13105 13106 13107 13108 13109 13110 13111 13112 13113 13114 13115 13116 13117 13118 13119 13120 13121 13122 13123 13124 13125 13126 13127 13128 13129 13130 13131 13132 13133 13134 13135 13136 13137 13138 13139 13140 13141 13142 13143 13144 13145 13146 13147 13148 13149 13150 13151 13152 13153 13154 13155 13156 13157 13158 13159 13160 13161 13162 13163 13164 13165 13166 13167 13168 13169 13170 13171 13172 13173 13174 13175 13176 13177 13178 13179 13180 13181 13182 13183 13184 13185 13186 13187 13188 13189 13190 13191 13192 13193 13194 13195 13196 13197 13198 13199 13200 13201 13202 13203 13204 13205 13206 13207 13208 13209 13210 13211 13212 13213 13214 13215 13216 13217 13218 13219 13220 13221 13222 13223 13224 13225 13226 13227 13228 13229 13230 13231 13232 13233 13234 13235 13236 13237 13238 13239 13240 13241 13242 13243 13244 13245 13246 13247 13248 13249 13250 13251 13252 13253 13254 13255 13256 13257 13258 13259 13260 13261 13262 13263 13264 13265 13266 13267 13268 13269 13270 13271 13272 13273 13274 13275 13276 13277 13278 13279 13280 13281 13282 13283 13284 13285 13286 13287 13288 13289 13290 13291 13292 13293 13294 13295 13296 13297 13298 13299 13300 13301 13302 13303 13304 13305 13306 13307 13308 13309 13310 13311 13312 13313 13314 13315 13316 13317 13318 13319 13320 13321 13322 13323 13324 13325 13326 13327 13328 13329 13330 13331 13332 13333 13334 13335 13336 13337 13338 13339 13340 13341 13342 13343 13344 13345 13346 13347 13348 13349 13350 13351 13352 13353 13354 13355 13356 13357 13358 13359 13360 13361 13362 13363 13364 13365 13366 13367 13368 13369 13370 13371 13372 13373 13374 13375 13376 13377 13378 13379 13380 13381 13382 13383 13384 13385 13386 13387 13388 13389 13390 13391 13392 13393 13394 13395 13396 13397 13398 13399 13400 13401 13402 13403 13404 13405 13406 13407 13408 13409 13410 13411 13412 13413 13414 13415 13416 13417 13418 13419 13420 13421 13422 13423 13424 13425 13426 13427 13428 13429 13430 13431 13432 13433 13434 13435 13436 13437 13438 13439 13440 13441 13442 13443 13444 13445 13446 13447 13448 13449 13450 13451 13452 13453 13454 13455 13456 13457 13458 13459 13460 13461 13462 13463 13464 13465 13466 13467 13468 13469 13470 13471 13472 13473 13474 13475 13476 13477 13478 13479 13480 13481 13482 13483 13484 13485 13486 13487 13488 13489 13490 13491 13492 13493 13494 13495 13496 13497 13498 13499 13500 13501 13502 13503 13504 13505 13506 13507 13508 13509 13510 13511 13512 13513 13514 13515 13516 13517 13518 13519 13520 13521 13522 13523 13524 13525 13526 13527 13528 13529 13530 13531 13532 13533 13534 13535 13536 13537 13538 13539 13540 13541 13542 13543 13544 13545 13546 13547 13548 13549 13550 13551 13552 13553 13554 13555 13556 13557 13558 13559 13560 13561 13562 13563 13564 13565 13566 13567 13568 13569 13570 13571 13572 13573 13574 13575 13576 13577 13578 13579 13580 13581 13582 13583 13584 13585 13586 13587 13588 13589 13590 13591 13592 13593 13594 13595 13596 13597 13598 13599 13600 13601 13602 13603 13604 13605 13606 13607 13608 13609 13610 13611 13612 13613 13614 13615 13616 13617 13618 13619 13620 13621 13622 13623 13624 13625 13626 13627 13628 13629 13630 13631 13632 13633 13634 13635 13636 13637 13638 13639 13640 13641 13642 13643 13644 13645 13646 13647 13648 13649 13650 13651 13652 13653 13654 13655 13656 13657 13658 13659 13660 13661 13662 13663 13664 13665 13666 13667 13668 13669 13670 13671 13672 13673 13674 13675 13676 13677 13678 13679 13680 13681 13682 13683 13684 13685 13686 13687 13688 13689 13690 13691 13692 13693 13694 13695 13696 13697 13698 13699 13700 13701 13702 13703 13704 13705 13706 13707 13708 13709 13710 13711 13712 13713 13714 13715 13716 13717 13718 13719 13720 13721 13722 13723 13724 13725 13726 13727 13728 13729 13730 13731 13732 13733 13734 13735 13736 13737 13738 13739 13740 13741 13742 13743 13744 13745 13746 13747 13748 13749 13750 13751 13752 13753 13754 13755 13756 13757 13758 13759 13760 13761 13762 13763 13764 13765 13766 13767 13768 13769 13770 13771 13772 13773 13774 13775 13776 13777 13778 13779 13780 13781 13782 13783 13784 13785 13786 13787 13788 13789 13790 13791 13792 13793 13794 13795 13796 13797 13798 13799 13800 13801 13802 13803 13804 13805 13806 13807 13808 13809 13810 13811 13812 13813 13814 13815 13816 13817 13818 13819 13820 13821 13822 13823 13824 13825 13826 13827 13828 13829 13830 13831 13832 13833 13834 13835 13836 13837 13838 13839 13840 13841 13842 13843 13844 13845 13846 13847 13848 13849 13850 13851 13852 13853 13854 13855 13856 13857 13858 13859 13860 13861 13862 13863 13864 13865 13866 13867 13868 13869 13870 13871 13872 13873 13874 13875 13876 13877 13878 13879 13880 13881 13882 13883 13884 13885 13886 13887 13888 13889 13890 13891 13892 13893 13894 13895 13896 13897 13898 13899 13900 13901 13902 13903 13904 13905 13906 13907 13908 13909 13910 13911 13912 13913 13914 13915 13916 13917 13918 13919 13920 13921 13922 13923 13924 13925 13926 13927 13928 13929 13930 13931 13932 13933 13934 13935 13936 13937 13938 13939 13940 13941 13942 13943 13944 13945 13946 13947 13948 13949 13950 13951 13952 13953 13954 13955 13956 13957 13958 13959 13960 13961 13962 13963 13964 13965 13966 13967 13968 13969 13970 13971 13972 13973 13974 13975 13976 13977 13978 13979 13980 13981 13982 13983 13984 13985 13986 13987 13988 13989 13990 13991 13992 13993 13994 13995 13996 13997 13998 13999 14000 14001 14002 14003 14004 14005 14006 14007 14008 14009 14010 14011 14012 14013 14014 14015 14016 14017 14018 14019 14020 14021 14022 14023 14024 14025 14026 14027 14028 14029 14030 14031 14032 14033 14034 14035 14036 14037 14038 14039 14040 14041 14042 14043 14044 14045 14046 14047 14048 14049 14050 14051 14052 14053 14054 14055 14056 14057 14058 14059 14060 14061 14062 14063 14064 14065 14066 14067 14068 14069 14070 14071 14072 14073 14074 14075 14076 14077 14078 14079 14080 14081 14082 14083 14084 14085 14086 14087 14088 14089 14090 14091 14092 14093 14094 14095 14096 14097 14098 14099 14100 14101 14102 14103 14104 14105 14106 14107 14108 14109 14110 14111 14112 14113 14114 14115 14116 14117 14118 14119 14120 14121 14122 14123 14124 14125 14126 14127 14128 14129 14130 14131 14132 14133 14134 14135 14136 14137 14138 14139 14140 14141 14142 14143 14144 14145 14146 14147 14148 14149 14150 14151 14152 14153 14154 14155 14156 14157 14158 14159 14160 14161 14162 14163 14164 14165 14166 14167 14168 14169 14170 14171 14172 14173 14174 14175 14176 14177 14178 14179 14180 14181 14182 14183 14184 14185 14186 14187 14188 14189 14190 14191 14192 14193 14194 14195 14196 14197 14198 14199 14200 14201 14202 14203 14204 14205 14206 14207 14208 14209 14210 14211 14212 14213 14214 14215 14216 14217 14218 14219 14220 14221 14222 14223 14224 14225 14226 14227 14228 14229 14230 14231 14232 14233 14234 14235 14236 14237 14238 14239 14240 14241 14242 14243 14244 14245 14246 14247 14248 14249 14250 14251 14252 14253 14254 14255 14256 14257 14258 14259 14260 14261 14262 14263 14264 14265 14266 14267 14268 14269 14270 14271 14272 14273 14274 14275 14276 14277 14278 14279 14280 14281 14282 14283 14284 14285 14286 14287 14288 14289 14290 14291 14292 14293 14294 14295 14296 14297 14298 14299 14300 14301 14302 14303 14304 14305 14306 14307 14308 14309 14310 14311 14312 14313 14314 14315 14316 14317 14318 14319 14320 14321 14322 14323 14324 14325 14326 14327 14328 14329 14330 14331 14332 14333 14334 14335 14336 14337 14338 14339 14340 14341 14342 14343 14344 14345 14346 14347 14348 14349 14350 14351 14352 14353 14354 14355 14356 14357 14358 14359 14360 14361 14362 14363 14364 14365 14366 14367 14368 14369 14370 14371 14372 14373 14374 14375 14376 14377 14378 14379 14380 14381 14382 14383 14384 14385 14386 14387 14388 14389 14390 14391 14392 14393 14394 14395 14396 14397 14398 14399 14400 14401 14402 14403 14404 14405 14406 14407 14408 14409 14410 14411 14412 14413 14414 14415 14416 14417 14418 14419 14420 14421 14422 14423 14424 14425 14426 14427 14428 14429 14430 14431 14432 14433 14434 14435 14436 14437 14438 14439 14440 14441 14442 14443 14444 14445 14446 14447 14448 14449 14450 14451 14452 14453 14454 14455 14456 14457 14458 14459 14460 14461 14462 14463 14464 14465 14466 14467 14468 14469 14470 14471 14472 14473 14474 14475 14476 14477 14478 14479 14480 14481 14482 14483 14484 14485 14486 14487 14488 14489 14490 14491 14492 14493 14494 14495 14496 14497 14498 14499 14500 14501 14502 14503 14504 14505 14506 14507 14508 14509 14510 14511 14512 14513 14514 14515 14516 14517 14518 14519 14520 14521 14522 14523 14524 14525 14526 14527 14528 14529 14530 14531 14532 14533 14534 14535 14536 14537 14538 14539 14540 14541 14542 14543 14544 14545 14546 14547 14548 14549 14550 14551 14552 14553 14554 14555 14556 14557 14558 14559 14560 14561 14562 14563 14564 14565 14566 14567 14568 14569 14570 14571 14572 14573 14574 14575 14576 14577 14578 14579 14580 14581 14582 14583 14584 14585 14586 14587 14588 14589 14590 14591 14592 14593 14594 14595 14596 14597 14598 14599 14600 14601 14602 14603 14604 14605 14606 14607 14608 14609 14610 14611 14612 14613 14614 14615 14616 14617 14618 14619 14620 14621 14622 14623 14624 14625 14626 14627 14628 14629 14630 14631 14632 14633 14634 14635 14636 14637 14638 14639 14640 14641 14642 14643 14644 14645 14646 14647 14648 14649 14650 14651 14652 14653 14654 14655 14656 14657 14658 14659 14660 14661 14662 14663 14664 14665 14666 14667 14668 14669 14670 14671 14672 14673 14674 14675 14676 14677 14678 14679 14680 14681 14682 14683 14684 14685 14686 14687 14688 14689 14690 14691 14692 14693 14694 14695 14696 14697 14698 14699 14700 14701 14702 14703 14704 14705 14706 14707 14708 14709 14710 14711 14712 14713 14714 14715 14716 14717 14718 14719 14720 14721 14722 14723 14724 14725 14726 14727 14728 14729 14730 14731 14732 14733 14734 14735 14736 14737 14738 14739 14740 14741 14742 14743 14744 14745 14746 14747 14748 14749 14750 14751 14752 14753 14754 14755 14756 14757 14758 14759 14760 14761 14762 14763 14764 14765 14766 14767 14768 14769 14770 14771 14772 14773 14774 14775 14776 14777 14778 14779 14780 14781 14782 14783 14784 14785 14786 14787 14788 14789 14790 14791 14792 14793 14794 14795 14796 14797 14798 14799 14800 14801 14802 14803 14804 14805 14806 14807 14808 14809 14810 14811 14812 14813 14814 14815 14816 14817 14818 14819 14820 14821 14822 14823 14824 14825 14826 14827 14828 14829 14830 14831 14832 14833 14834 14835 14836 14837 14838 14839 14840 14841 14842 14843 14844 14845 14846 14847 14848 14849 14850 14851 14852 14853 14854 14855 14856 14857 14858 14859 14860 14861 14862 14863 14864 14865 14866 14867 14868 14869 14870 14871 14872 14873 14874 14875 14876 14877 14878 14879 14880 14881 14882 14883 14884 14885 14886 14887 14888 14889 14890 14891 14892 14893 14894 14895 14896 14897 14898 14899 14900 14901 14902 14903 14904 14905 14906 14907 14908 14909 14910 14911 14912 14913 14914 14915 14916 14917 14918 14919 14920 14921 14922 14923 14924 14925 14926 14927 14928 14929 14930 14931 14932 14933 14934 14935 14936 14937 14938 14939 14940 14941 14942 14943 14944 14945 14946 14947 14948 14949 14950 14951 14952 14953 14954 14955 14956 14957 14958 14959 14960 14961 14962 14963 14964 14965 14966 14967 14968 14969 14970 14971 14972 14973 14974 14975 14976 14977 14978 14979 14980 14981 14982 14983 14984 14985 14986 14987 14988 14989 14990 14991 14992 14993 14994 14995 14996 14997 14998 14999 15000 15001 15002 15003 15004 15005 15006 15007 15008 15009 15010 15011 15012 15013 15014 15015 15016 15017 15018 15019 15020 15021 15022 15023 15024 15025 15026 15027 15028 15029 15030 15031 15032 15033 15034 15035 15036 15037 15038 15039 15040 15041 15042 15043 15044 15045 15046 15047 15048 15049 15050 15051 15052 15053 15054 15055 15056 15057 15058 15059 15060 15061 15062 15063 15064 15065 15066 15067 15068 15069 15070 15071 15072 15073 15074 15075 15076 15077 15078 15079 15080 15081 15082 15083 15084 15085 15086 15087 15088 15089 15090 15091 15092 15093 15094 15095 15096 15097 15098 15099 15100 15101 15102 15103 15104 15105 15106 15107 15108 15109 15110 15111 15112 15113 15114 15115 15116 15117 15118 15119 15120 15121 15122 15123 15124 15125 15126 15127 15128 15129 15130 15131 15132 15133 15134 15135 15136 15137 15138 15139 15140 15141 15142 15143 15144 15145 15146 15147 15148 15149 15150 15151 15152 15153 15154 15155 15156 15157 15158 15159 15160 15161 15162 15163 15164 15165 15166 15167 15168 15169 15170 15171 15172 15173 15174 15175 15176 15177 15178 15179 15180 15181 15182 15183 15184 15185 15186 15187 15188 15189 15190 15191 15192 15193 15194 15195 15196 15197 15198 15199 15200 15201 15202 15203 15204 15205 15206 15207 15208 15209 15210 15211 15212 15213 15214 15215 15216 15217 15218 15219 15220 15221 15222 15223 15224 15225 15226 15227 15228 15229 15230 15231 15232 15233 15234 15235 15236 15237 15238 15239 15240 15241 15242 15243 15244 15245 15246 15247 15248 15249 15250 15251 15252 15253 15254 15255 15256 15257 15258 15259 15260 15261 15262 15263 15264 15265 15266 15267 15268 15269 15270 15271 15272 15273 15274 15275 15276 15277 15278 15279 15280 15281 15282 15283 15284 15285 15286 15287 15288 15289 15290 15291 15292 15293 15294 15295 15296 15297 15298 15299 15300 15301 15302 15303 15304 15305 15306 15307 15308 15309 15310 15311 15312 15313 15314 15315 15316 15317 15318 15319 15320 15321 15322 15323 15324 15325 15326 15327 15328 15329 15330 15331 15332 15333 15334 15335 15336 15337 15338 15339 15340 15341 15342 15343 15344 15345 15346 15347 15348 15349 15350 15351 15352 15353 15354 15355 15356 15357 15358 15359 15360 15361 15362 15363 15364 15365 15366 15367 15368 15369 15370 15371 15372 15373 15374 15375 15376 15377 15378 15379 15380 15381 15382 15383 15384 15385 15386 15387 15388 15389 15390 15391 15392 15393 15394 15395 15396 15397 15398 15399 15400 15401 15402 15403 15404 15405 15406 15407 15408 15409 15410 15411 15412 15413 15414 15415 15416 15417 15418 15419 15420 15421 15422 15423 15424 15425 15426 15427 15428 15429 15430 15431 15432 15433 15434 15435 15436 15437 15438 15439 15440 15441 15442 15443 15444 15445 15446 15447 15448 15449 15450 15451 15452 15453 15454 15455 15456 15457 15458 15459 15460 15461 15462 15463 15464 15465 15466 15467 15468 15469 15470 15471 15472 15473 15474 15475 15476 15477 15478 15479 15480 15481 15482 15483 15484 15485 15486 15487 15488 15489 15490 15491 15492 15493 15494 15495 15496 15497 15498 15499 15500 15501 15502 15503 15504 15505 15506 15507 15508 15509 15510 15511 15512 15513 15514 15515 15516 15517 15518 15519 15520 15521 15522 15523 15524 15525 15526 15527 15528 15529 15530 15531 15532 15533 15534 15535 15536 15537 15538 15539 15540 15541 15542 15543 15544 15545 15546 15547 15548 15549 15550 15551 15552 15553 15554 15555 15556 15557 15558 15559 15560 15561 15562 15563 15564 15565 15566 15567 15568 15569 15570 15571 15572 15573 15574 15575 15576 15577 15578 15579 15580 15581 15582 15583 15584 15585 15586 15587 15588 15589 15590 15591 15592 15593 15594 15595 15596 15597 15598 15599 15600 15601 15602 15603 15604 15605 15606 15607 15608 15609 15610 15611 15612 15613 15614 15615 15616 15617 15618 15619 15620 15621 15622 15623 15624 15625 15626 15627 15628 15629 15630 15631 15632 15633 15634 15635 15636 15637 15638 15639 15640 15641 15642 15643 15644 15645 15646 15647 15648 15649 15650 15651 15652 15653 15654 15655 15656 15657 15658 15659 15660 15661 15662 15663 15664 15665 15666 15667 15668 15669 15670 15671 15672 15673 15674 15675 15676 15677 15678 15679 15680 15681 15682 15683 15684 15685 15686 15687 15688 15689 15690 15691 15692 15693 15694 15695 15696 15697 15698 15699 15700 15701 15702 15703 15704 15705 15706 15707 15708 15709 15710 15711 15712 15713 15714 15715 15716 15717 15718 15719 15720 15721 15722 15723 15724 15725 15726 15727 15728 15729 15730 15731 15732 15733 15734 15735 15736 15737 15738 15739 15740 15741 15742 15743 15744 15745 15746 15747 15748 15749 15750 15751 15752 15753 15754 15755 15756 15757 15758 15759 15760 15761 15762 15763 15764 15765 15766 15767 15768 15769 15770 15771 15772 15773 15774 15775 15776 15777 15778 15779 15780 15781 15782 15783 15784 15785 15786 15787 15788 15789 15790 15791 15792 15793 15794 15795 15796 15797 15798 15799 15800 15801 15802 15803 15804 15805 15806 15807 15808 15809 15810 15811 15812 15813 15814 15815 15816 15817 15818 15819 15820 15821 15822 15823 15824 15825 15826 15827 15828 15829 15830 15831 15832 15833 15834 15835 15836 15837 15838 15839 15840 15841 15842 15843 15844 15845 15846 15847 15848 15849 15850 15851 15852 15853 15854 15855 15856 15857 15858 15859 15860 15861 15862 15863 15864 15865 15866 15867 15868 15869 15870 15871 15872 15873 15874 15875 15876 15877 15878 15879 15880 15881 15882 15883 15884 15885 15886 15887 15888 15889 15890 15891 15892 15893 15894 15895 15896 15897 15898 15899 15900 15901 15902 15903 15904 15905 15906 15907 15908 15909 15910 15911 15912 15913 15914 15915 15916 15917 15918 15919 15920 15921 15922 15923 15924 15925 15926 15927 15928 15929 15930 15931 15932 15933 15934 15935 15936 15937 15938 15939 15940 15941 15942 15943 15944 15945 15946 15947 15948 15949 15950 15951 15952 15953 15954 15955 15956 15957 15958 15959 15960 15961 15962 15963 15964 15965 15966 15967 15968 15969 15970 15971 15972 15973 15974 15975 15976 15977 15978 15979 15980 15981 15982 15983 15984 15985 15986 15987 15988 15989 15990 15991 15992 15993 15994 15995 15996 15997 15998 15999 16000 16001 16002 16003 16004 16005 16006 16007 16008 16009 16010 16011 16012 16013 16014 16015 16016 16017 16018 16019 16020 16021 16022 16023 16024 16025 16026 16027 16028 16029 16030 16031 16032 16033 16034 16035 16036 16037 16038 16039 16040 16041 16042 16043 16044 16045 16046 16047 16048 16049 16050 16051 16052 16053 16054 16055 16056 16057 16058 16059 16060 16061 16062 16063 16064 16065 16066 16067 16068 16069 16070 16071 16072 16073 16074 16075 16076 16077 16078 16079 16080 16081 16082 16083 16084 16085 16086 16087 16088 16089 16090 16091 16092 16093 16094 16095 16096 16097 16098 16099 16100 16101 16102 16103 16104 16105 16106 16107 16108 16109 16110 16111 16112 16113 16114 16115 16116 16117 16118 16119 16120 16121 16122 16123 16124 16125 16126 16127 16128 16129 16130 16131 16132 16133 16134 16135 16136 16137 16138 16139 16140 16141 16142 16143 16144 16145 16146 16147 16148 16149 16150 16151 16152 16153 16154 16155 16156 16157 16158 16159 16160 16161 16162 16163 16164 16165 16166 16167 16168 16169 16170 16171 16172 16173 16174 16175 16176 16177 16178 16179 16180 16181 16182 16183 16184 16185 16186 16187 16188 16189 16190 16191 16192 16193 16194 16195 16196 16197 16198 16199 16200 16201 16202 16203 16204 16205 16206 16207 16208 16209 16210 16211 16212 16213 16214 16215 16216 16217 16218 16219 16220 16221 16222 16223 16224 16225 16226 16227 16228 16229 16230 16231 16232 16233 16234 16235 16236 16237 16238 16239 16240 16241 16242 16243 16244 16245 16246 16247 16248 16249 16250 16251 16252 16253 16254 16255 16256 16257 16258 16259 16260 16261 16262 16263 16264 16265 16266 16267 16268 16269 16270 16271 16272 16273 16274 16275 16276 16277 16278 16279 16280 16281 16282 16283 16284 16285 16286 16287 16288 16289 16290 16291 16292 16293 16294 16295 16296 16297 16298 16299 16300 16301 16302 16303 16304 16305 16306 16307 16308 16309 16310 16311 16312 16313 16314 16315 16316 16317 16318 16319 16320 16321 16322 16323 16324 16325 16326 16327 16328 16329 16330 16331 16332 16333 16334 16335 16336 16337 16338 16339 16340 16341 16342 16343 16344 16345 16346 16347 16348 16349 16350 16351 16352 16353 16354 16355 16356 16357 16358 16359 16360 16361 16362 16363 16364 16365 16366 16367 16368 16369 16370 16371 16372 16373 16374 16375 16376 16377 16378 16379 16380 16381 16382 16383 16384 16385 16386 16387 16388 16389 16390 16391 16392 16393 16394 16395 16396 16397 16398 16399 16400 16401 16402 16403 16404 16405 16406 16407 16408 16409 16410 16411 16412 16413 16414 16415 16416 16417 16418 16419 16420 16421 16422 16423 16424 16425 16426 16427 16428 16429 16430 16431 16432 16433 16434 16435 16436 16437 16438 16439 16440 16441 16442 16443 16444 16445 16446 16447 16448 16449 16450 16451 16452 16453 16454 16455 16456 16457 16458 16459 16460 16461 16462 16463 16464 16465 16466 16467 16468 16469 16470 16471 16472 16473 16474 16475 16476 16477 16478 16479 16480 16481 16482 16483 16484 16485 16486 16487 16488 16489 16490 16491 16492 16493 16494 16495 16496 16497 16498 16499 16500 16501 16502 16503 16504 16505 16506 16507 16508 16509 16510 16511 16512 16513 16514 16515 16516 16517 16518 16519 16520 16521 16522 16523 16524 16525 16526 16527 16528 16529 16530 16531 16532 16533 16534 16535 16536 16537 16538 16539 16540 16541 16542 16543 16544 16545 16546 16547 16548 16549 16550 16551 16552 16553 16554 16555 16556 16557 16558 16559 16560 16561 16562 16563 16564 16565 16566 16567 16568 16569 16570 16571 16572 16573 16574 16575 16576 16577 16578 16579 16580 16581 16582 16583 16584 16585 16586 16587 16588 16589 16590 16591 16592 16593 16594 16595 16596 16597 16598 16599 16600 16601 16602 16603 16604 16605 16606 16607 16608 16609 16610 16611 16612 16613 16614 16615 16616 16617 16618 16619 16620 16621 16622 16623 16624 16625 16626 16627 16628 16629 16630 16631 16632 16633 16634 16635 16636 16637 16638 16639 16640 16641 16642 16643 16644 16645 16646 16647 16648 16649 16650 16651 16652 16653 16654 16655 16656 16657 16658 16659 16660 16661 16662 16663 16664 16665 16666 16667 16668 16669 16670 16671 16672 16673 16674 16675 16676 16677 16678 16679 16680 16681 16682 16683 16684 16685 16686 16687 16688 16689 16690 16691 16692 16693 16694 16695 16696 16697 16698 16699 16700 16701 16702 16703 16704 16705 16706 16707 16708 16709 16710 16711 16712 16713 16714 16715 16716 16717 16718 16719 16720 16721 16722 16723 16724 16725 16726 16727 16728 16729 16730 16731 16732 16733 16734 16735 16736 16737 16738 16739 16740 16741 16742 16743 16744 16745 16746 16747 16748 16749 16750 16751 16752 16753 16754 16755 16756 16757 16758 16759 16760 16761 16762 16763 16764 16765 16766 16767 16768 16769 16770 16771 16772 16773 16774 16775 16776 16777 16778 16779 16780 16781 16782 16783 16784 16785 16786 16787 16788 16789 16790 16791 16792 16793 16794 16795 16796 16797 16798 16799 16800 16801 16802 16803 16804 16805 16806 16807 16808 16809 16810 16811 16812 16813 16814 16815 16816 16817 16818 16819 16820 16821 16822 16823 16824 16825 16826 16827 16828 16829 16830 16831 16832 16833 16834 16835 16836 16837 16838 16839 16840 16841 16842 16843 16844 16845 16846 16847 16848 16849 16850 16851 16852 16853 16854 16855 16856 16857 16858 16859 16860 16861 16862 16863 16864 16865 16866 16867 16868 16869 16870 16871 16872 16873 16874 16875 16876 16877 16878 16879 16880 16881 16882 16883 16884 16885 16886 16887 16888 16889 16890 16891 16892 16893 16894 16895 16896 16897 16898 16899 16900 16901 16902 16903 16904 16905 16906 16907 16908 16909 16910 16911 16912 16913 16914 16915 16916 16917 16918 16919 16920 16921 16922 16923 16924 16925 16926 16927 16928 16929 16930 16931 16932 16933 16934 16935 16936 16937 16938 16939 16940 16941 16942 16943 16944 16945 16946 16947 16948 16949 16950 16951 16952 16953 16954 16955 16956 16957 16958 16959 16960 16961 16962 16963 16964 16965 16966 16967 16968 16969 16970 16971 16972 16973 16974 16975 16976 16977 16978 16979 16980 16981 16982 16983 16984 16985 16986 16987 16988 16989 16990 16991 16992 16993 16994 16995 16996 16997 16998 16999 17000 17001 17002 17003 17004 17005 17006 17007 17008 17009 17010 17011 17012 17013 17014 17015 17016 17017 17018 17019 17020 17021 17022 17023 17024 17025 17026 17027 17028 17029 17030 17031 17032 17033 17034 17035 17036 17037 17038 17039 17040 17041 17042 17043 17044 17045 17046 17047 17048 17049 17050 17051 17052 17053 17054 17055 17056 17057 17058 17059 17060 17061 17062 17063 17064 17065 17066 17067 17068 17069 17070 17071 17072 17073 17074 17075 17076 17077 17078 17079 17080 17081 17082 17083 17084 17085 17086 17087 17088 17089 17090 17091 17092 17093 17094 17095 17096 17097 17098 17099 17100 17101 17102 17103 17104 17105 17106 17107 17108 17109 17110 17111 17112 17113 17114 17115 17116 17117 17118 17119 17120 17121 17122 17123 17124 17125 17126 17127 17128 17129 17130 17131 17132 17133 17134 17135 17136 17137 17138 17139 17140 17141 17142 17143 17144 17145 17146 17147 17148 17149 17150 17151 17152 17153 17154 17155 17156 17157 17158 17159 17160 17161 17162 17163 17164 17165 17166 17167 17168 17169 17170 17171 17172 17173 17174 17175 17176 17177 17178 17179 17180 17181 17182 17183 17184 17185 17186 17187 17188 17189 17190 17191 17192 17193 17194 17195 17196 17197 17198 17199 17200 17201 17202 17203 17204 17205 17206 17207 17208 17209 17210 17211 17212 17213 17214 17215 17216 17217 17218 17219 17220 17221 17222 17223 17224 17225 17226 17227 17228 17229 17230 17231 17232 17233 17234 17235 17236 17237 17238 17239 17240 17241 17242 17243 17244 17245 17246 17247 17248 17249 17250 17251 17252 17253 17254 17255 17256 17257 17258 17259 17260 17261 17262 17263 17264 17265 17266 17267 17268 17269 17270 17271 17272 17273 17274 17275 17276 17277 17278 17279 17280 17281 17282 17283 17284 17285 17286 17287 17288 17289 17290 17291 17292 17293 17294 17295 17296 17297 17298 17299 17300 17301 17302 17303 17304 17305 17306 17307 17308 17309 17310 17311 17312 17313 17314 17315 17316 17317 17318 17319 17320 17321 17322 17323 17324 17325 17326 17327 17328 17329 17330 17331 17332 17333 17334 17335 17336 17337 17338 17339 17340 17341 17342 17343 17344 17345 17346 17347 17348 17349 17350 17351 17352 17353 17354 17355 17356 17357 17358 17359 17360 17361 17362 17363 17364 17365 17366 17367 17368 17369 17370 17371 17372 17373 17374 17375 17376 17377 17378 17379 17380 17381 17382 17383 17384 17385 17386 17387 17388 17389 17390 17391 17392 17393 17394 17395 17396 17397 17398 17399 17400 17401 17402 17403 17404 17405 17406 17407 17408 17409 17410 17411 17412 17413 17414 17415 17416 17417 17418 17419 17420 17421 17422 17423 17424 17425 17426 17427 17428 17429 17430 17431 17432 17433 17434 17435 17436 17437 17438 17439 17440 17441 17442 17443 17444 17445 17446 17447 17448 17449 17450 17451 17452 17453 17454 17455 17456 17457 17458 17459 17460 17461 17462 17463 17464 17465 17466 17467 17468 17469 17470 17471 17472 17473 17474 17475 17476 17477 17478 17479 17480 17481 17482 17483 17484 17485 17486 17487 17488 17489 17490 17491 17492 17493 17494 17495 17496 17497 17498 17499 17500 17501 17502 17503 17504 17505 17506 17507 17508 17509 17510 17511 17512 17513 17514 17515 17516 17517 17518 17519 17520 17521 17522 17523 17524 17525 17526 17527 17528 17529 17530 17531 17532 17533 17534 17535 17536 17537 17538 17539 17540 17541 17542 17543 17544 17545 17546 17547 17548 17549 17550 17551 17552 17553 17554 17555 17556 17557 17558 17559 17560 17561 17562 17563 17564 17565 17566 17567 17568 17569 17570 17571 17572 17573 17574 17575 17576 17577 17578 17579 17580 17581 17582 17583 17584 17585 17586 17587 17588 17589 17590 17591 17592 17593 17594 17595 17596 17597 17598 17599 17600 17601 17602 17603 17604 17605 17606 17607 17608 17609 17610 17611 17612 17613 17614 17615 17616 17617 17618 17619 17620 17621 17622 17623 17624 17625 17626 17627 17628 17629 17630 17631 17632 17633 17634 17635 17636 17637 17638 17639 17640 17641 17642 17643 17644 17645 17646 17647 17648 17649 17650 17651 17652 17653 17654 17655 17656 17657 17658 17659 17660 17661 17662 17663 17664 17665 17666 17667 17668 17669 17670 17671 17672 17673 17674 17675 17676 17677 17678 17679 17680 17681 17682 17683 17684 17685 17686 17687 17688 17689 17690 17691 17692 17693 17694 17695 17696 17697 17698 17699 17700 17701 17702 17703 17704 17705 17706 17707 17708 17709 17710 17711 17712 17713 17714 17715 17716 17717 17718 17719 17720 17721 17722 17723 17724 17725 17726 17727 17728 17729 17730 17731 17732 17733 17734 17735 17736 17737 17738 17739 17740 17741 17742 17743 17744 17745 17746 17747 17748 17749 17750 17751 17752 17753 17754 17755 17756 17757 17758 17759 17760 17761 17762 17763 17764 17765 17766 17767 17768 17769 17770 17771 17772 17773 17774 17775 17776 17777 17778 17779 17780 17781 17782 17783 17784 17785 17786 17787 17788 17789 17790 17791 17792 17793 17794 17795 17796 17797 17798 17799 17800 17801 17802 17803 17804 17805 17806 17807 17808 17809 17810 17811 17812 17813 17814 17815 17816 17817 17818 17819 17820 17821 17822 17823 17824 17825 17826 17827 17828 17829 17830 17831 17832 17833 17834 17835 17836 17837 17838 17839 17840 17841 17842 17843 17844 17845 17846 17847 17848 17849 17850 17851 17852 17853 17854 17855 17856 17857 17858 17859 17860 17861 17862 17863 17864 17865 17866 17867 17868 17869 17870 17871 17872 17873 17874 17875 17876 17877 17878 17879 17880 17881 17882 17883 17884 17885 17886 17887 17888 17889 17890 17891 17892 17893 17894 17895 17896 17897 17898 17899 17900 17901 17902 17903 17904 17905 17906 17907 17908 17909 17910 17911 17912 17913 17914 17915 17916 17917 17918 17919 17920 17921 17922 17923 17924 17925 17926 17927 17928 17929 17930 17931 17932 17933 17934 17935 17936 17937 17938 17939 17940 17941 17942 17943 17944 17945 17946 17947 17948 17949 17950 17951 17952 17953 17954 17955 17956 17957 17958 17959 17960 17961 17962 17963 17964 17965 17966 17967 17968 17969 17970 17971 17972 17973 17974 17975 17976 17977 17978 17979 17980 17981 17982 17983 17984 17985 17986 17987 17988 17989 17990 17991 17992 17993 17994 17995 17996 17997 17998 17999 18000 18001 18002 18003 18004 18005 18006 18007 18008 18009 18010 18011 18012 18013 18014 18015 18016 18017 18018 18019 18020 18021 18022 18023 18024 18025 18026 18027 18028 18029 18030 18031 18032 18033 18034 18035 18036 18037 18038 18039 18040 18041 18042 18043 18044 18045 18046 18047 18048 18049 18050 18051 18052 18053 18054 18055 18056 18057 18058 18059 18060 18061 18062 18063 18064 18065 18066 18067 18068 18069 18070 18071 18072 18073 18074 18075 18076 18077 18078 18079 18080 18081 18082 18083 18084 18085 18086 18087 18088 18089 18090 18091 18092 18093 18094 18095 18096 18097 18098 18099 18100 18101 18102 18103 18104 18105 18106 18107 18108 18109 18110 18111 18112 18113 18114 18115 18116 18117 18118 18119 18120 18121 18122 18123 18124 18125 18126 18127 18128 18129 18130 18131 18132 18133 18134 18135 18136 18137 18138 18139 18140 18141 18142 18143 18144 18145 18146 18147 18148 18149 18150 18151 18152 18153 18154 18155 18156 18157 18158 18159 18160 18161 18162 18163 18164 18165 18166 18167 18168 18169 18170 18171 18172 18173 18174 18175 18176 18177 18178 18179 18180 18181 18182 18183 18184 18185 18186 18187 18188 18189 18190 18191 18192 18193 18194 18195 18196 18197 18198 18199 18200 18201 18202 18203 18204 18205 18206 18207 18208 18209 18210 18211 18212 18213 18214 18215 18216 18217 18218 18219 18220 18221 18222 18223 18224 18225 18226 18227 18228 18229 18230 18231 18232 18233 18234 18235 18236 18237 18238 18239 18240 18241 18242 18243 18244 18245 18246 18247 18248 18249 18250 18251 18252 18253 18254 18255 18256 18257 18258 18259 18260 18261 18262 18263 18264 18265 18266 18267 18268 18269 18270 18271 18272 18273 18274 18275 18276 18277 18278 18279 18280 18281 18282 18283 18284 18285 18286 18287 18288 18289 18290 18291 18292 18293 18294 18295 18296 18297 18298 18299 18300 18301 18302 18303 18304 18305 18306 18307 18308 18309 18310 18311 18312 18313 18314 18315 18316 18317 18318 18319 18320 18321 18322 18323 18324 18325 18326 18327 18328 18329 18330 18331 18332 18333 18334 18335 18336 18337 18338 18339 18340 18341 18342 18343 18344 18345 18346 18347 18348 18349 18350 18351 18352 18353 18354 18355 18356 18357 18358 18359 18360 18361 18362 18363 18364 18365 18366 18367 18368 18369 18370 18371 18372 18373 18374 18375 18376 18377 18378 18379 18380 18381 18382 18383 18384 18385 18386 18387 18388 18389 18390 18391 18392 18393 18394 18395 18396 18397 18398 18399 18400 18401 18402 18403 18404 18405 18406 18407 18408 18409 18410 18411 18412 18413 18414 18415 18416 18417 18418 18419 18420 18421 18422 18423 18424 18425 18426 18427 18428 18429 18430 18431 18432 18433 18434 18435 18436 18437 18438 18439 18440 18441 18442 18443 18444 18445 18446 18447 18448 18449 18450 18451 18452 18453 18454 18455 18456 18457 18458 18459 18460 18461 18462 18463 18464 18465 18466 18467 18468 18469 18470 18471 18472 18473 18474 18475 18476 18477 18478 18479 18480 18481 18482 18483 18484 18485 18486 18487 18488 18489 18490 18491 18492 18493 18494 18495 18496 18497 18498 18499 18500 18501 18502 18503 18504 18505 18506 18507 18508 18509 18510 18511 18512 18513 18514 18515 18516 18517 18518 18519 18520 18521 18522 18523 18524 18525 18526 18527 18528 18529 18530 18531 18532 18533 18534 18535 18536 18537 18538 18539 18540 18541 18542 18543 18544 18545 18546 18547 18548 18549 18550 18551 18552 18553 18554 18555 18556 18557 18558 18559 18560 18561 18562 18563 18564 18565 18566 18567 18568 18569 18570 18571 18572 18573 18574 18575 18576 18577 18578 18579 18580 18581 18582 18583 18584 18585 18586 18587 18588 18589 18590 18591 18592 18593 18594 18595 18596 18597 18598 18599 18600 18601 18602 18603 18604 18605 18606 18607 18608 18609 18610 18611 18612 18613 18614 18615 18616 18617 18618 18619 18620 18621 18622 18623 18624 18625 18626 18627 18628 18629 18630 18631 18632 18633 18634 18635 18636 18637 18638 18639 18640 18641 18642 18643 18644 18645 18646 18647 18648 18649 18650 18651 18652 18653 18654 18655 18656 18657 18658 18659 18660 18661 18662 18663 18664 18665 18666 18667 18668 18669 18670 18671 18672 18673 18674 18675 18676 18677 18678 18679 18680 18681 18682 18683 18684 18685 18686 18687 18688 18689 18690 18691 18692 18693 18694 18695 18696 18697 18698 18699 18700 18701 18702 18703 18704 18705 18706 18707 18708 18709 18710 18711 18712 18713 18714 18715 18716 18717 18718 18719 18720 18721 18722 18723 18724 18725 18726 18727 18728 18729 18730 18731 18732 18733 18734 18735 18736 18737 18738 18739 18740 18741 18742 18743 18744 18745 18746 18747 18748 18749 18750 18751 18752 18753 18754 18755 18756 18757 18758 18759 18760 18761 18762 18763 18764 18765 18766 18767 18768 18769 18770 18771 18772 18773 18774 18775 18776 18777 18778 18779 18780 18781 18782 18783 18784 18785 18786 18787 18788 18789 18790 18791 18792 18793 18794 18795 18796 18797 18798 18799 18800 18801 18802 18803 18804 18805 18806 18807 18808 18809 18810 18811 18812 18813 18814 18815 18816 18817 18818 18819 18820 18821 18822 18823 18824 18825 18826 18827 18828 18829 18830 18831 18832 18833 18834 18835 18836 18837 18838 18839 18840 18841 18842 18843 18844 18845 18846 18847 18848 18849 18850 18851 18852 18853 18854 18855 18856 18857 18858 18859 18860 18861 18862 18863 18864 18865 18866 18867 18868 18869 18870 18871 18872 18873 18874 18875 18876 18877 18878 18879 18880 18881 18882 18883 18884 18885 18886 18887 18888 18889 18890 18891 18892 18893 18894 18895 18896 18897 18898 18899 18900 18901 18902 18903 18904 18905 18906 18907 18908 18909 18910 18911 18912 18913 18914 18915 18916 18917 18918 18919 18920 18921 18922 18923 18924 18925 18926 18927 18928 18929 18930 18931 18932 18933 18934 18935 18936 18937 18938 18939 18940 18941 18942 18943 18944 18945 18946 18947 18948 18949 18950 18951 18952 18953 18954 18955 18956 18957 18958 18959 18960 18961 18962 18963 18964 18965 18966 18967 18968 18969 18970 18971 18972 18973 18974 18975 18976 18977 18978 18979 18980 18981 18982 18983 18984 18985 18986 18987 18988 18989 18990 18991 18992 18993 18994 18995 18996 18997 18998 18999 19000 19001 19002 19003 19004 19005 19006 19007 19008 19009 19010 19011 19012 19013 19014 19015 19016 19017 19018 19019 19020 19021 19022 19023 19024 19025 19026 19027 19028 19029 19030 19031 19032 19033 19034 19035 19036 19037 19038 19039 19040 19041 19042 19043 19044 19045 19046 19047 19048 19049 19050 19051 19052 19053 19054 19055 19056 19057 19058 19059 19060 19061 19062 19063 19064 19065 19066 19067 19068 19069 19070 19071 19072 19073 19074 19075 19076 19077 19078 19079 19080 19081 19082 19083 19084 19085 19086 19087 19088 19089 19090 19091 19092 19093 19094 19095 19096 19097 19098 19099 19100 19101 19102 19103 19104 19105 19106 19107 19108 19109 19110 19111 19112 19113 19114 19115 19116 19117 19118 19119 19120 19121 19122 19123 19124 19125 19126 19127 19128 19129 19130 19131 19132 19133 19134 19135 19136 19137 19138 19139 19140 19141 19142 19143 19144 19145 19146 19147 19148 19149 19150 19151 19152 19153 19154 19155 19156 19157 19158 19159 19160 19161 19162 19163 19164 19165 19166 19167 19168 19169 19170 19171 19172 19173 19174 19175 19176 19177 19178 19179 19180 19181 19182 19183 19184 19185 19186 19187 19188 19189 19190 19191 19192 19193 19194 19195 19196 19197 19198 19199 19200 19201 19202 19203 19204 19205 19206 19207 19208 19209 19210 19211 19212 19213 19214 19215 19216 19217 19218 19219 19220 19221 19222 19223 19224 19225 19226 19227 19228 19229 19230 19231 19232 19233 19234 19235 19236 19237 19238 19239 19240 19241 19242 19243 19244 19245 19246 19247 19248 19249 19250 19251 19252 19253 19254 19255 19256 19257 19258 19259 19260 19261 19262 19263 19264 19265 19266 19267 19268 19269 19270 19271 19272 19273 19274 19275 19276 19277 19278 19279 19280 19281 19282 19283 19284 19285 19286 19287 19288 19289 19290 19291 19292 19293 19294 19295 19296 19297 19298 19299 19300 19301 19302 19303 19304 19305 19306 19307 19308 19309 19310 19311 19312 19313 19314 19315 19316 19317 19318 19319 19320 19321 19322 19323 19324 19325 19326 19327 19328 19329 19330 19331 19332 19333 19334 19335 19336 19337 19338 19339 19340 19341 19342 19343 19344 19345 19346 19347 19348 19349 19350 19351 19352 19353 19354 19355 19356 19357 19358 19359 19360 19361 19362 19363 19364 19365 19366 19367 19368 19369 19370 19371 19372 19373 19374 19375 19376 19377 19378 19379 19380 19381 19382 19383 19384 19385 19386 19387 19388 19389 19390 19391 19392 19393 19394 19395 19396 19397 19398 19399 19400 19401 19402 19403 19404 19405 19406 19407 19408 19409 19410 19411 19412 19413 19414 19415 19416 19417 19418 19419 19420 19421 19422 19423 19424 19425 19426 19427 19428 19429 19430 19431 19432 19433 19434 19435 19436 19437 19438 19439 19440 19441 19442 19443 19444 19445 19446 19447 19448 19449 19450 19451 19452 19453 19454 19455 19456 19457 19458 19459 19460 19461 19462 19463 19464 19465 19466 19467 19468 19469 19470 19471 19472 19473 19474 19475 19476 19477 19478 19479 19480 19481 19482 19483 19484 19485 19486 19487 19488 19489 19490 19491 19492 19493 19494 19495 19496 19497 19498 19499 19500 19501 19502 19503 19504 19505 19506 19507 19508 19509 19510 19511 19512 19513 19514 19515 19516 19517 19518 19519 19520 19521 19522 19523 19524 19525 19526 19527 19528 19529 19530 19531 19532 19533 19534 19535 19536 19537 19538 19539 19540 19541 19542 19543 19544 19545 19546 19547 19548 19549 19550 19551 19552 19553 19554 19555 19556 19557 19558 19559 19560 19561 19562 19563 19564 19565 19566 19567 19568 19569 19570 19571 19572 19573 19574 19575 19576 19577 19578 19579 19580 19581 19582 19583 19584 19585 19586 19587 19588 19589 19590 19591 19592 19593 19594 19595 19596 19597 19598 19599 19600 19601 19602 19603 19604 19605 19606 19607 19608 19609 19610 19611 19612 19613 19614 19615 19616 19617 19618 19619 19620 19621 19622 19623 19624 19625 19626 19627 19628 19629 19630 19631 19632 19633 19634 19635 19636 19637 19638 19639 19640 19641 19642 19643 19644 19645 19646 19647 19648 19649 19650 19651 19652 19653 19654 19655 19656 19657 19658 19659 19660 19661 19662 19663 19664 19665 19666 19667 19668 19669 19670 19671 19672 19673 19674 19675 19676 19677 19678 19679 19680 19681 19682 19683 19684 19685 19686 19687 19688 19689 19690 19691 19692 19693 19694 19695 19696 19697 19698 19699 19700 19701 19702 19703 19704 19705 19706 19707 19708 19709 19710 19711 19712 19713 19714 19715 19716 19717 19718 19719 19720 19721 19722 19723 19724 19725 19726 19727 19728 19729 19730 19731 19732 19733 19734 19735 19736 19737 19738 19739 19740 19741 19742 19743 19744 19745 19746 19747 19748 19749 19750 19751 19752 19753 19754 19755 19756 19757 19758 19759 19760 19761 19762 19763 19764 19765 19766 19767 19768 19769 19770 19771 19772 19773 19774 19775 19776 19777 19778 19779 19780 19781 19782 19783 19784 19785 19786 19787 19788 19789 19790 19791 19792 19793 19794 19795 19796 19797 19798 19799 19800 19801 19802 19803 19804 19805 19806 19807 19808 19809 19810 19811 19812 19813 19814 19815 19816 19817 19818 19819 19820 19821 19822 19823 19824 19825 19826 19827 19828 19829 19830 19831 19832 19833 19834 19835 19836 19837 19838 19839 19840 19841 19842 19843 19844 19845 19846 19847 19848 19849 19850 19851 19852 19853 19854 19855 19856 19857 19858 19859 19860 19861 19862 19863 19864 19865 19866 19867 19868 19869 19870 19871 19872 19873 19874 19875 19876 19877 19878 19879 19880 19881 19882 19883 19884 19885 19886 19887 19888 19889 19890 19891 19892 19893 19894 19895 19896 19897 19898 19899 19900 19901 19902 19903 19904 19905 19906 19907 19908 19909 19910 19911 19912 19913 19914 19915 19916 19917 19918 19919 19920 19921 19922 19923 19924 19925 19926 19927 19928 19929 19930 19931 19932 19933 19934 19935 19936 19937 19938 19939 19940 19941 19942 19943 19944 19945 19946 19947 19948 19949 19950 19951 19952 19953 19954 19955 19956 19957 19958 19959 19960 19961 19962 19963 19964 19965 19966 19967 19968 19969 19970 19971 19972 19973 19974 19975 19976 19977 19978 19979 19980 19981 19982 19983 19984 19985 19986 19987 19988 19989 19990 19991 19992 19993 19994 19995 19996 19997 19998 19999 20000 20001 20002 20003 20004 20005 20006 20007 20008 20009 20010 20011 20012 20013 20014 20015 20016 20017 20018 20019 20020 20021 20022 20023 20024 20025 20026 20027 20028 20029 20030 20031 20032 20033 20034 20035 20036 20037 20038 20039 20040 20041 20042 20043 20044 20045 20046 20047 20048 20049 20050 20051 20052 20053 20054 20055 20056 20057 20058 20059 20060 20061 20062 20063 20064 20065 20066 20067 20068 20069 20070 20071 20072 20073 20074 20075 20076 20077 20078 20079 20080 20081 20082 20083 20084 20085 20086 20087 20088 20089 20090 20091 20092 20093 20094 20095 20096 20097 20098 20099 20100 20101 20102 20103 20104 20105 20106 20107 20108 20109 20110 20111 20112 20113 20114 20115 20116 20117 20118 20119 20120 20121 20122 20123 20124 20125 20126 20127 20128 20129 20130 20131 20132 20133 20134 20135 20136 20137 20138 20139 20140 20141 20142 20143 20144 20145 20146 20147 20148 20149 20150 20151 20152 20153 20154 20155 20156 20157 20158 20159 20160 20161 20162 20163 20164 20165 20166 20167 20168 20169 20170 20171 20172 20173 20174 20175 20176 20177 20178 20179 20180 20181 20182 20183 20184 20185 20186 20187 20188 20189 20190 20191 20192 20193 20194 20195 20196 20197 20198 20199 20200 20201 20202 20203 20204 20205 20206 20207 20208 20209 20210 20211 20212 20213 20214 20215 20216 20217 20218 20219 20220 20221 20222 20223 20224 20225 20226 20227 20228 20229 20230 20231 20232 20233 20234 20235 20236 20237 20238 20239 20240 20241 20242 20243 20244 20245 20246 20247 20248 20249 20250 20251 20252 20253 20254 20255 20256 20257 20258 20259 20260 20261 20262 20263 20264 20265 20266 20267 20268 20269 20270 20271 20272 20273 20274 20275 20276 20277 20278 20279 20280 20281 20282 20283 20284 20285 20286 20287 20288 20289 20290 20291 20292 20293 20294 20295 20296 20297 20298 20299 20300 20301 20302 20303 20304 20305 20306 20307 20308 20309 20310 20311 20312 20313 20314 20315 20316 20317 20318 20319 20320 20321 20322 20323 20324 20325 20326 20327 20328 20329 20330 20331 20332 20333 20334 20335 20336 20337 20338 20339 20340 20341 20342 20343 20344 20345 20346 20347 20348 20349 20350 20351 20352 20353 20354 20355 20356 20357 20358 20359 20360 20361 20362 20363 20364 20365 20366 20367 20368 20369 20370 20371 20372 20373 20374 20375 20376 20377 20378 20379 20380 20381 20382 20383 20384 20385 20386 20387 20388 20389 20390 20391 20392 20393 20394 20395 20396 20397 20398 20399 20400 20401 20402 20403 20404 20405 20406 20407 20408 20409 20410 20411 20412 20413 20414 20415 20416 20417 20418 20419 20420 20421 20422 20423 20424 20425 20426 20427 20428 20429 20430 20431 20432 20433 20434 20435 20436 20437 20438 20439 20440 20441 20442 20443 20444 20445 20446 20447 20448 20449 20450 20451 20452 20453 20454 20455 20456 20457 20458 20459 20460 20461 20462 20463 20464 20465 20466 20467 20468 20469 20470 20471 20472 20473 20474 20475 20476 20477 20478 20479 20480 20481 20482 20483 20484 20485 20486 20487 20488 20489 20490 20491 20492 20493 20494 20495 20496 20497 20498 20499 20500 20501 20502 20503 20504 20505 20506 20507 20508 20509 20510 20511 20512 20513 20514 20515 20516 20517 20518 20519 20520 20521 20522 20523 20524 20525 20526 20527 20528 20529 20530 20531 20532 20533 20534 20535 20536 20537 20538 20539 20540 20541 20542 20543 20544 20545 20546 20547 20548 20549 20550 20551 20552 20553 20554 20555 20556 20557 20558 20559 20560 20561 20562 20563 20564 20565 20566 20567 20568 20569 20570 20571 20572 20573 20574 20575 20576 20577 20578 20579 20580 20581 20582 20583 20584 20585 20586 20587 20588 20589 20590 20591 20592 20593 20594 20595 20596 20597 20598 20599 20600 20601 20602 20603 20604 20605 20606 20607 20608 20609 20610 20611 20612 20613 20614 20615 20616 20617 20618 20619 20620 20621 20622 20623 20624 20625 20626 20627 20628 20629 20630 20631 20632 20633 20634 20635 20636 20637 20638 20639 20640 20641 20642 20643 20644 20645 20646 20647 20648 20649 20650 20651 20652 20653 20654 20655 20656 20657 20658 20659 20660 20661 20662 20663 20664 20665 20666 20667 20668 20669 20670 20671 20672 20673 20674 20675 20676 20677 20678 20679 20680 20681 20682 20683 20684 20685 20686 20687 20688 20689 20690 20691 20692 20693 20694 20695 20696 20697 20698 20699 20700 20701 20702 20703 20704 20705 20706 20707 20708 20709 20710 20711 20712 20713 20714 20715 20716 20717 20718 20719 20720 20721 20722 20723 20724 20725 20726 20727 20728 20729 20730 20731 20732 20733 20734 20735 20736 20737 20738 20739 20740 20741 20742 20743 20744 20745 20746 20747 20748 20749 20750 20751 20752 20753 20754 20755 20756 20757 20758 20759 20760 20761 20762 20763 20764 20765 20766 20767 20768 20769 20770 20771 20772 20773 20774 20775 20776 20777 20778 20779 20780 20781 20782 20783 20784 20785 20786 20787 20788 20789 20790 20791 20792 20793 20794 20795 20796 20797 20798 20799 20800 20801 20802 20803 20804 20805 20806 20807 20808 20809 20810 20811 20812 20813 20814 20815 20816 20817 20818 20819 20820 20821 20822 20823 20824 20825 20826 20827 20828 20829 20830 20831 20832 20833 20834 20835 20836 20837 20838 20839 20840 20841 20842 20843 20844 20845 20846 20847 20848 20849 20850 20851 20852 20853 20854 20855 20856 20857 20858 20859 20860 20861 20862 20863 20864 20865 20866 20867 20868 20869 20870 20871 20872 20873 20874 20875 20876 20877 20878 20879 20880 20881 20882 20883 20884 20885 20886 20887 20888 20889 20890 20891 20892 20893 20894 20895 20896 20897 20898 20899 20900 20901 20902 20903 20904 20905 20906 20907 20908 20909 20910 20911 20912 20913 20914 20915 20916 20917 20918 20919 20920 20921 20922 20923 20924 20925 20926 20927 20928 20929 20930 20931 20932 20933 20934 20935 20936 20937 20938 20939 20940 20941 20942 20943 20944 20945 20946 20947 20948 20949 20950 20951 20952 20953 20954 20955 20956 20957 20958 20959 20960 20961 20962 20963 20964 20965 20966 20967 20968 20969 20970 20971 20972 20973 20974 20975 20976 20977 20978 20979 20980 20981 20982 20983 20984 20985 20986 20987 20988 20989 20990 20991 20992 20993 20994 20995 20996 20997 20998 20999 21000 21001 21002 21003 21004 21005 21006 21007 21008 21009 21010 21011 21012 21013 21014 21015 21016 21017 21018 21019 21020 21021 21022 21023 21024 21025 21026 21027 21028 21029 21030 21031 21032 21033 21034 21035 21036 21037 21038 21039 21040 21041 21042 21043 21044 21045 21046 21047 21048 21049 21050 21051 21052 21053 21054 21055 21056 21057 21058 21059 21060 21061 21062 21063 21064 21065 21066 21067 21068 21069 21070 21071 21072 21073 21074 21075 21076 21077 21078 21079 21080 21081 21082 21083 21084 21085 21086 21087 21088 21089 21090 21091 21092 21093 21094 21095 21096 21097 21098 21099 21100 21101 21102 21103 21104 21105 21106 21107 21108 21109 21110 21111 21112 21113 21114 21115 21116 21117 21118 21119 21120 21121 21122 21123 21124 21125 21126 21127 21128 21129 21130 21131 21132 21133 21134 21135 21136 21137 21138 21139 21140 21141 21142 21143 21144 21145 21146 21147 21148 21149 21150 21151 21152 21153 21154 21155 21156 21157 21158 21159 21160 21161 21162 21163 21164 21165 21166 21167 21168 21169 21170 21171 21172 21173 21174 21175 21176 21177 21178 21179 21180 21181 21182 21183 21184 21185 21186 21187 21188 21189 21190 21191 21192 21193 21194 21195 21196 21197 21198 21199 21200 21201 21202 21203 21204 21205 21206 21207 21208 21209 21210 21211 21212 21213 21214 21215 21216 21217 21218 21219 21220 21221 21222 21223 21224 21225 21226 21227 21228 21229 21230 21231 21232 21233 21234 21235 21236 21237 21238 21239 21240 21241 21242 21243 21244 21245 21246 21247 21248 21249 21250 21251 21252 21253 21254 21255 21256 21257 21258 21259 21260 21261 21262 21263 21264 21265 21266 21267 21268 21269 21270 21271 21272 21273 21274 21275 21276 21277 21278 21279 21280 21281 21282 21283 21284 21285 21286 21287 21288 21289 21290 21291 21292 21293 21294 21295 21296 21297 21298 21299 21300 21301 21302 21303 21304 21305 21306 21307 21308 21309 21310 21311 21312 21313 21314 21315 21316 21317 21318 21319 21320 21321 21322 21323 21324 21325 21326 21327 21328 21329 21330 21331 21332 21333 21334 21335 21336 21337 21338 21339 21340 21341 21342 21343 21344 21345 21346 21347 21348 21349 21350 21351 21352 21353 21354 21355 21356 21357 21358 21359 21360 21361 21362 21363 21364 21365 21366 21367 21368 21369 21370 21371 21372 21373 21374 21375 21376 21377 21378 21379 21380 21381 21382 21383 21384 21385 21386 21387 21388 21389 21390 21391 21392 21393 21394 21395 21396 21397 21398 21399 21400 21401 21402 21403 21404 21405 21406 21407 21408 21409 21410 21411 21412 21413 21414 21415 21416 21417 21418 21419 21420 21421 21422 21423 21424 21425 21426 21427 21428 21429 21430 21431 21432 21433 21434 21435 21436 21437 21438 21439 21440 21441 21442 21443 21444 21445 21446 21447 21448 21449 21450 21451 21452 21453 21454 21455 21456 21457 21458 21459 21460 21461 21462 21463 21464 21465 21466 21467 21468 21469 21470 21471 21472 21473 21474 21475 21476 21477 21478 21479 21480 21481 21482 21483 21484 21485 21486 21487 21488 21489 21490 21491 21492 21493 21494 21495 21496 21497 21498 21499 21500 21501 21502 21503 21504 21505 21506 21507 21508 21509 21510 21511 21512 21513 21514 21515 21516 21517 21518 21519 21520 21521 21522 21523 21524 21525 21526 21527 21528 21529 21530 21531 21532 21533 21534 21535 21536 21537 21538 21539 21540 21541 21542 21543 21544 21545 21546 21547 21548 21549 21550 21551 21552 21553 21554 21555 21556 21557 21558 21559 21560 21561 21562 21563 21564 21565 21566 21567 21568 21569 21570 21571 21572 21573 21574 21575 21576 21577 21578 21579 21580 21581 21582 21583 21584 21585 21586 21587 21588 21589 21590 21591 21592 21593 21594 21595 21596 21597 21598 21599 21600 21601 21602 21603 21604 21605 21606 21607 21608 21609 21610 21611 21612 21613 21614 21615 21616 21617 21618 21619 21620 21621 21622 21623 21624 21625 21626 21627 21628 21629 21630 21631 21632 21633 21634 21635 21636 21637 21638 21639 21640 21641 21642 21643 21644 21645 21646 21647 21648 21649 21650 21651 21652 21653 21654 21655 21656 21657 21658 21659 21660 21661 21662 21663 21664 21665 21666 21667 21668 21669 21670 21671 21672 21673 21674 21675 21676 21677 21678 21679 21680 21681 21682 21683 21684 21685 21686 21687 21688 21689 21690 21691 21692 21693 21694 21695 21696 21697 21698 21699 21700 21701 21702 21703 21704 21705 21706 21707 21708 21709 21710 21711 21712 21713 21714 21715 21716 21717 21718 21719 21720 21721 21722 21723 21724 21725 21726 21727 21728 21729 21730 21731 21732 21733 21734 21735 21736 21737 21738 21739 21740 21741 21742 21743 21744 21745 21746 21747 21748 21749 21750 21751 21752 21753 21754 21755 21756 21757 21758 21759 21760 21761 21762 21763 21764 21765 21766 21767 21768 21769 21770 21771 21772 21773 21774 21775 21776 21777 21778 21779 21780 21781 21782 21783 21784 21785 21786 21787 21788 21789 21790 21791 21792 21793 21794 21795 21796 21797 21798 21799 21800 21801 21802 21803 21804 21805 21806 21807 21808 21809 21810 21811 21812 21813 21814 21815 21816 21817 21818 21819 21820 21821 21822 21823 21824 21825 21826 21827 21828 21829 21830 21831 21832 21833 21834 21835 21836 21837 21838 21839 21840 21841 21842 21843 21844 21845 21846 21847 21848 21849 21850 21851 21852 21853 21854 21855 21856 21857 21858 21859 21860 21861 21862 21863 21864 21865 21866 21867 21868 21869 21870 21871 21872 21873 21874 21875 21876 21877 21878 21879 21880 21881 21882 21883 21884 21885 21886 21887 21888 21889 21890 21891 21892 21893 21894 21895 21896 21897 21898 21899 21900 21901 21902 21903 21904 21905 21906 21907 21908 21909 21910 21911 21912 21913 21914 21915 21916 21917 21918 21919 21920 21921 21922 21923 21924 21925 21926 21927 21928 21929 21930 21931 21932 21933 21934 21935 21936 21937 21938 21939 21940 21941 21942 21943 21944 21945 21946 21947 21948 21949 21950 21951 21952 21953 21954 21955 21956 21957 21958 21959 21960 21961 21962 21963 21964 21965 21966 21967 21968 21969 21970 21971 21972 21973 21974 21975 21976 21977 21978 21979 21980 21981 21982 21983 21984 21985 21986 21987 21988 21989 21990 21991 21992 21993 21994 21995 21996 21997 21998 21999 22000 22001 22002 22003 22004 22005 22006 22007 22008 22009 22010 22011 22012 22013 22014 22015 22016 22017 22018 22019 22020 22021 22022 22023 22024 22025 22026 22027 22028 22029 22030 22031 22032 22033 22034 22035 22036 22037 22038 22039 22040 22041 22042 22043 22044 22045 22046 22047 22048 22049 22050 22051 22052 22053 22054 22055 22056 22057 22058 22059 22060 22061 22062 22063 22064 22065 22066 22067 22068 22069 22070 22071 22072 22073 22074 22075 22076 22077 22078 22079 22080 22081 22082 22083 22084 22085 22086 22087 22088 22089 22090 22091 22092 22093 22094 22095 22096 22097 22098 22099 22100 22101 22102 22103 22104 22105 22106 22107 22108 22109 22110 22111 22112 22113 22114 22115 22116 22117 22118 22119 22120 22121 22122 22123 22124 22125 22126 22127 22128 22129 22130 22131 22132 22133 22134 22135 22136 22137 22138 22139 22140 22141 22142 22143 22144 22145 22146 22147 22148 22149 22150 22151 22152 22153 22154 22155 22156 22157 22158 22159 22160 22161 22162 22163 22164 22165 22166 22167 22168 22169 22170 22171 22172 22173 22174 22175 22176 22177 22178 22179 22180 22181 22182 22183 22184 22185 22186 22187 22188 22189 22190 22191 22192 22193 22194 22195 22196 22197 22198 22199 22200 22201 22202 22203 22204 22205 22206 22207 22208 22209 22210 22211 22212 22213 22214 22215 22216 22217 22218 22219 22220 22221 22222 22223 22224 22225 22226 22227 22228 22229 22230 22231 22232 22233 22234 22235 22236 22237 22238 22239 22240 22241 22242 22243 22244 22245 22246 22247 22248 22249 22250 22251 22252 22253 22254 22255 22256 22257 22258 22259 22260 22261 22262 22263 22264 22265 22266 22267 22268 22269 22270 22271 22272 22273 22274 22275 22276 22277 22278 22279 22280 22281 22282 22283 22284 22285 22286 22287 22288 22289 22290 22291 22292 22293 22294 22295 22296 22297 22298 22299 22300 22301 22302 22303 22304 22305 22306 22307 22308 22309 22310 22311 22312 22313 22314 22315 22316 22317 22318 22319 22320 22321 22322 22323 22324 22325 22326 22327 22328 22329 22330 22331 22332 22333 22334 22335 22336 22337 22338 22339 22340 22341 22342 22343 22344 22345 22346 22347 22348 22349 22350 22351 22352 22353 22354 22355 22356 22357 22358 22359 22360 22361 22362 22363 22364 22365 22366 22367 22368 22369 22370 22371 22372 22373 22374 22375 22376 22377 22378 22379 22380 22381 22382 22383 22384 22385 22386 22387 22388 22389 22390 22391 22392 22393 22394 22395 22396 22397 22398 22399 22400 22401 22402 22403 22404 22405 22406 22407 22408 22409 22410 22411 22412 22413 22414 22415 22416 22417 22418 22419 22420 22421 22422 22423 22424 22425 22426 22427 22428 22429 22430 22431 22432 22433 22434 22435 22436 22437 22438 22439 22440 22441 22442 22443 22444 22445 22446 22447 22448 22449 22450 22451 22452 22453 22454 22455 22456 22457 22458 22459 22460 22461 22462 22463 22464 22465 22466 22467 22468 22469 22470 22471 22472 22473 22474 22475 22476 22477 22478 22479 22480 22481 22482 22483 22484 22485 22486 22487 22488 22489 22490 22491 22492 22493 22494 22495 22496 22497 22498 22499 22500 22501 22502 22503 22504 22505 22506 22507 22508 22509 22510 22511 22512 22513 22514 22515 22516 22517 22518 22519 22520 22521 22522 22523 22524 22525 22526 22527 22528 22529 22530 22531 22532 22533 22534 22535 22536 22537 22538 22539 22540 22541 22542 22543 22544 22545 22546 22547 22548 22549 22550 22551 22552 22553 22554 22555 22556 22557 22558 22559 22560 22561 22562 22563 22564 22565 22566 22567 22568 22569 22570 22571 22572 22573 22574 22575 22576 22577 22578 22579 22580 22581 22582 22583 22584 22585 22586 22587 22588 22589 22590 22591 22592 22593 22594 22595 22596 22597 22598 22599 22600 22601 22602 22603 22604 22605 22606 22607 22608 22609 22610 22611 22612 22613 22614 22615 22616 22617 22618 22619 22620 22621 22622 22623 22624 22625 22626 22627 22628 22629 22630 22631 22632 22633 22634 22635 22636 22637 22638 22639 22640 22641 22642 22643 22644 22645 22646 22647 22648 22649 22650 22651 22652 22653 22654 22655 22656 22657 22658 22659 22660 22661 22662 22663 22664 22665 22666 22667 22668 22669 22670 22671 22672 22673 22674 22675 22676 22677 22678 22679 22680 22681 22682 22683 22684 22685 22686 22687 22688 22689 22690 22691 22692 22693 22694 22695 22696 22697 22698 22699 22700 22701 22702 22703 22704 22705 22706 22707 22708 22709 22710 22711 22712 22713 22714 22715 22716 22717 22718 22719 22720 22721 22722 22723 22724 22725 22726 22727 22728 22729 22730 22731 22732 22733 22734 22735 22736 22737 22738 22739 22740 22741 22742 22743 22744 22745 22746 22747 22748 22749 22750 22751 22752 22753 22754 22755 22756 22757 22758 22759 22760 22761 22762 22763 22764 22765 22766 22767 22768 22769 22770 22771 22772 22773 22774 22775 22776 22777 22778 22779 22780 22781 22782 22783 22784 22785 22786 22787 22788 22789 22790 22791 22792 22793 22794 22795 22796 22797 22798 22799 22800 22801 22802 22803 22804 22805 22806 22807 22808 22809 22810 22811 22812 22813 22814 22815 22816 22817 22818 22819 22820 22821 22822 22823 22824 22825 22826 22827 22828 22829 22830 22831 22832 22833 22834 22835 22836 22837 22838 22839 22840 22841 22842 22843 22844 22845 22846 22847 22848 22849 22850 22851 22852 22853 22854 22855 22856 22857 22858 22859 22860 22861 22862 22863 22864 22865 22866 22867 22868 22869 22870 22871 22872 22873 22874 22875 22876 22877 22878 22879 22880 22881 22882 22883 22884 22885 22886 22887 22888 22889 22890 22891 22892 22893 22894 22895 22896 22897 22898 22899 22900 22901 22902 22903 22904 22905 22906 22907 22908 22909 22910 22911 22912 22913 22914 22915 22916 22917 22918 22919 22920 22921 22922 22923 22924 22925 22926 22927 22928 22929 22930 22931 22932 22933 22934 22935 22936 22937 22938 22939 22940 22941 22942 22943 22944 22945 22946 22947 22948 22949 22950 22951 22952 22953 22954 22955 22956 22957 22958 22959 22960 22961 22962 22963 22964 22965 22966 22967 22968 22969 22970 22971 22972 22973 22974 22975 22976 22977 22978 22979 22980 22981 22982 22983 22984 22985 22986 22987 22988 22989 22990 22991 22992 22993 22994 22995 22996 22997 22998 22999 23000 23001 23002 23003 23004 23005 23006 23007 23008 23009 23010 23011 23012 23013 23014 23015 23016 23017 23018 23019 23020 23021 23022 23023 23024 23025 23026 23027 23028 23029 23030 23031 23032 23033 23034 23035 23036 23037 23038 23039 23040 23041 23042 23043 23044 23045 23046 23047 23048 23049 23050 23051 23052 23053 23054 23055 23056 23057 23058 23059 23060 23061 23062 23063 23064 23065 23066 23067 23068 23069 23070 23071 23072 23073 23074 23075 23076 23077 23078 23079 23080 23081 23082 23083 23084 23085 23086 23087 23088 23089 23090 23091 23092 23093 23094 23095 23096 23097 23098 23099 23100 23101 23102 23103 23104 23105 23106 23107 23108 23109 23110 23111 23112 23113 23114 23115 23116 23117 23118 23119 23120 23121 23122 23123 23124 23125 23126 23127 23128 23129 23130 23131 23132 23133 23134 23135 23136 23137 23138 23139 23140 23141 23142 23143 23144 23145 23146 23147 23148 23149 23150 23151 23152 23153 23154 23155 23156 23157 23158 23159 23160 23161 23162 23163 23164 23165 23166 23167 23168 23169 23170 23171 23172 23173 23174 23175 23176 23177 23178 23179 23180 23181 23182 23183 23184 23185 23186 23187 23188 23189 23190 23191 23192 23193 23194 23195 23196 23197 23198 23199 23200 23201 23202 23203 23204 23205 23206 23207 23208 23209 23210 23211 23212 23213 23214 23215 23216 23217 23218 23219 23220 23221 23222 23223 23224 23225 23226 23227 23228 23229 23230 23231 23232 23233 23234 23235 23236 23237 23238 23239 23240 23241 23242 23243 23244 23245 23246 23247 23248 23249 23250 23251 23252 23253 23254 23255 23256 23257 23258 23259 23260 23261 23262 23263 23264 23265 23266 23267 23268 23269 23270 23271 23272 23273 23274 23275 23276 23277 23278 23279 23280 23281 23282 23283 23284 23285 23286 23287 23288 23289 23290 23291 23292 23293 23294 23295 23296 23297 23298 23299 23300 23301 23302 23303 23304 23305 23306 23307 23308 23309 23310 23311 23312 23313 23314 23315 23316 23317 23318 23319 23320 23321 23322 23323 23324 23325 23326 23327 23328 23329 23330 23331 23332 23333 23334 23335 23336 23337 23338 23339 23340 23341 23342 23343 23344 23345 23346 23347 23348 23349 23350 23351 23352 23353 23354 23355 23356 23357 23358 23359 23360 23361 23362 23363 23364 23365 23366 23367 23368 23369 23370 23371 23372 23373 23374 23375 23376 23377 23378 23379 23380 23381 23382 23383 23384 23385 23386 23387 23388 23389 23390 23391 23392 23393 23394 23395 23396 23397 23398 23399 23400 23401 23402 23403 23404 23405 23406 23407 23408 23409 23410 23411 23412 23413 23414 23415 23416 23417 23418 23419 23420 23421 23422 23423 23424 23425 23426 23427 23428 23429 23430 23431 23432 23433 23434 23435 23436 23437 23438 23439 23440 23441 23442 23443 23444 23445 23446 23447 23448 23449 23450 23451 23452 23453 23454 23455 23456 23457 23458 23459 23460 23461 23462 23463 23464 23465 23466 23467 23468 23469 23470 23471 23472 23473 23474 23475 23476 23477 23478 23479 23480 23481 23482 23483 23484 23485 23486 23487 23488 23489 23490 23491 23492 23493 23494 23495 23496 23497 23498 23499 23500 23501 23502 23503 23504 23505 23506 23507 23508 23509 23510 23511 23512 23513 23514 23515 23516 23517 23518 23519 23520 23521 23522 23523 23524 23525 23526 23527 23528 23529 23530 23531 23532 23533 23534 23535 23536 23537 23538 23539 23540 23541 23542 23543 23544 23545 23546 23547 23548 23549 23550 23551 23552 23553 23554 23555 23556 23557 23558 23559 23560 23561 23562 23563 23564 23565 23566 23567 23568 23569 23570 23571 23572 23573 23574 23575 23576 23577 23578 23579 23580 23581 23582 23583 23584 23585 23586 23587 23588 23589 23590 23591 23592 23593 23594 23595 23596 23597 23598 23599 23600 23601 23602 23603 23604 23605 23606 23607 23608 23609 23610 23611 23612 23613 23614 23615 23616 23617 23618 23619 23620 23621 23622 23623 23624 23625 23626 23627 23628 23629 23630 23631 23632 23633 23634 23635 23636 23637 23638 23639 23640 23641 23642 23643 23644 23645 23646 23647 23648 23649 23650 23651 23652 23653 23654 23655 23656 23657 23658 23659 23660 23661 23662 23663 23664 23665 23666 23667 23668 23669 23670 23671 23672 23673 23674 23675 23676 23677 23678 23679 23680 23681 23682 23683 23684 23685 23686 23687 23688 23689 23690 23691 23692 23693 23694 23695 23696 23697 23698 23699 23700 23701 23702 23703 23704 23705 23706 23707 23708 23709 23710 23711 23712 23713 23714 23715 23716 23717 23718 23719 23720 23721 23722 23723 23724 23725 23726 23727 23728 23729 23730 23731 23732 23733 23734 23735 23736 23737 23738 23739 23740 23741 23742 23743 23744 23745 23746 23747 23748 23749 23750 23751 23752 23753 23754 23755 23756 23757 23758 23759 23760 23761 23762 23763 23764 23765 23766 23767 23768 23769 23770 23771 23772 23773 23774 23775 23776 23777 23778 23779 23780 23781 23782 23783 23784 23785 23786 23787 23788 23789 23790 23791 23792 23793 23794 23795 23796 23797 23798 23799 23800 23801 23802 23803 23804 23805 23806 23807 23808 23809 23810 23811 23812 23813 23814 23815 23816 23817 23818 23819 23820 23821 23822 23823 23824 23825 23826 23827 23828 23829 23830 23831 23832 23833 23834 23835 23836 23837 23838 23839 23840 23841 23842 23843 23844 23845 23846 23847 23848 23849 23850 23851 23852 23853 23854 23855 23856 23857 23858 23859 23860 23861 23862 23863 23864 23865 23866 23867 23868 23869 23870 23871 23872 23873 23874 23875 23876 23877 23878 23879 23880 23881 23882 23883 23884 23885 23886 23887 23888 23889 23890 23891 23892 23893 23894 23895 23896 23897 23898 23899 23900 23901 23902 23903 23904 23905 23906 23907 23908 23909 23910 23911 23912 23913 23914 23915 23916 23917 23918 23919 23920 23921 23922 23923 23924 23925 23926 23927 23928 23929 23930 23931 23932 23933 23934 23935 23936 23937 23938 23939 23940 23941 23942 23943 23944 23945 23946 23947 23948 23949 23950 23951 23952 23953 23954 23955 23956 23957 23958 23959 23960 23961 23962 23963 23964 23965 23966 23967 23968 23969 23970 23971 23972 23973 23974 23975 23976 23977 23978 23979 23980 23981 23982 23983 23984 23985 23986 23987 23988 23989 23990 23991 23992 23993 23994 23995 23996 23997 23998 23999 24000 24001 24002 24003 24004 24005 24006 24007 24008 24009 24010 24011 24012 24013 24014 24015 24016 24017 24018 24019 24020 24021 24022 24023 24024 24025 24026 24027 24028 24029 24030 24031 24032 24033 24034 24035 24036 24037 24038 24039 24040 24041 24042 24043 24044 24045 24046 24047 24048 24049 24050 24051 24052 24053 24054 24055 24056 24057 24058 24059 24060 24061 24062 24063 24064 24065 24066 24067 24068 24069 24070 24071 24072 24073 24074 24075 24076 24077 24078 24079 24080 24081 24082 24083 24084 24085 24086 24087 24088 24089 24090 24091 24092 24093 24094 24095 24096 24097 24098 24099 24100 24101 24102 24103 24104 24105 24106 24107 24108 24109 24110 24111 24112 24113 24114 24115 24116 24117 24118 24119 24120 24121 24122 24123 24124 24125 24126 24127 24128 24129 24130 24131 24132 24133 24134 24135 24136 24137 24138 24139 24140 24141 24142 24143 24144 24145 24146 24147 24148 24149 24150 24151 24152 24153 24154 24155 24156 24157 24158 24159 24160 24161 24162 24163 24164 24165 24166 24167 24168 24169 24170 24171 24172 24173 24174 24175 24176 24177 24178 24179 24180 24181 24182 24183 24184 24185 24186 24187 24188 24189 24190 24191 24192 24193 24194 24195 24196 24197 24198 24199 24200 24201 24202 24203 24204 24205 24206 24207 24208 24209 24210 24211 24212 24213 24214 24215 24216 24217 24218 24219 24220 24221 24222 24223 24224 24225 24226 24227 24228 24229 24230 24231 24232 24233 24234 24235 24236 24237 24238 24239 24240 24241 24242 24243 24244 24245 24246 24247 24248 24249 24250 24251 24252 24253 24254 24255 24256 24257 24258 24259 24260 24261 24262 24263 24264 24265 24266 24267 24268 24269 24270 24271 24272 24273 24274 24275 24276 24277 24278 24279 24280 24281 24282 24283 24284 24285 24286 24287 24288 24289 24290 24291 24292 24293 24294 24295 24296 24297 24298 24299 24300 24301 24302 24303 24304 24305 24306 24307 24308 24309 24310 24311 24312 24313 24314 24315 24316 24317 24318 24319 24320 24321 24322 24323 24324 24325 24326 24327 24328 24329 24330 24331 24332 24333 24334 24335 24336 24337 24338 24339 24340 24341 24342 24343 24344 24345 24346 24347 24348 24349 24350 24351 24352 24353 24354 24355 24356 24357 24358 24359 24360 24361 24362 24363 24364 24365 24366 24367 24368 24369 24370 24371 24372 24373 24374 24375 24376 24377 24378 24379 24380 24381 24382 24383 24384 24385 24386 24387 24388 24389 24390 24391 24392 24393 24394 24395 24396 24397 24398 24399 24400 24401 24402 24403 24404 24405 24406 24407 24408 24409 24410 24411 24412 24413 24414 24415 24416 24417 24418 24419 24420 24421 24422 24423 24424 24425 24426 24427 24428 24429 24430 24431 24432 24433 24434 24435 24436 24437 24438 24439 24440 24441 24442 24443 24444 24445 24446 24447 24448 24449 24450 24451 24452 24453 24454 24455 24456 24457 24458 24459 24460 24461 24462 24463 24464 24465 24466 24467 24468 24469 24470 24471 24472 24473 24474 24475 24476 24477 24478 24479 24480 24481 24482 24483 24484 24485 24486 24487 24488 24489 24490 24491 24492 24493 24494 24495 24496 24497 24498 24499 24500 24501 24502 24503 24504 24505 24506 24507 24508 24509 24510 24511 24512 24513 24514 24515 24516 24517 24518 24519 24520 24521 24522 24523 24524 24525 24526 24527 24528 24529 24530 24531 24532 24533 24534 24535 24536 24537 24538 24539 24540 24541 24542 24543 24544 24545 24546 24547 24548 24549 24550 24551 24552 24553 24554 24555 24556 24557 24558 24559 24560 24561 24562 24563 24564 24565 24566 24567 24568 24569 24570 24571 24572 24573 24574 24575 24576 24577 24578 24579 24580 24581 24582 24583 24584 24585 24586 24587 24588 24589 24590 24591 24592 24593 24594 24595 24596 24597 24598 24599 24600 24601 24602 24603 24604 24605 24606 24607 24608 24609 24610 24611 24612 24613 24614 24615 24616 24617 24618 24619 24620 24621 24622 24623 24624 24625 24626 24627 24628 24629 24630 24631 24632 24633 24634 24635 24636 24637 24638 24639 24640 24641 24642 24643 24644 24645 24646 24647 24648 24649 24650 24651 24652 24653 24654 24655 24656 24657 24658 24659 24660 24661 24662 24663 24664 24665 24666 24667 24668 24669 24670 24671 24672 24673 24674 24675 24676 24677 24678 24679 24680 24681 24682 24683 24684 24685 24686 24687 24688 24689 24690 24691 24692 24693 24694 24695 24696 24697 24698 24699 24700 24701 24702 24703 24704 24705 24706 24707 24708 24709 24710 24711 24712 24713 24714 24715 24716 24717 24718 24719 24720 24721 24722 24723 24724 24725 24726 24727 24728 24729 24730 24731 24732 24733 24734 24735 24736 24737 24738 24739 24740 24741 24742 24743 24744 24745 24746 24747 24748 24749 24750 24751 24752 24753 24754 24755 24756 24757 24758 24759 24760 24761 24762 24763 24764 24765 24766 24767 24768 24769 24770 24771 24772 24773 24774 24775 24776 24777 24778 24779 24780 24781 24782 24783 24784 24785 24786 24787 24788 24789 24790 24791 24792 24793 24794 24795 24796 24797 24798 24799 24800 24801 24802 24803 24804 24805 24806 24807 24808 24809 24810 24811 24812 24813 24814 24815 24816 24817 24818 24819 24820 24821 24822 24823 24824 24825 24826 24827 24828 24829 24830 24831 24832 24833 24834 24835 24836 24837 24838 24839 24840 24841 24842 24843 24844 24845 24846 24847 24848 24849 24850 24851 24852 24853 24854 24855 24856 24857 24858 24859 24860 24861 24862 24863 24864 24865 24866 24867 24868 24869 24870 24871 24872 24873 24874 24875 24876 24877 24878 24879 24880 24881 24882 24883 24884 24885 24886 24887 24888 24889 24890 24891 24892 24893 24894 24895 24896 24897 24898 24899 24900 24901 24902 24903 24904 24905 24906 24907 24908 24909 24910 24911 24912 24913 24914 24915 24916 24917 24918 24919 24920 24921 24922 24923 24924 24925 24926 24927 24928 24929 24930 24931 24932 24933 24934 24935 24936 24937 24938 24939 24940 24941 24942 24943 24944 24945 24946 24947 24948 24949 24950 24951 24952 24953 24954 24955 24956 24957 24958 24959 24960 24961 24962 24963 24964 24965 24966 24967 24968 24969 24970 24971 24972 24973 24974 24975 24976 24977 24978 24979 24980 24981 24982 24983 24984 24985 24986 24987 24988 24989 24990 24991 24992 24993 24994 24995 24996 24997 24998 24999 25000 25001 25002 25003 25004 25005 25006 25007 25008 25009 25010 25011 25012 25013 25014 25015 25016 25017 25018 25019 25020 25021 25022 25023 25024 25025 25026 25027 25028 25029 25030 25031 25032 25033 25034 25035 25036 25037 25038 25039 25040 25041 25042 25043 25044 25045 25046 25047 25048 25049 25050 25051 25052 25053 25054 25055 25056 25057 25058 25059 25060 25061 25062 25063 25064 25065 25066 25067 25068 25069 25070 25071 25072 25073 25074 25075 25076 25077 25078 25079 25080 25081 25082 25083 25084 25085 25086 25087 25088 25089 25090 25091 25092 25093 25094 25095 25096 25097 25098 25099 25100 25101 25102 25103 25104 25105 25106 25107 25108 25109 25110 25111 25112 25113 25114 25115 25116 25117 25118 25119 25120 25121 25122 25123 25124 25125 25126 25127 25128 25129 25130 25131 25132 25133 25134 25135 25136 25137 25138 25139 25140 25141 25142 25143 25144 25145 25146 25147 25148 25149 25150 25151 25152 25153 25154 25155 25156 25157 25158 25159 25160 25161 25162 25163 25164 25165 25166 25167 25168 25169 25170 25171 25172 25173 25174 25175 25176 25177 25178 25179 25180 25181 25182 25183 25184 25185 25186 25187 25188 25189 25190 25191 25192 25193 25194 25195 25196 25197 25198 25199 25200 25201 25202 25203 25204 25205 25206 25207 25208 25209 25210 25211 25212 25213 25214 25215 25216 25217 25218 25219 25220 25221 25222 25223 25224 25225 25226 25227 25228 25229 25230 25231 25232 25233 25234 25235 25236 25237 25238 25239 25240 25241 25242 25243 25244 25245 25246 25247 25248 25249 25250 25251 25252 25253 25254 25255 25256 25257 25258 25259 25260 25261 25262 25263 25264 25265 25266 25267 25268 25269 25270 25271 25272 25273 25274 25275 25276 25277 25278 25279 25280 25281 25282 25283 25284 25285 25286 25287 25288 25289 25290 25291 25292 25293 25294 25295 25296 25297 25298 25299 25300 25301 25302 25303 25304 25305 25306 25307 25308 25309 25310 25311 25312 25313 25314 25315 25316 25317 25318 25319 25320 25321 25322 25323 25324 25325 25326 25327 25328 25329 25330 25331 25332 25333 25334 25335 25336 25337 25338 25339 25340 25341 25342 25343 25344 25345 25346 25347 25348 25349 25350 25351 25352 25353 25354 25355 25356 25357 25358 25359 25360 25361 25362 25363 25364 25365 25366 25367 25368 25369 25370 25371 25372 25373 25374 25375 25376 25377 25378 25379 25380 25381 25382 25383 25384 25385 25386 25387 25388 25389 25390 25391 25392 25393 25394 25395 25396 25397 25398 25399 25400 25401 25402 25403 25404 25405 25406 25407 25408 25409 25410 25411 25412 25413 25414 25415 25416 25417 25418 25419 25420 25421 25422 25423 25424 25425 25426 25427 25428 25429 25430 25431 25432 25433 25434 25435 25436 25437 25438 25439 25440 25441 25442 25443 25444 25445 25446 25447 25448 25449 25450 25451 25452 25453 25454 25455 25456 25457 25458 25459 25460 25461 25462 25463 25464 25465 25466 25467 25468 25469 25470 25471 25472 25473 25474 25475 25476 25477 25478 25479 25480 25481 25482 25483 25484 25485 25486 25487 25488 25489 25490 25491 25492 25493 25494 25495 25496 25497 25498 25499 25500 25501 25502 25503 25504 25505 25506 25507 25508 25509 25510 25511 25512 25513 25514 25515 25516 25517 25518 25519 25520 25521 25522 25523 25524 25525 25526 25527 25528 25529 25530 25531 25532 25533 25534 25535 25536 25537 25538 25539 25540 25541 25542 25543 25544 25545 25546 25547 25548 25549 25550 25551 25552 25553 25554 25555 25556 25557 25558 25559 25560 25561 25562 25563 25564 25565 25566 25567 25568 25569 25570 25571 25572 25573 25574 25575 25576 25577 25578 25579 25580 25581 25582 25583 25584 25585 25586 25587 25588 25589 25590 25591 25592 25593 25594 25595 25596 25597 25598 25599 25600 25601 25602 25603 25604 25605 25606 25607 25608 25609 25610 25611 25612 25613 25614 25615 25616 25617 25618 25619 25620 25621 25622 25623 25624 25625 25626 25627 25628 25629 25630 25631 25632 25633 25634 25635 25636 25637 25638 25639 25640 25641 25642 25643 25644 25645 25646 25647 25648 25649 25650 25651 25652 25653 25654 25655 25656 25657 25658 25659 25660 25661 25662 25663 25664 25665 25666 25667 25668 25669 25670 25671 25672 25673 25674 25675 25676 25677 25678 25679 25680 25681 25682 25683 25684 25685 25686 25687 25688 25689 25690 25691 25692 25693 25694 25695 25696 25697 25698 25699 25700 25701 25702 25703 25704 25705 25706 25707 25708 25709 25710 25711 25712 25713 25714 25715 25716 25717 25718 25719 25720 25721 25722 25723 25724 25725 25726 25727 25728 25729 25730 25731 25732 25733 25734 25735 25736 25737 25738 25739 25740 25741 25742 25743 25744 25745 25746 25747 25748 25749 25750 25751 25752 25753 25754 25755 25756 25757 25758 25759 25760 25761 25762 25763 25764 25765 25766 25767 25768 25769 25770 25771 25772 25773 25774 25775 25776 25777 25778 25779 25780 25781 25782 25783 25784 25785 25786 25787 25788 25789 25790 25791 25792 25793 25794 25795 25796 25797 25798 25799 25800 25801 25802 25803 25804 25805 25806 25807 25808 25809 25810 25811 25812 25813 25814 25815 25816 25817 25818 25819 25820 25821 25822 25823 25824 25825 25826 25827 25828 25829 25830 25831 25832 25833 25834 25835 25836 25837 25838 25839 25840 25841 25842 25843 25844 25845 25846 25847 25848 25849 25850 25851 25852 25853 25854 25855 25856 25857 25858 25859 25860 25861 25862 25863 25864 25865 25866 25867 25868 25869 25870 25871 25872 25873 25874 25875 25876 25877 25878 25879 25880 25881 25882 25883 25884 25885 25886 25887 25888 25889 25890 25891 25892 25893 25894 25895 25896 25897 25898 25899 25900 25901 25902 25903 25904 25905 25906 25907 25908 25909 25910 25911 25912 25913 25914 25915 25916 25917 25918 25919 25920 25921 25922 25923 25924 25925 25926 25927 25928 25929 25930 25931 25932 25933 25934 25935 25936 25937 25938 25939 25940 25941 25942 25943 25944 25945 25946 25947 25948 25949 25950 25951 25952 25953 25954 25955 25956 25957 25958 25959 25960 25961 25962 25963 25964 25965 25966 25967 25968 25969 25970 25971 25972 25973 25974 25975 25976 25977 25978 25979 25980 25981 25982 25983 25984 25985 25986 25987 25988 25989 25990 25991 25992 25993 25994 25995 25996 25997 25998 25999 26000 26001 26002 26003 26004 26005 26006 26007 26008 26009 26010 26011 26012 26013 26014 26015 26016 26017 26018 26019 26020 26021 26022 26023 26024 26025 26026 26027 26028 26029 26030 26031 26032 26033 26034 26035 26036 26037 26038 26039 26040 26041 26042 26043 26044 26045 26046 26047 26048 26049 26050 26051 26052 26053 26054 26055 26056 26057 26058 26059 26060 26061 26062 26063 26064 26065 26066 26067 26068 26069 26070 26071 26072 26073 26074 26075 26076 26077 26078 26079 26080 26081 26082 26083 26084 26085 26086 26087 26088 26089 26090 26091 26092 26093 26094 26095 26096 26097 26098 26099 26100 26101 26102 26103 26104 26105 26106 26107 26108 26109 26110 26111 26112 26113 26114 26115 26116 26117 26118 26119 26120 26121 26122 26123 26124 26125 26126 26127 26128 26129 26130 26131 26132 26133 26134 26135 26136 26137 26138 26139 26140 26141 26142 26143 26144 26145 26146 26147 26148 26149 26150 26151 26152 26153 26154 26155 26156 26157 26158 26159 26160 26161 26162 26163 26164 26165 26166 26167 26168 26169 26170 26171 26172 26173 26174 26175 26176 26177 26178 26179 26180 26181 26182 26183 26184 26185 26186 26187 26188 26189 26190 26191 26192 26193 26194 26195 26196 26197 26198 26199 26200 26201 26202 26203 26204 26205 26206 26207 26208 26209 26210 26211 26212 26213 26214 26215 26216 26217 26218 26219 26220 26221 26222 26223 26224 26225 26226 26227 26228 26229 26230 26231 26232 26233 26234 26235 26236 26237 26238 26239 26240 26241 26242 26243 26244 26245 26246 26247 26248 26249 26250 26251 26252 26253 26254 26255 26256 26257 26258 26259 26260 26261 26262 26263 26264 26265 26266 26267 26268 26269 26270 26271 26272 26273 26274 26275 26276 26277 26278 26279 26280 26281 26282 26283 26284 26285 26286 26287 26288 26289 26290 26291 26292 26293 26294 26295 26296 26297 26298 26299 26300 26301 26302 26303 26304 26305 26306 26307 26308 26309 26310 26311 26312 26313 26314 26315 26316 26317 26318 26319 26320 26321 26322 26323 26324 26325 26326 26327 26328 26329 26330 26331 26332 26333 26334 26335 26336 26337 26338 26339 26340 26341 26342 26343 26344 26345 26346 26347 26348 26349 26350 26351 26352 26353 26354 26355 26356 26357 26358 26359 26360 26361 26362 26363 26364 26365 26366 26367 26368 26369 26370 26371 26372 26373 26374 26375 26376 26377 26378 26379 26380 26381 26382 26383 26384 26385 26386 26387 26388 26389 26390 26391 26392 26393 26394 26395 26396 26397 26398 26399 26400 26401 26402 26403 26404 26405 26406 26407 26408 26409 26410 26411 26412 26413 26414 26415 26416 26417 26418 26419 26420 26421 26422 26423 26424 26425 26426 26427 26428 26429 26430 26431 26432 26433 26434 26435 26436 26437 26438 26439 26440 26441 26442 26443 26444 26445 26446 26447 26448 26449 26450 26451 26452 26453 26454 26455 26456 26457 26458 26459 26460 26461 26462 26463 26464 26465 26466 26467 26468 26469 26470 26471 26472 26473 26474 26475 26476 26477 26478 26479 26480 26481 26482 26483 26484 26485 26486 26487 26488 26489 26490 26491 26492 26493 26494 26495 26496 26497 26498 26499 26500 26501 26502 26503 26504 26505 26506 26507 26508 26509 26510 26511 26512 26513 26514 26515 26516 26517 26518 26519 26520 26521 26522 26523 26524 26525 26526 26527 26528 26529 26530 26531 26532 26533 26534 26535 26536 26537 26538 26539 26540 26541 26542 26543 26544 26545 26546 26547 26548 26549 26550 26551 26552 26553 26554 26555 26556 26557 26558 26559 26560 26561 26562 26563 26564 26565 26566 26567 26568 26569 26570 26571 26572 26573 26574 26575 26576 26577 26578 26579 26580 26581 26582 26583 26584 26585 26586 26587 26588 26589 26590 26591 26592 26593 26594 26595 26596 26597 26598 26599 26600 26601 26602 26603 26604 26605 26606 26607 26608 26609 26610 26611 26612 26613 26614 26615 26616 26617 26618 26619 26620 26621 26622 26623 26624 26625 26626 26627 26628 26629 26630 26631 26632 26633 26634 26635 26636 26637 26638 26639 26640 26641 26642 26643 26644 26645 26646 26647 26648 26649 26650 26651 26652 26653 26654 26655 26656 26657 26658 26659 26660 26661 26662 26663 26664 26665 26666 26667 26668 26669 26670 26671 26672 26673 26674 26675 26676 26677 26678 26679 26680 26681 26682 26683 26684 26685 26686 26687 26688 26689 26690 26691 26692 26693 26694 26695 26696 26697 26698 26699 26700 26701 26702 26703 26704 26705 26706 26707 26708 26709 26710 26711 26712 26713 26714 26715 26716 26717 26718 26719 26720 26721 26722 26723 26724 26725 26726 26727 26728 26729 26730 26731 26732 26733 26734 26735 26736 26737 26738 26739 26740 26741 26742 26743 26744 26745 26746 26747 26748 26749 26750 26751 26752 26753 26754 26755 26756 26757 26758 26759 26760 26761 26762 26763 26764 26765 26766 26767 26768 26769 26770 26771 26772 26773 26774 26775 26776 26777 26778 26779 26780 26781 26782 26783 26784 26785 26786 26787 26788 26789 26790 26791 26792 26793 26794 26795 26796 26797 26798 26799 26800 26801 26802 26803 26804 26805 26806 26807 26808 26809 26810 26811 26812 26813 26814 26815 26816 26817 26818 26819 26820 26821 26822 26823 26824 26825 26826 26827 26828 26829 26830 26831 26832 26833 26834 26835 26836 26837 26838 26839 26840 26841 26842 26843 26844 26845 26846 26847 26848 26849 26850 26851 26852 26853 26854 26855 26856 26857 26858 26859 26860 26861 26862 26863 26864 26865 26866 26867 26868 26869 26870 26871 26872 26873 26874 26875 26876 26877 26878 26879 26880 26881 26882 26883 26884 26885 26886 26887 26888 26889 26890 26891 26892 26893 26894 26895 26896 26897 26898 26899 26900 26901 26902 26903 26904 26905 26906 26907 26908 26909 26910 26911 26912 26913 26914 26915 26916 26917 26918 26919 26920 26921 26922 26923 26924 26925 26926 26927 26928 26929 26930 26931 26932 26933 26934 26935 26936 26937 26938 26939 26940 26941 26942 26943 26944 26945 26946 26947 26948 26949 26950 26951 26952 26953 26954 26955 26956 26957 26958 26959 26960 26961 26962 26963 26964 26965 26966 26967 26968 26969 26970 26971 26972 26973 26974 26975 26976 26977 26978 26979 26980 26981 26982 26983 26984 26985 26986 26987 26988 26989 26990 26991 26992 26993 26994 26995 26996 26997 26998 26999 27000 27001 27002 27003 27004 27005 27006 27007 27008 27009 27010 27011 27012 27013 27014 27015 27016 27017 27018 27019 27020 27021 27022 27023 27024 27025 27026 27027 27028 27029 27030 27031 27032 27033 27034 27035 27036 27037 27038 27039 27040 27041 27042 27043 27044 27045 27046 27047 27048 27049 27050 27051 27052 27053 27054 27055 27056 27057 27058 27059 27060 27061 27062 27063 27064 27065 27066 27067 27068 27069 27070 27071 27072 27073 27074 27075 27076 27077 27078 27079 27080 27081 27082 27083 27084 27085 27086 27087 27088 27089 27090 27091 27092 27093 27094 27095 27096 27097 27098 27099 27100 27101 27102 27103 27104 27105 27106 27107 27108 27109 27110 27111 27112 27113 27114 27115 27116 27117 27118 27119 27120 27121 27122 27123 27124 27125 27126 27127 27128 27129 27130 27131 27132 27133 27134 27135 27136 27137 27138 27139 27140 27141 27142 27143 27144 27145 27146 27147 27148 27149 27150 27151 27152 27153 27154 27155 27156 27157 27158 27159 27160 27161 27162 27163 27164 27165 27166 27167 27168 27169 27170 27171 27172 27173 27174 27175 27176 27177 27178 27179 27180 27181 27182 27183 27184 27185 27186 27187 27188 27189 27190 27191 27192 27193 27194 27195 27196 27197 27198 27199 27200 27201 27202 27203 27204 27205 27206 27207 27208 27209 27210 27211 27212 27213 27214 27215 27216 27217 27218 27219 27220 27221 27222 27223 27224 27225 27226 27227 27228 27229 27230 27231 27232 27233 27234 27235 27236 27237 27238 27239 27240 27241 27242 27243 27244 27245 27246 27247 27248 27249 27250 27251 27252 27253 27254 27255 27256 27257 27258 27259 27260 27261 27262 27263 27264 27265 27266 27267 27268 27269 27270 27271 27272 27273 27274 27275 27276 27277 27278 27279 27280 27281 27282 27283 27284 27285 27286 27287 27288 27289 27290 27291 27292 27293 27294 27295 27296 27297 27298 27299 27300 27301 27302 27303 27304 27305 27306 27307 27308 27309 27310 27311 27312 27313 27314 27315 27316 27317 27318 27319 27320 27321 27322 27323 27324 27325 27326 27327 27328 27329 27330 27331 27332 27333 27334 27335 27336 27337 27338 27339 27340 27341 27342 27343 27344 27345 27346 27347 27348 27349 27350 27351 27352 27353 27354 27355 27356 27357 27358 27359 27360 27361 27362 27363 27364 27365 27366 27367 27368 27369 27370 27371 27372 27373 27374 27375 27376 27377 27378 27379 27380 27381 27382 27383 27384 27385 27386 27387 27388 27389 27390 27391 27392 27393 27394 27395 27396 27397 27398 27399 27400 27401 27402 27403 27404 27405 27406 27407 27408 27409 27410 27411 27412 27413 27414 27415 27416 27417 27418 27419 27420 27421 27422 27423 27424 27425 27426 27427 27428 27429 27430 27431 27432 27433 27434 27435 27436 27437 27438 27439 27440 27441 27442 27443 27444 27445 27446 27447 27448 27449 27450 27451 27452 27453 27454 27455 27456 27457 27458 27459 27460 27461 27462 27463 27464 27465 27466 27467 27468 27469 27470 27471 27472 27473 27474 27475 27476 27477 27478 27479 27480 27481 27482 27483 27484 27485 27486 27487 27488 27489 27490 27491 27492 27493 27494 27495 27496 27497 27498 27499 27500 27501 27502 27503 27504 27505 27506 27507 27508 27509 27510 27511 27512 27513 27514 27515 27516 27517 27518 27519 27520 27521 27522 27523 27524 27525 27526 27527 27528 27529 27530 27531 27532 27533 27534 27535 27536 27537 27538 27539 27540 27541 27542 27543 27544 27545 27546 27547 27548 27549 27550 27551 27552 27553 27554 27555 27556 27557 27558 27559 27560 27561 27562 27563 27564 27565 27566 27567 27568 27569 27570 27571 27572 27573 27574 27575 27576 27577 27578 27579 27580 27581 27582 27583 27584 27585 27586 27587 27588 27589 27590 27591 27592 27593 27594 27595 27596 27597 27598 27599 27600 27601 27602 27603 27604 27605 27606 27607 27608 27609 27610 27611 27612 27613 27614 27615 27616 27617 27618 27619 27620 27621 27622 27623 27624 27625 27626 27627 27628 27629 27630 27631 27632 27633 27634 27635 27636 27637 27638 27639 27640 27641 27642 27643 27644 27645 27646 27647 27648 27649 27650 27651 27652 27653 27654 27655 27656 27657 27658 27659 27660 27661 27662 27663 27664 27665 27666 27667 27668 27669 27670 27671 27672 27673 27674 27675 27676 27677 27678 27679 27680 27681 27682 27683 27684 27685 27686 27687 27688 27689 27690 27691 27692 27693 27694 27695 27696 27697 27698 27699 27700 27701 27702 27703 27704 27705 27706 27707 27708 27709 27710 27711 27712 27713 27714 27715 27716 27717 27718 27719 27720 27721 27722 27723 27724 27725 27726 27727 27728 27729 27730 27731 27732 27733 27734 27735 27736 27737 27738 27739 27740 27741 27742 27743 27744 27745 27746 27747 27748 27749 27750 27751 27752 27753 27754 27755 27756 27757 27758 27759 27760 27761 27762 27763 27764 27765 27766 27767 27768 27769 27770 27771 27772 27773 27774 27775 27776 27777 27778 27779 27780 27781 27782 27783 27784 27785 27786 27787 27788 27789 27790 27791 27792 27793 27794 27795 27796 27797 27798 27799 27800 27801 27802 27803 27804 27805 27806 27807 27808 27809 27810 27811 27812 27813 27814 27815 27816 27817 27818 27819 27820 27821 27822 27823 27824 27825 27826 27827 27828 27829 27830 27831 27832 27833 27834 27835 27836 27837 27838 27839 27840 27841 27842 27843 27844 27845 27846 27847 27848 27849 27850 27851 27852 27853 27854 27855 27856 27857 27858 27859 27860 27861 27862 27863 27864 27865 27866 27867 27868 27869 27870 27871 27872 27873 27874 27875 27876 27877 27878 27879 27880 27881 27882 27883 27884 27885 27886 27887 27888 27889 27890 27891 27892 27893 27894 27895 27896 27897 27898 27899 27900 27901 27902 27903 27904 27905 27906 27907 27908 27909 27910 27911 27912 27913 27914 27915 27916 27917 27918 27919 27920 27921 27922 27923 27924 27925 27926 27927 27928 27929 27930 27931 27932 27933 27934 27935 27936 27937 27938 27939 27940 27941 27942 27943 27944 27945 27946 27947 27948 27949 27950 27951 27952 27953 27954 27955 27956 27957 27958 27959 27960 27961 27962 27963 27964 27965 27966 27967 27968 27969 27970 27971 27972 27973 27974 27975 27976 27977 27978 27979 27980 27981 27982 27983 27984 27985 27986 27987 27988 27989 27990 27991 27992 27993 27994 27995 27996 27997 27998 27999 28000 28001 28002 28003 28004 28005 28006 28007 28008 28009 28010 28011 28012 28013 28014 28015 28016 28017 28018 28019 28020 28021 28022 28023 28024 28025 28026 28027 28028 28029 28030 28031 28032 28033 28034 28035 28036 28037 28038 28039 28040 28041 28042 28043 28044 28045 28046 28047 28048 28049 28050 28051 28052 28053 28054 28055 28056 28057 28058 28059 28060 28061 28062 28063 28064 28065 28066 28067 28068 28069 28070 28071 28072 28073 28074 28075 28076 28077 28078 28079 28080 28081 28082 28083 28084 28085 28086 28087 28088 28089 28090 28091 28092 28093 28094 28095 28096 28097 28098 28099 28100 28101 28102 28103 28104 28105 28106 28107 28108 28109 28110 28111 28112 28113 28114 28115 28116 28117 28118 28119 28120 28121 28122 28123 28124 28125 28126 28127 28128 28129 28130 28131 28132 28133 28134 28135 28136 28137 28138 28139 28140 28141 28142 28143 28144 28145 28146 28147 28148 28149 28150 28151 28152 28153 28154 28155 28156 28157 28158 28159 28160 28161 28162 28163 28164 28165 28166 28167 28168 28169 28170 28171 28172 28173 28174 28175 28176 28177 28178 28179 28180 28181 28182 28183 28184 28185 28186 28187 28188 28189 28190 28191 28192 28193 28194 28195 28196 28197 28198 28199 28200 28201 28202 28203 28204 28205 28206 28207 28208 28209 28210 28211 28212 28213 28214 28215 28216 28217 28218 28219 28220 28221 28222 28223 28224 28225 28226 28227 28228 28229 28230 28231 28232 28233 28234 28235 28236 28237 28238 28239 28240 28241 28242 28243 28244 28245 28246 28247 28248 28249 28250 28251 28252 28253 28254 28255 28256 28257 28258 28259 28260 28261 28262 28263 28264 28265 28266 28267 28268 28269 28270 28271 28272 28273 28274 28275 28276 28277 28278 28279 28280 28281 28282 28283 28284 28285 28286 28287 28288 28289 28290 28291 28292 28293 28294 28295 28296 28297 28298 28299 28300 28301 28302 28303 28304 28305 28306 28307 28308 28309 28310 28311 28312 28313 28314 28315 28316 28317 28318 28319 28320 28321 28322 28323 28324 28325 28326 28327 28328 28329 28330 28331 28332 28333 28334 28335 28336 28337 28338 28339 28340 28341 28342 28343 28344 28345 28346 28347 28348 28349 28350 28351 28352 28353 28354 28355 28356 28357 28358 28359 28360 28361 28362 28363 28364 28365 28366 28367 28368 28369 28370 28371 28372 28373 28374 28375 28376 28377 28378 28379 28380 28381 28382 28383 28384 28385 28386 28387 28388 28389 28390 28391 28392 28393 28394 28395 28396 28397 28398 28399 28400 28401 28402 28403 28404 28405 28406 28407 28408 28409 28410 28411 28412 28413 28414 28415 28416 28417 28418 28419 28420 28421 28422 28423 28424 28425 28426 28427 28428 28429 28430 28431 28432 28433 28434 28435 28436 28437 28438 28439 28440 28441 28442 28443 28444 28445 28446 28447 28448 28449 28450 28451 28452 28453 28454 28455 28456 28457 28458 28459 28460 28461 28462 28463 28464 28465 28466 28467 28468 28469 28470 28471 28472 28473 28474 28475 28476 28477 28478 28479 28480 28481 28482 28483 28484 28485 28486 28487 28488 28489 28490 28491 28492 28493 28494 28495 28496 28497 28498 28499 28500 28501 28502 28503 28504 28505 28506 28507 28508 28509 28510 28511 28512 28513 28514 28515 28516 28517 28518 28519 28520 28521 28522 28523 28524 28525 28526 28527 28528 28529 28530 28531 28532 28533 28534 28535 28536 28537 28538 28539 28540 28541 28542 28543 28544 28545 28546 28547 28548 28549 28550 28551 28552 28553 28554 28555 28556 28557 28558 28559 28560 28561 28562 28563 28564 28565 28566 28567 28568 28569 28570 28571 28572 28573 28574 28575 28576 28577 28578 28579 28580 28581 28582 28583 28584 28585 28586 28587 28588 28589 28590 28591 28592 28593 28594 28595 28596 28597 28598 28599 28600 28601 28602 28603 28604 28605 28606 28607 28608 28609 28610 28611 28612 28613 28614 28615 28616 28617 28618 28619 28620 28621 28622 28623 28624 28625 28626 28627 28628 28629 28630 28631 28632 28633 28634 28635 28636 28637 28638 28639 28640 28641 28642 28643 28644 28645 28646 28647 28648 28649 28650 28651 28652 28653 28654 28655 28656 28657 28658 28659 28660 28661 28662 28663 28664 28665 28666 28667 28668 28669 28670 28671 28672 28673 28674 28675 28676 28677 28678 28679 28680 28681 28682 28683 28684 28685 28686 28687 28688 28689 28690 28691 28692 28693 28694 28695 28696 28697 28698 28699 28700 28701 28702 28703 28704 28705 28706 28707 28708 28709 28710 28711 28712 28713 28714 28715 28716 28717 28718 28719 28720 28721 28722 28723 28724 28725 28726 28727 28728 28729 28730 28731 28732 28733 28734 28735 28736 28737 28738 28739 28740 28741 28742 28743 28744 28745 28746 28747 28748 28749 28750 28751 28752 28753 28754 28755 28756 28757 28758 28759 28760 28761 28762 28763 28764 28765 28766 28767 28768 28769 28770 28771 28772 28773 28774 28775 28776 28777 28778 28779 28780 28781 28782 28783 28784 28785 28786 28787 28788 28789 28790 28791 28792 28793 28794 28795 28796 28797 28798 28799 28800 28801 28802 28803 28804 28805 28806 28807 28808 28809 28810 28811 28812 28813 28814 28815 28816 28817 28818 28819 28820 28821 28822 28823 28824 28825 28826 28827 28828 28829 28830 28831 28832 28833 28834 28835 28836 28837 28838 28839 28840 28841 28842 28843 28844 28845 28846 28847 28848 28849 28850 28851 28852 28853 28854 28855 28856 28857 28858 28859 28860 28861 28862 28863 28864 28865 28866 28867 28868 28869 28870 28871 28872 28873 28874 28875 28876 28877 28878 28879 28880 28881 28882 28883 28884 28885 28886 28887 28888 28889 28890 28891 28892 28893 28894 28895 28896 28897 28898 28899 28900 28901 28902 28903 28904 28905 28906 28907 28908 28909 28910 28911 28912 28913 28914 28915 28916 28917 28918 28919 28920 28921 28922 28923 28924 28925 28926 28927 28928 28929 28930 28931 28932 28933 28934 28935 28936 28937 28938 28939 28940 28941 28942 28943 28944 28945 28946 28947 28948 28949 28950 28951 28952 28953 28954 28955 28956 28957 28958 28959 28960 28961 28962 28963 28964 28965 28966 28967 28968 28969 28970 28971 28972 28973 28974 28975 28976 28977 28978 28979 28980 28981 28982 28983 28984 28985 28986 28987 28988 28989 28990 28991 28992 28993 28994 28995 28996 28997 28998 28999 29000 29001 29002 29003 29004 29005 29006 29007 29008 29009 29010 29011 29012 29013 29014 29015 29016 29017 29018 29019 29020 29021 29022 29023 29024 29025 29026 29027 29028 29029 29030 29031 29032 29033 29034 29035 29036 29037 29038 29039 29040 29041 29042 29043 29044 29045 29046 29047 29048 29049 29050 29051 29052 29053 29054 29055 29056 29057 29058 29059 29060 29061 29062 29063 29064 29065 29066 29067 29068 29069 29070 29071 29072 29073 29074 29075 29076 29077 29078 29079 29080 29081 29082 29083 29084 29085 29086 29087 29088 29089 29090 29091 29092 29093 29094 29095 29096 29097 29098 29099 29100 29101 29102 29103 29104 29105 29106 29107 29108 29109 29110 29111 29112 29113 29114 29115 29116 29117 29118 29119 29120 29121 29122 29123 29124 29125 29126 29127 29128 29129 29130 29131 29132 29133 29134 29135 29136 29137 29138 29139 29140 29141 29142 29143 29144 29145 29146 29147 29148 29149 29150 29151 29152 29153 29154 29155 29156 29157 29158 29159 29160 29161 29162 29163 29164 29165 29166 29167 29168 29169 29170 29171 29172 29173 29174 29175 29176 29177 29178 29179 29180 29181 29182 29183 29184 29185 29186 29187 29188 29189 29190 29191 29192 29193 29194 29195 29196 29197 29198 29199 29200 29201 29202 29203 29204 29205 29206 29207 29208 29209 29210 29211 29212 29213 29214 29215 29216 29217 29218 29219 29220 29221 29222 29223 29224 29225 29226 29227 29228 29229 29230 29231 29232 29233 29234 29235 29236 29237 29238 29239 29240 29241 29242 29243 29244 29245 29246 29247 29248 29249 29250 29251 29252 29253 29254 29255 29256 29257 29258 29259 29260 29261 29262 29263 29264 29265 29266 29267 29268 29269 29270 29271 29272 29273 29274 29275 29276 29277 29278 29279 29280 29281 29282 29283 29284 29285 29286 29287 29288 29289 29290 29291 29292 29293 29294 29295 29296 29297 29298 29299 29300 29301 29302 29303 29304 29305 29306 29307 29308 29309 29310 29311 29312 29313 29314 29315 29316 29317 29318 29319 29320 29321 29322 29323 29324 29325 29326 29327 29328 29329 29330 29331 29332 29333 29334 29335 29336 29337 29338 29339 29340 29341 29342 29343 29344 29345 29346 29347 29348 29349 29350 29351 29352 29353 29354 29355 29356 29357 29358 29359 29360 29361 29362 29363 29364 29365 29366 29367 29368 29369 29370 29371 29372 29373 29374 29375 29376 29377 29378 29379 29380 29381 29382 29383 29384 29385 29386 29387 29388 29389 29390 29391 29392 29393 29394 29395 29396 29397 29398 29399 29400 29401 29402 29403 29404 29405 29406 29407 29408 29409 29410 29411 29412 29413 29414 29415 29416 29417 29418 29419 29420 29421 29422 29423 29424 29425 29426 29427 29428 29429 29430 29431 29432 29433 29434 29435 29436 29437 29438 29439 29440 29441 29442 29443 29444 29445 29446 29447 29448 29449 29450 29451 29452 29453 29454 29455 29456 29457 29458 29459 29460 29461 29462 29463 29464 29465 29466 29467 29468 29469 29470 29471 29472 29473 29474 29475 29476 29477 29478 29479 29480 29481 29482 29483 29484 29485 29486 29487 29488 29489 29490 29491 29492 29493 29494 29495 29496 29497 29498 29499 29500 29501 29502 29503 29504 29505 29506 29507 29508 29509 29510 29511 29512 29513 29514 29515 29516 29517 29518 29519 29520 29521 29522 29523 29524 29525 29526 29527 29528 29529 29530 29531 29532 29533 29534 29535 29536 29537 29538 29539 29540 29541 29542 29543 29544 29545 29546 29547 29548 29549 29550 29551 29552 29553 29554 29555 29556 29557 29558 29559 29560 29561 29562 29563 29564 29565 29566 29567 29568 29569 29570 29571 29572 29573 29574 29575 29576 29577 29578 29579 29580 29581 29582 29583 29584 29585 29586 29587 29588 29589 29590 29591 29592 29593 29594 29595 29596 29597 29598 29599 29600 29601 29602 29603 29604 29605 29606 29607 29608 29609 29610 29611 29612 29613 29614 29615 29616 29617 29618 29619 29620 29621 29622 29623 29624 29625 29626 29627 29628 29629 29630 29631 29632 29633 29634 29635 29636 29637 29638 29639 29640 29641 29642 29643 29644 29645 29646 29647 29648 29649 29650 29651 29652 29653 29654 29655 29656 29657 29658 29659 29660 29661 29662 29663 29664 29665 29666 29667 29668 29669 29670 29671 29672 29673 29674 29675 29676 29677 29678 29679 29680 29681 29682 29683 29684 29685 29686 29687 29688 29689 29690 29691 29692 29693 29694 29695 29696 29697 29698 29699 29700 29701 29702 29703 29704 29705 29706 29707 29708 29709 29710 29711 29712 29713 29714 29715 29716 29717 29718 29719 29720 29721 29722 29723 29724 29725 29726 29727 29728 29729 29730 29731 29732 29733 29734 29735 29736 29737 29738 29739 29740 29741 29742 29743 29744 29745 29746 29747 29748 29749 29750 29751 29752 29753 29754 29755 29756 29757 29758 29759 29760 29761 29762 29763 29764 29765 29766 29767 29768 29769 29770 29771 29772 29773 29774 29775 29776 29777 29778 29779 29780 29781 29782 29783 29784 29785 29786 29787 29788 29789 29790 29791 29792 29793 29794 29795 29796 29797 29798 29799 29800 29801 29802 29803 29804 29805 29806 29807 29808 29809 29810 29811 29812 29813 29814 29815 29816 29817 29818 29819 29820 29821 29822 29823 29824 29825 29826 29827 29828 29829 29830 29831 29832 29833 29834 29835 29836 29837 29838 29839 29840 29841 29842 29843 29844 29845 29846 29847 29848 29849 29850 29851 29852 29853 29854 29855 29856 29857 29858 29859 29860 29861 29862 29863 29864 29865 29866 29867 29868 29869 29870 29871 29872 29873 29874 29875 29876 29877 29878 29879 29880 29881 29882 29883 29884 29885 29886 29887 29888 29889 29890 29891 29892 29893 29894 29895 29896 29897 29898 29899 29900 29901 29902 29903 29904 29905 29906 29907 29908 29909 29910 29911 29912 29913 29914 29915 29916 29917 29918 29919 29920 29921 29922 29923 29924 29925 29926 29927 29928 29929 29930 29931 29932 29933 29934 29935 29936 29937 29938 29939 29940 29941 29942 29943 29944 29945 29946 29947 29948 29949 29950 29951 29952 29953 29954 29955 29956 29957 29958 29959 29960 29961 29962 29963 29964 29965 29966 29967 29968 29969 29970 29971 29972 29973 29974 29975 29976 29977 29978 29979 29980 29981 29982 29983 29984 29985 29986 29987 29988 29989 29990 29991 29992 29993 29994 29995 29996 29997 29998 29999 30000 30001 30002 30003 30004 30005 30006 30007 30008 30009 30010 30011 30012 30013 30014 30015 30016 30017 30018 30019 30020 30021 30022 30023 30024 30025 30026 30027 30028 30029 30030 30031 30032 30033 30034 30035 30036 30037 30038 30039 30040 30041 30042 30043 30044 30045 30046 30047 30048 30049 30050 30051 30052 30053 30054 30055 30056 30057 30058 30059 30060 30061 30062 30063 30064 30065 30066 30067 30068 30069 30070 30071 30072 30073 30074 30075 30076 30077 30078 30079 30080 30081 30082 30083 30084 30085 30086 30087 30088 30089 30090 30091 30092 30093 30094 30095 30096 30097 30098 30099 30100 30101 30102 30103 30104 30105 30106 30107 30108 30109 30110 30111 30112 30113 30114 30115 30116 30117 30118 30119 30120 30121 30122 30123 30124 30125 30126 30127 30128 30129 30130 30131 30132 30133 30134 30135 30136 30137 30138 30139 30140 30141 30142 30143 30144 30145 30146 30147 30148 30149 30150 30151 30152 30153 30154 30155 30156 30157 30158 30159 30160 30161 30162 30163 30164 30165 30166 30167 30168 30169 30170 30171 30172 30173 30174 30175 30176 30177 30178 30179 30180 30181 30182 30183 30184 30185 30186 30187 30188 30189 30190 30191 30192 30193 30194 30195 30196 30197 30198 30199 30200 30201 30202 30203 30204 30205 30206 30207 30208 30209 30210 30211 30212 30213 30214 30215 30216 30217 30218 30219 30220 30221 30222 30223 30224 30225 30226 30227 30228 30229 30230 30231 30232 30233 30234 30235 30236 30237 30238 30239 30240 30241 30242 30243 30244 30245 30246 30247 30248 30249 30250 30251 30252 30253 30254 30255 30256 30257 30258 30259 30260 30261 30262 30263 30264 30265 30266 30267 30268 30269 30270 30271 30272 30273 30274 30275 30276 30277 30278 30279 30280 30281 30282 30283 30284 30285 30286 30287 30288 30289 30290 30291 30292 30293 30294 30295 30296 30297 30298 30299 30300 30301 30302 30303 30304 30305 30306 30307 30308 30309 30310 30311 30312 30313 30314 30315 30316 30317 30318 30319 30320 30321 30322 30323 30324 30325 30326 30327 30328 30329 30330 30331 30332 30333 30334 30335 30336 30337 30338 30339 30340 30341 30342 30343 30344 30345 30346 30347 30348 30349 30350 30351 30352 30353 30354 30355 30356 30357 30358 30359 30360 30361 30362 30363 30364 30365 30366 30367 30368 30369 30370 30371 30372 30373 30374 30375 30376 30377 30378 30379 30380 30381 30382 30383 30384 30385 30386 30387 30388 30389 30390 30391 30392 30393 30394 30395 30396 30397 30398 30399 30400 30401 30402 30403 30404 30405 30406 30407 30408 30409 30410 30411 30412 30413 30414 30415 30416 30417 30418 30419 30420 30421 30422 30423 30424 30425 30426 30427 30428 30429 30430 30431 30432 30433 30434 30435 30436 30437 30438 30439 30440 30441 30442 30443 30444 30445 30446 30447 30448 30449 30450 30451 30452 30453 30454 30455 30456 30457 30458 30459 30460 30461 30462 30463 30464 30465 30466 30467 30468 30469 30470 30471 30472 30473 30474 30475 30476 30477 30478 30479 30480 30481 30482 30483 30484 30485 30486 30487 30488 30489 30490 30491 30492 30493 30494 30495 30496 30497 30498 30499 30500 30501 30502 30503 30504 30505 30506 30507 30508 30509 30510 30511 30512 30513 30514 30515 30516 30517 30518 30519 30520 30521 30522 30523 30524 30525 30526 30527 30528 30529 30530 30531 30532 30533 30534 30535 30536 30537 30538 30539 30540 30541 30542 30543 30544 30545 30546 30547 30548 30549 30550 30551 30552 30553 30554 30555 30556 30557 30558 30559 30560 30561 30562 30563 30564 30565 30566 30567 30568 30569 30570 30571 30572 30573 30574 30575 30576 30577 
</DataArray>
<DataArray type="UInt32" Name="offsets" format="ascii">
3 6 9 12 15 18 20 23 26 29 31 34 37 40 42 45 48 51 54 57 60 62 64 67 70 73 76 78 80 83 85 87 90 92 95 98 101 103 106 109 111 114 117 120 123 126 129 132 134 137 140 143 146 149 152 155 158 160 163 166 168 171 173 176 178 181 183 186 189 192 195 198 201 204 207 210 213 216 219 222 225 228 231 233 236 239 242 245 248 251 254 257 259 262 265 267 269 272 275 278 281 284 287 290 293 296 299 302 305 307 310 313 316 319 322 324 327 330 332 335 338 341 344 347 350 353 356 359 362 365 368 371 374 377 380 383 386 389 391 394 397 400 403 406 408 411 414 417 420 423 426 429 432 435 438 441 444 447 450 453 456 459 462 465 468 471 474 477 480 482 485 487 490 493 496 498 501 504 507 509 512 515 518 520 522 525 528 530 533 536 539 542 544 547 550 553 556 559 561 564 567 570 573 575 578 580 583 586 588 591 594 597 599 602 605 607 610 613 616 619 622 625 628 631 634 637 639 642 645 647 650 653 656 659 662 665 668 670 673 676 679 682 685 688 691 694 697 700 703 706 709 712 715 718 721 724 727 730 733 735 738 740 743 746 749 752 755 757 760 763 766 769 772 775 778 781 783 786 789 792 794 797 800 802 805 808 811 814 816 819 822 824 827 830 833 836 839 841 844 846 849 852 855 858 861 864 867 870 873 876 879 882 885 888 891 894 897 900 902 905 908 911 914 917 919 921 924 927 930 933 936 939 942 945 948 951 953 956 959 962 965 968 971 974 977 980 982 985 988 990 992 995 998 1001 1003 1006 1009 1011 1014 1017 1020 1023 1026 1029 1032 1035 1038 1041 1044 1047 1050 1053 1056 1058 1061 1064 1067 1070 1073 1076 1079 1082 1084 1087 1090 1092 1095 1098 1101 1104 1106 1109 1112 1115 1118 1121 1124 1127 1130 1133 1136 1139 1142 1145 1148 1150 1152 1155 1158 1160 1162 1165 1167 1170 1172 1175 1177 1180 1183 1185 1188 1191 1194 1197 1200 1203 1206 1209 1212 1214 1216 1219 1222 1224 1227 1230 1233 1236 1239 1241 1244 1247 1249 1252 1255 1258 1261 1263 1266 1269 1272 1274 1277 1280 1283 1285 1288 1290 1293 1296 1298 1301 1304 1307 1310 1313 1316 1319 1322 1325 1328 1331 1333 1336 1339 1342 1345 1348 1351 1353 1356 1359 1362 1364 1367 1370 1373 1376 1379 1382 1385 1387 1390 1393 1396 1399 1402 1404 1407 1409 1412 1415 1418 1421 1424 1426 1428 1431 1434 1437 1439 1441 1444 1446 1449 1452 1455 1458 1461 1464 1467 1469 1472 1475 1478 1481 1484 1487 1490 1493 1496 1499 1502 1505 1508 1511 1513 1516 1519 1521 1524 1526 1529 1532 1535 1538 1541 1544 1547 1550 1553 1556 1559 1562 1565 1568 1570 1573 1576 1579 1582 1585 1588 1591 1594 1597 1600 1603 1606 1609 1612 1615 1618 1620 1623 1626 1629 1632 1635 1638 1641 1644 1647 1650 1653 1655 1657 1660 1663 1666 1669 1672 1675 1678 1681 1684 1687 1690 1693 1696 1699 1702 1705 1707 1710 1713 1716 1719 1722 1725 1728 1730 1733 1736 1739 1742 1745 1748 1751 1754 1756 1759 1762 1765 1767 1770 1773 1776 1779 1782 1785 1788 1791 1794 1797 1800 1803 1806 1809 1812 1815 1818 1821 1824 1827 1830 1833 1836 1839 1842 1845 1848 1851 1853 1856 1858 1861 1864 1867 1870 1873 1876 1879 1882 1885 1888 1891 1894 1897 1899 1902 1905 1908 1910 1913 1916 1919 1922 1925 1928 1931 1934 1937 1940 1943 1946 1949 1951 1953 1956 1959 1962 1965 1968 1971 1974 1976 1979 1982 1985 1988 1991 1994 1997 2000 2003 2006 2009 2011 2014 2017 2020 2023 2026 2029 2032 2034 2037 2040 2043 2046 2049 2052 2055 2058 2061 2064 2067 2070 2073 2076 2079 2082 2085 2087 2090 2093 2096 2099 2102 2105 2108 2111 2114 2117 2119 2122 2125 2128 2131 2134 2136 2139 2142 2145 2147 2150 2153 2156 2159 2161 2164 2167 2170 2173 2176 2179 2182 2184 2187 2189 2192 2195 2197 2200 2202 2205 2208 2211 2214 2217 2220 2223 2226 2229 2232 2235 2238 2241 2244 2247 2250 2253 2256 2259 2262 2265 2268 2271 2274 2277 2280 2283 2286 2289 2292 2295 2298 2301 2304 2307 2309 2312 2314 2316 2319 2322 2325 2328 2331 2334 2337 2340 2343 2346 2349 2351 2354 2357 2360 2363 2366 2369 2372 2374 2377 2379 2382 2384 2387 2390 2393 2396 2399 2402 2404 2407 2409 2411 2414 2417 2420 2423 2426 2429 2432 2435 2438 2441 2444 2447 2450 2453 2456 2459 2462 2464 2467 2470 2473 2476 2479 2482 2485 2488 2491 2494 2497 2500 2503 2506 2508 2511 2514 2517 2520 2523 2526 2529 2532 2535 2538 2541 2544 2547 2549 2552 2555 2558 2561 2564 2567 2570 2573 2576 2578 2581 2584 2587 2590 2593 2595 2597 2600 2603 2606 2609 2611 2613 2616 2619 2622 2625 2628 2631 2634 2637 2640 2643 2646 2648 2651 2654 2657 2660 2662 2665 2668 2671 2674 2677 2680 2682 2685 2688 2690 2693 2695 2698 2701 2704 2706 2709 2712 2715 2718 2721 2724 2727 2729 2732 2735 2738 2741 2743 2745 2748 2751 2753 2756 2759 2762 2764 2766 2768 2770 2773 2776 2778 2781 2784 2787 2790 2793 2796 2799 2802 2804 2806 2809 2812 2815 2818 2821 2824 2826 2829 2831 2834 2837 2840 2842 2845 2848 2851 2854 2857 2860 2863 2866 2869 2872 2875 2878 2881 2884 2887 2890 2893 2896 2899 2902 2905 2908 2911 2914 2917 2920 2923 2926 2928 2931 2934 2937 2940 2943 2946 2949 2952 2955 2958 2961 2964 2967 2970 2973 2976 2979 2982 2985 2988 2991 2993 2996 2999 3002 3005 3008 3011 3014 3017 3020 3022 3025 3028 3031 3034 3037 3040 3042 3045 3048 3051 3054 3057 3059 3062 3065 3068 3071 3074 3076 3079 3082 3085 3088 3091 3094 3097 3100 3103 3106 3108 3111 3114 3117 3120 3122 3124 3127 3130 3132 3135 3138 3141 3144 3146 3149 3152 3154 3157 3160 3163 3166 3169 3171 3173 3176 3179 3182 3185 3188 3191 3193 3196 3199 3202 3205 3208 3211 3214 3216 3218 3221 3224 3227 3229 3232 3235 3238 3240 3243 3246 3248 3251 3253 3256 3259 3262 3264 3267 3270 3272 3274 3277 3280 3283 3286 3289 3292 3294 3297 3299 3302 3304 3307 3310 3313 3315 3317 3320 3322 3325 3328 3331 3334 3337 3340 3343 3346 3349 3352 3355 3358 3361 3364 3367 3370 3372 3375 3378 3381 3384 3387 3390 3393 3395 3398 3401 3404 3407 3410 3412 3415 3418 3421 3423 3426 3429 3432 3435 3437 3440 3442 3445 3447 3450 3453 3456 3459 3461 3464 3467 3469 3472 3475 3478 3481 3484 3487 3490 3493 3496 3499 3502 3504 3507 3510 3513 3516 3518 3521 3524 3527 3530 3532 3535 3538 3541 3544 3547 3550 3552 3555 3558 3561 3563 3566 3568 3570 3573 3576 3579 3582 3585 3588 3591 3594 3597 3600 3603 3606 3609 3612 3615 3618 3621 3624 3627 3630 3633 3636 3639 3642 3645 3648 3651 3654 3656 3659 3662 3664 3666 3669 3671 3674 3677 3680 3683 3685 3688 3691 3693 3696 3699 3702 3705 3708 3711 3714 3717 3720 3723 3726 3729 3732 3735 3738 3741 3744 3747 3750 3753 3756 3759 3762 3765 3768 3771 3774 3777 3779 3782 3785 3788 3791 3794 3797 3800 3803 3805 3808 3811 3814 3817 3820 3823 3826 3828 3831 3833 3836 3839 3842 3844 3847 3850 3853 3856 3859 3862 3865 3867 3870 3872 3875 3878 3881 3884 3887 3889 3892 3895 3898 3901 3904 3907 3910 3913 3916 3919 3922 3925 3928 3931 3934 3937 3940 3943 3946 3949 3952 3955 3958 3961 3964 3967 3970 3973 3976 3979 3982 3985 3988 3991 3994 3997 4000 4003 4006 4008 4010 4013 4016 4018 4021 4024 4027 4029 4032 4035 4038 4040 4042 4045 4048 4050 4053 4056 4059 4062 4065 4068 4071 4074 4077 4080 4083 4086 4089 4092 4095 4098 4101 4104 4107 4110 4113 4115 4118 4120 4123 4126 4129 4132 4135 4138 4141 4144 4147 4150 4153 4156 4159 4162 4165 4168 4171 4174 4177 4180 4183 4186 4189 4192 4195 4198 4201 4204 4207 4210 4213 4216 4219 4222 4225 4228 4231 4234 4237 4240 4243 4246 4249 4252 4255 4257 4260 4262 4265 4267 4270 4273 4275 4278 4281 4284 4287 4290 4293 4296 4299 4302 4305 4308 4311 4314 4317 4320 4323 4326 4329 4332 4335 4338 4341 4344 4347 4350 4353 4356 4358 4361 4364 4367 4370 4373 4376 4379 4382 4385 4388 4391 4394 4397 4400 4403 4406 4409 4412 4415 4418 4421 4424 4427 4430 4433 4436 4439 4442 4445 4448 4451 4454 4457 4460 4463 4466 4469 4472 4475 4478 4481 4484 4487 4490 4493 4496 4499 4502 4505 4507 4510 4513 4516 4519 4521 4524 4527 4530 4533 4536 4539 4542 4545 4547 4550 4553 4556 4559 4562 4564 4566 4568 4571 4574 4577 4580 4582 4584 4587 4590 4592 4595 4598 4601 4604 4607 4610 4613 4616 4619 4622 4625 4628 4631 4634 4636 4638 4641 4643 4646 4649 4652 4655 4658 4661 4664 4667 4670 4673 4676 4679 4682 4685 4688 4691 4694 4697 4699 4702 4705 4708 4711 4714 4717 4719 4722 4725 4728 4731 4734 4737 4740 4743 4746 4749 4752 4755 4758 4761 4764 4767 4770 4773 4775 4778 4781 4784 4787 4790 4793 4796 4799 4802 4804 4807 4810 4812 4815 4818 4821 4824 4827 4830 4833 4836 4839 4842 4845 4848 4851 4854 4857 4860 4862 4865 4867 4870 4873 4876 4879 4881 4884 4886 4889 4892 4894 4896 4899 4902 4904 4907 4910 4913 4915 4918 4921 4924 4927 4930 4933 4935 4938 4941 4944 4946 4949 4952 4955 4958 4960 4963 4966 4969 4972 4975 4978 4981 4983 4986 4989 4992 4995 4998 5000 5003 5006 5008 5011 5014 5017 5020 5023 5026 5029 5031 5034 5037 5040 5042 5044 5047 5050 5053 5055 5058 5061 5064 5067 5070 5072 5074 5076 5079 5082 5085 5088 5091 5094 5097 5100 5103 5105 5107 5110 5112 5115 5118 5121 5124 5127 5129 5132 5135 5137 5140 5142 5145 5148 5151 5153 5156 5159 5161 5164 5167 5170 5173 5176 5179 5182 5184 5187 5190 5192 5194 5197 5200 5202 5205 5207 5210 5213 5215 5218 5221 5223 5226 5228 5231 5234 5237 5239 5242 5245 5247 5250 5252 5255 5258 5260 5263 5265 5268 5271 5274 5277 5279 5281 5284 5287 5290 5293 5296 5299 5302 5305 5308 5310 5313 5316 5319 5322 5325 5328 5331 5334 5337 5340 5343 5346 5349 5352 5355 5358 5361 5364 5366 5368 5371 5374 5377 5379 5382 5385 5388 5391 5393 5396 5399 5401 5404 5407 5410 5412 5415 5418 5420 5423 5426 5429 5432 5434 5437 5440 5443 5446 5449 5451 5454 5457 5460 5462 5464 5467 5470 5472 5475 5478 5481 5484 5487 5489 5491 5494 5497 5500 5503 5505 5508 5511 5514 5517 5519 5522 5525 5528 5531 5534 5537 5540 5543 5546 5549 5552 5555 5558 5561 5564 5567 5570 5573 5576 5579 5582 5585 5588 5591 5594 5597 5600 5603 5605 5608 5611 5614 5617 5620 5623 5626 5629 5632 5635 5638 5640 5643 5646 5649 5652 5654 5657 5660 5663 5665 5668 5671 5673 5676 5679 5682 5685 5688 5690 5693 5696 5699 5702 5705 5708 5711 5714 5717 5720 5723 5726 5729 5732 5735 5738 5741 5744 5747 5750 5752 5755 5758 5761 5764 5767 5769 5772 5775 5778 5781 5784 5787 5790 5792 5795 5798 5801 5804 5807 5810 5813 5816 5819 5822 5825 5828 5831 5833 5836 5839 5842 5845 5848 5850 5852 5855 5858 5861 5864 5866 5869 5871 5874 5877 5880 5882 5884 5887 5890 5892 5895 5898 5901 5903 5906 5909 5912 5915 5917 5920 5923 5925 5927 5930 5933 5936 5939 5942 5945 5947 5950 5953 5955 5958 5961 5964 5967 5969 5972 5975 5978 5981 5984 5987 5990 5993 5996 5999 6002 6005 6008 6011 6014 6017 6020 6023 6026 6028 6031 6033 6036 6039 6042 6044 6047 6049 6052 6054 6057 6060 6062 6065 6068 6070 6072 6074 6077 6080 6083 6085 6088 6091 6094 6097 6100 6103 6105 6108 6111 6114 6117 6120 6123 6126 6128 6131 6133 6136 6139 6142 6145 6148 6151 6154 6156 6159 6162 6165 6168 6171 6174 6177 6180 6183 6186 6189 6191 6194 6197 6199 6202 6205 6208 6211 6214 6217 6220 6223 6226 6229 6232 6235 6238 6241 6244 6247 6249 6252 6255 6258 6261 6264 6267 6270 6273 6276 6279 6282 6285 6288 6291 6294 6297 6300 6303 6306 6309 6312 6314 6317 6320 6323 6325 6328 6331 6334 6337 6340 6343 6346 6349 6352 6355 6357 6360 6363 6366 6369 6372 6375 6378 6381 6384 6387 6389 6392 6395 6398 6401 6404 6407 6409 6412 6415 6418 6420 6423 6426 6429 6432 6435 6438 6441 6444 6447 6450 6453 6456 6459 6462 6465 6468 6471 6474 6477 6480 6483 6485 6488 6491 6494 6497 6500 6502 6505 6508 6510 6513 6516 6519 6522 6525 6528 6530 6533 6536 6539 6542 6544 6547 6550 6553 6556 6559 6562 6565 6568 6571 6574 6577 6580 6583 6586 6589 6592 6595 6598 6600 6603 6606 6609 6612 6615 6617 6620 6623 6626 6628 6631 6633 6636 6639 6642 6645 6648 6651 6654 6656 6659 6662 6665 6667 6669 6672 6675 6678 6681 6684 6686 6689 6692 6695 6697 6700 6703 6706 6709 6712 6715 6718 6721 6724 6727 6730 6733 6736 6739 6742 6744 6747 6750 6753 6756 6759 6762 6764 6767 6770 6773 6776 6779 6782 6785 6788 6791 6794 6797 6799 6802 6805 6808 6811 6814 6817 6820 6823 6826 6828 6831 6834 6837 6840 6842 6844 6847 6850 6853 6856 6859 6862 6865 6868 6870 6872 6875 6877 6880 6883 6886 6889 6892 6894 6897 6900 6903 6906 6909 6912 6914 6917 6919 6922 6925 6928 6931 6934 6937 6940 6943 6946 6949 6951 6954 6957 6960 6963 6966 6969 6971 6974 6977 6980 6983 6986 6989 6992 6995 6997 7000 7003 7006 7009 7012 7014 7017 7020 7022 7025 7028 7031 7034 7037 7040 7042 7045 7048 7051 7054 7057 7060 7063 7066 7068 7071 7074 7077 7080 7082 7085 7088 7091 7094 7097 7100 7103 7106 7109 7112 7114 7117 7120 7123 7126 7129 7132 7135 7138 7141 7143 7146 7149 7152 7155 7157 7160 7163 7166 7169 7172 7175 7178 7181 7183 7186 7188 7191 7194 7197 7199 7202 7205 7208 7211 7214 7217 7220 7223 7225 7228 7231 7234 7236 7239 7242 7245 7247 7250 7253 7255 7258 7261 7264 7267 7270 7273 7276 7279 7282 7285 7288 7291 7294 7297 7300 7303 7306 7309 7312 7315 7318 7321 7324 7327 7330 7333 7336 7339 7342 7345 7348 7351 7354 7357 7360 7363 7366 7369 7372 7375 7378 7381 7384 7387 7390 7393 7396 7399 7402 7405 7408 7411 7414 7416 7419 7422 7425 7427 7430 7433 7436 7439 7442 7445 7447 7450 7452 7455 7458 7461 7464 7466 7468 7471 7474 7477 7480 7483 7486 7489 7492 7495 7498 7501 7504 7507 7510 7513 7516 7519 7522 7525 7528 7531 7534 7536 7539 7542 7544 7547 7550 7553 7555 7558 7561 7564 7567 7570 7573 7576 7579 7582 7585 7588 7591 7594 7597 7599 7602 7604 7607 7609 7612 7615 7618 7621 7624 7627 7630 7633 7636 7639 7642 7645 7648 7651 7654 7657 7660 7662 7665 7668 7671 7674 7677 7680 7683 7686 7689 7692 7695 7698 7701 7704 7707 7710 7713 7716 7719 7722 7725 7728 7731 7734 7737 7740 7743 7746 7749 7752 7755 7758 7761 7763 7766 7769 7772 7775 7778 7781 7783 7786 7789 7791 7794 7796 7799 7802 7804 7807 7810 7813 7815 7818 7821 7824 7827 7830 7833 7836 7839 7842 7845 7848 7851 7854 7857 7860 7863 7866 7869 7872 7875 7878 7881 7884 7887 7890 7892 7895 7898 7901 7904 7906 7909 7912 7914 7917 7920 7923 7926 7929 7932 7935 7938 7941 7944 7947 7950 7953 7956 7959 7962 7965 7968 7971 7974 7977 7980 7983 7986 7989 7992 7995 7998 8001 8004 8006 8009 8012 8015 8017 8020 8023 8026 8029 8031 8034 8037 8040 8043 8046 8048 8051 8054 8057 8060 8062 8065 8068 8071 8074 8077 8080 8083 8086 8089 8092 8095 8098 8101 8104 8106 8108 8111 8113 8116 8118 8121 8124 8127 8130 8133 8136 8139 8142 8145 8148 8151 8154 8157 8160 8163 8166 8169 8172 8175 8178 8181 8184 8187 8190 8193 8195 8197 8200 8203 8205 8208 8211 8213 8216 8219 8222 8225 8228 8231 8234 8237 8240 8243 8246 8248 8251 8254 8256 8259 8262 8265 8268 8271 8274 8277 8280 8283 8286 8289 8292 8295 8298 8300 8302 8305 8307 8309 8312 8315 8318 8321 8323 8326 8329 8332 8334 8336 8339 8342 8345 8348 8351 8354 8357 8359 8362 8365 8368 8371 8374 8377 8380 8383 8386 8389 8392 8395 8398 8401 8404 8407 8409 8412 8415 8418 8421 8423 8426 8429 8432 8435 8438 8441 8444 8446 8449 8452 8455 8458 8461 8464 8467 8469 8472 8475 8477 8480 8483 8486 8489 8492 8495 8498 8501 8504 8507 8510 8513 8516 8519 8522 8524 8527 8530 8533 8536 8539 8542 8545 8548 8550 8553 8556 8559 8562 8565 8568 8571 8573 8576 8579 8582 8585 8588 8590 8593 8596 8599 8602 8604 8607 8610 8613 8616 8619 8622 8625 8628 8631 8634 8637 8640 8642 8645 8648 8651 8654 8657 8660 8663 8666 8669 8672 8675 8678 8681 8684 8686 8689 8692 8695 8698 8701 8704 8707 8710 8713 8716 8719 8722 8725 8727 8729 8732 8735 8737 8740 8743 8746 8749 8751 8754 8757 8760 8762 8765 8768 8770 8773 8776 8779 8782 8784 8787 8790 8793 8796 8799 8802 8805 8808 8811 8814 8817 8820 8823 8826 8829 8832 8835 8838 8841 8844 8847 8850 8853 8856 8859 8862 8865 8868 8871 8874 8877 8880 8883 8886 8888 8891 8894 8897 8899 8902 8904 8907 8910 8913 8916 8919 8922 8925 8928 8931 8934 8937 8940 8943 8946 8948 8951 8954 8957 8960 8963 8966 8969 8972 8974 8977 8980 8983 8985 8988 8991 8994 8997 9000 9003 9006 9008 9011 9013 9016 9019 9022 9025 9028 9031 9034 9037 9040 9043 9046 9049 9052 9055 9057 9060 9063 9065 9068 9071 9074 9077 9080 9083 9086 9088 9091 9094 9097 9100 9103 9106 9109 9112 9115 9118 9121 9124 9127 9130 9133 9136 9139 9142 9145 9148 9151 9154 9157 9160 9163 9166 9169 9171 9174 9177 9179 9182 9185 9188 9190 9193 9196 9198 9201 9204 9207 9210 9213 9216 9219 9222 9225 9228 9231 9234 9237 9240 9243 9246 9249 9252 9255 9257 9260 9263 9266 9269 9272 9275 9278 9281 9284 9287 9290 9293 9296 9298 9301 9304 9307 9310 9313 9316 9319 9322 9325 9328 9331 9334 9337 9340 9343 9346 9349 9352 9355 9357 9360 9363 9366 9369 9372 9375 9378 9381 9384 9387 9390 9393 9396 9399 9402 9405 9407 9410 9413 9415 9418 9421 9424 9426 9429 9432 9434 9437 9440 9443 9446 9449 9452 9455 9458 9461 9464 9467 9470 9473 9476 9478 9481 9484 9486 9489 9492 9495 9498 9501 9504 9507 9510 9513 9516 9519 9522 9525 9528 9531 9534 9537 9540 9543 9546 9549 9552 9555 9558 9561 9564 9567 9570 9573 9576 9579 9582 9585 9588 9591 9594 9596 9599 9602 9605 9608 9610 9613 9616 9619 9622 9625 9628 9631 9634 9637 9640 9643 9646 9649 9652 9655 9657 9660 9662 9664 9667 9670 9672 9675 9677 9680 9683 9686 9689 9692 9695 9698 9701 9703 9706 9709 9711 9714 9717 9720 9723 9725 9727 9730 9732 9735 9738 9741 9744 9747 9750 9753 9756 9759 9762 9765 9768 9771 9774 9777 9780 9783 9786 9789 9792 9795 9797 9800 9803 9806 9809 9812 9815 9818 9821 9824 9827 9830 9833 9836 9839 9842 9845 9848 9851 9854 9857 9860 9863 9866 9869 9872 9874 9877 9880 9883 9886 9889 9891 9894 9897 9900 9903 9906 9909 9912 9915 9918 9920 9923 9926 9929 9932 9935 9938 9941 9944 9947 9950 9953 9956 9959 9962 9965 9968 9971 9973 9975 9978 9981 9983 9986 9989 9992 9994 9997 10000 10003 10006 10009 10012 10015 10018 10021 10024 10026 10029 10032 10034 10037 10039 10042 10045 10048 10051 10053 10056 10059 10062 10064 10067 10070 10073 10076 10079 10082 10084 10087 10090 10093 10096 10099 10102 10104 10107 10110 10113 10116 10119 10122 10125 10128 10131 10134 10137 10140 10143 10146 10148 10151 10154 10156 10159 10162 10165 10167 10169 10172 10175 10178 10181 10184 10187 10190 10193 10196 10199 10201 10204 10207 10210 10212 10215 10218 10221 10224 10226 10229 10232 10235 10238 10241 10244 10247 10250 10252 10255 10258 10261 10264 10267 10269 10271 10274 10277 10280 10282 10285 10287 10289 10292 10295 10298 10301 10304 10306 10309 10312 10315 10318 10321 10324 10326 10329 10332 10335 10338 10341 10344 10347 10349 10352 10355 10357 10360 10363 10365 10368 10371 10374 10377 10380 10383 10386 10389 10392 10395 10398 10401 10404 10407 10409 10412 10415 10418 10420 10423 10426 10428 10431 10434 10437 10440 10442 10445 10448 10451 10454 10457 10460 10463 10466 10468 10471 10474 10477 10480 10482 10485 10488 10491 10494 10497 10500 10503 10506 10508 10511 10514 10517 10520 10523 10526 10529 10532 10535 10537 10540 10543 10546 10548 10551 10554 10556 10559 10562 10564 10567 10570 10573 10576 10579 10582 10585 10588 10591 10593 10596 10599 10602 10605 10608 10611 10614 10617 10620 10623 10626 10629 10632 10635 10638 10641 10643 10646 10649 10652 10655 10658 10661 10664 10667 10670 10673 10676 10679 10682 10685 10688 10691 10694 10697 10700 10703 10706 10709 10712 10715 10718 10721 10723 10726 10728 10731 10734 10737 10740 10743 10746 10749 10752 10755 10758 10760 10763 10766 10768 10771 10774 10777 10780 10783 10786 10789 10792 10795 10798 10801 10804 10807 10810 10813 10816 10819 10822 10825 10828 10831 10833 10836 10839 10842 10845 10848 10851 10854 10857 10860 10862 10865 10867 10870 10873 10876 10879 10882 10885 10888 10890 10893 10895 10898 10901 10904 10907 10910 10913 10916 10919 10922 10925 10928 10930 10933 10936 10939 10942 10944 10947 10949 10952 10955 10958 10961 10964 10967 10969 10972 10975 10977 10980 10983 10985 10988 10991 10994 10996 10998 11000 11003 11006 11009 11012 11015 11018 11021 11024 11027 11030 11033 11036 11039 11041 11044 11047 11050 11053 11056 11059 11062 11064 11067 11069 11072 11074 11077 11080 11082 11084 11087 11090 11093 11096 11099 11102 11104 11107 11110 11113 11116 11118 11121 11123 11126 11128 11131 11133 11136 11139 11142 11145 11147 11150 11153 11156 11159 11162 11164 11167 11170 11173 11176 11179 11182 11185 11188 11191 11194 11197 11200 11203 11206 11208 11211 11214 11217 11220 11223 11225 11228 11231 11234 11236 11239 11242 11245 11248 11251 11254 11257 11260 11263 11266 11269 11272 11275 11278 11281 11284 11287 11289 11292 11295 11298 11301 11303 11306 11309 11312 11315 11318 11321 11323 11326 11329 11332 11335 11338 11341 11344 11347 11350 11353 11355 11358 11361 11363 11366 11368 11371 11374 11377 11380 11383 11386 11389 11392 11395 11398 11401 11403 11406 11409 11412 11415 11418 11421 11423 11426 11428 11430 11433 11435 11438 11441 11444 11447 11450 11453 11456 11458 11461 11464 11467 11470 11473 11476 11479 11482 11485 11488 11491 11494 11497 11500 11503 11506 11508 11511 11514 11517 11520 11523 11526 11529 11532 11535 11538 11540 11543 11546 11549 11552 11555 11558 11561 11564 11567 11570 11572 11575 11578 11581 11584 11586 11589 11592 11595 11598 11601 11603 11606 11609 11612 11615 11617 11620 11623 11626 11629 11632 11635 11638 11641 11644 11647 11650 11653 11656 11659 11662 11665 11668 11671 11673 11676 11679 11682 11685 11688 11691 11694 11697 11699 11702 11704 11706 11709 11712 11715 11718 11721 11723 11726 11729 11732 11735 11738 11741 11744 11747 11750 11753 11756 11759 11762 11765 11767 11770 11773 11775 11778 11780 11782 11785 11788 11791 11794 11797 11800 11802 11805 11808 11811 11814 11816 11819 11821 11824 11827 11829 11832 11835 11838 11841 11844 11847 11849 11851 11854 11857 11860 11863 11866 11869 11872 11875 11878 11881 11884 11887 11890 11893 11896 11898 11901 11904 11907 11910 11913 11916 11919 11921 11924 11926 11929 11932 11935 11937 11940 11942 11945 11948 11951 11954 11957 11960 11963 11966 11968 11971 11974 11977 11980 11983 11985 11988 11990 11993 11996 11999 12002 12004 12007 12010 12013 12016 12019 12021 12024 12027 12030 12033 12036 12039 12042 12045 12048 12051 12054 12057 12060 12063 12066 12069 12072 12075 12078 12081 12084 12087 12090 12093 12095 12098 12101 12104 12106 12109 12111 12114 12117 12120 12122 12125 12128 12131 12134 12137 12140 12143 12146 12149 12152 12155 12158 12161 12164 12167 12170 12173 12175 12177 12179 12181 12184 12187 12190 12193 12196 12199 12201 12204 12207 12210 12212 12215 12218 12221 12224 12227 12230 12233 12236 12239 12242 12244 12246 12248 12251 12254 12256 12258 12261 12264 12267 12270 12273 12276 12279 12282 12285 12287 12290 12293 12296 12299 12302 12305 12308 12311 12313 12315 12318 12321 12324 12326 12329 12332 12335 12338 12341 12344 12347 12350 12353 12356 12359 12361 12364 12366 12369 12372 12375 12378 12381 12383 12385 12388 12391 12393 12395 12398 12401 12404 12407 12410 12413 12416 12419 12422 12425 12428 12431 12434 12437 12440 12443 12446 12449 12452 12455 12458 12461 12464 12467 12470 12473 12476 12479 12482 12485 12488 12491 12494 12497 12500 12503 12506 12509 12512 12515 12518 12521 12523 12525 12528 12531 12534 12537 12540 12543 12546 12549 12552 12555 12558 12561 12564 12567 12570 12573 12576 12579 12582 12585 12587 12590 12593 12596 12599 12602 12605 12608 12611 12614 12617 12620 12623 12626 12629 12632 12635 12637 12640 12642 12645 12648 12651 12654 12657 12660 12663 12666 12668 12671 12674 12677 12680 12683 12686 12689 12692 12695 12698 12701 12703 12706 12709 12711 12714 12717 12719 12722 12725 12728 12731 12733 12736 12739 12742 12745 12747 12750 12753 12755 12758 12760 12763 12766 12769 12772 12775 12777 12780 12783 12786 12789 12792 12795 12798 12800 12803 12806 12809 12812 12815 12818 12821 12824 12827 12830 12833 12836 12839 12842 12845 12848 12851 12854 12857 12860 12863 12866 12869 12872 12874 12877 12880 12883 12885 12888 12891 12893 12896 12899 12902 12904 12907 12910 12913 12916 12918 12921 12923 12926 12929 12932 12935 12938 12941 12944 12947 12949 12952 12955 12958 12961 12964 12967 12970 12973 12976 12979 12981 12984 12987 12989 12992 12995 12997 13000 13003 13005 13007 13010 13013 13016 13019 13022 13025 13028 13030 13032 13035 13038 13041 13043 13046 13049 13051 13053 13056 13059 13062 13064 13066 13069 13071 13074 13077 13079 13082 13085 13088 13091 13093 13096 13098 13100 13103 13106 13109 13111 13114 13116 13118 13121 13123 13125 13127 13129 13132 13134 13137 13139 13142 13144 13147 13150 13153 13155 13158 13161 13163 13166 13168 13170 13173 13176 13179 13182 13184 13187 13189 13191 13194 13197 13200 13202 13204 13207 13210 13212 13214 13217 13220 13223 13226 13228 13231 13234 13237 13240 13242 13245 13248 13251 13254 13256 13259 13261 13264 13266 13269 13271 13274 13276 13279 13281 13284 13287 13290 13293 13296 13298 13301 13304 13306 13308 13310 13313 13316 13318 13320 13323 13325 13328 13331 13333 13336 13339 13342 13345 13348 13351 13353 13356 13359 13361 13364 13366 13369 13372 13375 13378 13380 13383 13385 13388 13390 13393 13396 13399 13401 13404 13407 13409 13412 13414 13417 13419 13422 13425 13428 13431 13434 13436 13439 13442 13445 13448 13451 13454 13457 13460 13463 13466 13468 13471 13474 13477 13480 13482 13485 13488 13490 13493 13496 13499 13502 13505 13507 13510 13513 13515 13518 13521 13524 13526 13529 13531 13534 13537 13540 13542 13545 13548 13551 13554 13556 13559 13562 13565 13568 13570 13572 13575 13578 13581 13584 13587 13590 13592 13595 13598 13600 13603 13606 13609 13612 13615 13618 13621 13624 13627 13630 13633 13636 13639 13642 13645 13648 13651 13654 13657 13660 13663 13666 13669 13672 13675 13678 13681 13684 13687 13690 13693 13696 13699 13702 13705 13708 13711 13714 13717 13720 13723 13726 13729 13732 13735 13738 13741 13744 13747 13750 13753 13756 13759 13762 13765 13768 13771 13774 13776 13779 13782 13785 13788 13791 13794 13797 13800 13803 13806 13809 13812 13814 13817 13820 13822 13825 13828 13831 13833 13836 13839 13842 13845 13848 13851 13854 13857 13860 13863 13866 13869 13872 13875 13878 13880 13883 13886 13889 13892 13895 13898 13901 13904 13907 13910 13913 13916 13919 13922 13925 13928 13930 13933 13936 13939 13942 13945 13948 13951 13954 13957 13960 13963 13966 13969 13971 13974 13977 13979 13982 13985 13987 13990 13992 13995 13998 14001 14004 14007 14010 14013 14015 14018 14021 14024 14027 14030 14033 14036 14039 14042 14045 14048 14051 14053 14056 14059 14062 14064 14067 14070 14073 14076 14079 14082 14085 14088 14091 14093 14096 14099 14102 14105 14108 14111 14113 14116 14119 14122 14125 14128 14131 14133 14136 14139 14142 14144 14147 14150 14153 14156 14159 14162 14165 14167 14170 14173 14176 14179 14182 14185 14188 14191 14194 14197 14199 14202 14205 14208 14211 14214 14217 14220 14223 14226 14229 14232 14235 14238 14241 14244 14247 14249 14252 14254 14257 14260 14263 14266 14269 14272 14275 14278 14281 14284 14286 14289 14291 14294 14297 14300 14303 14306 14309 14312 14315 14318 14321 14324 14326 14329 14332 14335 14338 14341 14344 14347 14350 14353 14356 14359 14361 14364 14367 14370 14373 14376 14379 14382 14384 14387 14390 14393 14396 14399 14402 14405 14407 14410 14413 14416 14419 14422 14425 14428 14431 14434 14437 14440 14442 14445 14448 14451 14454 14457 14460 14463 14466 14468 14471 14473 14476 14479 14482 14485 14488 14491 14494 14497 14500 14503 14505 14508 14511 14514 14516 14519 14522 14525 14528 14531 14534 14537 14540 14543 14545 14548 14551 14554 14557 14560 14563 14566 14569 14572 14575 14578 14581 14584 14587 14590 14593 14595 14598 14601 14604 14607 14610 14613 14616 14619 14622 14625 14628 14631 14634 14637 14640 14643 14646 14649 14651 14654 14657 14659 14662 14665 14667 14670 14673 14676 14679 14682 14684 14687 14690 14693 14696 14699 14702 14705 14708 14711 14714 14717 14720 14723 14726 14729 14732 14735 14738 14741 14744 14747 14750 14753 14756 14759 14762 14765 14768 14771 14774 14777 14780 14783 14786 14789 14792 14795 14798 14801 14804 14807 14810 14813 14816 14819 14822 14825 14828 14831 14834 14837 14840 14843 14846 14849 14852 14855 14858 14861 14863 14866 14869 14871 14874 14877 14880 14883 14886 14889 14892 14895 14898 14901 14904 14907 14910 14913 14916 14919 14922 14925 14928 14931 14934 14937 14940 14943 14945 14947 14950 14953 14956 14959 14962 14965 14968 14971 14974 14977 14980 14983 14986 14989 14992 14995 14997 14999 15002 15005 15008 15011 15014 15017 15020 15022 15025 15027 15030 15033 15035 15037 15040 15043 15046 15049 15052 15055 15058 15061 15064 15067 15070 15072 15075 15077 15080 15083 15086 15088 15091 15094 15097 15099 15102 15104 15107 15110 15113 15116 15119 15121 15123 15126 15129 15132 15135 15138 15141 15144 15147 15150 15153 15156 15159 15162 15165 15168 15171 15174 15177 15180 15183 15186 15189 15192 15195 15198 15201 15204 15207 15210 15213 15216 15219 15222 15225 15228 15231 15234 15237 15240 15243 15246 15249 15252 15255 15258 15261 15264 15267 15270 15273 15276 15279 15282 15285 15288 15291 15294 15297 15300 15303 15306 15309 15312 15315 15318 15321 15324 15327 15330 15333 15336 15339 15342 15345 15348 15351 15354 15357 15360 15363 15366 15369 15372 15375 15378 15381 15384 15387 15390 15393 15396 15399 15402 15405 15408 15411 15414 15417 15420 15423 15426 15429 15432 15435 15437 15439 15442 15444 15447 15449 15452 15455 15457 15460 15463 15466 15469 15471 15474 15477 15480 15483 15486 15489 15492 15494 15496 15498 15501 15504 15507 15510 15513 15515 15517 15520 15523 15526 15529 15532 15535 15538 15541 15544 15547 15550 15553 15556 15559 15562 15565 15568 15571 15574 15577 15580 15583 15586 15589 15592 15595 15598 15601 15604 15607 15610 15613 15616 15619 15621 15624 15627 15629 15632 15635 15638 15641 15644 15647 15650 15653 15656 15659 15662 15664 15667 15670 15673 15676 15679 15682 15685 15687 15690 15693 15696 15699 15702 15705 15708 15711 15714 15717 15720 15723 15726 15729 15732 15735 15737 15740 15743 15745 15748 15751 15754 15757 15760 15763 15766 15769 15772 15775 15778 15781 15784 15787 15790 15793 15796 15799 15802 15805 15808 15811 15814 15816 15819 15822 15824 15827 15830 15832 15835 15838 15841 15844 15847 15850 15853 15855 15858 15861 15864 15867 15870 15873 15875 15878 15881 15883 15886 15889 15892 15895 15897 15900 15902 15905 15908 15910 15913 15916 15919 15922 15924 15927 15929 15932 15935 15937 15940 15943 15946 15949 15952 15955 15958 15961 15964 15967 15970 15973 15975 15978 15981 15984 15986 15989 15992 15994 15997 16000 16003 16006 16008 16011 16014 16017 16020 16023 16026 16029 16032 16035 16038 16040 16043 16046 16049 16052 16055 16058 16061 16064 16067 16070 16072 16075 16078 16081 16084 16087 16090 16093 16096 16099 16102 16105 16108 16110 16113 16116 16118 16121 16124 16127 16130 16133 16136 16139 16142 16145 16148 16150 16153 16156 16159 16162 16165 16167 16170 16172 16174 16177 16180 16182 16185 16188 16191 16194 16197 16200 16203 16206 16209 16211 16213 16216 16219 16222 16225 16228 16231 16233 16236 16239 16242 16245 16248 16251 16254 16257 16260 16263 16266 16269 16272 16275 16278 16281 16284 16287 16290 16293 16296 16299 16302 16305 16308 16310 16313 16316 16319 16322 16325 16328 16331 16334 16337 16340 16343 16346 16349 16352 16355 16358 16361 16364 16367 16370 16373 16376 16379 16382 16385 16388 16391 16394 16397 16400 16403 16406 16409 16412 16415 16418 16421 16424 16427 16430 16432 16435 16438 16441 16444 16447 16450 16453 16456 16459 16462 16464 16467 16470 16473 16475 16478 16480 16483 16486 16489 16491 16494 16497 16500 16502 16505 16507 16510 16512 16515 16517 16519 16522 16525 16527 16530 16533 16536 16538 16541 16544 16547 16550 16553 16555 16558 16561 16564 16567 16569 16572 16575 16578 16580 16583 16586 16589 16592 16594 16597 16599 16602 16605 16608 16611 16614 16617 16620 16623 16626 16629 16632 16635 16638 16641 16643 16646 16649 16652 16655 16657 16660 16663 16665 16668 16671 16673 16675 16678 16681 16683 16686 16688 16691 16694 16697 16699 16701 16703 16705 16708 16711 16713 16716 16719 16722 16725 16727 16730 16732 16735 16738 16740 16742 16744 16747 16749 16752 16755 16757 16759 16761 16764 16767 16770 16773 16776 16779 16782 16785 16788 16790 16792 16795 16798 16801 16804 16806 16808 16811 16814 16817 16819 16822 16824 16827 16830 16833 16836 16839 16842 16845 16848 16851 16854 16857 16859 16862 16865 16868 16871 16874 16877 16880 16883 16886 16889 16892 16895 16898 16901 16904 16907 16910 16913 16916 16919 16922 16925 16928 16930 16933 16936 16939 16942 16945 16948 16951 16954 16957 16960 16963 16966 16969 16972 16975 16978 16980 16983 16986 16988 16991 16994 16997 17000 17003 17006 17009 17012 17015 17017 17020 17023 17026 17028 17030 17033 17036 17038 17041 17044 17047 17050 17053 17055 17058 17060 17063 17066 17069 17071 17074 17077 17080 17083 17086 17089 17092 17094 17097 17100 17102 17105 17108 17111 17114 17116 17119 17122 17125 17127 17129 17132 17135 17137 17140 17143 17146 17148 17151 17154 17157 17160 17163 17166 17169 17171 17174 17177 17179 17182 17184 17186 17188 17191 17193 17196 17198 17200 17203 17206 17209 17212 17215 17218 17220 17223 17226 17228 17231 17234 17237 17240 17243 17246 17249 17252 17255 17258 17261 17264 17267 17270 17273 17276 17279 17282 17285 17288 17291 17294 17297 17300 17303 17306 17309 17312 17315 17318 17321 17324 17327 17330 17333 17335 17337 17340 17343 17346 17349 17352 17355 17358 17361 17363 17365 17367 17369 17372 17375 17377 17380 17383 17386 17389 17392 17395 17398 17401 17403 17406 17409 17411 17414 17417 17420 17422 17425 17428 17431 17434 17436 17439 17442 17445 17448 17451 17454 17457 17460 17463 17466 17469 17472 17475 17478 17480 17483 17486 17489 17492 17495 17497 17500 17503 17506 17509 17512 17515 17518 17521 17523 17526 17529 17532 17534 17536 17539 17542 17544 17546 17549 17552 17555 17558 17561 17563 17566 17569 17572 17575 17578 17581 17583 17586 17588 17591 17594 17597 17600 17603 17606 17609 17612 17614 17616 17619 17621 17623 17625 17628 17630 17633 17636 17639 17642 17645 17648 17650 17653 17656 17659 17662 17665 17668 17671 17673 17676 17679 17682 17685 17688 17691 17694 17697 17700 17703 17706 17709 17712 17715 17718 17721 17724 17727 17730 17733 17736 17739 17742 17745 17748 17751 17754 17757 17760 17763 17766 17769 17772 17775 17778 17781 17784 17787 17790 17793 17796 17799 17802 17805 17808 17811 17814 17817 17820 17823 17826 17829 17832 17835 17838 17841 17844 17846 17849 17852 17855 17858 17861 17864 17867 17869 17872 17875 17877 17880 17883 17886 17888 17891 17893 17896 17899 17901 17904 17907 17910 17913 17916 17919 17922 17924 17927 17930 17933 17935 17938 17941 17944 17947 17950 17953 17956 17958 17961 17963 17966 17969 17972 17975 17978 17981 17984 17987 17990 17993 17996 17999 18002 18005 18008 18011 18014 18017 18020 18023 18026 18029 18032 18035 18038 18040 18042 18045 18047 18050 18053 18056 18059 18062 18065 18068 18070 18073 18075 18078 18080 18082 18084 18087 18090 18092 18095 18098 18100 18103 18106 18109 18111 18114 18117 18120 18123 18126 18129 18132 18134 18136 18139 18142 18144 18147 18150 18153 18155 18158 18161 18164 18167 18169 18172 18174 18177 18180 18183 18186 18189 18192 18194 18197 18199 18202 18205 18208 18211 18214 18216 18219 18222 18224 18227 18230 18233 18236 18239 18242 18245 18248 18251 18254 18257 18260 18263 18266 18269 18272 18274 18277 18280 18282 18284 18287 18289 18292 18295 18298 18301 18304 18307 18310 18313 18315 18318 18321 18324 18327 18330 18333 18336 18339 18342 18345 18348 18351 18354 18357 18360 18363 18365 18368 18371 18374 18376 18379 18382 18384 18387 18390 18393 18396 18399 18402 18404 18407 18410 18413 18416 18419 18422 18425 18428 18431 18434 18437 18440 18443 18446 18449 18452 18455 18458 18461 18463 18465 18468 18471 18474 18477 18480 18483 18486 18488 18491 18494 18497 18499 18502 18505 18507 18510 18512 18515 18518 18520 18523 18525 18527 18530 18532 18535 18537 18540 18542 18545 18548 18551 18554 18557 18560 18563 18566 18569 18572 18575 18578 18581 18584 18587 18589 18591 18594 18597 18600 18603 18606 18609 18612 18614 18617 18620 18623 18626 18629 18632 18635 18638 18641 18644 18647 18650 18653 18656 18659 18661 18664 18666 18669 18672 18675 18678 18681 18684 18686 18689 18692 18695 18697 18700 18703 18706 18708 18711 18714 18717 18720 18723 18726 18729 18732 18735 18738 18741 18744 18747 18750 18753 18756 18759 18762 18765 18768 18771 18773 18776 18779 18782 18785 18787 18790 18793 18796 18799 18802 18804 18807 18810 18813 18815 18818 18821 18824 18827 18830 18833 18836 18839 18842 18845 18848 18851 18853 18856 18859 18862 18865 18867 18870 18873 18876 18879 18882 18885 18888 18891 18893 18896 18899 18902 18905 18908 18911 18914 18916 18919 18922 18925 18928 18930 18933 18936 18939 18942 18945 18948 18951 18954 18956 18959 18962 18965 18968 18971 18974 18977 18980 18983 18985 18988 18991 18994 18997 19000 19003 19006 19009 19012 19015 19018 19021 19024 19027 19030 19033 19036 19039 19042 19045 19048 19051 19054 19057 19060 19063 19066 19069 19071 19074 19077 19080 19083 19086 19089 19092 19094 19097 19100 19103 19106 19109 19112 19115 19118 19121 19124 19127 19130 19133 19136 19139 19142 19145 19148 19151 19154 19157 19160 19163 19166 19169 19172 19175 19178 19181 19183 19186 19189 19192 19195 19198 19201 19204 19207 19210 19213 19216 19219 19222 19225 19228 19231 19234 19237 19240 19243 19246 19249 19252 19255 19258 19261 19264 19267 19270 19273 19276 19279 19281 19284 19287 19289 19292 19295 19298 19301 19303 19306 19309 19311 19314 19317 19320 19323 19325 19328 19331 19334 19336 19339 19342 19345 19347 19350 19353 19356 19359 19362 19365 19368 19371 19374 19377 19379 19382 19385 19387 19390 19393 19396 19399 19402 19405 19407 19410 19413 19416 19419 19422 19424 19427 19430 19433 19436 19438 19441 19444 19447 19450 19453 19456 19459 19462 19465 19468 19470 19473 19476 19479 19482 19485 19488 19491 19494 19497 19499 19502 19505 19508 19511 19514 19517 19520 19523 19526 19529 19532 19535 19538 19540 19543 19546 19549 19552 19555 19558 19561 19563 19566 19569 19572 19575 19578 19580 19583 19586 19589 19592 19595 19598 19601 19604 19607 19610 19613 19616 19619 19622 19624 19627 19630 19633 19636 19639 19642 19645 19648 19650 19653 19656 19659 19662 19665 19668 19671 19674 19677 19680 19683 19686 19689 19692 19695 19698 19701 19704 19707 19710 19713 19716 19719 19722 19725 19728 19731 19734 19737 19740 19743 19746 19749 19751 19754 19757 19760 19763 19765 19767 19770 19773 19775 19778 19781 19783 19786 19789 19791 19794 19797 19800 19803 19806 19809 19812 19815 19818 19821 19824 19827 19830 19833 19836 19839 19842 19845 19848 19850 19853 19856 19859 19862 19864 19867 19870 19873 19876 19879 19882 19885 19888 19891 19894 19897 19900 19903 19906 19909 19912 19915 19918 19921 19924 19927 19930 19933 19936 19939 19942 19945 19948 19951 19954 19957 19960 19963 19966 19969 19972 19975 19978 19981 19984 19987 19990 19993 19996 19999 20002 20005 20008 20011 20014 20017 20020 20023 20026 20029 20032 20035 20038 20041 20044 20047 20050 20053 20056 20059 20062 20065 20068 20071 20074 20077 20079 20082 20085 20088 20091 20093 20096 20098 20101 20104 20106 20109 20112 20115 20118 20120 20123 20126 20128 20131 20134 20137 20140 20143 20146 20149 20152 20155 20158 20161 20164 20167 20170 20173 20176 20179 20182 20185 20188 20191 20194 20197 20200 20203 20206 20209 20212 20215 20218 20221 20224 20227 20230 20233 20236 20239 20242 20245 20248 20251 20254 20257 20260 20263 20266 20269 20272 20275 20278 20281 20284 20287 20290 20293 20296 20299 20302 20305 20308 20310 20313 20316 20319 20322 20325 20328 20331 20334 20337 20339 20342 20345 20348 20351 20354 20357 20360 20362 20365 20368 20371 20374 20377 20380 20383 20386 20389 20392 20395 20398 20401 20404 20407 20410 20413 20416 20419 20421 20423 20426 20429 20431 20434 20436 20439 20442 20445 20448 20451 20454 20457 20460 20463 20466 20469 20472 20475 20478 20481 20484 20487 20490 20493 20496 20499 20502 20505 20508 20511 20514 20517 20520 20523 20526 20529 20532 20535 20538 20541 20544 20547 20550 20553 20556 20559 20562 20565 20568 20571 20574 20577 20580 20583 20586 20589 20592 20595 20598 20601 20603 20605 20608 20611 20614 20617 20620 20623 20626 20629 20632 20635 20638 20641 20644 20647 20650 20653 20656 20659 20662 20665 20667 20670 20673 20676 20679 20682 20685 20688 20691 20694 20697 20699 20702 20705 20708 20710 20713 20716 20719 20722 20725 20728 20730 20733 20736 20739 20742 20745 20748 20751 20754 20757 20760 20763 20766 20769 20771 20774 20777 20780 20783 20786 20789 20791 20793 20796 20798 20801 20804 20806 20809 20812 20815 20817 20820 20823 20826 20828 20831 20834 20837 20840 20843 20845 20848 20850 20853 20856 20859 20862 20864 20867 20870 20873 20876 20878 20881 20883 20886 20889 20891 20893 20896 20899 20902 20905 20908 20910 20913 20916 20919 20922 20925 20927 20929 20931 20934 20936 20939 20941 20944 20947 20950 20953 20956 20958 20961 20964 20967 20970 20973 20976 20979 20982 20984 20986 20989 20992 20994 20997 21000 21003 21006 21008 21011 21014 21016 21019 21022 21024 21027 21030 21033 21036 21039 21042 21045 21048 21051 21053 21056 21059 21062 21065 21068 21071 21074 21077 21079 21082 21085 21088 21091 21094 21097 21100 21103 21106 21108 21110 21113 21116 21119 21122 21125 21128 21131 21134 21137 21140 21143 21146 21149 21152 21155 21158 21161 21164 21167 21170 21173 21176 21179 21182 21185 21188 21191 21194 21197 21200 21203 21206 21209 21212 21215 21217 21220 21223 21226 21229 21231 21234 21237 21240 21243 21246 21249 21252 21255 21258 21261 21264 21267 21270 21273 21276 21279 21281 21283 21286 21289 21292 21295 21298 21301 21304 21307 21310 21312 21315 21318 21321 21324 21326 21329 21332 21334 21337 21340 21343 21346 21349 21352 21355 21358 21361 21364 21367 21370 21373 21375 21378 21381 21384 21387 21390 21393 21396 21399 21402 21405 21408 21411 21414 21417 21420 21423 21426 21429 21432 21435 21438 21441 21444 21447 21450 21452 21455 21458 21461 21464 21467 21469 21472 21475 21478 21480 21483 21486 21489 21491 21493 21496 21499 21502 21505 21508 21511 21514 21517 21520 21523 21526 21529 21532 21535 21537 21540 21543 21546 21548 21551 21554 21557 21560 21562 21564 21567 21570 21573 21576 21579 21582 21585 21588 21591 21594 21597 21600 21603 21606 21609 21612 21615 21618 21621 21624 21627 21630 21633 21635 21638 21641 21644 21647 21650 21653 21656 21659 21662 21664 21667 21670 21673 21676 21678 21681 21683 21686 21689 21692 21695 21697 21700 21703 21706 21709 21712 21715 21718 21721 21724 21727 21730 21733 21736 21739 21742 21744 21747 21750 21752 21755 21758 21761 21764 21767 21770 21773 21776 21779 21782 21784 21786 21789 21792 21795 21798 21800 21803 21806 21809 21811 21814 21817 21820 21823 21825 21827 21830 21832 21835 21837 21840 21842 21845 21848 21850 21853 21856 21858 21861 21864 21866 21869 21872 21875 21877 21880 21883 21885 21888 21890 21893 21895 21898 21901 21903 21906 21909 21912 21915 21918 21921 21924 21927 21930 21933 21936 21939 21942 21944 21947 21950 21953 21956 21959 21962 21965 21968 21971 21974 21977 21980 21983 21986 21989 21992 21994 21996 21999 22002 22005 22008 22011 22013 22016 22019 22022 22025 22027 22030 22033 22035 22038 22041 22044 22047 22049 22052 22055 22058 22061 22064 22067 22070 22073 22076 22079 22082 22085 22088 22091 22094 22097 22100 22103 22106 22109 22112 22115 22118 22121 22124 22127 22130 22133 22136 22139 22142 22145 22148 22151 22154 22157 22160 22163 22165 22168 22171 22174 22177 22180 22183 22186 22189 22192 22195 22198 22201 22204 22206 22209 22211 22214 22217 22220 22223 22225 22228 22231 22234 22237 22240 22243 22246 22249 22252 22255 22258 22261 22264 22267 22270 22273 22276 22279 22281 22284 22286 22289 22292 22294 22297 22300 22303 22305 22308 22311 22314 22317 22320 22323 22326 22329 22332 22335 22338 22341 22344 22347 22350 22353 22356 22359 22362 22365 22368 22371 22374 22377 22380 22383 22386 22388 22391 22394 22396 22399 22402 22405 22408 22411 22414 22417 22420 22423 22426 22429 22432 22435 22438 22441 22444 22447 22450 22453 22456 22459 22462 22465 22468 22471 22474 22477 22480 22483 22486 22489 22492 22495 22498 22501 22503 22506 22508 22511 22514 22517 22520 22523 22526 22529 22532 22535 22538 22541 22544 22547 22550 22553 22556 22559 22561 22563 22566 22569 22572 22575 22578 22580 22583 22586 22589 22592 22594 22597 22600 22603 22606 22608 22611 22614 22617 22620 22623 22626 22629 22632 22635 22638 22641 22644 22647 22650 22653 22656 22659 22662 22664 22667 22670 22673 22676 22679 22682 22684 22687 22690 22692 22695 22698 22701 22704 22707 22710 22713 22716 22719 22722 22725 22728 22730 22733 22736 22738 22741 22744 22747 22750 22753 22756 22759 22762 22764 22767 22770 22773 22776 22779 22782 22784 22787 22790 22792 22795 22798 22801 22804 22807 22810 22813 22816 22819 22822 22825 22828 22831 22834 22837 22840 22843 22846 22849 22852 22855 22858 22861 22864 22867 22870 22873 22876 22879 22882 22885 22888 22891 22894 22897 22900 22902 22905 22908 22911 22913 22916 22919 22921 22924 22927 22930 22933 22936 22939 22941 22944 22947 22950 22953 22956 22958 22961 22964 22967 22970 22973 22976 22978 22981 22984 22987 22990 22992 22995 22997 23000 23003 23005 23008 23011 23014 23016 23019 23022 23025 23028 23031 23034 23037 23040 23043 23046 23049 23052 23055 23057 23060 23063 23066 23069 23072 23075 23078 23081 23084 23087 23090 23093 23096 23099 23102 23105 23108 23111 23114 23117 23120 23123 23126 23129 23131 23134 23136 23139 23141 23144 23146 23149 23152 23155 23158 23160 23163 23166 23169 23172 23174 23177 23180 23183 23186 23189 23192 23195 23198 23201 23204 23207 23210 23213 23216 23218 23221 23224 23227 23229 23232 23235 23238 23240 23243 23246 23248 23251 23254 23257 23259 23262 23265 23268 23271 23273 23276 23279 23282 23285 23287 23290 23293 23296 23299 23302 23305 23308 23311 23314 23317 23319 23322 23325 23328 23331 23334 23336 23339 23341 23344 23347 23350 23353 23356 23358 23360 23363 23366 23368 23371 23373 23376 23379 23381 23384 23387 23390 23393 23396 23399 23402 23405 23408 23411 23414 23417 23420 23422 23425 23428 23431 23434 23437 23439 23442 23445 23448 23451 23454 23457 23460 23463 23466 23469 23471 23474 23476 23479 23482 23484 23487 23490 23492 23495 23497 23500 23502 23505 23508 23511 23514 23517 23519 23521 23524 23527 23530 23533 23536 23539 23542 23545 23548 23551 23554 23556 23559 23562 23565 23568 23571 23573 23576 23579 23582 23584 23587 23589 23592 23595 23598 23601 23604 23607 23610 23613 23616 23619 23622 23625 23628 23631 23634 23636 23639 23642 23645 23648 23650 23653 23656 23659 23662 23665 23668 23671 23674 23677 23680 23683 23686 23689 23692 23695 23698 23701 23704 23707 23710 23713 23716 23719 23721 23724 23727 23729 23732 23735 23738 23741 23744 23747 23750 23752 23755 23758 23760 23763 23765 23768 23771 23774 23777 23780 23783 23786 23789 23792 23794 23797 23800 23802 23805 23808 23811 23813 23816 23819 23822 23825 23828 23831 23834 23836 23839 23842 23845 23848 23850 23852 23855 23858 23861 23864 23867 23870 23873 23876 23879 23881 23884 23887 23890 23893 23896 23899 23902 23905 23908 23911 23914 23917 23920 23923 23926 23929 23931 23934 23936 23939 23942 23945 23947 23950 23953 23956 23959 23962 23965 23968 23971 23974 23977 23980 23983 23986 23988 23991 23994 23997 24000 24003 24005 24008 24011 24014 24016 24018 24021 24024 24027 24029 24032 24035 24037 24040 24043 24046 24049 24051 24053 24056 24059 24062 24064 24067 24070 24072 24075 24078 24081 24084 24086 24089 24091 24094 24097 24100 24102 24105 24108 24111 24114 24117 24120 24123 24126 24129 24132 24135 24138 24141 24144 24147 24150 24153 24156 24159 24162 24165 24167 24170 24173 24176 24179 24182 24185 24188 24191 24194 24196 24199 24202 24205 24207 24210 24212 24215 24218 24221 24224 24227 24230 24233 24236 24239 24242 24245 24247 24250 24253 24256 24259 24262 24264 24267 24270 24273 24276 24279 24281 24284 24287 24290 24293 24296 24299 24302 24305 24308 24311 24314 24317 24320 24323 24326 24329 24331 24334 24337 24340 24343 24346 24349 24352 24355 24358 24360 24363 24366 24369 24372 24375 24378 24381 24384 24387 24390 24393 24396 24399 24402 24405 24407 24410 24413 24416 24419 24422 24425 24428 24431 24434 24437 24440 24443 24446 24449 24452 24455 24458 24461 24464 24467 24470 24473 24476 24479 24482 24485 24488 24491 24494 24496 24499 24502 24505 24508 24510 24513 24515 24517 24520 24523 24526 24529 24532 24535 24537 24540 24542 24545 24548 24551 24553 24556 24559 24561 24564 24567 24570 24573 24576 24579 24581 24584 24587 24590 24593 24596 24599 24602 24604 24607 24610 24613 24616 24618 24621 24624 24627 24630 24633 24636 24638 24641 24644 24647 24650 24653 24656 24659 24662 24665 24668 24671 24674 24676 24679 24681 24684 24687 24690 24693 24696 24699 24702 24704 24706 24709 24712 24715 24718 24721 24724 24727 24730 24732 24735 24738 24741 24743 24746 24749 24751 24754 24757 24760 24763 24766 24769 24772 24775 24778 24781 24784 24787 24790 24793 24796 24799 24802 24805 24808 24811 24814 24817 24820 24823 24826 24828 24831 24834 24836 24839 24842 24845 24848 24851 24853 24856 24859 24861 24864 24866 24869 24872 24875 24877 24880 24883 24886 24889 24891 24894 24897 24899 24901 24904 24907 24910 24913 24916 24918 24921 24924 24926 24929 24932 24935 24938 24941 24943 24946 24949 24952 24955 24958 24961 24964 24967 24970 24972 24975 24978 24981 24984 24986 24989 24992 24995 24998 25001 25004 25006 25009 25011 25014 25017 25020 25022 25025 25027 25030 25033 25035 25038 25040 25043 25046 25049 25051 25054 25057 25060 25063 25066 25069 25072 25075 25078 25081 25084 25087 25090 25092 25095 25098 25101 25104 25106 25109 25112 25115 25118 25121 25124 25126 25129 25132 25135 25138 25141 25144 25147 25149 25152 25155 25158 25161 25164 25167 25169 25172 25175 25178 25181 25184 25187 25190 25192 25195 25198 25200 25203 25206 25209 25212 25215 25218 25221 25224 25227 25229 25231 25234 25237 25240 25243 25246 25249 25252 25255 25258 25261 25264 25267 25269 25272 25275 25278 25281 25284 25287 25290 25292 25295 25298 25301 25303 25306 25308 25311 25314 25316 25319 25322 25325 25328 25331 25333 25336 25339 25342 25344 25347 25350 25353 25356 25358 25361 25364 25367 25369 25372 25375 25378 25381 25384 25387 25390 25392 25395 25398 25400 25403 25406 25409 25411 25414 25417 25420 25422 25425 25428 25431 25434 25436 25439 25442 25445 25447 25450 25453 25456 25459 25462 25465 25468 25471 25474 25476 25479 25482 25485 25488 25491 25494 25497 25500 25503 25505 25508 25511 25514 25517 25519 25522 25525 25527 25530 25533 25536 25539 25542 25545 25548 25551 25554 25557 25560 25563 25566 25569 25572 25575 25578 25581 25584 25587 25590 25593 25596 25599 25602 25605 25607 25610 25613 25616 25619 25622 25625 25628 25631 25634 25637 25640 25642 25645 25648 25651 25653 25656 25659 25662 25665 25668 25671 25673 25676 25679 25682 25685 25688 25691 25694 25697 25700 25703 25706 25709 25712 25715 25718 25721 25724 25727 25730 25733 25736 25739 25742 25745 25748 25751 25753 25756 25758 25761 25764 25766 25768 25771 25774 25777 25780 25783 25786 25789 25792 25795 25798 25801 25804 25807 25810 25813 25816 25819 25821 25824 25827 25830 25833 25836 25839 25842 25845 25848 25851 25854 25857 25860 25863 25866 25869 25872 25875 25878 25881 25884 25887 25890 25893 25896 25899 25902 25905 25908 25911 25914 25917 25920 25923 25926 25929 25932 25935 25938 25941 25944 25947 25950 25953 25956 25959 25962 25965 25968 25971 25974 25977 25980 25983 25986 25989 25992 25995 25998 26001 26004 26006 26009 26012 26014 26017 26020 26023 26026 26028 26031 26034 26037 26040 26043 26046 26049 26052 26055 26058 26060 26063 26065 26068 26071 26074 26076 26079 26082 26085 26087 26090 26092 26095 26098 26101 26103 26106 26108 26111 26113 26116 26119 26122 26124 26127 26130 26133 26136 26138 26141 26143 26146 26149 26152 26155 26158 26160 26163 26165 26167 26170 26173 26176 26179 26182 26185 26187 26190 26193 26196 26198 26201 26204 26207 26210 26213 26216 26219 26222 26225 26228 26231 26234 26237 26240 26243 26246 26249 26252 26255 26257 26260 26263 26266 26268 26270 26273 26276 26279 26282 26285 26287 26290 26293 26296 26299 26302 26305 26308 26311 26314 26317 26320 26323 26326 26329 26331 26334 26337 26339 26342 26344 26347 26350 26353 26355 26358 26360 26363 26366 26368 26371 26374 26377 26380 26383 26386 26389 26392 26395 26398 26401 26403 26406 26409 26412 26415 26418 26421 26424 26427 26430 26433 26435 26437 26440 26443 26446 26449 26452 26455 26458 26460 26463 26466 26469 26472 26475 26478 26481 26484 26487 26490 26493 26496 26499 26502 26504 26507 26510 26513 26516 26519 26522 26525 26528 26531 26534 26536 26539 26542 26545 26547 26550 26552 26554 26557 26560 26563 26566 26569 26572 26575 26578 26580 26583 26586 26589 26592 26595 26598 26601 26604 26607 26609 26612 26614 26617 26619 26622 26625 26628 26631 26634 26637 26640 26643 26645 26648 26650 26653 26656 26659 26662 26665 26668 26670 26673 26676 26678 26681 26683 26686 26689 26692 26695 26698 26701 26704 26707 26710 26713 26716 26719 26722 26725 26727 26730 26733 26736 26739 26742 26745 26748 26751 26754 26757 26759 26762 26765 26768 26771 26774 26777 26779 26782 26785 26788 26791 26794 26797 26800 26803 26806 26809 26812 26815 26818 26821 26824 26827 26830 26833 26836 26839 26842 26845 26848 26851 26854 26856 26859 26862 26865 26868 26871 26873 26876 26879 26882 26885 26888 26891 26894 26897 26900 26903 26906 26908 26911 26914 26917 26920 26922 26925 26928 26931 26934 26937 26939 26942 26945 26948 26951 26954 26956 26959 26962 26964 26967 26970 26973 26976 26979 26982 26985 26988 26991 26994 26997 27000 27003 27006 27009 27012 27015 27018 27021 27024 27027 27030 27033 27036 27039 27042 27044 27047 27050 27052 27055 27058 27061 27064 27067 27070 27073 27076 27079 27082 27085 27088 27091 27094 27097 27099 27102 27105 27108 27111 27114 27117 27120 27123 27126 27128 27131 27134 27137 27140 27143 27146 27149 27151 27154 27157 27160 27163 27166 27168 27171 27174 27177 27180 27183 27186 27188 27191 27194 27197 27200 27202 27205 27208 27211 27214 27217 27220 27223 27225 27228 27231 27233 27236 27239 27241 27244 27247 27250 27253 27255 27258 27261 27264 27267 27270 27273 27276 27279 27281 27284 27287 27289 27292 27295 27298 27301 27304 27307 27310 27313 27316 27318 27321 27324 27327 27330 27333 27335 27338 27341 27344 27347 27349 27352 27355 27358 27360 27363 27366 27369 27372 27375 27378 27381 27384 27387 27390 27393 27395 27397 27400 27403 27406 27409 27412 27415 27418 27421 27424 27427 27430 27432 27435 27438 27441 27444 27447 27449 27452 27454 27456 27459 27461 27463 27466 27469 27471 27474 27477 27480 27483 27486 27489 27491 27494 27496 27498 27501 27504 27507 27510 27513 27515 27518 27521 27524 27527 27530 27533 27536 27539 27541 27544 27547 27550 27553 27555 27558 27561 27564 27567 27570 27572 27575 27578 27580 27583 27586 27589 27592 27595 27598 27601 27603 27606 27608 27611 27614 27617 27620 27623 27626 27629 27631 27633 27636 27639 27642 27645 27648 27651 27654 27656 27659 27662 27665 27668 27671 27674 27676 27679 27682 27685 27688 27691 27694 27697 27700 27703 27706 27709 27712 27715 27718 27720 27723 27726 27728 27731 27734 27737 27740 27742 27745 27748 27751 27754 27756 27759 27762 27765 27768 27771 27774 27776 27779 27782 27785 27788 27791 27794 27797 27799 27802 27805 27808 27810 27813 27816 27819 27822 27824 27827 27830 27832 27835 27838 27841 27844 27847 27850 27853 27855 27858 27861 27864 27867 27869 27872 27874 27877 27880 27883 27886 27889 27892 27895 27898 27901 27904 27907 27910 27913 27916 27918 27921 27924 27927 27930 27933 27936 27939 27941 27944 27947 27949 27952 27955 27957 27960 27963 27966 27969 27972 27975 27978 27981 27984 27986 27989 27992 27995 27997 28000 28003 28006 28009 28012 28015 28018 28021 28024 28026 28029 28032 28035 28038 28041 28044 28047 28050 28053 28056 28059 28061 28064 28067 28070 28072 28075 28078 28081 28084 28087 28090 28093 28096 28099 28102 28105 28107 28110 28113 28116 28119 28122 28125 28128 28131 28134 28137 28139 28142 28145 28148 28151 28154 28156 28159 28162 28165 28168 28171 28174 28177 28180 28182 28185 28188 28190 28193 28196 28198 28201 28204 28207 28210 28212 28214 28217 28220 28223 28226 28228 28231 28234 28237 28240 28242 28245 28248 28250 28253 28256 28259 28262 28264 28267 28270 28272 28275 28278 28281 28284 28287 28289 28292 28295 28298 28301 28304 28307 28310 28313 28315 28318 28320 28323 28326 28329 28332 28335 28338 28341 28344 28347 28349 28351 28354 28357 28360 28363 28366 28369 28371 28374 28377 28379 28382 28385 28387 28390 28392 28395 28398 28401 28403 28406 28409 28411 28414 28417 28420 28423 28426 28429 28432 28435 28437 28439 28442 28445 28447 28449 28452 28455 28458 28461 28463 28466 28469 28472 28474 28477 28479 28482 28484 28486 28488 28491 28493 28496 28499 28502 28504 28507 28510 28513 28516 28519 28522 28525 28528 28531 28533 28536 28539 28541 28544 28547 28550 28553 28556 28559 28561 28564 28567 28570 28573 28576 28579 28581 28583 28585 28588 28591 28594 28597 28600 28603 28606 28609 28612 28615 28618 28620 28623 28626 28629 28632 28634 28637 28640 28643 28646 28649 28652 28655 28658 28660 28663 28666 28668 28671 28674 28677 28679 28682 28685 28688 28691 28694 28697 28700 28703 28706 28708 28711 28714 28717 28720 28723 28726 28729 28732 28734 28737 28740 28743 28745 28748 28751 28753 28756 28759 28762 28764 28767 28769 28772 28775 28777 28780 28782 28785 28788 28790 28793 28796 28799 28802 28805 28808 28810 28813 28816 28818 28821 28824 28827 28830 28833 28836 28839 28842 28845 28848 28851 28854 28857 28860 28863 28866 28869 28872 28875 28878 28881 28884 28887 28890 28893 28896 28899 28902 28905 28908 28911 28914 28917 28920 28923 28926 28929 28932 28935 28938 28941 28944 28947 28950 28953 28956 28959 28962 28965 28968 28971 28974 28977 28980 28983 28986 28989 28992 28995 28998 29001 29004 29007 29010 29013 29016 29019 29022 29025 29028 29031 29034 29037 29040 29043 29046 29049 29052 29055 29058 29061 29064 29067 29070 29073 29076 29079 29082 29085 29088 29091 29094 29097 29100 29103 29106 29108 29111 29114 29117 29120 29122 29125 29128 29131 29134 29137 29140 29143 29146 29149 29152 29155 29158 29160 29162 29165 29168 29171 29174 29177 29180 29183 29186 29189 29192 29195 29198 29201 29204 29207 29209 29212 29215 29218 29220 29223 29226 29229 29232 29235 29238 29241 29244 29247 29250 29252 29255 29257 29260 29263 29266 29269 29272 29275 29278 29281 29284 29287 29290 29293 29296 29299 29302 29305 29308 29311 29314 29317 29320 29323 29326 29329 29331 29334 29337 29340 29343 29345 29348 29351 29354 29357 29360 29363 29366 29369 29371 29374 29377 29380 29383 29386 29389 29392 29395 29398 29401 29404 29407 29410 29413 29416 29419 29422 29425 29428 29431 29434 29437 29440 29443 29446 29449 29452 29455 29458 29461 29464 29467 29470 29473 29476 29479 29482 29485 29488 29491 29494 29497 29500 29503 29506 29509 29512 29515 29518 29520 29523 29526 29529 29532 29535 29538 29541 29544 29547 29550 29553 29556 29559 29562 29565 29568 29571 29574 29577 29580 29583 29586 29589 29592 29595 29598 29601 29604 29607 29610 29613 29616 29618 29621 29624 29627 29630 29633 29636 29638 29641 29644 29647 29650 29653 29656 29658 29661 29664 29666 29669 29671 29674 29676 29679 29682 29685 29688 29690 29693 29696 29699 29702 29705 29707 29710 29713 29716 29718 29720 29723 29726 29729 29731 29734 29737 29740 29743 29745 29747 29750 29753 29756 29759 29762 29765 29768 29771 29774 29777 29780 29783 29786 29789 29791 29794 29797 29799 29802 29805 29807 29809 29812 29815 29818 29821 29824 29827 29830 29833 29836 29839 29841 29844 29846 29849 29852 29855 29858 29861 29864 29867 29870 29873 29876 29879 29881 29884 29887 29890 29893 29896 29899 29902 29904 29907 29910 29913 29916 29919 29922 29925 29928 29931 29934 29937 29940 29943 29946 29949 29952 29955 29958 29960 29962 29965 29968 29971 29974 29977 29980 29983 29986 29989 29992 29995 29998 30001 30004 30007 30010 30013 30015 30018 30021 30024 30027 30030 30033 30036 30039 30042 30044 30047 30050 30053 30056 30059 30062 30065 30068 30071 30074 30077 30080 30082 30085 30088 30091 30094 30096 30099 30101 30104 30107 30110 30113 30116 30119 30122 30125 30128 30130 30133 30136 30139 30142 30144 30147 30150 30153 30156 30158 30161 30163 30166 30169 30172 30175 30178 30181 30184 30187 30190 30193 30196 30199 30201 30204 30207 30210 30213 30216 30219 30222 30225 30228 30231 30234 30237 30240 30243 30246 30248 30251 30253 30256 30259 30261 30264 30267 30270 30272 30275 30277 30280 30283 30285 30288 30291 30293 30296 30298 30301 30304 30307 30310 30313 30316 30319 30321 30323 30326 30329 30332 30335 30337 30339 30342 30345 30347 30349 30352 30354 30357 30360 30362 30364 30367 30370 30372 30375 30378 30380 30383 30386 30389 30392 30395 30398 30401 30404 30406 30409 30412 30414 30417 30419 30422 30425 30428 30430 30433 30436 30439 30442 30445 30448 30451 30454 30456 30459 30462 30465 30468 30471 30474 30477 30480 30483 30486 30489 30492 30495 30498 30501 30504 30507 30510 30513 30516 30519 30522 30524 30527 30530 30533 30536 30539 30542 30545 30548 30551 30554 30557 30560 30563 30566 30569 30572 30575 30578 
</DataArray>
<DataArray type="UInt32" Name="types" format="ascii">
5 5 5 5 5 5 3 5 5 5 3 5 5 5 3 5 5 5 5 5 5 3 3 5 5 5 5 3 3 5 3 3 5 3 5 5 5 3 5 5 3 5 5 5 5 5 5 5 3 5 5 5 5 5 5 5 5 3 5 5 3 5 3 5 3 5 3 5 5 5 5 5 5 5 5 5 5 5 5 5 5 5 5 3 5 5 5 5 5 5 5 5 3 5 5 3 3 5 5 5 5 5 5 5 5 5 5 5 5 3 5 5 5 5 5 3 5 5 3 5 5 5 5 5 5 5 5 5 5 5 5 5 5 5 5 5 5 5 3 5 5 5 5 5 3 5 5 5 5 5 5 5 5 5 5 5 5 5 5 5 5 5 5 5 5 5 5 5 5 3 5 3 5 5 5 3 5 5 5 3 5 5 5 3 3 5 5 3 5 5 5 5 3 5 5 5 5 5 3 5 5 5 5 3 5 3 5 5 3 5 5 5 3 5 5 3 5 5 5 5 5 5 5 5 5 5 3 5 5 3 5 5 5 5 5 5 5 3 5 5 5 5 5 5 5 5 5 5 5 5 5 5 5 5 5 5 5 5 5 3 5 3 5 5 5 5 5 3 5 5 5 5 5 5 5 5 3 5 5 5 3 5 5 3 5 5 5 5 3 5 5 3 5 5 5 5 5 3 5 3 5 5 5 5 5 5 5 5 5 5 5 5 5 5 5 5 5 5 3 5 5 5 5 5 3 3 5 5 5 5 5 5 5 5 5 5 3 5 5 5 5 5 5 5 5 5 3 5 5 3 3 5 5 5 3 5 5 3 5 5 5 5 5 5 5 5 5 5 5 5 5 5 5 3 5 5 5 5 5 5 5 5 3 5 5 3 5 5 5 5 3 5 5 5 5 5 5 5 5 5 5 5 5 5 5 3 3 5 5 3 3 5 3 5 3 5 3 5 5 3 5 5 5 5 5 5 5 5 5 3 3 5 5 3 5 5 5 5 5 3 5 5 3 5 5 5 5 3 5 5 5 3 5 5 5 3 5 3 5 5 3 5 5 5 5 5 5 5 5 5 5 5 3 5 5 5 5 5 5 3 5 5 5 3 5 5 5 5 5 5 5 3 5 5 5 5 5 3 5 3 5 5 5 5 5 3 3 5 5 5 3 3 5 3 5 5 5 5 5 5 5 3 5 5 5 5 5 5 5 5 5 5 5 5 5 5 3 5 5 3 5 3 5 5 5 5 5 5 5 5 5 5 5 5 5 5 3 5 5 5 5 5 5 5 5 5 5 5 5 5 5 5 5 3 5 5 5 5 5 5 5 5 5 5 5 3 3 5 5 5 5 5 5 5 5 5 5 5 5 5 5 5 5 3 5 5 5 5 5 5 5 3 5 5 5 5 5 5 5 5 3 5 5 5 3 5 5 5 5 5 5 5 5 5 5 5 5 5 5 5 5 5 5 5 5 5 5 5 5 5 5 5 5 3 5 3 5 5 5 5 5 5 5 5 5 5 5 5 5 3 5 5 5 3 5 5 5 5 5 5 5 5 5 5 5 5 5 3 3 5 5 5 5 5 5 5 3 5 5 5 5 5 5 5 5 5 5 5 3 5 5 5 5 5 5 5 3 5 5 5 5 5 5 5 5 5 5 5 5 5 5 5 5 5 3 5 5 5 5 5 5 5 5 5 5 3 5 5 5 5 5 3 5 5 5 3 5 5 5 5 3 5 5 5 5 5 5 5 3 5 3 5 5 3 5 3 5 5 5 5 5 5 5 5 5 5 5 5 5 5 5 5 5 5 5 5 5 5 5 5 5 5 5 5 5 5 5 5 5 5 5 3 5 3 3 5 5 5 5 5 5 5 5 5 5 5 3 5 5 5 5 5 5 5 3 5 3 5 3 5 5 5 5 5 5 3 5 3 3 5 5 5 5 5 5 5 5 5 5 5 5 5 5 5 5 5 3 5 5 5 5 5 5 5 5 5 5 5 5 5 5 3 5 5 5 5 5 5 5 5 5 5 5 5 5 3 5 5 5 5 5 5 5 5 5 3 5 5 5 5 5 3 3 5 5 5 5 3 3 5 5 5 5 5 5 5 5 5 5 5 3 5 5 5 5 3 5 5 5 5 5 5 3 5 5 3 5 3 5 5 5 3 5 5 5 5 5 5 5 3 5 5 5 5 3 3 5 5 3 5 5 5 3 3 3 3 5 5 3 5 5 5 5 5 5 5 5 3 3 5 5 5 5 5 5 3 5 3 5 5 5 3 5 5 5 5 5 5 5 5 5 5 5 5 5 5 5 5 5 5 5 5 5 5 5 5 5 5 5 5 3 5 5 5 5 5 5 5 5 5 5 5 5 5 5 5 5 5 5 5 5 5 3 5 5 5 5 5 5 5 5 5 3 5 5 5 5 5 5 3 5 5 5 5 5 3 5 5 5 5 5 3 5 5 5 5 5 5 5 5 5 5 3 5 5 5 5 3 3 5 5 3 5 5 5 5 3 5 5 3 5 5 5 5 5 3 3 5 5 5 5 5 5 3 5 5 5 5 5 5 5 3 3 5 5 5 3 5 5 5 3 5 5 3 5 3 5 5 5 3 5 5 3 3 5 5 5 5 5 5 3 5 3 5 3 5 5 5 3 3 5 3 5 5 5 5 5 5 5 5 5 5 5 5 5 5 5 5 3 5 5 5 5 5 5 5 3 5 5 5 5 5 3 5 5 5 3 5 5 5 5 3 5 3 5 3 5 5 5 5 3 5 5 3 5 5 5 5 5 5 5 5 5 5 5 3 5 5 5 5 3 5 5 5 5 3 5 5 5 5 5 5 3 5 5 5 3 5 3 3 5 5 5 5 5 5 5 5 5 5 5 5 5 5 5 5 5 5 5 5 5 5 5 5 5 5 5 5 3 5 5 3 3 5 3 5 5 5 5 3 5 5 3 5 5 5 5 5 5 5 5 5 5 5 5 5 5 5 5 5 5 5 5 5 5 5 5 5 5 5 5 3 5 5 5 5 5 5 5 5 3 5 5 5 5 5 5 5 3 5 3 5 5 5 3 5 5 5 5 5 5 5 3 5 3 5 5 5 5 5 3 5 5 5 5 5 5 5 5 5 5 5 5 5 5 5 5 5 5 5 5 5 5 5 5 5 5 5 5 5 5 5 5 5 5 5 5 5 5 5 3 3 5 5 3 5 5 5 3 5 5 5 3 3 5 5 3 5 5 5 5 5 5 5 5 5 5 5 5 5 5 5 5 5 5 5 5 5 3 5 3 5 5 5 5 5 5 5 5 5 5 5 5 5 5 5 5 5 5 5 5 5 5 5 5 5 5 5 5 5 5 5 5 5 5 5 5 5 5 5 5 5 5 5 5 5 3 5 3 5 3 5 5 3 5 5 5 5 5 5 5 5 5 5 5 5 5 5 5 5 5 5 5 5 5 5 5 5 5 5 5 3 5 5 5 5 5 5 5 5 5 5 5 5 5 5 5 5 5 5 5 5 5 5 5 5 5 5 5 5 5 5 5 5 5 5 5 5 5 5 5 5 5 5 5 5 5 5 5 5 5 3 5 5 5 5 3 5 5 5 5 5 5 5 5 3 5 5 5 5 5 3 3 3 5 5 5 5 3 3 5 5 3 5 5 5 5 5 5 5 5 5 5 5 5 5 5 3 3 5 3 5 5 5 5 5 5 5 5 5 5 5 5 5 5 5 5 5 5 3 5 5 5 5 5 5 3 5 5 5 5 5 5 5 5 5 5 5 5 5 5 5 5 5 5 3 5 5 5 5 5 5 5 5 5 3 5 5 3 5 5 5 5 5 5 5 5 5 5 5 5 5 5 5 5 3 5 3 5 5 5 5 3 5 3 5 5 3 3 5 5 3 5 5 5 3 5 5 5 5 5 5 3 5 5 5 3 5 5 5 5 3 5 5 5 5 5 5 5 3 5 5 5 5 5 3 5 5 3 5 5 5 5 5 5 5 3 5 5 5 3 3 5 5 5 3 5 5 5 5 5 3 3 3 5 5 5 5 5 5 5 5 5 3 3 5 3 5 5 5 5 5 3 5 5 3 5 3 5 5 5 3 5 5 3 5 5 5 5 5 5 5 3 5 5 3 3 5 5 3 5 3 5 5 3 5 5 3 5 3 5 5 5 3 5 5 3 5 3 5 5 3 5 3 5 5 5 5 3 3 5 5 5 5 5 5 5 5 5 3 5 5 5 5 5 5 5 5 5 5 5 5 5 5 5 5 5 5 3 3 5 5 5 3 5 5 5 5 3 5 5 3 5 5 5 3 5 5 3 5 5 5 5 3 5 5 5 5 5 3 5 5 5 3 3 5 5 3 5 5 5 5 5 3 3 5 5 5 5 3 5 5 5 5 3 5 5 5 5 5 5 5 5 5 5 5 5 5 5 5 5 5 5 5 5 5 5 5 5 5 5 5 5 3 5 5 5 5 5 5 5 5 5 5 5 3 5 5 5 5 3 5 5 5 3 5 5 3 5 5 5 5 5 3 5 5 5 5 5 5 5 5 5 5 5 5 5 5 5 5 5 5 5 5 3 5 5 5 5 5 3 5 5 5 5 5 5 5 3 5 5 5 5 5 5 5 5 5 5 5 5 5 3 5 5 5 5 5 3 3 5 5 5 5 3 5 3 5 5 5 3 3 5 5 3 5 5 5 3 5 5 5 5 3 5 5 3 3 5 5 5 5 5 5 3 5 5 3 5 5 5 5 3 5 5 5 5 5 5 5 5 5 5 5 5 5 5 5 5 5 5 5 3 5 3 5 5 5 3 5 3 5 3 5 5 3 5 5 3 3 3 5 5 5 3 5 5 5 5 5 5 3 5 5 5 5 5 5 5 3 5 3 5 5 5 5 5 5 5 3 5 5 5 5 5 5 5 5 5 5 5 3 5 5 3 5 5 5 5 5 5 5 5 5 5 5 5 5 5 5 5 3 5 5 5 5 5 5 5 5 5 5 5 5 5 5 5 5 5 5 5 5 5 3 5 5 5 3 5 5 5 5 5 5 5 5 5 5 3 5 5 5 5 5 5 5 5 5 5 3 5 5 5 5 5 5 3 5 5 5 3 5 5 5 5 5 5 5 5 5 5 5 5 5 5 5 5 5 5 5 5 5 3 5 5 5 5 5 3 5 5 3 5 5 5 5 5 5 3 5 5 5 5 3 5 5 5 5 5 5 5 5 5 5 5 5 5 5 5 5 5 5 3 5 5 5 5 5 3 5 5 5 3 5 3 5 5 5 5 5 5 5 3 5 5 5 3 3 5 5 5 5 5 3 5 5 5 3 5 5 5 5 5 5 5 5 5 5 5 5 5 5 5 3 5 5 5 5 5 5 3 5 5 5 5 5 5 5 5 5 5 5 3 5 5 5 5 5 5 5 5 5 3 5 5 5 5 3 3 5 5 5 5 5 5 5 5 3 3 5 3 5 5 5 5 5 3 5 5 5 5 5 5 3 5 3 5 5 5 5 5 5 5 5 5 5 3 5 5 5 5 5 5 3 5 5 5 5 5 5 5 5 3 5 5 5 5 5 3 5 5 3 5 5 5 5 5 5 3 5 5 5 5 5 5 5 5 3 5 5 5 5 3 5 5 5 5 5 5 5 5 5 5 3 5 5 5 5 5 5 5 5 5 3 5 5 5 5 3 5 5 5 5 5 5 5 5 3 5 3 5 5 5 3 5 5 5 5 5 5 5 5 3 5 5 5 3 5 5 5 3 5 5 3 5 5 5 5 5 5 5 5 5 5 5 5 5 5 5 5 5 5 5 5 5 5 5 5 5 5 5 5 5 5 5 5 5 5 5 5 5 5 5 5 5 5 5 5 5 5 5 5 5 5 5 5 5 3 5 5 5 3 5 5 5 5 5 5 3 5 3 5 5 5 5 3 3 5 5 5 5 5 5 5 5 5 5 5 5 5 5 5 5 5 5 5 5 5 5 3 5 5 3 5 5 5 3 5 5 5 5 5 5 5 5 5 5 5 5 5 5 3 5 3 5 3 5 5 5 5 5 5 5 5 5 5 5 5 5 5 5 5 5 3 5 5 5 5 5 5 5 5 5 5 5 5 5 5 5 5 5 5 5 5 5 5 5 5 5 5 5 5 5 5 5 5 5 3 5 5 5 5 5 5 3 5 5 3 5 3 5 5 3 5 5 5 3 5 5 5 5 5 5 5 5 5 5 5 5 5 5 5 5 5 5 5 5 5 5 5 5 5 3 5 5 5 5 3 5 5 3 5 5 5 5 5 5 5 5 5 5 5 5 5 5 5 5 5 5 5 5 5 5 5 5 5 5 5 5 5 5 3 5 5 5 3 5 5 5 5 3 5 5 5 5 5 3 5 5 5 5 3 5 5 5 5 5 5 5 5 5 5 5 5 5 5 3 3 5 3 5 3 5 5 5 5 5 5 5 5 5 5 5 5 5 5 5 5 5 5 5 5 5 5 5 5 5 3 3 5 5 3 5 5 3 5 5 5 5 5 5 5 5 5 5 5 3 5 5 3 5 5 5 5 5 5 5 5 5 5 5 5 5 5 3 3 5 3 3 5 5 5 5 3 5 5 5 3 3 5 5 5 5 5 5 5 3 5 5 5 5 5 5 5 5 5 5 5 5 5 5 5 5 3 5 5 5 5 3 5 5 5 5 5 5 5 3 5 5 5 5 5 5 5 3 5 5 3 5 5 5 5 5 5 5 5 5 5 5 5 5 5 5 3 5 5 5 5 5 5 5 5 3 5 5 5 5 5 5 5 3 5 5 5 5 5 3 5 5 5 5 3 5 5 5 5 5 5 5 5 5 5 5 5 3 5 5 5 5 5 5 5 5 5 5 5 5 5 5 3 5 5 5 5 5 5 5 5 5 5 5 5 5 3 3 5 5 3 5 5 5 5 3 5 5 5 3 5 5 3 5 5 5 5 3 5 5 5 5 5 5 5 5 5 5 5 5 5 5 5 5 5 5 5 5 5 5 5 5 5 5 5 5 5 5 5 5 5 5 3 5 5 5 3 5 3 5 5 5 5 5 5 5 5 5 5 5 5 5 5 3 5 5 5 5 5 5 5 5 3 5 5 5 3 5 5 5 5 5 5 5 3 5 3 5 5 5 5 5 5 5 5 5 5 5 5 5 5 3 5 5 3 5 5 5 5 5 5 5 3 5 5 5 5 5 5 5 5 5 5 5 5 5 5 5 5 5 5 5 5 5 5 5 5 5 5 5 3 5 5 3 5 5 5 3 5 5 3 5 5 5 5 5 5 5 5 5 5 5 5 5 5 5 5 5 5 5 3 5 5 5 5 5 5 5 5 5 5 5 5 5 3 5 5 5 5 5 5 5 5 5 5 5 5 5 5 5 5 5 5 5 3 5 5 5 5 5 5 5 5 5 5 5 5 5 5 5 5 3 5 5 3 5 5 5 3 5 5 3 5 5 5 5 5 5 5 5 5 5 5 5 5 5 3 5 5 3 5 5 5 5 5 5 5 5 5 5 5 5 5 5 5 5 5 5 5 5 5 5 5 5 5 5 5 5 5 5 5 5 5 5 5 5 3 5 5 5 5 3 5 5 5 5 5 5 5 5 5 5 5 5 5 5 5 3 5 3 3 5 5 3 5 3 5 5 5 5 5 5 5 5 3 5 5 3 5 5 5 5 3 3 5 3 5 5 5 5 5 5 5 5 5 5 5 5 5 5 5 5 5 5 5 5 5 3 5 5 5 5 5 5 5 5 5 5 5 5 5 5 5 5 5 5 5 5 5 5 5 5 5 3 5 5 5 5 5 3 5 5 5 5 5 5 5 5 5 3 5 5 5 5 5 5 5 5 5 5 5 5 5 5 5 5 5 3 3 5 5 3 5 5 5 3 5 5 5 5 5 5 5 5 5 5 3 5 5 3 5 3 5 5 5 5 3 5 5 5 3 5 5 5 5 5 5 3 5 5 5 5 5 5 3 5 5 5 5 5 5 5 5 5 5 5 5 5 5 3 5 5 3 5 5 5 3 3 5 5 5 5 5 5 5 5 5 5 3 5 5 5 3 5 5 5 5 3 5 5 5 5 5 5 5 5 3 5 5 5 5 5 3 3 5 5 5 3 5 3 3 5 5 5 5 5 3 5 5 5 5 5 5 3 5 5 5 5 5 5 5 3 5 5 3 5 5 3 5 5 5 5 5 5 5 5 5 5 5 5 5 5 3 5 5 5 3 5 5 3 5 5 5 5 3 5 5 5 5 5 5 5 5 3 5 5 5 5 3 5 5 5 5 5 5 5 5 3 5 5 5 5 5 5 5 5 5 3 5 5 5 3 5 5 3 5 5 3 5 5 5 5 5 5 5 5 5 3 5 5 5 5 5 5 5 5 5 5 5 5 5 5 5 5 3 5 5 5 5 5 5 5 5 5 5 5 5 5 5 5 5 5 5 5 5 5 5 5 5 5 5 3 5 3 5 5 5 5 5 5 5 5 5 5 3 5 5 3 5 5 5 5 5 5 5 5 5 5 5 5 5 5 5 5 5 5 5 5 5 3 5 5 5 5 5 5 5 5 5 3 5 3 5 5 5 5 5 5 5 3 5 3 5 5 5 5 5 5 5 5 5 5 5 3 5 5 5 5 3 5 3 5 5 5 5 5 5 3 5 5 3 5 5 3 5 5 5 3 3 3 5 5 5 5 5 5 5 5 5 5 5 5 5 3 5 5 5 5 5 5 5 3 5 3 5 3 5 5 3 3 5 5 5 5 5 5 3 5 5 5 5 3 5 3 5 3 5 3 5 5 5 5 3 5 5 5 5 5 3 5 5 5 5 5 5 5 5 5 5 5 5 5 5 3 5 5 5 5 5 3 5 5 5 3 5 5 5 5 5 5 5 5 5 5 5 5 5 5 5 5 5 3 5 5 5 5 3 5 5 5 5 5 5 3 5 5 5 5 5 5 5 5 5 5 3 5 5 3 5 3 5 5 5 5 5 5 5 5 5 5 5 3 5 5 5 5 5 5 3 5 3 3 5 3 5 5 5 5 5 5 5 3 5 5 5 5 5 5 5 5 5 5 5 5 5 5 5 5 3 5 5 5 5 5 5 5 5 5 5 3 5 5 5 5 5 5 5 5 5 5 3 5 5 5 5 3 5 5 5 5 5 3 5 5 5 5 3 5 5 5 5 5 5 5 5 5 5 5 5 5 5 5 5 5 5 3 5 5 5 5 5 5 5 5 3 5 3 3 5 5 5 5 5 3 5 5 5 5 5 5 5 5 5 5 5 5 5 5 3 5 5 3 5 3 3 5 5 5 5 5 5 3 5 5 5 5 3 5 3 5 5 3 5 5 5 5 5 5 3 3 5 5 5 5 5 5 5 5 5 5 5 5 5 5 5 3 5 5 5 5 5 5 5 3 5 3 5 5 5 3 5 3 5 5 5 5 5 5 5 5 3 5 5 5 5 5 3 5 3 5 5 5 5 3 5 5 5 5 5 3 5 5 5 5 5 5 5 5 5 5 5 5 5 5 5 5 5 5 5 5 5 5 5 5 3 5 5 5 3 5 3 5 5 5 3 5 5 5 5 5 5 5 5 5 5 5 5 5 5 5 5 5 3 3 3 3 5 5 5 5 5 5 3 5 5 5 3 5 5 5 5 5 5 5 5 5 5 3 3 3 5 5 3 3 5 5 5 5 5 5 5 5 5 3 5 5 5 5 5 5 5 5 3 3 5 5 5 3 5 5 5 5 5 5 5 5 5 5 5 3 5 3 5 5 5 5 5 3 3 5 5 3 3 5 5 5 5 5 5 5 5 5 5 5 5 5 5 5 5 5 5 5 5 5 5 5 5 5 5 5 5 5 5 5 5 5 5 5 5 5 5 5 5 5 5 3 3 5 5 5 5 5 5 5 5 5 5 5 5 5 5 5 5 5 5 5 5 3 5 5 5 5 5 5 5 5 5 5 5 5 5 5 5 5 3 5 3 5 5 5 5 5 5 5 5 3 5 5 5 5 5 5 5 5 5 5 5 3 5 5 3 5 5 3 5 5 5 5 3 5 5 5 5 3 5 5 3 5 3 5 5 5 5 5 3 5 5 5 5 5 5 5 3 5 5 5 5 5 5 5 5 5 5 5 5 5 5 5 5 5 5 5 5 5 5 5 5 3 5 5 5 3 5 5 3 5 5 5 3 5 5 5 5 3 5 3 5 5 5 5 5 5 5 5 3 5 5 5 5 5 5 5 5 5 5 3 5 5 3 5 5 3 5 5 3 3 5 5 5 5 5 5 5 3 3 5 5 5 3 5 5 3 3 5 5 5 3 3 5 3 5 5 3 5 5 5 5 3 5 3 3 5 5 5 3 5 3 3 5 3 3 3 3 5 3 5 3 5 3 5 5 5 3 5 5 3 5 3 3 5 5 5 5 3 5 3 3 5 5 5 3 3 5 5 3 3 5 5 5 5 3 5 5 5 5 3 5 5 5 5 3 5 3 5 3 5 3 5 3 5 3 5 5 5 5 5 3 5 5 3 3 3 5 5 3 3 5 3 5 5 3 5 5 5 5 5 5 3 5 5 3 5 3 5 5 5 5 3 5 3 5 3 5 5 5 3 5 5 3 5 3 5 3 5 5 5 5 5 3 5 5 5 5 5 5 5 5 5 5 3 5 5 5 5 3 5 5 3 5 5 5 5 5 3 5 5 3 5 5 5 3 5 3 5 5 5 3 5 5 5 5 3 5 5 5 5 3 3 5 5 5 5 5 5 3 5 5 3 5 5 5 5 5 5 5 5 5 5 5 5 5 5 5 5 5 5 5 5 5 5 5 5 5 5 5 5 5 5 5 5 5 5 5 5 5 5 5 5 5 5 5 5 5 5 5 5 5 5 5 5 5 5 5 5 5 5 3 5 5 5 5 5 5 5 5 5 5 5 5 3 5 5 3 5 5 5 3 5 5 5 5 5 5 5 5 5 5 5 5 5 5 5 3 5 5 5 5 5 5 5 5 5 5 5 5 5 5 5 5 3 5 5 5 5 5 5 5 5 5 5 5 5 5 3 5 5 3 5 5 3 5 3 5 5 5 5 5 5 5 3 5 5 5 5 5 5 5 5 5 5 5 5 3 5 5 5 3 5 5 5 5 5 5 5 5 5 3 5 5 5 5 5 5 3 5 5 5 5 5 5 3 5 5 5 3 5 5 5 5 5 5 5 3 5 5 5 5 5 5 5 5 5 5 3 5 5 5 5 5 5 5 5 5 5 5 5 5 5 5 5 3 5 3 5 5 5 5 5 5 5 5 5 5 3 5 3 5 5 5 5 5 5 5 5 5 5 5 3 5 5 5 5 5 5 5 5 5 5 5 3 5 5 5 5 5 5 5 3 5 5 5 5 5 5 5 3 5 5 5 5 5 5 5 5 5 5 5 3 5 5 5 5 5 5 5 5 3 5 3 5 5 5 5 5 5 5 5 5 5 3 5 5 5 3 5 5 5 5 5 5 5 5 5 3 5 5 5 5 5 5 5 5 5 5 5 5 5 5 5 5 3 5 5 5 5 5 5 5 5 5 5 5 5 5 5 5 5 5 5 3 5 5 3 5 5 3 5 5 5 5 5 3 5 5 5 5 5 5 5 5 5 5 5 5 5 5 5 5 5 5 5 5 5 5 5 5 5 5 5 5 5 5 5 5 5 5 5 5 5 5 5 5 5 5 5 5 5 5 5 5 5 5 5 5 5 5 5 5 5 5 5 3 5 5 3 5 5 5 5 5 5 5 5 5 5 5 5 5 5 5 5 5 5 5 5 5 5 5 5 3 3 5 5 5 5 5 5 5 5 5 5 5 5 5 5 5 5 3 3 5 5 5 5 5 5 5 3 5 3 5 5 3 3 5 5 5 5 5 5 5 5 5 5 5 3 5 3 5 5 5 3 5 5 5 3 5 3 5 5 5 5 5 3 3 5 5 5 5 5 5 5 5 5 5 5 5 5 5 5 5 5 5 5 5 5 5 5 5 5 5 5 5 5 5 5 5 5 5 5 5 5 5 5 5 5 5 5 5 5 5 5 5 5 5 5 5 5 5 5 5 5 5 5 5 5 5 5 5 5 5 5 5 5 5 5 5 5 5 5 5 5 5 5 5 5 5 5 5 5 5 5 5 5 5 5 5 5 5 5 5 5 5 5 5 5 5 5 5 3 3 5 3 5 3 5 5 3 5 5 5 5 3 5 5 5 5 5 5 5 3 3 3 5 5 5 5 5 3 3 5 5 5 5 5 5 5 5 5 5 5 5 5 5 5 5 5 5 5 5 5 5 5 5 5 5 5 5 5 5 5 5 5 5 3 5 5 3 5 5 5 5 5 5 5 5 5 5 5 3 5 5 5 5 5 5 5 3 5 5 5 5 5 5 5 5 5 5 5 5 5 5 5 5 3 5 5 3 5 5 5 5 5 5 5 5 5 5 5 5 5 5 5 5 5 5 5 5 5 5 5 3 5 5 3 5 5 3 5 5 5 5 5 5 5 3 5 5 5 5 5 5 3 5 5 3 5 5 5 5 3 5 3 5 5 3 5 5 5 5 3 5 3 5 5 3 5 5 5 5 5 5 5 5 5 5 5 5 3 5 5 5 3 5 5 3 5 5 5 5 3 5 5 5 5 5 5 5 5 5 5 3 5 5 5 5 5 5 5 5 5 5 3 5 5 5 5 5 5 5 5 5 5 5 5 3 5 5 3 5 5 5 5 5 5 5 5 5 5 3 5 5 5 5 5 3 5 3 3 5 5 3 5 5 5 5 5 5 5 5 5 3 3 5 5 5 5 5 5 3 5 5 5 5 5 5 5 5 5 5 5 5 5 5 5 5 5 5 5 5 5 5 5 5 5 3 5 5 5 5 5 5 5 5 5 5 5 5 5 5 5 5 5 5 5 5 5 5 5 5 5 5 5 5 5 5 5 5 5 5 5 5 5 5 5 5 3 5 5 5 5 5 5 5 5 5 5 3 5 5 5 3 5 3 5 5 5 3 5 5 5 3 5 3 5 3 5 3 3 5 5 3 5 5 5 3 5 5 5 5 5 3 5 5 5 5 3 5 5 5 3 5 5 5 5 3 5 3 5 5 5 5 5 5 5 5 5 5 5 5 5 5 3 5 5 5 5 3 5 5 3 5 5 3 3 5 5 3 5 3 5 5 5 3 3 3 3 5 5 3 5 5 5 5 3 5 3 5 5 3 3 3 5 3 5 5 3 3 3 5 5 5 5 5 5 5 5 5 3 3 5 5 5 5 3 3 5 5 5 3 5 3 5 5 5 5 5 5 5 5 5 5 5 3 5 5 5 5 5 5 5 5 5 5 5 5 5 5 5 5 5 5 5 5 5 5 5 3 5 5 5 5 5 5 5 5 5 5 5 5 5 5 5 5 3 5 5 3 5 5 5 5 5 5 5 5 5 3 5 5 5 3 3 5 5 3 5 5 5 5 5 3 5 3 5 5 5 3 5 5 5 5 5 5 5 3 5 5 3 5 5 5 5 3 5 5 5 3 3 5 5 3 5 5 5 3 5 5 5 5 5 5 5 3 5 5 3 5 3 3 3 5 3 5 3 3 5 5 5 5 5 5 3 5 5 3 5 5 5 5 5 5 5 5 5 5 5 5 5 5 5 5 5 5 5 5 5 5 5 5 5 5 5 5 5 5 5 5 5 5 5 3 3 5 5 5 5 5 5 5 5 3 3 3 3 5 5 3 5 5 5 5 5 5 5 5 3 5 5 3 5 5 5 3 5 5 5 5 3 5 5 5 5 5 5 5 5 5 5 5 5 5 5 3 5 5 5 5 5 3 5 5 5 5 5 5 5 5 3 5 5 5 3 3 5 5 3 3 5 5 5 5 5 3 5 5 5 5 5 5 3 5 3 5 5 5 5 5 5 5 5 3 3 5 3 3 3 5 3 5 5 5 5 5 5 3 5 5 5 5 5 5 5 3 5 5 5 5 5 5 5 5 5 5 5 5 5 5 5 5 5 5 5 5 5 5 5 5 5 5 5 5 5 5 5 5 5 5 5 5 5 5 5 5 5 5 5 5 5 5 5 5 5 5 5 5 5 5 5 5 5 3 5 5 5 5 5 5 5 3 5 5 3 5 5 5 3 5 3 5 5 3 5 5 5 5 5 5 5 3 5 5 5 3 5 5 5 5 5 5 5 3 5 3 5 5 5 5 5 5 5 5 5 5 5 5 5 5 5 5 5 5 5 5 5 5 5 5 5 3 3 5 3 5 5 5 5 5 5 5 3 5 3 5 3 3 3 5 5 3 5 5 3 5 5 5 3 5 5 5 5 5 5 5 3 3 5 5 3 5 5 5 3 5 5 5 5 3 5 3 5 5 5 5 5 5 3 5 3 5 5 5 5 5 3 5 5 3 5 5 5 5 5 5 5 5 5 5 5 5 5 5 5 5 3 5 5 3 3 5 3 5 5 5 5 5 5 5 5 3 5 5 5 5 5 5 5 5 5 5 5 5 5 5 5 5 3 5 5 5 3 5 5 3 5 5 5 5 5 5 3 5 5 5 5 5 5 5 5 5 5 5 5 5 5 5 5 5 5 5 3 3 5 5 5 5 5 5 5 3 5 5 5 3 5 5 3 5 3 5 5 3 5 3 3 5 3 5 3 5 3 5 5 5 5 5 5 5 5 5 5 5 5 5 5 5 3 3 5 5 5 5 5 5 5 3 5 5 5 5 5 5 5 5 5 5 5 5 5 5 5 3 5 3 5 5 5 5 5 5 3 5 5 5 3 5 5 5 3 5 5 5 5 5 5 5 5 5 5 5 5 5 5 5 5 5 5 5 5 5 3 5 5 5 5 3 5 5 5 5 5 3 5 5 5 3 5 5 5 5 5 5 5 5 5 5 5 5 3 5 5 5 5 3 5 5 5 5 5 5 5 5 3 5 5 5 5 5 5 5 3 5 5 5 5 3 5 5 5 5 5 5 5 5 3 5 5 5 5 5 5 5 5 5 3 5 5 5 5 5 5 5 5 5 5 5 5 5 5 5 5 5 5 5 5 5 5 5 5 5 5 5 5 3 5 5 5 5 5 5 5 3 5 5 5 5 5 5 5 5 5 5 5 5 5 5 5 5 5 5 5 5 5 5 5 5 5 5 5 5 5 3 5 5 5 5 5 5 5 5 5 5 5 5 5 5 5 5 5 5 5 5 5 5 5 5 5 5 5 5 5 5 5 5 3 5 5 3 5 5 5 5 3 5 5 3 5 5 5 5 3 5 5 5 3 5 5 5 3 5 5 5 5 5 5 5 5 5 5 3 5 5 3 5 5 5 5 5 5 3 5 5 5 5 5 3 5 5 5 5 3 5 5 5 5 5 5 5 5 5 5 3 5 5 5 5 5 5 5 5 5 3 5 5 5 5 5 5 5 5 5 5 5 5 5 3 5 5 5 5 5 5 5 3 5 5 5 5 5 3 5 5 5 5 5 5 5 5 5 5 5 5 5 5 3 5 5 5 5 5 5 5 5 3 5 5 5 5 5 5 5 5 5 5 5 5 5 5 5 5 5 5 5 5 5 5 5 5 5 5 5 5 5 5 5 5 5 3 5 5 5 5 3 3 5 5 3 5 5 3 5 5 3 5 5 5 5 5 5 5 5 5 5 5 5 5 5 5 5 5 5 5 3 5 5 5 5 3 5 5 5 5 5 5 5 5 5 5 5 5 5 5 5 5 5 5 5 5 5 5 5 5 5 5 5 5 5 5 5 5 5 5 5 5 5 5 5 5 5 5 5 5 5 5 5 5 5 5 5 5 5 5 5 5 5 5 5 5 5 5 5 5 5 5 5 5 5 5 5 3 5 5 5 5 3 5 3 5 5 3 5 5 5 5 3 5 5 3 5 5 5 5 5 5 5 5 5 5 5 5 5 5 5 5 5 5 5 5 5 5 5 5 5 5 5 5 5 5 5 5 5 5 5 5 5 5 5 5 5 5 5 5 5 5 5 5 5 5 5 5 5 5 5 5 5 5 5 5 3 5 5 5 5 5 5 5 5 5 3 5 5 5 5 5 5 5 3 5 5 5 5 5 5 5 5 5 5 5 5 5 5 5 5 5 5 5 3 3 5 5 3 5 3 5 5 5 5 5 5 5 5 5 5 5 5 5 5 5 5 5 5 5 5 5 5 5 5 5 5 5 5 5 5 5 5 5 5 5 5 5 5 5 5 5 5 5 5 5 5 5 5 5 5 5 5 5 5 5 3 3 5 5 5 5 5 5 5 5 5 5 5 5 5 5 5 5 5 5 5 5 3 5 5 5 5 5 5 5 5 5 5 3 5 5 5 3 5 5 5 5 5 5 3 5 5 5 5 5 5 5 5 5 5 5 5 5 3 5 5 5 5 5 5 3 3 5 3 5 5 3 5 5 5 3 5 5 5 3 5 5 5 5 5 3 5 3 5 5 5 5 3 5 5 5 5 3 5 3 5 5 3 3 5 5 5 5 5 3 5 5 5 5 5 3 3 3 5 3 5 3 5 5 5 5 5 3 5 5 5 5 5 5 5 5 3 3 5 5 3 5 5 5 5 3 5 5 3 5 5 3 5 5 5 5 5 5 5 5 5 3 5 5 5 5 5 5 5 5 3 5 5 5 5 5 5 5 5 5 3 3 5 5 5 5 5 5 5 5 5 5 5 5 5 5 5 5 5 5 5 5 5 5 5 5 5 5 5 5 5 5 5 5 5 5 5 3 5 5 5 5 3 5 5 5 5 5 5 5 5 5 5 5 5 5 5 5 5 3 3 5 5 5 5 5 5 5 5 5 3 5 5 5 5 3 5 5 3 5 5 5 5 5 5 5 5 5 5 5 5 5 3 5 5 5 5 5 5 5 5 5 5 5 5 5 5 5 5 5 5 5 5 5 5 5 5 5 3 5 5 5 5 5 3 5 5 5 3 5 5 5 3 3 5 5 5 5 5 5 5 5 5 5 5 5 5 5 3 5 5 5 3 5 5 5 5 3 3 5 5 5 5 5 5 5 5 5 5 5 5 5 5 5 5 5 5 5 5 5 5 5 3 5 5 5 5 5 5 5 5 5 3 5 5 5 5 3 5 3 5 5 5 5 3 5 5 5 5 5 5 5 5 5 5 5 5 5 5 5 3 5 5 3 5 5 5 5 5 5 5 5 5 5 3 3 5 5 5 5 3 5 5 5 3 5 5 5 5 3 3 5 3 5 3 5 3 5 5 3 5 5 3 5 5 3 5 5 5 3 5 5 3 5 3 5 3 5 5 3 5 5 5 5 5 5 5 5 5 5 5 5 5 3 5 5 5 5 5 5 5 5 5 5 5 5 5 5 5 5 3 3 5 5 5 5 5 3 5 5 5 5 3 5 5 3 5 5 5 5 3 5 5 5 5 5 5 5 5 5 5 5 5 5 5 5 5 5 5 5 5 5 5 5 5 5 5 5 5 5 5 5 5 5 5 5 5 5 5 3 5 5 5 5 5 5 5 5 5 5 5 5 5 3 5 3 5 5 5 5 3 5 5 5 5 5 5 5 5 5 5 5 5 5 5 5 5 5 5 3 5 3 5 5 3 5 5 5 3 5 5 5 5 5 5 5 5 5 5 5 5 5 5 5 5 5 5 5 5 5 5 5 5 5 5 5 3 5 5 3 5 5 5 5 5 5 5 5 5 5 5 5 5 5 5 5 5 5 5 5 5 5 5 5 5 5 5 5 5 5 5 5 5 5 5 3 5 3 5 5 5 5 5 5 5 5 5 5 5 5 5 5 5 5 5 3 3 5 5 5 5 5 3 5 5 5 5 3 5 5 5 5 3 5 5 5 5 5 5 5 5 5 5 5 5 5 5 5 5 5 5 3 5 5 5 5 5 5 3 5 5 3 5 5 5 5 5 5 5 5 5 5 5 5 3 5 5 3 5 5 5 5 5 5 5 5 3 5 5 5 5 5 5 3 5 5 3 5 5 5 5 5 5 5 5 5 5 5 5 5 5 5 5 5 5 5 5 5 5 5 5 5 5 5 5 5 5 5 5 5 5 5 5 3 5 5 5 3 5 5 3 5 5 5 5 5 5 3 5 5 5 5 5 3 5 5 5 5 5 5 3 5 5 5 5 3 5 3 5 5 3 5 5 5 3 5 5 5 5 5 5 5 5 5 5 5 5 5 3 5 5 5 5 5 5 5 5 5 5 5 5 5 5 5 5 5 5 5 5 5 5 5 5 3 5 3 5 3 5 3 5 5 5 5 3 5 5 5 5 3 5 5 5 5 5 5 5 5 5 5 5 5 5 5 3 5 5 5 3 5 5 5 3 5 5 3 5 5 5 3 5 5 5 5 3 5 5 5 5 3 5 5 5 5 5 5 5 5 5 5 3 5 5 5 5 5 3 5 3 5 5 5 5 5 3 3 5 5 3 5 3 5 5 3 5 5 5 5 5 5 5 5 5 5 5 5 5 3 5 5 5 5 5 3 5 5 5 5 5 5 5 5 5 5 3 5 3 5 5 3 5 5 3 5 3 5 3 5 5 5 5 5 3 3 5 5 5 5 5 5 5 5 5 5 5 3 5 5 5 5 5 3 5 5 5 3 5 3 5 5 5 5 5 5 5 5 5 5 5 5 5 5 5 3 5 5 5 5 3 5 5 5 5 5 5 5 5 5 5 5 5 5 5 5 5 5 5 5 5 5 5 5 3 5 5 3 5 5 5 5 5 5 5 3 5 5 3 5 3 5 5 5 5 5 5 5 5 5 3 5 5 3 5 5 5 3 5 5 5 5 5 5 5 3 5 5 5 5 3 3 5 5 5 5 5 5 5 5 5 3 5 5 5 5 5 5 5 5 5 5 5 5 5 5 5 5 3 5 3 5 5 5 3 5 5 5 5 5 5 5 5 5 5 5 5 5 3 5 5 5 5 5 3 5 5 5 3 3 5 5 5 3 5 5 3 5 5 5 5 3 3 5 5 5 3 5 5 3 5 5 5 5 3 5 3 5 5 5 3 5 5 5 5 5 5 5 5 5 5 5 5 5 5 5 5 5 5 5 5 5 3 5 5 5 5 5 5 5 5 5 3 5 5 5 3 5 3 5 5 5 5 5 5 5 5 5 5 5 3 5 5 5 5 5 3 5 5 5 5 5 3 5 5 5 5 5 5 5 5 5 5 5 5 5 5 5 5 3 5 5 5 5 5 5 5 5 5 3 5 5 5 5 5 5 5 5 5 5 5 5 5 5 5 3 5 5 5 5 5 5 5 5 5 5 5 5 5 5 5 5 5 5 5 5 5 5 5 5 5 5 5 5 5 3 5 5 5 5 3 5 3 3 5 5 5 5 5 5 3 5 3 5 5 5 3 5 5 3 5 5 5 5 5 5 3 5 5 5 5 5 5 5 3 5 5 5 5 3 5 5 5 5 5 5 3 5 5 5 5 5 5 5 5 5 5 5 5 3 5 3 5 5 5 5 5 5 5 3 3 5 5 5 5 5 5 5 5 3 5 5 5 3 5 5 3 5 5 5 5 5 5 5 5 5 5 5 5 5 5 5 5 5 5 5 5 5 5 5 5 5 3 5 5 3 5 5 5 5 5 3 5 5 3 5 3 5 5 5 3 5 5 5 5 3 5 5 3 3 5 5 5 5 5 3 5 5 3 5 5 5 5 5 3 5 5 5 5 5 5 5 5 5 3 5 5 5 5 3 5 5 5 5 5 5 3 5 3 5 5 5 3 5 3 5 5 3 5 3 5 5 5 3 5 5 5 5 5 5 5 5 5 5 5 5 5 3 5 5 5 5 3 5 5 5 5 5 5 3 5 5 5 5 5 5 5 3 5 5 5 5 5 5 3 5 5 5 5 5 5 5 3 5 5 3 5 5 5 5 5 5 5 5 5 3 3 5 5 5 5 5 5 5 5 5 5 5 5 3 5 5 5 5 5 5 5 3 5 5 5 3 5 3 5 5 3 5 5 5 5 5 3 5 5 5 3 5 5 5 5 3 5 5 5 3 5 5 5 5 5 5 5 3 5 5 3 5 5 5 3 5 5 5 3 5 5 5 5 3 5 5 5 3 5 5 5 5 5 5 5 5 5 3 5 5 5 5 5 5 5 5 5 3 5 5 5 5 3 5 5 3 5 5 5 5 5 5 5 5 5 5 5 5 5 5 5 5 5 5 5 5 5 5 5 5 5 5 3 5 5 5 5 5 5 5 5 5 5 5 3 5 5 5 3 5 5 5 5 5 5 3 5 5 5 5 5 5 5 5 5 5 5 5 5 5 5 5 5 5 5 5 5 5 5 5 5 5 3 5 3 5 5 3 3 5 5 5 5 5 5 5 5 5 5 5 5 5 5 5 5 5 3 5 5 5 5 5 5 5 5 5 5 5 5 5 5 5 5 5 5 5 5 5 5 5 5 5 5 5 5 5 5 5 5 5 5 5 5 5 5 5 5 5 5 5 5 5 5 5 5 5 5 5 5 5 5 5 5 5 5 5 5 5 3 5 5 3 5 5 5 5 3 5 5 5 5 5 5 5 5 5 5 3 5 3 5 5 5 3 5 5 5 3 5 3 5 5 5 3 5 3 5 3 5 5 5 3 5 5 5 5 3 5 3 5 5 5 5 5 3 5 3 3 5 5 5 5 5 5 3 5 5 5 3 5 5 5 5 5 5 5 5 5 5 5 5 5 5 5 5 5 5 5 3 5 5 5 3 3 5 5 5 5 5 3 5 5 5 5 5 5 5 5 5 5 5 5 5 5 3 5 5 3 5 3 5 5 5 3 5 3 5 5 3 5 5 5 5 5 5 5 5 5 5 5 3 5 5 5 5 5 5 5 5 5 5 3 3 5 5 5 5 5 5 5 3 5 5 5 5 5 5 5 5 5 5 5 5 5 5 3 5 5 5 5 5 5 5 5 5 5 3 5 5 5 3 5 3 3 5 5 5 5 5 5 5 5 3 5 5 5 5 5 5 5 5 5 3 5 3 5 3 5 5 5 5 5 5 5 5 3 5 3 5 5 5 5 5 5 3 5 5 3 5 3 5 5 5 5 5 5 5 5 5 5 5 5 5 5 3 5 5 5 5 5 5 5 5 5 5 3 5 5 5 5 5 5 3 5 5 5 5 5 5 5 5 5 5 5 5 5 5 5 5 5 5 5 5 5 5 5 5 5 3 5 5 5 5 5 3 5 5 5 5 5 5 5 5 5 5 5 3 5 5 5 5 3 5 5 5 5 5 3 5 5 5 5 5 3 5 5 3 5 5 5 5 5 5 5 5 5 5 5 5 5 5 5 5 5 5 5 5 5 5 5 5 5 5 3 5 5 3 5 5 5 5 5 5 5 5 5 5 5 5 5 5 5 3 5 5 5 5 5 5 5 5 5 3 5 5 5 5 5 5 5 3 5 5 5 5 5 3 5 5 5 5 5 5 3 5 5 5 5 3 5 5 5 5 5 5 5 3 5 5 3 5 5 3 5 5 5 5 3 5 5 5 5 5 5 5 5 3 5 5 3 5 5 5 5 5 5 5 5 5 3 5 5 5 5 5 3 5 5 5 5 3 5 5 5 3 5 5 5 5 5 5 5 5 5 5 5 3 3 5 5 5 5 5 5 5 5 5 5 5 3 5 5 5 5 5 3 5 3 3 5 3 3 5 5 3 5 5 5 5 5 5 3 5 3 3 5 5 5 5 5 3 5 5 5 5 5 5 5 5 3 5 5 5 5 3 5 5 5 5 5 3 5 5 3 5 5 5 5 5 5 5 3 5 3 5 5 5 5 5 5 5 3 3 5 5 5 5 5 5 5 3 5 5 5 5 5 5 3 5 5 5 5 5 5 5 5 5 5 5 5 5 5 3 5 5 3 5 5 5 5 3 5 5 5 5 3 5 5 5 5 5 5 3 5 5 5 5 5 5 5 3 5 5 5 3 5 5 5 5 3 5 5 3 5 5 5 5 5 5 5 3 5 5 5 5 3 5 3 5 5 5 5 5 5 5 5 5 5 5 5 5 5 3 5 5 5 5 5 5 5 3 5 5 3 5 5 3 5 5 5 5 5 5 5 5 5 3 5 5 5 3 5 5 5 5 5 5 5 5 5 3 5 5 5 5 5 5 5 5 5 5 5 3 5 5 5 3 5 5 5 5 5 5 5 5 5 5 5 3 5 5 5 5 5 5 5 5 5 5 3 5 5 5 5 5 3 5 5 5 5 5 5 5 5 3 5 5 3 5 5 3 5 5 5 5 3 3 5 5 5 5 3 5 5 5 5 3 5 5 3 5 5 5 5 3 5 5 3 5 5 5 5 5 3 5 5 5 5 5 5 5 5 3 5 3 5 5 5 5 5 5 5 5 5 3 3 5 5 5 5 5 5 3 5 5 3 5 5 3 5 3 5 5 5 3 5 5 3 5 5 5 5 5 5 5 5 3 3 5 5 3 3 5 5 5 5 3 5 5 5 3 5 3 5 3 3 3 5 3 5 5 5 3 5 5 5 5 5 5 5 5 5 3 5 5 3 5 5 5 5 5 5 3 5 5 5 5 5 5 3 3 3 5 5 5 5 5 5 5 5 5 5 5 3 5 5 5 5 3 5 5 5 5 5 5 5 5 3 5 5 3 5 5 5 3 5 5 5 5 5 5 5 5 5 3 5 5 5 5 5 5 5 5 3 5 5 5 3 5 5 3 5 5 5 3 5 3 5 5 3 5 3 5 5 3 5 5 5 5 5 5 3 5 5 3 5 5 5 5 5 5 5 5 5 5 5 5 5 5 5 5 5 5 5 5 5 5 5 5 5 5 5 5 5 5 5 5 5 5 5 5 5 5 5 5 5 5 5 5 5 5 5 5 5 5 5 5 5 5 5 5 5 5 5 5 5 5 5 5 5 5 5 5 5 5 5 5 5 5 5 5 5 5 5 5 5 5 5 5 5 5 5 5 5 5 5 5 5 5 5 5 3 5 5 5 5 3 5 5 5 5 5 5 5 5 5 5 5 5 3 3 5 5 5 5 5 5 5 5 5 5 5 5 5 5 5 3 5 5 5 3 5 5 5 5 5 5 5 5 5 5 3 5 3 5 5 5 5 5 5 5 5 5 5 5 5 5 5 5 5 5 5 5 5 5 5 5 5 3 5 5 5 5 3 5 5 5 5 5 5 5 5 3 5 5 5 5 5 5 5 5 5 5 5 5 5 5 5 5 5 5 5 5 5 5 5 5 5 5 5 5 5 5 5 5 5 5 5 5 5 5 5 5 5 5 5 5 5 5 5 5 5 3 5 5 5 5 5 5 5 5 5 5 5 5 5 5 5 5 5 5 5 5 5 5 5 5 5 5 5 5 5 5 5 5 3 5 5 5 5 5 5 3 5 5 5 5 5 5 3 5 5 3 5 3 5 3 5 5 5 5 3 5 5 5 5 5 3 5 5 5 3 3 5 5 5 3 5 5 5 5 3 3 5 5 5 5 5 5 5 5 5 5 5 5 5 5 3 5 5 3 5 5 3 3 5 5 5 5 5 5 5 5 5 5 3 5 3 5 5 5 5 5 5 5 5 5 5 5 3 5 5 5 5 5 5 5 3 5 5 5 5 5 5 5 5 5 5 5 5 5 5 5 5 5 5 3 3 5 5 5 5 5 5 5 5 5 5 5 5 5 5 5 5 5 3 5 5 5 5 5 5 5 5 5 3 5 5 5 5 5 5 5 5 5 5 5 5 3 5 5 5 5 3 5 3 5 5 5 5 5 5 5 5 5 3 5 5 5 5 3 5 5 5 5 3 5 3 5 5 5 5 5 5 5 5 5 5 5 5 3 5 5 5 5 5 5 5 5 5 5 5 5 5 5 5 3 5 3 5 5 3 5 5 5 3 5 3 5 5 3 5 5 3 5 3 5 5 5 5 5 5 5 3 3 5 5 5 5 3 3 5 5 3 3 5 3 5 5 3 3 5 5 3 5 5 3 5 5 5 5 5 5 5 5 3 5 5 3 5 3 5 5 5 3 5 5 5 5 5 5 5 5 3 5 5 5 5 5 5 5 5 5 5 5 5 5 5 5 5 5 5 5 5 5 5 3 5 5 5 5 5 5 5 5 5 5 5 5 5 5 5 5 5 5 
</DataArray>
</Cells>
<PointData Scalars="" Vectors="displacement," Tensors="">
<DataArray type="Float64" Name="displacement" NumberOfComponents="3" format="ascii">
0.004999613329546293 1.5972784435359954e-07 0 0.0048546992378654483 2.3778539628143997e-05 0 0.0049998615457257653 -2.4473753211157592e-09 0 0.004999613329546293 1.5972784435359954e-07 0 0.0048546992378654483 2.3778539628143997e-05 0 0.0043711475690951865 -2.8644003195807449e-07 0 0.0048546992378654483 2.3778539628143997e-05 0 0.0047722425511758319 -2.5400767168677597e-06 0 0.0043711475690951865 -2.8644003195807449e-07 0 0.0048546992378654483 2.3778539628143997e-05 0 0.0047722425511758319 -2.5400767168677597e-06 0 0.0048777151423155972 4.118082779836151e-06 0 0.0047722425511758319 -2.5400767168677597e-06 0 0.0048211105000612511 -7.9347512795408049e-05 0 0.0048777151423155972 4.118082779836151e-06 0 0.0047722425511758319 -2.5400767168677597e-06 0 0.0048211105000612511 -7.9347512795408049e-05 0 0.0043711475690951865 -2.8644003195807449e-07 0 0.0045563998982894776 -1.9494341797623638e-05 0 0.0043703227689482855 -1.3558192217357399e-08 0 0.0044775027953711218 8.1576091095895739e-05 0 0.0045221944592284411 -1.7718753995934565e-05 0 0.0043939255714825183 -1.7086437379170051e-05 0 0.0048211105000612511 -7.9347512795408049e-05 0 0.0048819701489111441 3.2536686996510415e-05 0 0.0048777151423155972 4.118082779836151e-06 0 0.0042849289245699912 1.7916864650126511e-05 0 0.0044775027953711218 8.1576091095895739e-05 0 0.0043939255714825183 -1.7086437379170051e-05 0 0.0045563998982894776 -1.9494341797623638e-05 0 0.0046715764214127053 4.8978522765625524e-05 0 0.0048777151423155972 4.118082779836151e-06 0 0.0049233660394361663 -1.4881769029186618e-05 0 0.0048555662156057637 3.9397225377320411e-06 0 0.0048819701489111441 3.2536686996510415e-05 0 0.0048777151423155972 4.118082779836151e-06 0 0.0048555662156057637 3.9397225377320411e-06 0 0.0049233660394361663 -1.4881769029186618e-05 0 0.0047949811583094326 -6.2037934414384616e-05 0 0.0048555662156057637 3.9397225377320411e-06 0 0.0049228408683616113 -1.9336741969445728e-05 0 0.0048818467824555999 -3.5142901559297794e-05 0 0.0048546992378654483 2.3778539628143997e-05 0 0.0049233660394361663 -1.4881769029186618e-05 0 0.0049998615457257653 -2.4473753211157592e-09 0 0.0048546992378654483 2.3778539628143997e-05 0 0.0048777151423155972 4.118082779836151e-06 0 0.0049233660394361663 -1.4881769029186618e-05 0 0.0049233660394361663 -1.4881769029186618e-05 0 0.0049998615457257653 -2.4473753211157592e-09 0 0.0049869116377392582 -1.0095621242415222e-05 0 0.0049998615457257653 -2.4473753211157592e-09 0 0.0049990552968080249 -4.0986815046169311e-07 0 0.0049869116377392582 -1.0095621242415222e-05 0 0.0049998615457257653 -2.4473753211157592e-09 0 0.0049990552968080249 -4.0986815046169311e-07 0 0.0050000580657682831 -9.9811276123306787e-10 0 0.0049990552968080249 -4.0986815046169311e-07 0 0.005002485983734691 -8.7710794106342145e-06 0 0.0049869116377392582 -1.0095621242415222e-05 0 0.0050293046878958567 -1.7501233983977177e-05 0 0.0048797479949164143 -9.2259372289744089e-07 0 0.0048797479949164143 -9.2259372289744089e-07 0 0.0048818467824555999 -3.5142901559297794e-05 0 0.0046756068366427279 -5.4956664343239214e-05 0 0.0047949811583094326 -6.2037934414384616e-05 0 0.0046835514543945959 5.5578746691514448e-05 0 0.0049990552968080249 -4.0986815046169311e-07 0 0.0049988869500989172 -5.0412129251091092e-07 0 0.0050000580657682831 -9.9811276123306787e-10 0 0.0050000032858892743 2.0942235405119974e-09 0 0.0050007212193031317 1.6290356976687605e-06 0 0.0049998046597939756 1.6630230886953898e-06 0 0.0049988869500989172 -5.0412129251091092e-07 0 0.0050000580657682831 -9.9811276123306787e-10 0 0.0049995902631584767 -3.5595916509616255e-07 0 0.004983391239328761 1.4973292415440678e-05 0 0.0050055441705788043 2.9275638603774857e-06 0 0.0049999967841050348 -4.7307432084888553e-09 0 0.004983391239328761 1.4973292415440678e-05 0 0.0048736764713305323 1.6795933882647731e-05 0 0.0048974330160049062 2.0436622075736794e-05 0 0.0048891907929711504 5.3625476415996034e-07 0 0.0048797479949164143 -9.2259372289744089e-07 0 0.004983391239328761 1.4973292415440678e-05 0 0.0048797479949164143 -9.2259372289744089e-07 0 0.0047933362220040736 2.1331960388148625e-05 0 0.0050047551323286364 3.1188390543669085e-06 0 0.0050030904489757758 7.443094260740061e-06 0 0.0050066119229168187 9.7782761651352126e-06 0 0.004983391239328761 1.4973292415440678e-05 0 0.0047933362220040736 2.1331960388148625e-05 0 0.0050047551323286364 3.1188390543669085e-06 0 0.0050030904489757758 7.443094260740061e-06 0 0.0049998046597939756 1.6630230886953898e-06 0 0.0046966407510999801 5.1893884073919784e-05 0 0.0046967815048078948 3.4412098444623691e-05 0 0.004707528190202136 3.581468792568419e-05 0 0.0050030904489757758 7.443094260740061e-06 0 0.0050066119229168187 9.7782761651352126e-06 0 0.0050024758237329891 1.5828440739891437e-05 0 0.0047933362220040736 2.1331960388148625e-05 0 0.0048791117908414759 5.9342368613141955e-06 0 0.0046756068366427279 -5.4956664343239214e-05 0 0.0046403278456979393 2.0451913143423246e-05 0 0.0046835514543945959 5.5578746691514448e-05 0 0.0046403278456979393 2.0451913143423246e-05 0 0.004679842955834612 2.9656818434064446e-05 0 0.0046835514543945959 5.5578746691514448e-05 0 0.0047933362220040736 2.1331960388148625e-05 0 0.004648542272606174 2.5034427938192841e-05 0 0.0046966407510999801 5.1893884073919784e-05 0 0.004679842955834612 2.9656818434064446e-05 0 0.0046967815048078948 3.4412098444623691e-05 0 0.004679842955834612 2.9656818434064446e-05 0 0.0046941378692585143 2.3368733813539901e-05 0 0.0046967815048078948 3.4412098444623691e-05 0 0.0047016934463146457 2.7874516950339473e-05 0 0.004707528190202136 3.581468792568419e-05 0 0.0047164567305524614 2.4852836620927519e-05 0 0.0046967815048078948 3.4412098444623691e-05 0 0.0047016934463146457 2.7874516950339473e-05 0 0.004707528190202136 3.581468792568419e-05 0 0.0046941378692585143 2.3368733813539901e-05 0 0.0047016934463146457 2.7874516950339473e-05 0 0.0046966563712736 1.9608375285846232e-05 0 0.0046941378692585143 2.3368733813539901e-05 0 0.0046967815048078948 3.4412098444623691e-05 0 0.0047016934463146457 2.7874516950339473e-05 0 0.0047949811583094326 -6.2037934414384616e-05 0 0.0048555662156057637 3.9397225377320411e-06 0 0.0046835514543945959 5.5578746691514448e-05 0 0.0046715764214127053 4.8978522765625524e-05 0 0.0046788460232296946 5.6550322077768846e-05 0 0.0048819701489111441 3.2536686996510415e-05 0 0.0048555662156057637 3.9397225377320411e-06 0 0.0046835514543945959 5.5578746691514448e-05 0 0.004679842955834612 2.9656818434064446e-05 0 0.0046835514543945959 5.5578746691514448e-05 0 0.0046142518220268448 1.5275055410724693e-05 0 0.0044775027953711218 8.1576091095895739e-05 0 0.0046835514543945959 5.5578746691514448e-05 0 0.0046142518220268448 1.5275055410724693e-05 0 0.0044775027953711218 8.1576091095895739e-05 0 0.0046142518220268448 1.5275055410724693e-05 0 0.0045221944592284411 -1.7718753995934565e-05 0 0.0045221944592284411 -1.7718753995934565e-05 0 0.0046307418884313032 -5.9090690490279766e-05 0 0.004478021666873595 -0.00011174895381048529 0 0.0046142518220268448 1.5275055410724693e-05 0 0.0045221944592284411 -1.7718753995934565e-05 0 0.0046307418884313032 -5.9090690490279766e-05 0 0.004679842955834612 2.9656818434064446e-05 0 0.0046142518220268448 1.5275055410724693e-05 0 0.0046307418884313032 -5.9090690490279766e-05 0 0.0032735533157952036 0.00030389413638602338 0 0.0033141766603740856 0.00027539939579257608 0 0.0032598729325086129 0.00025059615042815128 0 0.0039262899414921658 0.00010950715675160915 0 0.0038354242628780275 9.5511168030552987e-05 0 0.0032735533157952036 0.00030389413638602338 0 0.0032598729325086129 0.00025059615042815128 0 0.0032110947632282279 0.00028264715320329453 0 0.0047016934463146457 2.7874516950339473e-05 0 0.0046966563712736 1.9608375285846232e-05 0 0.0047164567305524614 2.4852836620927519e-05 0 0.0041459791983841582 0.00022190774373827694 0 0.0047486353341903969 0.00010770996503546642 0 0.0046941378692585143 2.3368733813539901e-05 0 0.0046307418884313032 -5.9090690490279766e-05 0 0.0047182667264696557 -1.5034136178460026e-05 0 0.0039262899414921658 0.00010950715675160915 0 0.0041459791983841582 0.00022190774373827694 0 0.004679842955834612 2.9656818434064446e-05 0 0.0046941378692585143 2.3368733813539901e-05 0 0.0046307418884313032 -5.9090690490279766e-05 0 0.0046956786817184499 -0.00011202549948747463 0 0.0041459791983841582 0.00022190774373827694 0 0.0032735533157952036 0.00030389413638602338 0 0.0033396947069398351 0.00032108183295757544 0 0.0033141766603740856 0.00027539939579257608 0 0.0041459791983841582 0.00022190774373827694 0 0.0037707099978476297 0.00024089613131420644 0 0.0033396947069398351 0.00032108183295757544 0 0.0033141766603740856 0.00027539939579257608 0 0.0033721185119167971 0.00027036100055735152 0 0.0033141766603740856 0.00027539939579257608 0 0.0033503920904473013 0.00023371602812070891 0 0.0033721185119167971 0.00027036100055735152 0 0.0033141766603740856 0.00027539939579257608 0 0.0033503920904473013 0.00023371602812070891 0 0.0033063432025796369 0.00023710166766232935 0 0.0033141766603740856 0.00027539939579257608 0 0.0033063432025796369 0.00023710166766232935 0 0.0032598729325086129 0.00025059615042815128 0 0.0033063432025796369 0.00023710166766232935 0 0.0032744885085323875 0.00020953229879316828 0 0.0033172741089204181 0.00017772505314344645 0 0.0033503920904473013 0.00023371602812070891 0 0.0033653068385967075 0.00019558734667229848 0 0.0033172741089204181 0.00017772505314344645 0 0.0033503920904473013 0.00023371602812070891 0 0.0033063432025796369 0.00023710166766232935 0 0.0033172741089204181 0.00017772505314344645 0 0.0032598729325086129 0.00025059615042815128 0 0.0032088609461649316 0.00023453654614454661 0 0.0032110947632282279 0.00028264715320329453 0 0.0032598729325086129 0.00025059615042815128 0 0.0032365078288630121 0.0002052739060577793 0 0.0032088609461649316 0.00023453654614454661 0 0.0033063432025796369 0.00023710166766232935 0 0.0032598729325086129 0.00025059615042815128 0 0.0032744885085323875 0.00020953229879316828 0 0.0032598729325086129 0.00025059615042815128 0 0.0032744885085323875 0.00020953229879316828 0 0.0032365078288630121 0.0002052739060577793 0 0.0032744885085323875 0.00020953229879316828 0 0.0032365078288630121 0.0002052739060577793 0 0.0032557671471175951 0.00017586666667209218 0 0.0032365078288630121 0.0002052739060577793 0 0.0032088609461649316 0.00023453654614454661 0 0.0031991017766649582 0.00018484713245479106 0 0.0032088609461649316 0.00023453654614454661 0 0.003167420487338314 0.00020808237609249252 0 0.0031991017766649582 0.00018484713245479106 0 0.0031865200280089888 0.00024705995268505931 0 0.0032088609461649316 0.00023453654614454661 0 0.003167420487338314 0.00020808237609249252 0 0.0031865200280089888 0.00024705995268505931 0 0.0032088609461649316 0.00023453654614454661 0 0.0032110947632282279 0.00028264715320329453 0 0.0031714025432933585 0.00012626413586424442 0 0.0038082647828868174 -1.1269086080917852e-05 0 0.0033326319957545309 8.188584941148585e-06 0 0.0035275858359525157 -9.3074215261151959e-05 0 0.0034684208123330904 -0.00026431021656680601 0 0.0031865200280089888 0.00024705995268505931 0 0.003167420487338314 0.00020808237609249252 0 0.0031594092878170811 0.00026316603326615161 0 0.0033326319957545309 8.188584941148585e-06 0 0.0034930116352754237 1.2297811692481862e-06 0 0.0035275858359525157 -9.3074215261151959e-05 0 0.0034930116352754237 1.2297811692481862e-06 0 0.0036912376430474547 -1.3612411146642429e-05 0 0.0035422036707597922 2.5451709179425018e-05 0 0.0034930116352754237 1.2297811692481862e-06 0 0.0036912376430474547 -1.3612411146642429e-05 0 0.0035275858359525157 -9.3074215261151959e-05 0 0.003749993910119201 1.8370732545580966e-07 0 0.0036912376430474547 -1.3612411146642429e-05 0 0.0040135342966163643 -5.3249262031891955e-07 0 0.003749993910119201 1.8370732545580966e-07 0 0.0036912376430474547 -1.3612411146642429e-05 0 0.0035422036707597922 2.5451709179425018e-05 0 0.0036912376430474547 -1.3612411146642429e-05 0 0.0040135342966163643 -5.3249262031891955e-07 0 0.0036746203325628175 -0.00020421319821156865 0 0.0040139862786381748 -6.1272833015557664e-08 0 0.0039427750833423581 -9.4387073145964765e-05 0 0.0036746203325628175 -0.00020421319821156865 0 0.0035275858359525157 -9.3074215261151959e-05 0 0.0034684208123330904 -0.00026431021656680601 0 0.0036912376430474547 -1.3612411146642429e-05 0 0.0036746203325628175 -0.00020421319821156865 0 0.0035275858359525157 -9.3074215261151959e-05 0 0.0039427750833423581 -9.4387073145964765e-05 0 0.0038082647828868174 -1.1269086080917852e-05 0 0.0043182682465528113 -7.9656699911652979e-05 0 0.0038082647828868174 -1.1269086080917852e-05 0 0.0042528199941715564 6.2094178362694718e-06 0 0.0042677092845885634 -7.8047052975445482e-06 0 0.0042532684601162855 -7.383249359948432e-06 0 0.0042172069344093783 -1.5964145149253604e-05 0 0.0042528199941715564 6.2094178362694718e-06 0 0.0042532684601162855 -7.383249359948432e-06 0 0.0042172069344093783 -1.5964145149253604e-05 0 0.0042528199941715564 6.2094178362694718e-06 0 0.004192194896713298 1.0010684901183623e-07 0 0.0040143223341890591 -1.9047718109958057e-07 0 0.0042172069344093783 -1.5964145149253604e-05 0 0.004192194896713298 1.0010684901183623e-07 0 0.0042528199941715564 6.2094178362694718e-06 0 0.004192194896713298 1.0010684901183623e-07 0 0.0043698361358189388 -3.1853844097753821e-08 0 0.0042528199941715564 6.2094178362694718e-06 0 0.0043698361358189388 -3.1853844097753821e-08 0 0.0042677092845885634 -7.8047052975445482e-06 0 0.0042849289245699912 1.7916864650126511e-05 0 0.0043698361358189388 -3.1853844097753821e-08 0 0.0042677092845885634 -7.8047052975445482e-06 0 0.0042677092845885634 -7.8047052975445482e-06 0 0.0043619200535075708 -7.1470175699364866e-05 0 0.0043939255714825183 -1.7086437379170051e-05 0 0.0042849289245699912 1.7916864650126511e-05 0 0.0042677092845885634 -7.8047052975445482e-06 0 0.0043939255714825183 -1.7086437379170051e-05 0 0.0045221944592284411 -1.7718753995934565e-05 0 0.0043939255714825183 -1.7086437379170051e-05 0 0.004478021666873595 -0.00011174895381048529 0 0.0043619200535075708 -7.1470175699364866e-05 0 0.0043939255714825183 -1.7086437379170051e-05 0 0.004478021666873595 -0.00011174895381048529 0 0.0043619200535075708 -7.1470175699364866e-05 0 0.004478021666873595 -0.00011174895381048529 0 0.0043021858151867246 -0.00015063812154439098 0 0.0038354242628780275 9.5511168030552987e-05 0 0.0038082647828868174 -1.1269086080917852e-05 0 0.0031865200280089888 0.00024705995268505931 0 0.0032110947632282279 0.00028264715320329453 0 0.0031594092878170811 0.00026316603326615161 0 0.0042677092845885634 -7.8047052975445482e-06 0 0.0043619200535075708 -7.1470175699364866e-05 0 0.0043021858151867246 -0.00015063812154439098 0 0.0049591171815188554 -1.9859848707284566e-05 0 0.004964744267051787 -5.0132953280826287e-05 0 0.0049803163164603799 -2.2430371870816858e-05 0 0.0049344410093733262 -4.5072495710274591e-05 0 0.0049591171815188554 -1.9859848707284566e-05 0 0.004964744267051787 -5.0132953280826287e-05 0 0.004990665381824291 -2.168815765590995e-05 0 0.004989155695226284 -7.64747072061326e-06 0 0.0049988045503164737 -6.6910402239853982e-06 0 0.0049589299673960452 -3.4803157692469832e-05 0 0.0049792778272132647 -1.3484381749307528e-05 0 0.004989155695226284 -7.64747072061326e-06 0 0.0049968651800564355 -3.2562589963872757e-07 0 0.0049872815497788488 -1.6105803723873213e-06 0 0.004989155695226284 -7.64747072061326e-06 0 0.0049988045503164737 -6.6910402239853982e-06 0 0.0049968651800564355 -3.2562589963872757e-07 0 0.0049792778272132647 -1.3484381749307528e-05 0 0.0049912280138542115 -2.4806335747192416e-06 0 0.0049988045503164737 -6.6910402239853982e-06 0 0.0049968651800564355 -3.2562589963872757e-07 0 0.0050007792644644706 -8.9086347058707288e-07 0 0.0049991764723220488 9.3133958218076175e-08 0 0.0049968651800564355 -3.2562589963872757e-07 0 0.0050007792644644706 -8.9086347058707288e-07 0 0.0049991764723220488 9.3133958218076175e-08 0 0.0050000000182268099 -1.7094820983468808e-09 0 0.0049999936846960181 2.643121836011894e-09 0 0.0049991764723220488 9.3133958218076175e-08 0 0.0050000000182268099 -1.7094820983468808e-09 0 0.0049999831301765002 -5.2424048929786268e-08 0 0.0049991764723220488 9.3133958218076175e-08 0 0.0049999936846960181 2.643121836011894e-09 0 0.0049968651800564355 -3.2562589963872757e-07 0 0.0049999936846960181 2.643121836011894e-09 0 0.0049968651800564355 -3.2562589963872757e-07 0 0.0049944210951895392 7.6140142423855529e-07 0 0.0049968651800564355 -3.2562589963872757e-07 0 0.0049872815497788488 -1.6105803723873213e-06 0 0.0049944210951895392 7.6140142423855529e-07 0 0.0049872815497788488 -1.6105803723873213e-06 0 0.0049944210951895392 7.6140142423855529e-07 0 0.0049880307485575329 1.0766158412390092e-06 0 0.0049999936846960181 2.643121836011894e-09 0 0.0049944210951895392 7.6140142423855529e-07 0 0.0049999835892165119 1.8670859407980586e-09 0 0.0049944210951895392 7.6140142423855529e-07 0 0.0049999835892165119 1.8670859407980586e-09 0 0.0049880307485575329 1.0766158412390092e-06 0 0.0049999835892165119 1.8670859407980586e-09 0 0.0049880307485575329 1.0766158412390092e-06 0 0.0049999822021701756 -1.1824939430372119e-09 0 0.0049872815497788488 -1.6105803723873213e-06 0 0.0049880307485575329 1.0766158412390092e-06 0 0.0049715461152162405 -6.1083358108513593e-06 0 0.0049880307485575329 1.0766158412390092e-06 0 0.0049715461152162405 -6.1083358108513593e-06 0 0.004982917515913521 2.2234643705127807e-06 0 0.004989155695226284 -7.64747072061326e-06 0 0.0049872815497788488 -1.6105803723873213e-06 0 0.0049715461152162405 -6.1083358108513593e-06 0 0.004989155695226284 -7.64747072061326e-06 0 0.0049715461152162405 -6.1083358108513593e-06 0 0.0049663350842839033 -1.9961184886929694e-05 0 0.004990665381824291 -2.168815765590995e-05 0 0.004989155695226284 -7.64747072061326e-06 0 0.0049663350842839033 -1.9961184886929694e-05 0 0.0049715461152162405 -6.1083358108513593e-06 0 0.0049663350842839033 -1.9961184886929694e-05 0 0.0049466495181840616 -2.2114961645909237e-05 0 0.0049466495181840616 -2.2114961645909237e-05 0 0.0049519112635878718 -1.2117326131374178e-05 0 0.0049311220894116036 -3.3997423877796442e-05 0 0.0049715461152162405 -6.1083358108513593e-06 0 0.0049466495181840616 -2.2114961645909237e-05 0 0.0049519112635878718 -1.2117326131374178e-05 0 0.0049658061254821565 7.4041735996759116e-07 0 0.0049565813701954696 -2.7551399689034985e-06 0 0.0049785889999956982 1.605383678875226e-05 0 0.0049846665981850375 2.1788535824455368e-05 0 0.004987829975064282 1.1133347492635918e-05 0 0.0049846665981850375 2.1788535824455368e-05 0 0.004987829975064282 1.1133347492635918e-05 0 0.0049910313016281634 1.6615041109709535e-05 0 0.0049785889999956982 1.605383678875226e-05 0 0.0049846665981850375 2.1788535824455368e-05 0 0.0049751063442012612 2.9949883254902144e-05 0 0.0049715461152162405 -6.1083358108513593e-06 0 0.0049519112635878718 -1.2117326131374178e-05 0 0.004982917515913521 2.2234643705127807e-06 0 0.0049785889999956982 1.605383678875226e-05 0 0.004987829975064282 1.1133347492635918e-05 0 0.004982917515913521 2.2234643705127807e-06 0 0.0049658061254821565 7.4041735996759116e-07 0 0.0049791447857304048 9.34562705483363e-07 0 0.0049880307485575329 1.0766158412390092e-06 0 0.004982917515913521 2.2234643705127807e-06 0 0.0049999822021701756 -1.1824939430372119e-09 0 0.004982917515913521 2.2234643705127807e-06 0 0.0049999822021701756 -1.1824939430372119e-09 0 0.0049938318701134247 2.2232084968265539e-06 0 0.0049999822021701756 -1.1824939430372119e-09 0 0.0049938318701134247 2.2232084968265539e-06 0 0.0049999967625915607 4.878108625865764e-10 0 0.004987829975064282 1.1133347492635918e-05 0 0.0049938318701134247 2.2232084968265539e-06 0 0.0049940798607656656 9.34188601423347e-06 0 0.004987829975064282 1.1133347492635918e-05 0 0.004982917515913521 2.2234643705127807e-06 0 0.0049938318701134247 2.2232084968265539e-06 0 0.0049938318701134247 2.2232084968265539e-06 0 0.0049972128983511261 3.4666383096411242e-06 0 0.0049940798607656656 9.34188601423347e-06 0 0.0049972128983511261 3.4666383096411242e-06 0 0.0049990544488165952 8.7607526283399767e-06 0 0.0049940798607656656 9.34188601423347e-06 0 0.0049972128983511261 3.4666383096411242e-06 0 0.0049999967625915607 4.878108625865764e-10 0 0.0049998046597939756 1.6630230886953898e-06 0 0.0049938318701134247 2.2232084968265539e-06 0 0.0049972128983511261 3.4666383096411242e-06 0 0.0049999967625915607 4.878108625865764e-10 0 0.0050000032858892743 2.0942235405119974e-09 0 0.0049999967625915607 4.878108625865764e-10 0 0.0049998046597939756 1.6630230886953898e-06 0 0.0050030904489757758 7.443094260740061e-06 0 0.0049998046597939756 1.6630230886953898e-06 0 0.0049990544488165952 8.7607526283399767e-06 0 0.0049972128983511261 3.4666383096411242e-06 0 0.0049998046597939756 1.6630230886953898e-06 0 0.0049990544488165952 8.7607526283399767e-06 0 0.0050024758237329891 1.5828440739891437e-05 0 0.0049990544488165952 8.7607526283399767e-06 0 0.0049966093389829632 1.5885947606440765e-05 0 0.0050030904489757758 7.443094260740061e-06 0 0.0050024758237329891 1.5828440739891437e-05 0 0.0049990544488165952 8.7607526283399767e-06 0 0.0049990544488165952 8.7607526283399767e-06 0 0.0049940798607656656 9.34188601423347e-06 0 0.0049966093389829632 1.5885947606440765e-05 0 0.004987829975064282 1.1133347492635918e-05 0 0.0049940798607656656 9.34188601423347e-06 0 0.0049910313016281634 1.6615041109709535e-05 0 0.0049940798607656656 9.34188601423347e-06 0 0.0049910313016281634 1.6615041109709535e-05 0 0.0049966093389829632 1.5885947606440765e-05 0 0.0049932846715142008 1.9401371578782256e-05 0 0.0049910313016281634 1.6615041109709535e-05 0 0.0049966093389829632 1.5885947606440765e-05 0 0.0049932846715142008 1.9401371578782256e-05 0 0.0049910313016281634 1.6615041109709535e-05 0 0.0049897932108206771 2.1664098168151438e-05 0 0.0049846665981850375 2.1788535824455368e-05 0 0.0049897932108206771 2.1664098168151438e-05 0 0.004987482646205247 2.6625399522668231e-05 0 0.0049897932108206771 2.1664098168151438e-05 0 0.0049929634071386158 2.3790862421325723e-05 0 0.004987482646205247 2.6625399522668231e-05 0 0.0049846665981850375 2.1788535824455368e-05 0 0.0049910313016281634 1.6615041109709535e-05 0 0.0049897932108206771 2.1664098168151438e-05 0 0.0049932846715142008 1.9401371578782256e-05 0 0.0049897932108206771 2.1664098168151438e-05 0 0.0049929634071386158 2.3790862421325723e-05 0 0.0049932846715142008 1.9401371578782256e-05 0 0.0049929634071386158 2.3790862421325723e-05 0 0.004996243668602067 2.4290923721306154e-05 0 0.0049505923779063973 0.00010045126962198112 0 0.0047486353341903969 0.00010770996503546642 0 0.0049932846715142008 1.9401371578782256e-05 0 0.0049966093389829632 1.5885947606440765e-05 0 0.004996243668602067 2.4290923721306154e-05 0 0.0048791117908414759 5.9342368613141955e-06 0 0.0047486353341903969 0.00010770996503546642 0 0.0050024758237329891 1.5828440739891437e-05 0 0.0049966093389829632 1.5885947606440765e-05 0 0.004996243668602067 2.4290923721306154e-05 0 0.0042060690516938807 0.00030068880293541577 0 0.0043738210830653046 0.00034341694871918956 0 0.004312594264785182 0.00015002849117663492 0 0.0049929634071386158 2.3790862421325723e-05 0 0.0049960252160454535 2.5060372929912961e-05 0 0.0049871324765404131 3.6032050709720158e-05 0 0.0047486353341903969 0.00010770996503546642 0 0.0047164167659135012 0.0001525138075865986 0 0.0049929634071386158 2.3790862421325723e-05 0 0.004987482646205247 2.6625399522668231e-05 0 0.0049871324765404131 3.6032050709720158e-05 0 0.004489950410384626 0.00022458857872466694 0 0.004312594264785182 0.00015002849117663492 0 0.0044295974988365133 0.00010608972393017859 0 0.0043738210830653046 0.00034341694871918956 0 0.004489950410384626 0.00022458857872466694 0 0.004312594264785182 0.00015002849117663492 0 0.0037707099978476297 0.00024089613131420644 0 0.0039871909818924873 0.00013057717394989647 0 0.004312594264785182 0.00015002849117663492 0 0.0044202895859363359 -3.6768544989172514e-06 0 0.0044295974988365133 0.00010608972393017859 0 0.0033503920904473013 0.00023371602812070891 0 0.0033721185119167971 0.00027036100055735152 0 0.0034119065766890755 0.00021791161185663542 0 0.0033503920904473013 0.00023371602812070891 0 0.0033653068385967075 0.00019558734667229848 0 0.0034119065766890755 0.00021791161185663542 0 0.0032893262891643413 0.00017663000434626144 0 0.0039871909818924873 0.00013057717394989647 0 0.0039871909818924873 0.00013057717394989647 0 0.0042146348784316843 9.3217784325261163e-05 0 0.0048131887853497275 5.2119258566519223e-05 0 0.0048321648489565699 5.9850169244272586e-05 0 0.0048478062125030903 4.4358764545021948e-05 0 0.0048131887853497275 5.2119258566519223e-05 0 0.0048478062125030903 4.4358764545021948e-05 0 0.0048339440767770749 3.607760984672645e-05 0 0.0039871909818924873 0.00013057717394989647 0 0.0047208191692073133 9.7358689464630962e-05 0 0.004489950410384626 0.00022458857872466694 0 0.0044295974988365133 0.00010608972393017859 0 0.0045155727293738589 4.9479824475992976e-05 0 0.0044202895859363359 -3.6768544989172514e-06 0 0.0044295974988365133 0.00010608972393017859 0 0.0045155727293738589 4.9479824475992976e-05 0 0.004489950410384626 0.00022458857872466694 0 0.0046097674477958627 0.00010317113458237457 0 0.0045155727293738589 4.9479824475992976e-05 0 0.0048531162170467263 7.2471909710205052e-05 0 0.0048531245939542932 5.3269810859763456e-05 0 0.0048321648489565699 5.9850169244272586e-05 0 0.0048386136639697484 4.5355065811251951e-05 0 0.0047208191692073133 9.7358689464630962e-05 0 0.0048531245939542932 5.3269810859763456e-05 0 0.0048321648489565699 5.9850169244272586e-05 0 0.0048478062125030903 4.4358764545021948e-05 0 0.0048478062125030903 4.4358764545021948e-05 0 0.0048750048336862872 4.2942853678932703e-05 0 0.0048559076608213755 4.1769079993319659e-05 0 0.0048750048336862872 4.2942853678932703e-05 0 0.0048590529171204152 4.0980545811301121e-05 0 0.0048559076608213755 4.1769079993319659e-05 0 0.0048531245939542932 5.3269810859763456e-05 0 0.0048478062125030903 4.4358764545021948e-05 0 0.0048750048336862872 4.2942853678932703e-05 0 0.0048750048336862872 4.2942853678932703e-05 0 0.0048973265388268386 1.3245857119695449e-05 0 0.0048742671089835495 2.7494666935593061e-05 0 0.0048386136639697484 4.5355065811251951e-05 0 0.004887014657189135 3.4417512717689214e-05 0 0.0049268871973216985 1.2925973922877303e-05 0 0.0048750048336862872 4.2942853678932703e-05 0 0.0049099217614742433 1.6767581346337139e-05 0 0.0048750048336862872 4.2942853678932703e-05 0 0.0049099217614742433 1.6767581346337139e-05 0 0.0048973265388268386 1.3245857119695449e-05 0 0.0048531162170467263 7.2471909710205052e-05 0 0.0048531245939542932 5.3269810859763456e-05 0 0.0048750048336862872 4.2942853678932703e-05 0 0.0049268871973216985 1.2925973922877303e-05 0 0.0049099217614742433 1.6767581346337139e-05 0 0.0049096208838120747 1.4329473505346759e-06 0 0.0049149992321289989 2.1458938419820645e-05 0 0.00491626345953706 3.0392382365879075e-05 0 0.0049099217614742433 1.6767581346337139e-05 0 0.0049106828344755438 8.565538277539966e-06 0 0.0048973265388268386 1.3245857119695449e-05 0 0.0048386136639697484 4.5355065811251951e-05 0 0.00491626345953706 3.0392382365879075e-05 0 0.0048973265388268386 1.3245857119695449e-05 0 0.0049074400544769758 -4.1439654807594232e-06 0 0.0048855222535566919 5.8338647866186357e-06 0 0.0049106828344755438 8.565538277539966e-06 0 0.0048973265388268386 1.3245857119695449e-05 0 0.0049074400544769758 -4.1439654807594232e-06 0 0.00491626345953706 3.0392382365879075e-05 0 0.0049565813701954696 -2.7551399689034985e-06 0 0.0049074400544769758 -4.1439654807594232e-06 0 0.0049311220894116036 -3.3997423877796442e-05 0 0.0049072988188853294 -1.7339914791338584e-05 0 0.0049212953205238193 4.3509986118203163e-06 0 0.0049074400544769758 -4.1439654807594232e-06 0 0.0049311220894116036 -3.3997423877796442e-05 0 0.0049733262141847196 4.5494721523467914e-05 0 0.0049788480309045794 3.7743264184709944e-05 0 0.0049751063442012612 2.9949883254902144e-05 0 0.00491626345953706 3.0392382365879075e-05 0 0.0049028443835455677 6.6969152036791548e-06 0 0.0049761017799495157 4.7302938873253233e-05 0 0.0049733262141847196 4.5494721523467914e-05 0 0.0049788480309045794 3.7743264184709944e-05 0 0.0049871324765404131 3.6032050709720158e-05 0 0.0049761017799495157 4.7302938873253233e-05 0 0.0049788480309045794 3.7743264184709944e-05 0 0.0047164167659135012 0.0001525138075865986 0 0.0048386136639697484 4.5355065811251951e-05 0 0.0049871324765404131 3.6032050709720158e-05 0 0.0049788480309045794 3.7743264184709944e-05 0 0.0049827918507395061 3.0367332989492814e-05 0 0.0049788480309045794 3.7743264184709944e-05 0 0.0049827918507395061 3.0367332989492814e-05 0 0.0049751063442012612 2.9949883254902144e-05 0 0.004987482646205247 2.6625399522668231e-05 0 0.0049871324765404131 3.6032050709720158e-05 0 0.0049827918507395061 3.0367332989492814e-05 0 0.0049846665981850375 2.1788535824455368e-05 0 0.004987482646205247 2.6625399522668231e-05 0 0.0049827918507395061 3.0367332989492814e-05 0 0.0049846665981850375 2.1788535824455368e-05 0 0.0049827918507395061 3.0367332989492814e-05 0 0.0049751063442012612 2.9949883254902144e-05 0 0.0049466495181840616 -2.2114961645909237e-05 0 0.0049311220894116036 -3.3997423877796442e-05 0 0.0049214841261893032 -3.5168580515974788e-05 0 0.0049311220894116036 -3.3997423877796442e-05 0 0.0049214841261893032 -3.5168580515974788e-05 0 0.0049072988188853294 -1.7339914791338584e-05 0 0.0049663350842839033 -1.9961184886929694e-05 0 0.0049214841261893032 -3.5168580515974788e-05 0 0.0049701418183408725 -4.9555449490060856e-05 0 0.0049663350842839033 -1.9961184886929694e-05 0 0.0049466495181840616 -2.2114961645909237e-05 0 0.0049214841261893032 -3.5168580515974788e-05 0 0.004990665381824291 -2.168815765590995e-05 0 0.0049663350842839033 -1.9961184886929694e-05 0 0.0049701418183408725 -4.9555449490060856e-05 0 0.0049589299673960452 -3.4803157692469832e-05 0 0.0049655403321942088 -6.2228912689481867e-05 0 0.0048461067037166078 -2.3324179526604078e-05 0 0.0048407643393852447 -1.9235693484724975e-05 0 0.0048450858900078737 -9.9049099288042123e-06 0 0.004842116460683752 -2.8446096709028672e-05 0 0.0048461067037166078 -2.3324179526604078e-05 0 0.0048407643393852447 -1.9235693484724975e-05 0 0.0049655403321942088 -6.2228912689481867e-05 0 0.0049484975989073114 -6.6576467410294518e-05 0 0.004842116460683752 -2.8446096709028672e-05 0 0.0048407643393852447 -1.9235693484724975e-05 0 0.0048299824795047467 -1.4542943632399922e-05 0 0.0048299824795047467 -1.4542943632399922e-05 0 0.0048356622522496883 1.5889028870751419e-06 0 0.0048168460211109772 4.8547346482627291e-06 0 0.0048407643393852447 -1.9235693484724975e-05 0 0.0048299824795047467 -1.4542943632399922e-05 0 0.0048450858900078737 -9.9049099288042123e-06 0 0.0048299824795047467 -1.4542943632399922e-05 0 0.0048356622522496883 1.5889028870751419e-06 0 0.0048450858900078737 -9.9049099288042123e-06 0 0.0048461067037166078 -2.3324179526604078e-05 0 0.0048450858900078737 -9.9049099288042123e-06 0 0.0048687388877825671 -1.1297230359261679e-05 0 0.0048356622522496883 1.5889028870751419e-06 0 0.0048450858900078737 -9.9049099288042123e-06 0 0.0048509320773099888 5.439467306519182e-06 0 0.0048450858900078737 -9.9049099288042123e-06 0 0.0048687388877825671 -1.1297230359261679e-05 0 0.0048509320773099888 5.439467306519182e-06 0 0.004895087497747707 -3.111900779016484e-05 0 0.0049655403321942088 -6.2228912689481867e-05 0 0.0049214841261893032 -3.5168580515974788e-05 0 0.0048461067037166078 -2.3324179526604078e-05 0 0.0048687388877825671 -1.1297230359261679e-05 0 0.0049214841261893032 -3.5168580515974788e-05 0 0.0048387782885412007 -3.3498320750309996e-05 0 0.0048461067037166078 -2.3324179526604078e-05 0 0.0048698799855827922 2.0093284618609046e-06 0 0.0048687388877825671 -1.1297230359261679e-05 0 0.0048509320773099888 5.439467306519182e-06 0 0.0048698799855827922 2.0093284618609046e-06 0 0.0048687388877825671 -1.1297230359261679e-05 0 0.0048887986072787921 -1.065256012982346e-05 0 0.0049214841261893032 -3.5168580515974788e-05 0 0.0048687388877825671 -1.1297230359261679e-05 0 0.0048887986072787921 -1.065256012982346e-05 0 0.0049214841261893032 -3.5168580515974788e-05 0 0.0049072988188853294 -1.7339914791338584e-05 0 0.0048887986072787921 -1.065256012982346e-05 0 0.0049074400544769758 -4.1439654807594232e-06 0 0.0049072988188853294 -1.7339914791338584e-05 0 0.0048855222535566919 5.8338647866186357e-06 0 0.0049072988188853294 -1.7339914791338584e-05 0 0.0048887986072787921 -1.065256012982346e-05 0 0.0048855222535566919 5.8338647866186357e-06 0 0.0048698799855827922 2.0093284618609046e-06 0 0.0048887986072787921 -1.065256012982346e-05 0 0.0048855222535566919 5.8338647866186357e-06 0 0.0048973265388268386 1.3245857119695449e-05 0 0.0048855222535566919 5.8338647866186357e-06 0 0.0048742671089835495 2.7494666935593061e-05 0 0.0048855222535566919 5.8338647866186357e-06 0 0.0048609200709438536 2.0890445645824894e-05 0 0.0048742671089835495 2.7494666935593061e-05 0 0.0048698799855827922 2.0093284618609046e-06 0 0.0048855222535566919 5.8338647866186357e-06 0 0.0048609200709438536 2.0890445645824894e-05 0 0.0048698799855827922 2.0093284618609046e-06 0 0.0048609200709438536 2.0890445645824894e-05 0 0.0048509320773099888 5.439467306519182e-06 0 0.0048609200709438536 2.0890445645824894e-05 0 0.0048742671089835495 2.7494666935593061e-05 0 0.0048590529171204152 4.0980545811301121e-05 0 0.0048750048336862872 4.2942853678932703e-05 0 0.0048742671089835495 2.7494666935593061e-05 0 0.0048590529171204152 4.0980545811301121e-05 0 0.0048590529171204152 4.0980545811301121e-05 0 0.0048370656925201677 2.4216042336599378e-05 0 0.0048263623521858185 5.1612608215621361e-05 0 0.0048609200709438536 2.0890445645824894e-05 0 0.0048590529171204152 4.0980545811301121e-05 0 0.0048370656925201677 2.4216042336599378e-05 0 0.0048609200709438536 2.0890445645824894e-05 0 0.0048370656925201677 2.4216042336599378e-05 0 0.0048509320773099888 5.439467306519182e-06 0 0.0048356622522496883 1.5889028870751419e-06 0 0.0048370656925201677 2.4216042336599378e-05 0 0.0048509320773099888 5.439467306519182e-06 0 0.0048356622522496883 1.5889028870751419e-06 0 0.0048370656925201677 2.4216042336599378e-05 0 0.0048168460211109772 4.8547346482627291e-06 0 0.0048168460211109772 4.8547346482627291e-06 0 0.0048042182794436226 2.591099183300896e-05 0 0.004780161455821396 -1.4617760879519295e-05 0 0.0040003119555119936 9.5637969894046254e-05 0 0.0044894243996876845 1.0803427974414539e-05 0 0.0048370656925201677 2.4216042336599378e-05 0 0.0048168460211109772 4.8547346482627291e-06 0 0.0048042182794436226 2.591099183300896e-05 0 0.0040003119555119936 9.5637969894046254e-05 0 0.0038501592115492258 0.00023452144467725629 0 0.0048370656925201677 2.4216042336599378e-05 0 0.0048042182794436226 2.591099183300896e-05 0 0.0048263623521858185 5.1612608215621361e-05 0 0.0032476684160730358 0.00020389482964216203 0 0.0032405190208736816 0.00018433599579978816 0 0.0032371099678397087 0.00018191408823374391 0 0.0032476684160730358 0.00020389482964216203 0 0.003247479697688703 0.00018338861559978665 0 0.0032542691260431366 0.0001925327624768188 0 0.0032476684160730358 0.00020389482964216203 0 0.003247479697688703 0.00018338861559978665 0 0.0032405190208736816 0.00018433599579978816 0 0.003247479697688703 0.00018338861559978665 0 0.0032405190208736816 0.00018433599579978816 0 0.003242206761073208 0.00018001652993069312 0 0.0035729931410013681 0.00013227748536920881 0 0.0038501592115492258 0.00023452144467725629 0 0.0032542691260431366 0.0001925327624768188 0 0.0032550555724169543 0.00018038952943134331 0 0.0032622489705929755 0.0001922993797598371 0 0.003247479697688703 0.00018338861559978665 0 0.0032542691260431366 0.0001925327624768188 0 0.0032550555724169543 0.00018038952943134331 0 0.0032542691260431366 0.0001925327624768188 0 0.0032603252770612352 0.00020626956816044266 0 0.0032622489705929755 0.0001922993797598371 0 0.0032603252770612352 0.00020626956816044266 0 0.0032711619222448177 0.00020760748385760817 0 0.0032622489705929755 0.0001922993797598371 0 0.0032476684160730358 0.00020389482964216203 0 0.0032603252770612352 0.00020626956816044266 0 0.0032637833527781389 0.00022387042099824791 0 0.0032603252770612352 0.00020626956816044266 0 0.0032637833527781389 0.00022387042099824791 0 0.0032786505152765967 0.00022403878730206067 0 0.0032476684160730358 0.00020389482964216203 0 0.0032542691260431366 0.0001925327624768188 0 0.0032603252770612352 0.00020626956816044266 0 0.0050649123121127033 0.00018285991973750697 0 0.0049682049447415813 5.1776144784129042e-05 0 0.0048795718818817613 0.00024195394745391154 0 0.0044894243996876845 1.0803427974414539e-05 0 0.0040156583258718365 0.00025548495213337886 0 0.004842116460683752 -2.8446096709028672e-05 0 0.0048299824795047467 -1.4542943632399922e-05 0 0.004780161455821396 -1.4617760879519295e-05 0 0.0048299824795047467 -1.4542943632399922e-05 0 0.0048168460211109772 4.8547346482627291e-06 0 0.004780161455821396 -1.4617760879519295e-05 0 0.0049126484265139148 -7.1815316701096869e-05 0 0.004947222659781406 -7.9699034788261068e-05 0 0.0049375429203932725 -6.3040325317349969e-05 0 0.0049655403321942088 -6.2228912689481867e-05 0 0.0044894243996876845 1.0803427974414539e-05 0 0.0049344410093733262 -4.5072495710274591e-05 0 0.0049375429203932725 -6.3040325317349969e-05 0 0.004964744267051787 -5.0132953280826287e-05 0 0.0049344410093733262 -4.5072495710274591e-05 0 0.0049126484265139148 -7.1815316701096869e-05 0 0.0049375429203932725 -6.3040325317349969e-05 0 0.0044894243996876845 1.0803427974414539e-05 0 0.0050373022863068459 2.2767331473344877e-05 0 0.004947222659781406 -7.9699034788261068e-05 0 0.0049375429203932725 -6.3040325317349969e-05 0 0.004964744267051787 -5.0132953280826287e-05 0 0.0050649123121127033 0.00018285991973750697 0 0.0049838981986380466 2.7916468223071875e-05 0 0.0049682049447415813 5.1776144784129042e-05 0 0.0030692591224821589 5.9460512371857388e-05 0 0.0030241861890414308 8.5036752012577403e-05 0 0.0030557228430231074 2.09734241998403e-06 0 0.0030692591224821589 5.9460512371857388e-05 0 0.0030241861890414308 8.5036752012577403e-05 0 0.003094870075717814 9.5808002081593783e-05 0 0.0031020316619618572 0.00010973183884446138 0 0.0029177405488328011 -1.2573365869730472e-05 0 0.0030692591224821589 5.9460512371857388e-05 0 0.003094870075717814 9.5808002081593783e-05 0 0.0031109397538191127 5.4310430680856552e-05 0 0.0030692591224821589 5.9460512371857388e-05 0 0.0030557228430231074 2.09734241998403e-06 0 0.0031109397538191127 5.4310430680856552e-05 0 0.0029177405488328011 -1.2573365869730472e-05 0 0.0030805681497369864 2.3495770631243099e-05 0 0.003040204110373573 -6.9050224572040825e-05 0 0.0029688764324380204 -8.388300062036137e-05 0 0.0030457977118527159 -1.2837457365105374e-05 0 0.0028957549404040393 2.7386099699850323e-05 0 0.0029088587186829259 5.3469216247217723e-05 0 0.0029209435126270359 1.8976186919346699e-05 0 0.0028957549404040393 2.7386099699850323e-05 0 0.0029088587186829259 5.3469216247217723e-05 0 0.0028628014994925735 4.6361862295568444e-05 0 0.0032423779192159849 0.00014527789980692146 0 0.0032463175404709205 0.00015005172956930799 0 0.0032389596997681172 0.00015373310436917341 0 0.0032466897588612409 0.00012985080473084369 0 0.003241043828793303 0.00014777166325885508 0 0.0032327271879874012 0.00013409385004913086 0 0.0031020316619618572 0.00010973183884446138 0 0.0032401578523116085 0.00014657249879132913 0 0.003241043828793303 0.00014777166325885508 0 0.0032307312049537156 0.00014789767948092015 0 0.0032327271879874012 0.00013409385004913086 0 0.0031020316619618572 0.00010973183884446138 0 0.0031832991363161126 0.0001229818047581253 0 0.0032423779192159849 0.00014527789980692146 0 0.0032463175404709205 0.00015005172956930799 0 0.0032501259186944521 0.00014803263743246251 0 0.0032463175404709205 0.00015005172956930799 0 0.0032479982513810438 0.0001555403733535455 0 0.0032517311106904272 0.00014963897708946758 0 0.0032463175404709205 0.00015005172956930799 0 0.0032501259186944521 0.00014803263743246251 0 0.0032517311106904272 0.00014963897708946758 0 0.0032479982513810438 0.0001555403733535455 0 0.0032523097092383804 0.00015420804197942837 0 0.0032517311106904272 0.00014963897708946758 0 0.0032479982513810438 0.0001555403733535455 0 0.0032503042666662554 0.00016130123016186291 0 0.0032443230008860845 0.0001630367238960743 0 0.0032479982513810438 0.0001555403733535455 0 0.0032503042666662554 0.00016130123016186291 0 0.0032523097092383804 0.00015420804197942837 0 0.0032503042666662554 0.00016130123016186291 0 0.003255069276395078 0.00016607819386736517 0 0.0032523097092383804 0.00015420804197942837 0 0.0032503042666662554 0.00016130123016186291 0 0.003249143470306453 0.00017071558411626929 0 0.003255069276395078 0.00016607819386736517 0 0.0032503042666662554 0.00016130123016186291 0 0.003249143470306453 0.00017071558411626929 0 0.0032443230008860845 0.0001630367238960743 0 0.003247479697688703 0.00018338861559978665 0 0.003249143470306453 0.00017071558411626929 0 0.0032550555724169543 0.00018038952943134331 0 0.003249143470306453 0.00017071558411626929 0 0.0032550555724169543 0.00018038952943134331 0 0.003255069276395078 0.00016607819386736517 0 0.003242206761073208 0.00018001652993069312 0 0.0032425576528059747 0.0001727883491251669 0 0.0032365336565490658 0.00018201500062167995 0 0.0032405190208736816 0.00018433599579978816 0 0.003242206761073208 0.00018001652993069312 0 0.0032365336565490658 0.00018201500062167995 0 0.003247479697688703 0.00018338861559978665 0 0.003242206761073208 0.00018001652993069312 0 0.0032425576528059747 0.0001727883491251669 0 0.003247479697688703 0.00018338861559978665 0 0.003249143470306453 0.00017071558411626929 0 0.0032425576528059747 0.0001727883491251669 0 0.003249143470306453 0.00017071558411626929 0 0.0032425576528059747 0.0001727883491251669 0 0.0032443230008860845 0.0001630367238960743 0 0.0032425576528059747 0.0001727883491251669 0 0.0032443230008860845 0.0001630367238960743 0 0.0032349083688356034 0.00016621428595222138 0 0.0032425576528059747 0.0001727883491251669 0 0.0032349083688356034 0.00016621428595222138 0 0.0032365336565490658 0.00018201500062167995 0 0.0032401578523116085 0.00014657249879132913 0 0.0032348048271936079 0.00016552851924056097 0 0.0032443230008860845 0.0001630367238960743 0 0.0032389596997681172 0.00015373310436917341 0 0.0032349083688356034 0.00016621428595222138 0 0.003241043828793303 0.00014777166325885508 0 0.0032307312049537156 0.00014789767948092015 0 0.0032349083688356034 0.00016621428595222138 0 0.0032479982513810438 0.0001555403733535455 0 0.0032443230008860845 0.0001630367238960743 0 0.0032389596997681172 0.00015373310436917341 0 0.0032463175404709205 0.00015005172956930799 0 0.0032479982513810438 0.0001555403733535455 0 0.0032389596997681172 0.00015373310436917341 0 0.0032307312049537156 0.00014789767948092015 0 0.003221939125448652 0.0001533444432328667 0 0.0032349083688356034 0.00016621428595222138 0 0.0038501592115492258 0.00023452144467725629 0 0.0043575132556320124 0.00018899657227316416 0 0.0034185504710287683 0.00017087063253903552 0 0.0038501592115492258 0.00023452144467725629 0 0.003221939125448652 0.0001533444432328667 0 0.0032349083688356034 0.00016621428595222138 0 0.0032365336565490658 0.00018201500062167995 0 0.0048590529171204152 4.0980545811301121e-05 0 0.0048263623521858185 5.1612608215621361e-05 0 0.004853789208660606 4.5863796958451575e-05 0 0.0036878888120236196 0.00018174290946631534 0 0.0037807819999790791 0.00037783600328913122 0 0.0035923289927929578 0.0002766411102196085 0 0.0048590529171204152 4.0980545811301121e-05 0 0.004853789208660606 4.5863796958451575e-05 0 0.0048559076608213755 4.1769079993319659e-05 0 0.0035923289927929578 0.0002766411102196085 0 0.0035984533579741635 0.00018759359173264151 0 0.0035166792164811837 0.00015793602689391311 0 0.0036878888120236196 0.00018174290946631534 0 0.0035923289927929578 0.0002766411102196085 0 0.0035984533579741635 0.00018759359173264151 0 0.0036878888120236196 0.00018174290946631534 0 0.0035984533579741635 0.00018759359173264151 0 0.0035719940522632773 0.00010827609521792731 0 0.0035984533579741635 0.00018759359173264151 0 0.0035719940522632773 0.00010827609521792731 0 0.0035166792164811837 0.00015793602689391311 0 0.0036878888120236196 0.00018174290946631534 0 0.0035719940522632773 0.00010827609521792731 0 0.0035917549176198212 -1.8395901408360673e-05 0 0.0035719940522632773 0.00010827609521792731 0 0.0035400958474382229 3.3959746723847969e-05 0 0.0035917549176198212 -1.8395901408360673e-05 0 0.0034185504710287683 0.00017087063253903552 0 0.0033248858684495268 3.7994646971770322e-05 0 0.0035719940522632773 0.00010827609521792731 0 0.0035400958474382229 3.3959746723847969e-05 0 0.0034986492816187487 8.6351055554360131e-05 0 0.003221939125448652 0.0001533444432328667 0 0.0032227585248811772 0.00013786135955782332 0 0.003207434524295429 0.0001222484567567584 0 0.0032466897588612409 0.00012985080473084369 0 0.0032327271879874012 0.00013409385004913086 0 0.0032190625911096907 0.00012483688511714415 0 0.0032307312049537156 0.00014789767948092015 0 0.003221939125448652 0.0001533444432328667 0 0.0032227585248811772 0.00013786135955782332 0 0.0032307312049537156 0.00014789767948092015 0 0.0032227585248811772 0.00013786135955782332 0 0.0032327271879874012 0.00013409385004913086 0 0.0032327271879874012 0.00013409385004913086 0 0.0032238265743419936 0.00013144176480121104 0 0.0032190625911096907 0.00012483688511714415 0 0.0032227585248811772 0.00013786135955782332 0 0.0032327271879874012 0.00013409385004913086 0 0.0032238265743419936 0.00013144176480121104 0 0.0032227585248811772 0.00013786135955782332 0 0.003218700554487097 0.00012735572507586689 0 0.003207434524295429 0.0001222484567567584 0 0.0032227585248811772 0.00013786135955782332 0 0.0032238265743419936 0.00013144176480121104 0 0.003218700554487097 0.00012735572507586689 0 0.0030281549842060512 5.0427342675202738e-05 0 0.0026608601074348112 3.2166540876428451e-07 0 0.0029313559274927597 2.1706434925009156e-05 0 0.0029211235574877503 2.0013307363929277e-05 0 0.0029342578696671642 -2.0623459428174373e-06 0 0.0028957549404040393 2.7386099699850323e-05 0 0.0028628014994925735 4.6361862295568444e-05 0 0.0028700400114913603 4.4116904346590529e-06 0 0.0031020316619618572 0.00010973183884446138 0 0.0030281549842060512 5.0427342675202738e-05 0 0.0030281549842060512 5.0427342675202738e-05 0 0.0030377685420389278 5.930722070889248e-05 0 0.0032238265743419936 0.00013144176480121104 0 0.0032190625911096907 0.00012483688511714415 0 0.003218700554487097 0.00012735572507586689 0 0.0035665372408935623 -2.2285779395266145e-05 0 0.0035909948689512639 -1.8461692628323692e-05 0 0.0035018771806126121 -0.00020487005985491005 0 0.0035400958474382229 3.3959746723847969e-05 0 0.0035665372408935623 -2.2285779395266145e-05 0 0.0035029871596580051 -1.2833922483347294e-05 0 0.0034000988235621619 4.0433867430591654e-05 0 0.0033248858684495268 3.7994646971770322e-05 0 0.0035400958474382229 3.3959746723847969e-05 0 0.0035665372408935623 -2.2285779395266145e-05 0 0.0035917549176198212 -1.8395901408360673e-05 0 0.0032192498087022627 0.00012439257889857545 0 0.003218700554487097 0.00012735572507586689 0 0.003207434524295429 0.0001222484567567584 0 0.0030281549842060512 5.0427342675202738e-05 0 0.0033248858684495268 3.7994646971770322e-05 0 0.0035665372408935623 -2.2285779395266145e-05 0 0.0034785362066605007 -7.3504191489450754e-05 0 0.0035018771806126121 -0.00020487005985491005 0 0.0034519836822367905 -2.5158748859541836e-05 0 0.0033890297915654156 4.2964118234327186e-05 0 0.0034775455400279992 2.2837485884593978e-05 0 0.0034519836822367905 -2.5158748859541836e-05 0 0.0034012876917161542 -5.4391775765826491e-05 0 0.0033890297915654156 4.2964118234327186e-05 0 0.0034519836822367905 -2.5158748859541836e-05 0 0.0035029871596580051 -1.2833922483347294e-05 0 0.0034775455400279992 2.2837485884593978e-05 0 0.0035665372408935623 -2.2285779395266145e-05 0 0.0035029871596580051 -1.2833922483347294e-05 0 0.0034785362066605007 -7.3504191489450754e-05 0 0.0035400958474382229 3.3959746723847969e-05 0 0.0035029871596580051 -1.2833922483347294e-05 0 0.0034775455400279992 2.2837485884593978e-05 0 0.0034519836822367905 -2.5158748859541836e-05 0 0.0035029871596580051 -1.2833922483347294e-05 0 0.0034785362066605007 -7.3504191489450754e-05 0 0.0034519836822367905 -2.5158748859541836e-05 0 0.0034785362066605007 -7.3504191489450754e-05 0 0.0034012876917161542 -5.4391775765826491e-05 0 0.0034785362066605007 -7.3504191489450754e-05 0 0.0034012876917161542 -5.4391775765826491e-05 0 0.0034165676239706188 -0.00013058978610066256 0 0.0034012876917161542 -5.4391775765826491e-05 0 0.0033370264306344551 -0.00010793503431478633 0 0.0034165676239706188 -0.00013058978610066256 0 0.0034012876917161542 -5.4391775765826491e-05 0 0.0033108795062536476 -3.0786365074014096e-05 0 0.0033370264306344551 -0.00010793503431478633 0 0.0033108795062536476 -3.0786365074014096e-05 0 0.0032440208989713924 -0.00010312124275800847 0 0.0033370264306344551 -0.00010793503431478633 0 0.0034012876917161542 -5.4391775765826491e-05 0 0.0033108795062536476 -3.0786365074014096e-05 0 0.0033890297915654156 4.2964118234327186e-05 0 0.0033890297915654156 4.2964118234327186e-05 0 0.0033966181721832201 0.00017441808188750887 0 0.0031961643907377113 6.3805446717937723e-05 0 0.0033108795062536476 -3.0786365074014096e-05 0 0.0033890297915654156 4.2964118234327186e-05 0 0.0031961643907377113 6.3805446717937723e-05 0 0.0038759664764305467 6.8708722006110531e-05 0 0.0032236496484604337 6.6952350067398672e-05 0 0.0033890297915654156 4.2964118234327186e-05 0 0.0034387076965624636 0.0001150483268643996 0 0.0033966181721832201 0.00017441808188750887 0 0.0034387076965624636 0.0001150483268643996 0 0.0034510801110527699 6.6854379457246637e-05 0 0.0034986492816187487 8.6351055554360131e-05 0 0.0033890297915654156 4.2964118234327186e-05 0 0.0034387076965624636 0.0001150483268643996 0 0.0034510801110527699 6.6854379457246637e-05 0 0.0033890297915654156 4.2964118234327186e-05 0 0.0034510801110527699 6.6854379457246637e-05 0 0.0034775455400279992 2.2837485884593978e-05 0 0.0034510801110527699 6.6854379457246637e-05 0 0.0034775455400279992 2.2837485884593978e-05 0 0.0034986492816187487 8.6351055554360131e-05 0 0.0035400958474382229 3.3959746723847969e-05 0 0.0034775455400279992 2.2837485884593978e-05 0 0.0034986492816187487 8.6351055554360131e-05 0 0.0035719940522632773 0.00010827609521792731 0 0.0034986492816187487 8.6351055554360131e-05 0 0.0035166792164811837 0.00015793602689391311 0 0.0034387076965624636 0.0001150483268643996 0 0.0034986492816187487 8.6351055554360131e-05 0 0.0035166792164811837 0.00015793602689391311 0 0.0043575132556320124 0.00018899657227316416 0 0.0038759664764305467 6.8708722006110531e-05 0 0.0035923289927929578 0.0002766411102196085 0 0.0035166792164811837 0.00015793602689391311 0 0.0034003344016575454 0.00017283610911192075 0 0.0034387076965624636 0.0001150483268643996 0 0.0035166792164811837 0.00015793602689391311 0 0.0034003344016575454 0.00017283610911192075 0 0.0035445334549675149 0.00023161711167895809 0 0.0038759664764305467 6.8708722006110531e-05 0 0.004853789208660606 4.5863796958451575e-05 0 0.0048559076608213755 4.1769079993319659e-05 0 0.0048413181140689876 3.0600870135888776e-05 0 0.0048478062125030903 4.4358764545021948e-05 0 0.0048559076608213755 4.1769079993319659e-05 0 0.0048339440767770749 3.607760984672645e-05 0 0.0048559076608213755 4.1769079993319659e-05 0 0.0048339440767770749 3.607760984672645e-05 0 0.0048413181140689876 3.0600870135888776e-05 0 0.0035361082721045104 0.0001220030533712644 0 0.0034695201209091883 0.00013713835605109898 0 0.0034394408981144845 7.7458855852087906e-05 0 0.0042146348784316843 9.3217784325261163e-05 0 0.0038759664764305467 6.8708722006110531e-05 0 0.0034870186923463974 0.00018910816901163786 0 0.0035361082721045104 0.0001220030533712644 0 0.0034695201209091883 0.00013713835605109898 0 0.0034870186923463974 0.00018910816901163786 0 0.0034695201209091883 0.00013713835605109898 0 0.0034164343190156471 0.00016014561799117887 0 0.0034695201209091883 0.00013713835605109898 0 0.0034164343190156471 0.00016014561799117887 0 0.0034394408981144845 7.7458855852087906e-05 0 0.003440319645416654 0.00025380707442036217 0 0.0034870186923463974 0.00018910816901163786 0 0.0034164343190156471 0.00016014561799117887 0 0.0033756693271510098 0.00021781848163975062 0 0.003440319645416654 0.00025380707442036217 0 0.0034164343190156471 0.00016014561799117887 0 0.0033756693271510098 0.00021781848163975062 0 0.0034164343190156471 0.00016014561799117887 0 0.0033419800395730762 0.00014303433738557152 0 0.0034164343190156471 0.00016014561799117887 0 0.0033820207692066549 0.0001141960355508947 0 0.0033419800395730762 0.00014303433738557152 0 0.0034164343190156471 0.00016014561799117887 0 0.0033820207692066549 0.0001141960355508947 0 0.0034394408981144845 7.7458855852087906e-05 0 0.0033820207692066549 0.0001141960355508947 0 0.0034394408981144845 7.7458855852087906e-05 0 0.0033469209752343787 8.8651724357480914e-05 0 0.0034394408981144845 7.7458855852087906e-05 0 0.0033469209752343787 8.8651724357480914e-05 0 0.0033494713947337267 4.0199485476248882e-05 0 0.0033108795062536476 -3.0786365074014096e-05 0 0.0031961643907377113 6.3805446717937723e-05 0 0.0032440208989713924 -0.00010312124275800847 0 0.0031961643907377113 6.3805446717937723e-05 0 0.0031343996777438788 -6.8002392452848394e-05 0 0.0032440208989713924 -0.00010312124275800847 0 0.0031343996777438788 -6.8002392452848394e-05 0 0.0030859023751042161 -0.00018908908025926416 0 0.0030126070811641301 -4.0857207303651687e-05 0 0.0031961643907377113 6.3805446717937723e-05 0 0.0031343996777438788 -6.8002392452848394e-05 0 0.0030126070811641301 -4.0857207303651687e-05 0 0.0032236496484604337 6.6952350067398672e-05 0 0.0032706334600721863 -1.1174692072852119e-05 0 0.0030145947100219282 -0.0001490897314969237 0 0.0032706334600721863 -1.1174692072852119e-05 0 0.0030511689205109291 -0.00020517414133562075 0 0.0032440208989713924 -0.00010312124275800847 0 0.0030729361893905732 -0.00024909006563719125 0 0.0031343996777438788 -6.8002392452848394e-05 0 0.0030859023751042161 -0.00018908908025926416 0 0.0032440208989713924 -0.00010312124275800847 0 0.0030145947100219282 -0.0001490897314969237 0 0.0026050306469161668 -0.0002946331186636511 0 0.0030145947100219282 -0.0001490897314969237 0 0.0026463421440326607 -0.0003319227143876891 0 0.0032440208989713924 -0.00010312124275800847 0 0.0030729361893905732 -0.00024909006563719125 0 0.0032978056707012485 -0.00022663148740245201 0 0.0030145947100219282 -0.0001490897314969237 0 0.0032486411093885625 -0.0001155620343366637 0 0.002515090320733221 -0.00019751954487200611 0 0.0025501221320576024 -0.00027392176065139386 0 0.0025901873800515227 -0.00024023656835501776 0 0.0026050306469161668 -0.0002946331186636511 0 0.0030366977416867815 -0.00020626110650010009 0 0.002515090320733221 -0.00019751954487200611 0 0.0025901873800515227 -0.00024023656835501776 0 0.0025923126603546861 -0.00018850575304998039 0 0.0026050306469161668 -0.0002946331186636511 0 0.0021517669662835972 -0.00045074569674312956 0 0.0019384201571335422 -0.00072069910169443 0 0.0019142181488160787 -0.0006223780847409388 0 0.0018581178078829902 -0.00055274097209175878 0 0.0019384201571335422 -0.00072069910169443 0 0.0019790356685178193 -0.00066037156784464878 0 0.0020343364016912279 -0.0007160412211268209 0 0.0026050306469161668 -0.0002946331186636511 0 0.0026463421440326607 -0.0003319227143876891 0 0.0027929966036003393 -0.0002638543708633145 0 0.0028157841483551372 -0.00031055971747725688 0 0.0026887239617767035 -0.00032279689466613027 0 0.0019384201571335422 -0.00072069910169443 0 0.0019790356685178193 -0.00066037156784464878 0 0.0019142181488160787 -0.0006223780847409388 0 0.0019790356685178193 -0.00066037156784464878 0 0.0019142181488160787 -0.0006223780847409388 0 0.0020214902470042911 -0.0005818724697001955 0 0.0019142181488160787 -0.0006223780847409388 0 0.0019269049963027186 -0.0005230711137861752 0 0.0020214902470042911 -0.0005818724697001955 0 0.0019142181488160787 -0.0006223780847409388 0 0.0019269049963027186 -0.0005230711137861752 0 0.0018167606497924481 -0.00048570705947564792 0 0.0019269049963027186 -0.0005230711137861752 0 0.0019844709499655345 -0.00047507774392076328 0 0.0020214902470042911 -0.0005818724697001955 0 0.0019269049963027186 -0.0005230711137861752 0 0.0019844709499655345 -0.00047507774392076328 0 0.0018917450015359277 -0.00044595546418144485 0 0.0019269049963027186 -0.0005230711137861752 0 0.0018917450015359277 -0.00044595546418144485 0 0.0018167606497924481 -0.00048570705947564792 0 0.0019844709499655345 -0.00047507774392076328 0 0.0018917450015359277 -0.00044595546418144485 0 0.0019573338976297903 -0.00039038191084201707 0 0.0018175819496998834 -0.00048592602984635778 0 0.0019542346448336739 -0.00031792162316916989 0 0.0021517669662835972 -0.00045074569674312956 0 0.0022082631171488031 -0.00028524354340199286 0 0.0018547823756719769 -0.00049461242136653028 0 0.0018581178078829902 -0.00055274097209175878 0 0.0017906858061105487 -0.00038592717158012976 0 0.0018917450015359277 -0.00044595546418144485 0 0.0018167606497924481 -0.00048570705947564792 0 0.0018172893903504689 -0.00039615314267310456 0 0.0019109184239423586 -0.00061496487338283401 0 0.0018175819496998834 -0.00048592602984635778 0 0.0019142181488160787 -0.0006223780847409388 0 0.0018547823756719769 -0.00049461242136653028 0 0.0018581178078829902 -0.00055274097209175878 0 0.0025901873800515227 -0.00024023656835501776 0 0.0026126700523899089 -0.00029440573520497071 0 0.0026424880846220239 -0.00023814001320640759 0 0.0025501221320576024 -0.00027392176065139386 0 0.0025901873800515227 -0.00024023656835501776 0 0.0026126700523899089 -0.00029440573520497071 0 0.0022487205463187655 -0.0001577365486082399 0 0.0022520576326487594 -0.000197824506256209 0 0.002273287626326143 -0.00020447875074994722 0 0.0022487205463187655 -0.0001577365486082399 0 0.0022362948733243952 -0.00020226810818628574 0 0.0022520576326487594 -0.000197824506256209 0 0.0024514788932989331 -0.00020799520974610456 0 0.0022082631171488031 -0.00028524354340199286 0 0.0025501221320576024 -0.00027392176065139386 0 0.0026126700523899089 -0.00029440573520497071 0 0.0025836500209737278 -0.00034917394207269453 0 0.0022487205463187655 -0.0001577365486082399 0 0.0022927667617960389 -0.00016447035097778685 0 0.002273287626326143 -0.00020447875074994722 0 0.0024514788932989331 -0.00020799520974610456 0 0.0024261550204943932 -0.00019362374620963838 0 0.0022927667617960389 -0.00016447035097778685 0 0.0022710944697232282 -0.00010172468324995098 0 0.0023303495466306958 -0.00012857789178671769 0 0.0022487205463187655 -0.0001577365486082399 0 0.0022927667617960389 -0.00016447035097778685 0 0.0022710944697232282 -0.00010172468324995098 0 0.0022710944697232282 -0.00010172468324995098 0 0.0022996252891506574 -4.4114737808667506e-05 0 0.0023160234235526924 -8.9714369419663102e-05 0 0.0026424880846220239 -0.00023814001320640759 0 0.0025923126603546861 -0.00018850575304998039 0 0.0026718727564295501 -0.00017937647488849677 0 0.0024261550204943932 -0.00019362374620963838 0 0.0028360234489404361 -9.8017973323393759e-05 0 0.0025901873800515227 -0.00024023656835501776 0 0.0026424880846220239 -0.00023814001320640759 0 0.0025923126603546861 -0.00018850575304998039 0 0.0032440208989713924 -0.00010312124275800847 0 0.0032978056707012485 -0.00022663148740245201 0 0.0033370264306344551 -0.00010793503431478633 0 0.0032978056707012485 -0.00022663148740245201 0 0.0033370264306344551 -0.00010793503431478633 0 0.0034165676239706188 -0.00013058978610066256 0 0.0030366977416867815 -0.00020626110650010009 0 0.0028360234489404361 -9.8017973323393759e-05 0 0.0032978056707012485 -0.00022663148740245201 0 0.0034165676239706188 -0.00013058978610066256 0 0.0035018771806126121 -0.00020487005985491005 0 0.0034785362066605007 -7.3504191489450754e-05 0 0.0034165676239706188 -0.00013058978610066256 0 0.0035018771806126121 -0.00020487005985491005 0 0.0029211235574877503 2.0013307363929277e-05 0 0.0029082447397236495 -5.2000563717858304e-06 0 0.0029342578696671642 -2.0623459428174373e-06 0 0.0028360234489404361 -9.8017973323393759e-05 0 0.0026608601074348112 3.2166540876428451e-07 0 0.0022996252891506574 -4.4114737808667506e-05 0 0.0023753163605483114 -3.6819009885221915e-05 0 0.0023383904109087008 -6.6052537458148039e-05 0 0.0033248858684495268 3.7994646971770322e-05 0 0.0028360234489404361 -9.8017973323393759e-05 0 0.0023753163605483114 -3.6819009885221915e-05 0 0.00236518726704577 -7.248915711933633e-05 0 0.0023383904109087008 -6.6052537458148039e-05 0 0.0023753163605483114 -3.6819009885221915e-05 0 0.00236518726704577 -7.248915711933633e-05 0 0.0023827799215677863 -8.0001097258841194e-05 0 0.0026608601074348112 3.2166540876428451e-07 0 0.0024585897402501565 -8.2701705809948227e-05 0 0.00236518726704577 -7.248915711933633e-05 0 0.0023827799215677863 -8.0001097258841194e-05 0 0.002349534539630189 -9.702956744544516e-05 0 0.00236518726704577 -7.248915711933633e-05 0 0.002349534539630189 -9.702956744544516e-05 0 0.0023383904109087008 -6.6052537458148039e-05 0 0.002349534539630189 -9.702956744544516e-05 0 0.0023383904109087008 -6.6052537458148039e-05 0 0.0023160234235526924 -8.9714369419663102e-05 0 0.0022996252891506574 -4.4114737808667506e-05 0 0.0023383904109087008 -6.6052537458148039e-05 0 0.0023160234235526924 -8.9714369419663102e-05 0 0.0022710944697232282 -0.00010172468324995098 0 0.0023160234235526924 -8.9714369419663102e-05 0 0.0023303495466306958 -0.00012857789178671769 0 0.002349534539630189 -9.702956744544516e-05 0 0.0023160234235526924 -8.9714369419663102e-05 0 0.0023303495466306958 -0.00012857789178671769 0 0.0022927667617960389 -0.00016447035097778685 0 0.0023411733559513159 -0.000168800063595172 0 0.0022962817001229612 -0.00021496301038174536 0 0.0022927667617960389 -0.00016447035097778685 0 0.0023303495466306958 -0.00012857789178671769 0 0.0023411733559513159 -0.000168800063595172 0 0.0023411733559513159 -0.000168800063595172 0 0.0023686286670992298 -0.00018937517250529963 0 0.0023953005501567161 -0.00013477326534826238 0 0.0023686286670992298 -0.00018937517250529963 0 0.0023953005501567161 -0.00013477326534826238 0 0.0024176755482392016 -0.00020106476624713111 0 0.0023303495466306958 -0.00012857789178671769 0 0.0023411733559513159 -0.000168800063595172 0 0.0023953005501567161 -0.00013477326534826238 0 0.0024585897402501565 -8.2701705809948227e-05 0 0.0023996950890837455 -0.00013340926359288734 0 0.002349534539630189 -9.702956744544516e-05 0 0.0023303495466306958 -0.00012857789178671769 0 0.0023953005501567161 -0.00013477326534826238 0 0.0023827799215677863 -8.0001097258841194e-05 0 0.002349534539630189 -9.702956744544516e-05 0 0.0023953005501567161 -0.00013477326534826238 0 0.0024105669560429178 -0.00013561758272991116 0 0.0024321839364124711 -9.6231224117130813e-05 0 0.0024666048838994877 -0.00011182041151471842 0 0.0023983925342008191 -7.0058410530143787e-05 0 0.0024105669560429178 -0.00013561758272991116 0 0.0024321839364124711 -9.6231224117130813e-05 0 0.0024105669560429178 -0.00013561758272991116 0 0.0024530027732437413 -0.00015651819640079384 0 0.0024666048838994877 -0.00011182041151471842 0 0.0024321839364124711 -9.6231224117130813e-05 0 0.0024666048838994877 -0.00011182041151471842 0 0.0024532377799617831 -6.7448391791217615e-05 0 0.0023996950890837455 -0.00013340926359288734 0 0.0024171064719812024 -0.0001974728040534347 0 0.0024105669560429178 -0.00013561758272991116 0 0.0024530027732437413 -0.00015651819640079384 0 0.0024176755482392016 -0.00020106476624713111 0 0.0024530027732437413 -0.00015651819640079384 0 0.0024721954704757963 -0.00018658262999883687 0 0.0024176755482392016 -0.00020106476624713111 0 0.0025065997842771016 -0.00017551671821090925 0 0.0024877296099559847 -0.00014517658582876365 0 0.0025284697568662843 -0.00011646236278833178 0 0.0025040034771079355 -0.00015754542630820039 0 0.0027663869323366476 -0.00023199067817967031 0 0.0025065997842771016 -0.00017551671821090925 0 0.0024721954704757963 -0.00018658262999883687 0 0.0024840783002005634 -0.0002252510848137429 0 0.0025065997842771016 -0.00017551671821090925 0 0.0024721954704757963 -0.00018658262999883687 0 0.0024877296099559847 -0.00014517658582876365 0 0.0024530027732437413 -0.00015651819640079384 0 0.0024721954704757963 -0.00018658262999883687 0 0.0024877296099559847 -0.00014517658582876365 0 0.0024666048838994877 -0.00011182041151471842 0 0.0025085868905515307 -6.367358895440178e-05 0 0.0025284697568662843 -0.00011646236278833178 0 0.0024877296099559847 -0.00014517658582876365 0 0.0024666048838994877 -0.00011182041151471842 0 0.0025284697568662843 -0.00011646236278833178 0 0.0024530027732437413 -0.00015651819640079384 0 0.0024877296099559847 -0.00014517658582876365 0 0.0024666048838994877 -0.00011182041151471842 0 0.0025085868905515307 -6.367358895440178e-05 0 0.0024765475136745356 -4.2187970828291308e-05 0 0.0024532377799617831 -6.7448391791217615e-05 0 0.0027633622752120863 -0.00013475913806178992 0 0.0027663869323366476 -0.00023199067817967031 0 0.0024666048838994877 -0.00011182041151471842 0 0.0025085868905515307 -6.367358895440178e-05 0 0.0024532377799617831 -6.7448391791217615e-05 0 0.0025085868905515307 -6.367358895440178e-05 0 0.0024765475136745356 -4.2187970828291308e-05 0 0.0024893621948869431 -1.055786231099676e-05 0 0.0024765475136745356 -4.2187970828291308e-05 0 0.0024532377799617831 -6.7448391791217615e-05 0 0.002460173517041172 -1.2967001580053386e-05 0 0.0023983925342008191 -7.0058410530143787e-05 0 0.0024321839364124711 -9.6231224117130813e-05 0 0.0024532377799617831 -6.7448391791217615e-05 0 0.0023983925342008191 -7.0058410530143787e-05 0 0.0024532377799617831 -6.7448391791217615e-05 0 0.002460173517041172 -1.2967001580053386e-05 0 0.0024585897402501565 -8.2701705809948227e-05 0 0.0027219598250887312 -3.0894940077269121e-05 0 0.0028957549404040393 2.7386099699850323e-05 0 0.0028700400114913603 4.4116904346590529e-06 0 0.002908794943397085 7.7576690183814404e-06 0 0.0026608601074348112 3.2166540876428451e-07 0 0.0027219598250887312 -3.0894940077269121e-05 0 0.0025735018617825591 -1.3413934171114769e-05 0 0.0025896008515298359 -8.8552632894125239e-05 0 0.002678934654014749 -3.9223310206622324e-06 0 0.0028957549404040393 2.7386099699850323e-05 0 0.002908794943397085 7.7576690183814404e-06 0 0.0029209435126270359 1.8976186919346699e-05 0 0.0027883753772560563 -4.5215059558027943e-05 0 0.0028326621059653776 -3.133133833674607e-06 0 0.0028469769702720552 -3.9837809628460003e-05 0 0.003018469923357114 -0.00020902626689392278 0 0.0030061341893344055 -0.00011419797410123238 0 0.0030505929989179058 -0.0001497733620631794 0 0.003018469923357114 -0.00020902626689392278 0 0.0029820351499082807 -0.00011619590973329042 0 0.0030061341893344055 -0.00011419797410123238 0 0.0027219598250887312 -3.0894940077269121e-05 0 0.0029177405488328011 -1.2573365869730472e-05 0 0.0029177405488328011 -1.2573365869730472e-05 0 0.002806996140338136 -3.026080210167925e-05 0 0.0029688764324380204 -8.388300062036137e-05 0 0.0029815098341892101 -0.00011630927195787053 0 0.0030061341893344055 -0.00011419797410123238 0 0.003040204110373573 -6.9050224572040825e-05 0 0.0029688764324380204 -8.388300062036137e-05 0 0.0030061341893344055 -0.00011419797410123238 0 0.003040204110373573 -6.9050224572040825e-05 0 0.0030061341893344055 -0.00011419797410123238 0 0.0030454355474782637 -0.00010917727569008922 0 0.002806996140338136 -3.026080210167925e-05 0 0.0028897484853691283 -3.7441326205146495e-05 0 0.0027633622752120863 -0.00013475913806178992 0 0.002806996140338136 -3.026080210167925e-05 0 0.0030061341893344055 -0.00011419797410123238 0 0.0030505929989179058 -0.0001497733620631794 0 0.0030454355474782637 -0.00010917727569008922 0 0.0027219598250887312 -3.0894940077269121e-05 0 0.002806996140338136 -3.026080210167925e-05 0 0.0024765475136745356 -4.2187970828291308e-05 0 0.002460173517041172 -1.2967001580053386e-05 0 0.0024893621948869431 -1.055786231099676e-05 0 0.003127751938743855 0.00011917201416020319 0 0.0031127900476468186 0.00012981880688093728 0 0.0031688894829534986 0.00014379304672670009 0 0.0031596813471805396 0.00013257277266516001 0 0.0031388212712915929 9.1682554082285107e-05 0 0.0031873253026974439 0.00011863320872555099 0 0.003127751938743855 0.00011917201416020319 0 0.0031596813471805396 0.00013257277266516001 0 0.0031388212712915929 9.1682554082285107e-05 0 0.003127751938743855 0.00011917201416020319 0 0.0031688894829534986 0.00014379304672670009 0 0.0031596813471805396 0.00013257277266516001 0 0.003127751938743855 0.00011917201416020319 0 0.0031388212712915929 9.1682554082285107e-05 0 0.0030830472512281839 8.1106688550811303e-05 0 0.0031388212712915929 9.1682554082285107e-05 0 0.0030830472512281839 8.1106688550811303e-05 0 0.0030853334798307619 3.6867251417216071e-05 0 0.003165799363852678 8.1764402050501614e-05 0 0.0030227121023883499 3.4068276282580377e-05 0 0.0031127900476468186 0.00012981880688093728 0 0.0030830472512281839 8.1106688550811303e-05 0 0.0029883892594588417 2.1931281769061504e-05 0 0.0032280337558606214 3.0017932038150462e-05 0 0.0031420005262440165 3.2577357073801459e-05 0 0.0029883892594588417 2.1931281769061504e-05 0 0.003127751938743855 0.00011917201416020319 0 0.0031127900476468186 0.00012981880688093728 0 0.0030830472512281839 8.1106688550811303e-05 0 0.0032280337558606214 3.0017932038150462e-05 0 0.0031420005262440165 3.2577357073801459e-05 0 0.0032557197586784402 2.067251410679547e-05 0 0.0031420005262440165 3.2577357073801459e-05 0 0.0032557197586784402 2.067251410679547e-05 0 0.0031214179890052458 2.5360798841753439e-05 0 0.0032221158652900703 5.5867364455647348e-08 0 0.0032557197586784402 2.067251410679547e-05 0 0.0031214179890052458 2.5360798841753439e-05 0 0.0032221158652900703 5.5867364455647348e-08 0 0.0032557197586784402 2.067251410679547e-05 0 0.0034859961063775972 2.0138108973176084e-08 0 0.0032557197586784402 2.067251410679547e-05 0 0.0033845764624708206 1.9793637533110805e-05 0 0.0034859961063775972 2.0138108973176084e-08 0 0.0032280337558606214 3.0017932038150462e-05 0 0.0032557197586784402 2.067251410679547e-05 0 0.0033845764624708206 1.9793637533110805e-05 0 0.0032280337558606214 3.0017932038150462e-05 0 0.0034200552547223903 2.6149653253712009e-05 0 0.0033845764624708206 1.9793637533110805e-05 0 0.0034200552547223903 2.6149653253712009e-05 0 0.0033845764624708206 1.9793637533110805e-05 0 0.0035422036707597922 2.5451709179425018e-05 0 0.0033845764624708206 1.9793637533110805e-05 0 0.0034859961063775972 2.0138108973176084e-08 0 0.0035422036707597922 2.5451709179425018e-05 0 0.003749993910119201 1.8370732545580966e-07 0 0.0034859961063775972 2.0138108973176084e-08 0 0.0035422036707597922 2.5451709179425018e-05 0 0.0034930116352754237 1.2297811692481862e-06 0 0.0034200552547223903 2.6149653253712009e-05 0 0.0035422036707597922 2.5451709179425018e-05 0 0.0034697153205965415 -1.8573657112795978e-06 0 0.0033515242064252131 7.9150636358068236e-05 0 0.0033326319957545309 8.188584941148585e-06 0 0.0034930116352754237 1.2297811692481862e-06 0 0.0032847946105765773 0.00014489353227733099 0 0.0033326319957545309 8.188584941148585e-06 0 0.0032847946105765773 0.00014489353227733099 0 0.0031779690467135095 0.00014403919535711072 0 0.0031714025432933585 0.00012626413586424442 0 0.003208605616266244 0.0001384150094233876 0 0.0031688894829534986 0.00014379304672670009 0 0.0032847946105765773 0.00014489353227733099 0 0.0031779690467135095 0.00014403919535711072 0 0.003165799363852678 8.1764402050501614e-05 0 0.0033515242064252131 7.9150636358068236e-05 0 0.0031127900476468186 0.00012981880688093728 0 0.0031688894829534986 0.00014379304672670009 0 0.0032847946105765773 0.00014489353227733099 0 0.0031596813471805396 0.00013257277266516001 0 0.0031779690467135095 0.00014403919535711072 0 0.0031930002643045267 0.00014730310942233886 0 0.0031688894829534986 0.00014379304672670009 0 0.0031596813471805396 0.00013257277266516001 0 0.0031779690467135095 0.00014403919535711072 0 0.0031779690467135095 0.00014403919535711072 0 0.0031991017766649582 0.00018484713245479106 0 0.0031930002643045267 0.00014730310942233886 0 0.003167420487338314 0.00020808237609249252 0 0.0031779690467135095 0.00014403919535711072 0 0.0031991017766649582 0.00018484713245479106 0 0.0032365078288630121 0.0002052739060577793 0 0.0031991017766649582 0.00018484713245479106 0 0.0032209988842400931 0.00017056905249883622 0 0.0031991017766649582 0.00018484713245479106 0 0.0032209988842400931 0.00017056905249883622 0 0.0031930002643045267 0.00014730310942233886 0 0.0032365078288630121 0.0002052739060577793 0 0.0032209988842400931 0.00017056905249883622 0 0.0032557671471175951 0.00017586666667209218 0 0.0032209988842400931 0.00017056905249883622 0 0.0032557671471175951 0.00017586666667209218 0 0.0032260920406465433 0.00014364331370225218 0 0.0032557671471175951 0.00017586666667209218 0 0.0032260920406465433 0.00014364331370225218 0 0.0032744203707882331 0.00014258857803323632 0 0.0032260920406465433 0.00014364331370225218 0 0.0032744203707882331 0.00014258857803323632 0 0.0032439159370632378 0.00010548216015858018 0 0.0032260920406465433 0.00014364331370225218 0 0.0031930002643045267 0.00014730310942233886 0 0.0031873253026974439 0.00011863320872555099 0 0.0031596813471805396 0.00013257277266516001 0 0.0031930002643045267 0.00014730310942233886 0 0.0031873253026974439 0.00011863320872555099 0 0.0032209988842400931 0.00017056905249883622 0 0.0032260920406465433 0.00014364331370225218 0 0.0031930002643045267 0.00014730310942233886 0 0.0032893262891643413 0.00017663000434626144 0 0.0033508244898956506 0.00019539871485695941 0 0.0033756693271510098 0.00021781848163975062 0 0.0033172741089204181 0.00017772505314344645 0 0.0033419800395730762 0.00014303433738557152 0 0.0032557671471175951 0.00017586666667209218 0 0.0033172741089204181 0.00017772505314344645 0 0.0032744203707882331 0.00014258857803323632 0 0.0032744885085323875 0.00020953229879316828 0 0.0032557671471175951 0.00017586666667209218 0 0.0033172741089204181 0.00017772505314344645 0 0.0032744203707882331 0.00014258857803323632 0 0.0033419800395730762 0.00014303433738557152 0 0.0032970691948275965 0.00011051965610196845 0 0.0033172741089204181 0.00017772505314344645 0 0.0032744203707882331 0.00014258857803323632 0 0.0033419800395730762 0.00014303433738557152 0 0.0033820207692066549 0.0001141960355508947 0 0.0033419800395730762 0.00014303433738557152 0 0.0033469209752343787 8.8651724357480914e-05 0 0.0033419800395730762 0.00014303433738557152 0 0.0033469209752343787 8.8651724357480914e-05 0 0.0032970691948275965 0.00011051965610196845 0 0.0033469209752343787 8.8651724357480914e-05 0 0.0033034539581711896 7.051123274772935e-05 0 0.0033269868087187275 5.6473840703783444e-05 0 0.0033469209752343787 8.8651724357480914e-05 0 0.0032970691948275965 0.00011051965610196845 0 0.0033034539581711896 7.051123274772935e-05 0 0.0032970691948275965 0.00011051965610196845 0 0.0033034539581711896 7.051123274772935e-05 0 0.0032439159370632378 0.00010548216015858018 0 0.0033034539581711896 7.051123274772935e-05 0 0.0032439159370632378 0.00010548216015858018 0 0.0032397784164004202 5.6043806971191921e-05 0 0.0032744203707882331 0.00014258857803323632 0 0.0032970691948275965 0.00011051965610196845 0 0.0032439159370632378 0.00010548216015858018 0 0.0033034539581711896 7.051123274772935e-05 0 0.0033080199996046865 2.1458178180284265e-05 0 0.0032397784164004202 5.6043806971191921e-05 0 0.0033034539581711896 7.051123274772935e-05 0 0.0033269868087187275 5.6473840703783444e-05 0 0.0033080199996046865 2.1458178180284265e-05 0 0.0033080199996046865 2.1458178180284265e-05 0 0.0033445680811953708 4.0204251713191235e-05 0 0.0033350721859070564 -1.1619469368793313e-05 0 0.0033269868087187275 5.6473840703783444e-05 0 0.0033080199996046865 2.1458178180284265e-05 0 0.0033494713947337267 4.0199485476248882e-05 0 0.0033341414927680591 3.2399047604543116e-05 0 0.0032706334600721863 -1.1174692072852119e-05 0 0.0033469209752343787 8.8651724357480914e-05 0 0.0033269868087187275 5.6473840703783444e-05 0 0.0033494713947337267 4.0199485476248882e-05 0 0.0031388212712915929 9.1682554082285107e-05 0 0.0031873253026974439 0.00011863320872555099 0 0.0031992162708290956 8.3182684609931819e-05 0 0.0032260920406465433 0.00014364331370225218 0 0.0031873253026974439 0.00011863320872555099 0 0.0032439159370632378 0.00010548216015858018 0 0.0031873253026974439 0.00011863320872555099 0 0.0032439159370632378 0.00010548216015858018 0 0.0031992162708290956 8.3182684609931819e-05 0 0.0032439159370632378 0.00010548216015858018 0 0.0032397784164004202 5.6043806971191921e-05 0 0.0031992162708290956 8.3182684609931819e-05 0 0.0032397784164004202 5.6043806971191921e-05 0 0.0031776005167971338 3.9400140884780169e-05 0 0.0031992162708290956 8.3182684609931819e-05 0 0.0031388212712915929 9.1682554082285107e-05 0 0.0031776005167971338 3.9400140884780169e-05 0 0.0030853334798307619 3.6867251417216071e-05 0 0.0031388212712915929 9.1682554082285107e-05 0 0.0031776005167971338 3.9400140884780169e-05 0 0.0031992162708290956 8.3182684609931819e-05 0 0.0031776005167971338 3.9400140884780169e-05 0 0.0031186107519209244 -2.2831133998231262e-05 0 0.0032423895994056142 -2.7630750577033253e-05 0 0.0031776005167971338 3.9400140884780169e-05 0 0.0031186107519209244 -2.2831133998231262e-05 0 0.0030853334798307619 3.6867251417216071e-05 0 0.0032397784164004202 5.6043806971191921e-05 0 0.0031776005167971338 3.9400140884780169e-05 0 0.0032423895994056142 -2.7630750577033253e-05 0 0.0032351876741444174 3.383969315863984e-05 0 0.0032518566459255002 2.0947161137365429e-06 0 0.0032518566459255002 2.0947161137365429e-06 0 0.0029857006160220476 -0.00032329309321369885 0 0.0032217903416925644 -3.9884146239549272e-05 0 0.0032797431147792676 -9.6384079808523957e-05 0 0.0032123106432530961 -0.00013614843760316329 0 0.0032423895994056142 -2.7630750577033253e-05 0 0.0031532822292743325 -0.00010973976529343057 0 0.0032444709596328087 -0.000175803695332049 0 0.0031186107519209244 -2.2831133998231262e-05 0 0.0032423895994056142 -2.7630750577033253e-05 0 0.0031532822292743325 -0.00010973976529343057 0 0.0031532822292743325 -0.00010973976529343057 0 0.0030597098951103104 -0.00016124195724929568 0 0.0030574194744056229 -8.3755089715922232e-05 0 0.0031186107519209244 -2.2831133998231262e-05 0 0.0031532822292743325 -0.00010973976529343057 0 0.0030574194744056229 -8.3755089715922232e-05 0 0.0033776301152507156 -3.277631477325664e-05 0 0.0033445680811953708 4.0204251713191235e-05 0 0.0033350721859070564 -1.1619469368793313e-05 0 0.0033776301152507156 -3.277631477325664e-05 0 0.0033402364864157388 -4.1105437718337718e-05 0 0.0033350721859070564 -1.1619469368793313e-05 0 0.0033776301152507156 -3.277631477325664e-05 0 0.0033402364864157388 -4.1105437718337718e-05 0 0.0033387673331660801 -5.7048806439206354e-05 0 0.0033080199996046865 2.1458178180284265e-05 0 0.0033350721859070564 -1.1619469368793313e-05 0 0.0032853871848362829 -2.4268555505175698e-05 0 0.0033402364864157388 -4.1105437718337718e-05 0 0.0033350721859070564 -1.1619469368793313e-05 0 0.0033130781301212034 -4.6813505339340774e-05 0 0.0033350721859070564 -1.1619469368793313e-05 0 0.0032853871848362829 -2.4268555505175698e-05 0 0.0033130781301212034 -4.6813505339340774e-05 0 0.0033080199996046865 2.1458178180284265e-05 0 0.0032397784164004202 5.6043806971191921e-05 0 0.0032853871848362829 -2.4268555505175698e-05 0 0.0032397784164004202 5.6043806971191921e-05 0 0.0032217903416925644 -3.9884146239549272e-05 0 0.0032853871848362829 -2.4268555505175698e-05 0 0.0032853871848362829 -2.4268555505175698e-05 0 0.0032797431147792676 -9.6384079808523957e-05 0 0.0033130781301212034 -4.6813505339340774e-05 0 0.0032217903416925644 -3.9884146239549272e-05 0 0.0032853871848362829 -2.4268555505175698e-05 0 0.0032797431147792676 -9.6384079808523957e-05 0 0.002146823164757864 -0.00065730390927300913 0 0.0020451271086294868 -0.00065393108338067515 0 0.0020343364016912279 -0.0007160412211268209 0 0.002678397715811852 -0.00039565101902018583 0 0.0026463421440326607 -0.0003319227143876891 0 0.0032797431147792676 -9.6384079808523957e-05 0 0.0033130781301212034 -4.6813505339340774e-05 0 0.0033387673331660801 -5.7048806439206354e-05 0 0.002146823164757864 -0.00065730390927300913 0 0.0020451271086294868 -0.00065393108338067515 0 0.0020214902470042911 -0.0005818724697001955 0 0.0019790356685178193 -0.00066037156784464878 0 0.0020451271086294868 -0.00065393108338067515 0 0.0020214902470042911 -0.0005818724697001955 0 0.0019790356685178193 -0.00066037156784464878 0 0.0020451271086294868 -0.00065393108338067515 0 0.0020343364016912279 -0.0007160412211268209 0 0.0033402364864157388 -4.1105437718337718e-05 0 0.0033130781301212034 -4.6813505339340774e-05 0 0.0033387673331660801 -5.7048806439206354e-05 0 0.002146823164757864 -0.00065730390927300913 0 0.0020214902470042911 -0.0005818724697001955 0 0.002142838825843439 -0.00053340103755991207 0 0.0020214902470042911 -0.0005818724697001955 0 0.002142838825843439 -0.00053340103755991207 0 0.0020630623625783988 -0.0005004224082035295 0 0.002678397715811852 -0.00039565101902018583 0 0.0029857006160220476 -0.00032329309321369885 0 0.002146823164757864 -0.00065730390927300913 0 0.002142838825843439 -0.00053340103755991207 0 0.0022624020020830435 -0.00059490536711623537 0 0.002142838825843439 -0.00053340103755991207 0 0.002103730539506824 -0.00041021780694936003 0 0.0022659267079659312 -0.00044207279738279717 0 0.002142838825843439 -0.00053340103755991207 0 0.002103730539506824 -0.00041021780694936003 0 0.0020630623625783988 -0.0005004224082035295 0 0.0019844709499655345 -0.00047507774392076328 0 0.002103730539506824 -0.00041021780694936003 0 0.0020630623625783988 -0.0005004224082035295 0 0.0019844709499655345 -0.00047507774392076328 0 0.002103730539506824 -0.00041021780694936003 0 0.0019573338976297903 -0.00039038191084201707 0 0.0019844709499655345 -0.00047507774392076328 0 0.0020214902470042911 -0.0005818724697001955 0 0.0020630623625783988 -0.0005004224082035295 0 0.0031476368728147429 -0.00023659415037157627 0 0.0030597098951103104 -0.00016124195724929568 0 0.0029833436192143992 -0.0002612214863545447 0 0.0031532822292743325 -0.00010973976529343057 0 0.0031476368728147429 -0.00023659415037157627 0 0.0030597098951103104 -0.00016124195724929568 0 0.0029857006160220476 -0.00032329309321369885 0 0.0027491879626620809 -0.0004171152246931016 0 0.0031532822292743325 -0.00010973976529343057 0 0.0031476368728147429 -0.00023659415037157627 0 0.0032444709596328087 -0.000175803695332049 0 0.0031476368728147429 -0.00023659415037157627 0 0.0032720624769207261 -0.00016718345826561613 0 0.0032679064751917389 -0.00037814761456052666 0 0.002142838825843439 -0.00053340103755991207 0 0.0022624020020830435 -0.00059490536711623537 0 0.0022659267079659312 -0.00044207279738279717 0 0.0032395648634859233 -0.00018369308989924337 0 0.0029857006160220476 -0.00032329309321369885 0 0.0031476368728147429 -0.00023659415037157627 0 0.0030824126097681436 -0.00033465032962850909 0 0.0029833436192143992 -0.0002612214863545447 0 0.0032679064751917389 -0.00037814761456052666 0 0.0030824126097681436 -0.00033465032962850909 0 0.003079046542419537 -0.00046355260101779667 0 0.0031476368728147429 -0.00023659415037157627 0 0.0032679064751917389 -0.00037814761456052666 0 0.0030824126097681436 -0.00033465032962850909 0 0.0030824126097681436 -0.00033465032962850909 0 0.0029719000179205786 -0.00037828769399562588 0 0.003079046542419537 -0.00046355260101779667 0 0.0029719000179205786 -0.00037828769399562588 0 0.0028261477079320097 -0.00038412087380868578 0 0.0029079085086006016 -0.00047603232991793443 0 0.0029719000179205786 -0.00037828769399562588 0 0.0028261477079320097 -0.00038412087380868578 0 0.0029833436192143992 -0.0002612214863545447 0 0.0028261477079320097 -0.00038412087380868578 0 0.0028535461268647667 -0.00025480095522383586 0 0.0029833436192143992 -0.0002612214863545447 0 0.0030824126097681436 -0.00033465032962850909 0 0.0029719000179205786 -0.00037828769399562588 0 0.0029833436192143992 -0.0002612214863545447 0 0.0026987688460941629 -0.00042764725531572686 0 0.0028261477079320097 -0.00038412087380868578 0 0.0026891196505244358 -0.00033782118844964714 0 0.0028261477079320097 -0.00038412087380868578 0 0.0028535461268647667 -0.00025480095522383586 0 0.0026891196505244358 -0.00033782118844964714 0 0.0027990588727526962 -0.00016917535957091222 0 0.0028535461268647667 -0.00025480095522383586 0 0.0026891196505244358 -0.00033782118844964714 0 0.0027990588727526962 -0.00016917535957091222 0 0.0028535461268647667 -0.00025480095522383586 0 0.0029614480844522262 -0.00013594036505340155 0 0.0028535461268647667 -0.00025480095522383586 0 0.0029833436192143992 -0.0002612214863545447 0 0.0029614480844522262 -0.00013594036505340155 0 0.0030597098951103104 -0.00016124195724929568 0 0.0029833436192143992 -0.0002612214863545447 0 0.0029614480844522262 -0.00013594036505340155 0 0.0031186107519209244 -2.2831133998231262e-05 0 0.0030574194744056229 -8.3755089715922232e-05 0 0.0030190723323430721 -2.7837446345557541e-05 0 0.0030597098951103104 -0.00016124195724929568 0 0.0030574194744056229 -8.3755089715922232e-05 0 0.0029614480844522262 -0.00013594036505340155 0 0.0030574194744056229 -8.3755089715922232e-05 0 0.0029614480844522262 -0.00013594036505340155 0 0.0030190723323430721 -2.7837446345557541e-05 0 0.0027990588727526962 -0.00016917535957091222 0 0.0029177906355284775 -5.8626633823684778e-05 0 0.002800736594897703 -1.6507813949960986e-05 0 0.0027990588727526962 -0.00016917535957091222 0 0.0029614480844522262 -0.00013594036505340155 0 0.0029177906355284775 -5.8626633823684778e-05 0 0.0029614480844522262 -0.00013594036505340155 0 0.0029177906355284775 -5.8626633823684778e-05 0 0.0030190723323430721 -2.7837446345557541e-05 0 0.0029177906355284775 -5.8626633823684778e-05 0 0.0029883892594588417 2.1931281769061504e-05 0 0.0030190723323430721 -2.7837446345557541e-05 0 0.0030830472512281839 8.1106688550811303e-05 0 0.0029883892594588417 2.1931281769061504e-05 0 0.0030853334798307619 3.6867251417216071e-05 0 0.0029177906355284775 -5.8626633823684778e-05 0 0.0029883892594588417 2.1931281769061504e-05 0 0.002800736594897703 -1.6507813949960986e-05 0 0.0031186107519209244 -2.2831133998231262e-05 0 0.0030853334798307619 3.6867251417216071e-05 0 0.0030190723323430721 -2.7837446345557541e-05 0 0.0029883892594588417 2.1931281769061504e-05 0 0.0030853334798307619 3.6867251417216071e-05 0 0.0030190723323430721 -2.7837446345557541e-05 0 0.0031214179890052458 2.5360798841753439e-05 0 0.0030228217338352827 1.6937182559383698e-05 0 0.0029581774313395186 4.4868934907356233e-08 0 0.0032221158652900703 5.5867364455647348e-08 0 0.0031214179890052458 2.5360798841753439e-05 0 0.0029581774313395186 4.4868934907356233e-08 0 0.0031420005262440165 3.2577357073801459e-05 0 0.0029883892594588417 2.1931281769061504e-05 0 0.002800736594897703 -1.6507813949960986e-05 0 0.0031026321039173983 2.8389819857755503e-05 0 0.00291328585045898 -6.7382286892044555e-06 0 0.0031420005262440165 3.2577357073801459e-05 0 0.0031214179890052458 2.5360798841753439e-05 0 0.0030228217338352827 1.6937182559383698e-05 0 0.00291328585045898 -6.7382286892044555e-06 0 0.0026849172269270988 -0.00012546866144722357 0 0.0030228217338352827 1.6937182559383698e-05 0 0.0028885065733671028 7.1464789787237141e-06 0 0.0027755516900136272 -5.4796521226517249e-06 0 0.0030228217338352827 1.6937182559383698e-05 0 0.0028885065733671028 7.1464789787237141e-06 0 0.0029581774313395186 4.4868934907356233e-08 0 0.0028885065733671028 7.1464789787237141e-06 0 0.0029581774313395186 4.4868934907356233e-08 0 0.0026942691730106501 -2.1163112530533636e-09 0 0.0028885065733671028 7.1464789787237141e-06 0 0.0026942691730106501 -2.1163112530533636e-09 0 0.0027755516900136272 -5.4796521226517249e-06 0 0.0027990588727526962 -0.00016917535957091222 0 0.002800736594897703 -1.6507813949960986e-05 0 0.0025543039180064312 -0.00025810716015726856 0 0.0027990588727526962 -0.00016917535957091222 0 0.0025543039180064312 -0.00025810716015726856 0 0.0026891196505244358 -0.00033782118844964714 0 0.0025543039180064312 -0.00025810716015726856 0 0.0026891196505244358 -0.00033782118844964714 0 0.0025306207732161148 -0.0004193225049070558 0 0.0026891196505244358 -0.00033782118844964714 0 0.0025306207732161148 -0.0004193225049070558 0 0.0025944609263728181 -0.00044199934483968328 0 0.0026987688460941629 -0.00042764725531572686 0 0.0026891196505244358 -0.00033782118844964714 0 0.0025944609263728181 -0.00044199934483968328 0 0.0026942691730106501 -2.1163112530533636e-09 0 0.0027755516900136272 -5.4796521226517249e-06 0 0.0025813504199572184 -5.8238870730483972e-06 0 0.0026942691730106501 -2.1163112530533636e-09 0 0.0025813504199572184 -5.8238870730483972e-06 0 0.0024303018984945619 -4.2848207858610032e-08 0 0.0027755516900136272 -5.4796521226517249e-06 0 0.0025813504199572184 -5.8238870730483972e-06 0 0.0025000410102123472 -2.0660423664036957e-05 0 0.0025543039180064312 -0.00025810716015726856 0 0.0025306207732161148 -0.0004193225049070558 0 0.0024129513875552921 -0.00054021464100896999 0 0.0026849172269270988 -0.00012546866144722357 0 0.0023437226131705399 -0.000255041674722932 0 0.0025813504199572184 -5.8238870730483972e-06 0 0.0024303018984945619 -4.2848207858610032e-08 0 0.0025176155741803629 -1.1319142842985737e-05 0 0.0025813504199572184 -5.8238870730483972e-06 0 0.0025176155741803629 -1.1319142842985737e-05 0 0.0025000410102123472 -2.0660423664036957e-05 0 0.0024303018984945619 -4.2848207858610032e-08 0 0.0025176155741803629 -1.1319142842985737e-05 0 0.0024635892952702895 -4.9044833475635124e-06 0 0.0023555994847999865 -0.00013337142788403506 0 0.0023437226131705399 -0.000255041674722932 0 0.0024129513875552921 -0.00054021464100896999 0 0.0024960790606517636 -0.00051640754834398088 0 0.002488751146094086 -0.00059961783109257235 0 0.0025306207732161148 -0.0004193225049070558 0 0.0024129513875552921 -0.00054021464100896999 0 0.0024960790606517636 -0.00051640754834398088 0 0.0025306207732161148 -0.0004193225049070558 0 0.0025944609263728181 -0.00044199934483968328 0 0.0024960790606517636 -0.00051640754834398088 0 0.0024960790606517636 -0.00051640754834398088 0 0.0025755702984345294 -0.0005028062276647543 0 0.0025200713024054219 -0.00055660791177217835 0 0.0026987688460941629 -0.00042764725531572686 0 0.0025944609263728181 -0.00044199934483968328 0 0.0025755702984345294 -0.0005028062276647543 0 0.0025944609263728181 -0.00044199934483968328 0 0.0024960790606517636 -0.00051640754834398088 0 0.0025755702984345294 -0.0005028062276647543 0 0.0025755702984345294 -0.0005028062276647543 0 0.0025200713024054219 -0.00055660791177217835 0 0.0025131665192204646 -0.0005951654885440283 0 0.0025200713024054219 -0.00055660791177217835 0 0.0025131665192204646 -0.0005951654885440283 0 0.002488751146094086 -0.00059961783109257235 0 0.0024960790606517636 -0.00051640754834398088 0 0.0025200713024054219 -0.00055660791177217835 0 0.002488751146094086 -0.00059961783109257235 0 0.002488751146094086 -0.00059961783109257235 0 0.0024125447451960346 -0.00069051542142365037 0 0.0025033959380768999 -0.00063560217337288883 0 0.0024129513875552921 -0.00054021464100896999 0 0.002488751146094086 -0.00059961783109257235 0 0.0025033959380768999 -0.00063560217337288883 0 0.0025131665192204646 -0.0005951654885440283 0 0.002488751146094086 -0.00059961783109257235 0 0.0024125447451960346 -0.00069051542142365037 0 0.0024303018984945619 -4.2848207858610032e-08 0 0.0024635892952702895 -4.9044833475635124e-06 0 0.0021663499001536137 -6.1999253045723429e-09 0 0.0023437226131705399 -0.000255041674722932 0 0.0021662949280016951 8.681448957311525e-08 0 0.0023437226131705399 -0.000255041674722932 0 0.0021924573716436422 -0.00039178288117878681 0 0.0020609562305999862 -0.00038890113961742465 0 0.001912415238876822 -7.9505500417290984e-05 0 0.0021658438859588651 -3.149440705438513e-07 0 0.0029079085086006016 -0.00047603232991793443 0 0.002718409452863114 -0.00055421184488470428 0 0.0030306776185026552 -0.00062916595420453526 0 0.0028261477079320097 -0.00038412087380868578 0 0.0029079085086006016 -0.00047603232991793443 0 0.002718409452863114 -0.00055421184488470428 0 0.0029719000179205786 -0.00037828769399562588 0 0.0029079085086006016 -0.00047603232991793443 0 0.003079046542419537 -0.00046355260101779667 0 0.0026987688460941629 -0.00042764725531572686 0 0.0028261477079320097 -0.00038412087380868578 0 0.002718409452863114 -0.00055421184488470428 0 0.0026987688460941629 -0.00042764725531572686 0 0.0025755702984345294 -0.0005028062276647543 0 0.002718409452863114 -0.00055421184488470428 0 0.0025755702984345294 -0.0005028062276647543 0 0.0025131665192204646 -0.0005951654885440283 0 0.002718409452863114 -0.00055421184488470428 0 0.002376112183795956 -0.00067624710719415291 0 0.002390457434061335 -0.00074337051968843099 0 0.0024125447451960346 -0.00069051542142365037 0 0.002718409452863114 -0.00055421184488470428 0 0.0029231330876293262 -0.00081726906334954796 0 0.0025131665192204646 -0.0005951654885440283 0 0.0024125447451960346 -0.00069051542142365037 0 0.002718409452863114 -0.00055421184488470428 0 0.002718409452863114 -0.00055421184488470428 0 0.0029231330876293262 -0.00081726906334954796 0 0.0030306776185026552 -0.00062916595420453526 0 0.0017257148147872552 -0.00056932450536398261 0 0.0021124584810640894 -0.00043955984406863282 0 0.0016792973848720107 -0.00014134461427707214 0 0.0024125447451960346 -0.00069051542142365037 0 0.0017257148147872552 -0.00056932450536398261 0 0.0021124584810640894 -0.00043955984406863282 0 0.0021124584810640894 -0.00043955984406863282 0 0.0016792973848720107 -0.00014134461427707214 0 0.0021882785291135066 -0.0002459657474849059 0 0.0016792973848720107 -0.00014134461427707214 0 0.0021882785291135066 -0.0002459657474849059 0 0.0017660855109230629 1.7131190052496346e-05 0 0.0019347084623260969 1.2201888382162583e-05 0 0.0021658438859588651 -3.149440705438513e-07 0 0.0019118615461834157 1.4922683468734685e-07 0 0.001912415238876822 -7.9505500417290984e-05 0 0.0019347084623260969 1.2201888382162583e-05 0 0.0021658438859588651 -3.149440705438513e-07 0 0.0024125447451960346 -0.00069051542142365037 0 0.0025033959380768999 -0.00063560217337288883 0 0.0021124584810640894 -0.00043955984406863282 0 0.001912415238876822 -7.9505500417290984e-05 0 0.0019347084623260969 1.2201888382162583e-05 0 0.0018110030506583452 2.4846495789413856e-05 0 0.0021924573716436422 -0.00039178288117878681 0 0.00199392162742383 -0.00011638194812677194 0 0.0025033959380768999 -0.00063560217337288883 0 0.0021124584810640894 -0.00043955984406863282 0 0.0021882785291135066 -0.0002459657474849059 0 0.0019347084623260969 1.2201888382162583e-05 0 0.0018110030506583452 2.4846495789413856e-05 0 0.001771103774004397 2.6059026574081086e-05 0 0.0019347084623260969 1.2201888382162583e-05 0 0.0019118615461834157 1.4922683468734685e-07 0 0.001771103774004397 2.6059026574081086e-05 0 0.0019118615461834157 1.4922683468734685e-07 0 0.0016574036146095768 3.803201166211551e-08 0 0.001771103774004397 2.6059026574081086e-05 0 0.0016574036146095768 3.803201166211551e-08 0 0.001771103774004397 2.6059026574081086e-05 0 0.0015980177594897738 2.866323531513529e-05 0 0.001771103774004397 2.6059026574081086e-05 0 0.0017660855109230629 1.7131190052496346e-05 0 0.0015980177594897738 2.866323531513529e-05 0 0.0018110030506583452 2.4846495789413856e-05 0 0.001771103774004397 2.6059026574081086e-05 0 0.0017660855109230629 1.7131190052496346e-05 0 0.00199392162742383 -0.00011638194812677194 0 0.0018073753990242186 5.8853121683300509e-06 0 0.0016792973848720107 -0.00014134461427707214 0 0.0017660855109230629 1.7131190052496346e-05 0 0.0015748432238693656 3.5391909366642826e-05 0 0.0017660855109230629 1.7131190052496346e-05 0 0.0016229223456056369 4.5535362932933757e-05 0 0.0015748432238693656 3.5391909366642826e-05 0 0.0017660855109230629 1.7131190052496346e-05 0 0.0016229223456056369 4.5535362932933757e-05 0 0.0015980177594897738 2.866323531513529e-05 0 0.0016229223456056369 4.5535362932933757e-05 0 0.0015328956969881779 4.3077993848283247e-05 0 0.0015980177594897738 2.866323531513529e-05 0 0.0016229223456056369 4.5535362932933757e-05 0 0.0015328956969881779 4.3077993848283247e-05 0 0.0015402903491375901 4.7519604127370183e-05 0 0.0016229223456056369 4.5535362932933757e-05 0 0.0015402903491375901 4.7519604127370183e-05 0 0.0015748432238693656 3.5391909366642826e-05 0 0.0015328956969881779 4.3077993848283247e-05 0 0.00149218904588908 3.7697518645180292e-05 0 0.0015402903491375901 4.7519604127370183e-05 0 0.00149218904588908 3.7697518645180292e-05 0 0.0015402903491375901 4.7519604127370183e-05 0 0.0015004286551797267 2.3080395804677275e-05 0 0.0015328956969881779 4.3077993848283247e-05 0 0.00149218904588908 3.7697518645180292e-05 0 0.0014413805343783074 2.9748448224907626e-05 0 0.0015328956969881779 4.3077993848283247e-05 0 0.0014413805343783074 2.9748448224907626e-05 0 0.0013962622509967688 2.6723520708896785e-05 0 0.0013962622509967688 2.6723520708896785e-05 0 0.0014031206913330237 2.7830360564361589e-08 0 0.0011485817659350954 1.496872275501067e-07 0 0.0016574036146095768 3.803201166211551e-08 0 0.0014031206913330237 2.7830360564361589e-08 0 0.0015980177594897738 2.866323531513529e-05 0 0.0013962622509967688 2.6723520708896785e-05 0 0.0014031206913330237 2.7830360564361589e-08 0 0.0015980177594897738 2.866323531513529e-05 0 0.0015328956969881779 4.3077993848283247e-05 0 0.0013962622509967688 2.6723520708896785e-05 0 0.0015980177594897738 2.866323531513529e-05 0 0.001557600926930998 1.8138531433724011e-05 0 0.0015479247620900957 2.0023376443764891e-05 0 0.0015497690272552715 2.3575281664299005e-05 0 0.0015479247620900957 2.0023376443764891e-05 0 0.0015437686033731154 3.0965074647577588e-05 0 0.0015497690272552715 2.3575281664299005e-05 0 0.001557600926930998 1.8138531433724011e-05 0 0.0015497690272552715 2.3575281664299005e-05 0 0.0015571479694901503 1.3037932555918808e-05 0 0.0015500180606103848 1.8517989717471235e-06 0 0.0015436289763367981 -2.4103555922101227e-06 0 0.001557600926930998 1.8138531433724011e-05 0 0.0015479247620900957 2.0023376443764891e-05 0 0.0015437446725514851 -2.0206309005855001e-06 0 0.0015479247620900957 2.0023376443764891e-05 0 0.0015302078838835963 1.8328130440804623e-05 0 0.0015437686033731154 3.0965074647577588e-05 0 0.0015479247620900957 2.0023376443764891e-05 0 0.0015302078838835963 1.8328130440804623e-05 0 0.0015437446725514851 -2.0206309005855001e-06 0 0.0015302078838835963 1.8328130440804623e-05 0 0.0015402903491375901 4.7519604127370183e-05 0 0.0015004286551797267 2.3080395804677275e-05 0 0.0015302078838835963 1.8328130440804623e-05 0 0.0015402903491375901 4.7519604127370183e-05 0 0.0015437686033731154 3.0965074647577588e-05 0 0.0015402903491375901 4.7519604127370183e-05 0 0.0015748432238693656 3.5391909366642826e-05 0 0.0015508477007615488 3.4889732357399467e-05 0 0.0015402903491375901 4.7519604127370183e-05 0 0.0015437686033731154 3.0965074647577588e-05 0 0.0015508477007615488 3.4889732357399467e-05 0 0.0015437686033731154 3.0965074647577588e-05 0 0.0015508477007615488 3.4889732357399467e-05 0 0.0015497690272552715 2.3575281664299005e-05 0 0.001548425884731898 2.31265695996269e-05 0 0.0015508477007615488 3.4889732357399467e-05 0 0.0015497690272552715 2.3575281664299005e-05 0 0.001548425884731898 2.31265695996269e-05 0 0.0015748432238693656 3.5391909366642826e-05 0 0.0015508477007615488 3.4889732357399467e-05 0 0.0014992841415328228 -6.840269421628237e-06 0 0.00156947820433281 2.9979647589064803e-05 0 0.0016792973848720107 -0.00014134461427707214 0 0.0015748432238693656 3.5391909366642826e-05 0 0.0015263981640157749 -6.6788619747361555e-05 0 0.0014371115739580983 -3.8936220225020946e-05 0 0.0015748432238693656 3.5391909366642826e-05 0 0.0015263981640157749 -6.6788619747361555e-05 0 0.0014371115739580983 -3.8936220225020946e-05 0 0.0014198162247282997 -9.5949535845169057e-05 0 0.001444275013129632 -8.3665959868290055e-05 0 0.0014371115739580983 -3.8936220225020946e-05 0 0.0015263981640157749 -6.6788619747361555e-05 0 0.0014198162247282997 -9.5949535845169057e-05 0 0.0014198162247282997 -9.5949535845169057e-05 0 0.001444275013129632 -8.3665959868290055e-05 0 0.0014404056753320167 -6.1452529412518538e-05 0 0.0014992841415328228 -6.840269421628237e-06 0 0.0014991904788716893 -3.0730291614528551e-05 0 0.001548425884731898 2.31265695996269e-05 0 0.0015533593578518393 1.7104610709245186e-05 0 0.0015497690272552715 2.3575281664299005e-05 0 0.0015533593578518393 1.7104610709245186e-05 0 0.0015497690272552715 2.3575281664299005e-05 0 0.0015571479694901503 1.3037932555918808e-05 0 0.0015533593578518393 1.7104610709245186e-05 0 0.0015571479694901503 1.3037932555918808e-05 0 0.0015594412457329819 5.7715712946665694e-06 0 0.0014991904788716893 -3.0730291614528551e-05 0 0.001531129498322106 -2.6911714743446029e-05 0 0.001444275013129632 -8.3665959868290055e-05 0 0.0014714507217906121 -3.1301628915645735e-05 0 0.0015070704220871511 -6.0960638855227386e-05 0 0.001444275013129632 -8.3665959868290055e-05 0 0.0014404056753320167 -6.1452529412518538e-05 0 0.0014714507217906121 -3.1301628915645735e-05 0 0.0020603539652457752 -6.8407804789916103e-05 0 0.0022750633223420007 -0.00012139678253448736 0 0.0021258303311299568 -0.00024529519667060539 0 0.0014404056753320167 -6.1452529412518538e-05 0 0.0014714507217906121 -3.1301628915645735e-05 0 0.0014199231891632756 -3.2044367323391132e-05 0 0.0017130911228579481 -1.1986857390990481e-05 0 0.0020684588569761832 -0.00030712242717184575 0 0.0020603539652457752 -6.8407804789916103e-05 0 0.00197134792670094 -0.00019821420383554642 0 0.0019063257812432751 -0.00011902526736803774 0 0.0020603539652457752 -6.8407804789916103e-05 0 0.0021258303311299568 -0.00024529519667060539 0 0.00197134792670094 -0.00019821420383554642 0 0.0015263981640157749 -6.6788619747361555e-05 0 0.0014198162247282997 -9.5949535845169057e-05 0 0.001517616775493814 -0.00025240649183495161 0 0.0016792973848720107 -0.00014134461427707214 0 0.0015263981640157749 -6.6788619747361555e-05 0 0.001517616775493814 -0.00025240649183495161 0 0.0017257148147872552 -0.00056932450536398261 0 0.0016792973848720107 -0.00014134461427707214 0 0.001517616775493814 -0.00025240649183495161 0 0.0014198162247282997 -9.5949535845169057e-05 0 0.0014404056753320167 -6.1452529412518538e-05 0 0.0014199231891632756 -3.2044367323391132e-05 0 0.0014198162247282997 -9.5949535845169057e-05 0 0.001517616775493814 -0.00025240649183495161 0 0.0013520077058267025 -0.00042411318290210009 0 0.0012704360323315168 -7.9241671708346289e-05 0 0.0020684588569761832 -0.00030712242717184575 0 0.0017257148147872552 -0.00056932450536398261 0 0.001517616775493814 -0.00025240649183495161 0 0.0013520077058267025 -0.00042411318290210009 0 0.002390457434061335 -0.00074337051968843099 0 0.0020684588569761832 -0.00030712242717184575 0 0.0029231330876293262 -0.00081726906334954796 0 0.0032495905233593091 -0.00087237419855690451 0 0.0030306776185026552 -0.00062916595420453526 0 0.0022750633223420007 -0.00012139678253448736 0 0.0022709735007044509 -0.00028497279046996122 0 0.0021258303311299568 -0.00024529519667060539 0 0.0020684588569761832 -0.00030712242717184575 0 0.0028129750777258168 -0.00048462154304074992 0 0.0032495905233593091 -0.00087237419855690451 0 0.0030306776185026552 -0.00062916595420453526 0 0.0032626893776582927 -0.0006196628757435881 0 0.0027491879626620809 -0.0004171152246931016 0 0.0028129750777258168 -0.00048462154304074992 0 0.0022659267079659312 -0.00044207279738279717 0 0.0022709735007044509 -0.00028497279046996122 0 0.0021918734572473784 -0.00034603290781425722 0 0.0032679064751917389 -0.00037814761456052666 0 0.0032626893776582927 -0.0006196628757435881 0 0.003079046542419537 -0.00046355260101779667 0 0.0030306776185026552 -0.00062916595420453526 0 0.0032626893776582927 -0.0006196628757435881 0 0.003079046542419537 -0.00046355260101779667 0 0.0029079085086006016 -0.00047603232991793443 0 0.0030306776185026552 -0.00062916595420453526 0 0.003079046542419537 -0.00046355260101779667 0 0.0021258303311299568 -0.00024529519667060539 0 0.001993659268047118 -0.00030417983078384137 0 0.00197134792670094 -0.00019821420383554642 0 0.002103730539506824 -0.00041021780694936003 0 0.0021258303311299568 -0.00024529519667060539 0 0.0021918734572473784 -0.00034603290781425722 0 0.002103730539506824 -0.00041021780694936003 0 0.0022659267079659312 -0.00044207279738279717 0 0.0021918734572473784 -0.00034603290781425722 0 0.0022709735007044509 -0.00028497279046996122 0 0.0021258303311299568 -0.00024529519667060539 0 0.0021918734572473784 -0.00034603290781425722 0 0.002103730539506824 -0.00041021780694936003 0 0.001993659268047118 -0.00030417983078384137 0 0.0019573338976297903 -0.00039038191084201707 0 0.002103730539506824 -0.00041021780694936003 0 0.0021258303311299568 -0.00024529519667060539 0 0.001993659268047118 -0.00030417983078384137 0 0.0018917450015359277 -0.00044595546418144485 0 0.0019573338976297903 -0.00039038191084201707 0 0.0018616948101008379 -0.00037435752906061706 0 0.0019573338976297903 -0.00039038191084201707 0 0.0018616948101008379 -0.00037435752906061706 0 0.0019062472492677336 -0.00033061209733423506 0 0.0019062472492677336 -0.00033061209733423506 0 0.0018884061356902698 -0.00026187256836637205 0 0.0018499300619679792 -0.00031767277794661762 0 0.0018616948101008379 -0.00037435752906061706 0 0.0019062472492677336 -0.00033061209733423506 0 0.0018499300619679792 -0.00031767277794661762 0 0.001993659268047118 -0.00030417983078384137 0 0.0019062472492677336 -0.00033061209733423506 0 0.0018884061356902698 -0.00026187256836637205 0 0.001993659268047118 -0.00030417983078384137 0 0.0019573338976297903 -0.00039038191084201707 0 0.0019062472492677336 -0.00033061209733423506 0 0.001993659268047118 -0.00030417983078384137 0 0.0018884061356902698 -0.00026187256836637205 0 0.00197134792670094 -0.00019821420383554642 0 0.0018884061356902698 -0.00026187256836637205 0 0.0018559981170388408 -0.00019431178226751117 0 0.0018142778419135222 -0.00026854976918737621 0 0.0018884061356902698 -0.00026187256836637205 0 0.0018559981170388408 -0.00019431178226751117 0 0.00197134792670094 -0.00019821420383554642 0 0.0018559981170388408 -0.00019431178226751117 0 0.0017367308161220028 -0.00020882367233277817 0 0.0018142778419135222 -0.00026854976918737621 0 0.0018884061356902698 -0.00026187256836637205 0 0.0018142778419135222 -0.00026854976918737621 0 0.0018499300619679792 -0.00031767277794661762 0 0.0017367308161220028 -0.00020882367233277817 0 0.0017728263942424223 -0.00028890998766124788 0 0.0017315276102841015 -0.00031535339358864891 0 0.0017367308161220028 -0.00020882367233277817 0 0.0018142778419135222 -0.00026854976918737621 0 0.0017728263942424223 -0.00028890998766124788 0 0.0018167606497924481 -0.00048570705947564792 0 0.0018172893903504689 -0.00039615314267310456 0 0.0017220653825938768 -0.00034029731227970853 0 0.0018142778419135222 -0.00026854976918737621 0 0.0017728263942424223 -0.00028890998766124788 0 0.0017932669387792947 -0.00033394467491053525 0 0.0018547823756719769 -0.00049461242136653028 0 0.0017906858061105487 -0.00038592717158012976 0 0.0017992606713690389 -0.00036813532639540865 0 0.0017932669387792947 -0.00033394467491053525 0 0.0017315276102841015 -0.00031535339358864891 0 0.0017220653825938768 -0.00034029731227970853 0 0.0017728263942424223 -0.00028890998766124788 0 0.0017932669387792947 -0.00033394467491053525 0 0.0017315276102841015 -0.00031535339358864891 0 0.0018142778419135222 -0.00026854976918737621 0 0.0017932669387792947 -0.00033394467491053525 0 0.0018499300619679792 -0.00031767277794661762 0 0.0018616948101008379 -0.00037435752906061706 0 0.0017932669387792947 -0.00033394467491053525 0 0.0018499300619679792 -0.00031767277794661762 0 0.0018616948101008379 -0.00037435752906061706 0 0.0017932669387792947 -0.00033394467491053525 0 0.0018172893903504689 -0.00039615314267310456 0 0.0018917450015359277 -0.00044595546418144485 0 0.0018616948101008379 -0.00037435752906061706 0 0.0018172893903504689 -0.00039615314267310456 0 0.0017932669387792947 -0.00033394467491053525 0 0.0018172893903504689 -0.00039615314267310456 0 0.0017220653825938768 -0.00034029731227970853 0 0.0022362948733243952 -0.00020226810818628574 0 0.0022520576326487594 -0.000197824506256209 0 0.0022416988467721432 -0.00020887980796471245 0 0.0022520576326487594 -0.000197824506256209 0 0.0022594367503850125 -0.00021413895250087559 0 0.0022416988467721432 -0.00020887980796471245 0 0.0019154124393857789 -0.00034301688994316329 0 0.0019542346448336739 -0.00031792162316916989 0 0.0022385892762300458 -0.0002040588764569113 0 0.002236515703482031 -0.0002082514609976467 0 0.0022416988467721432 -0.00020887980796471245 0 0.0022082631171488031 -0.00028524354340199286 0 0.0019542346448336739 -0.00031792162316916989 0 0.0022082631171488031 -0.00028524354340199286 0 0.0022052476848966112 -0.00025768744694645233 0 0.0022927667617960389 -0.00016447035097778685 0 0.002273287626326143 -0.00020447875074994722 0 0.0022962817001229612 -0.00021496301038174536 0 0.0022520576326487594 -0.000197824506256209 0 0.0022594367503850125 -0.00021413895250087559 0 0.002273287626326143 -0.00020447875074994722 0 0.0022594367503850125 -0.00021413895250087559 0 0.002273287626326143 -0.00020447875074994722 0 0.002270097131361217 -0.00022246865799359125 0 0.002273287626326143 -0.00020447875074994722 0 0.002270097131361217 -0.00022246865799359125 0 0.0022832446614942854 -0.00022134305325258649 0 0.002273287626326143 -0.00020447875074994722 0 0.0022962817001229612 -0.00021496301038174536 0 0.0022832446614942854 -0.00022134305325258649 0 0.002270097131361217 -0.00022246865799359125 0 0.0022832446614942854 -0.00022134305325258649 0 0.0022754848540420015 -0.00022895425061639262 0 0.0022594367503850125 -0.00021413895250087559 0 0.002270097131361217 -0.00022246865799359125 0 0.0022614492330721757 -0.00022860840974278938 0 0.002270097131361217 -0.00022246865799359125 0 0.0022614492330721757 -0.00022860840974278938 0 0.0022717139565254073 -0.00022695865301201095 0 0.002270097131361217 -0.00022246865799359125 0 0.0022717139565254073 -0.00022695865301201095 0 0.0022754848540420015 -0.00022895425061639262 0 0.0017367308161220028 -0.00020882367233277817 0 0.0017315276102841015 -0.00031535339358864891 0 0.0016263421749424492 -0.00018730574808972512 0 0.0022594367503850125 -0.00021413895250087559 0 0.0022416988467721432 -0.00020887980796471245 0 0.0022614492330721757 -0.00022860840974278938 0 0.0019542346448336739 -0.00031792162316916989 0 0.0019464141750121335 -0.00020182663693151797 0 0.002236515703482031 -0.0002082514609976467 0 0.0022416988467721432 -0.00020887980796471245 0 0.0022614492330721757 -0.00022860840974278938 0 0.0017315276102841015 -0.00031535339358864891 0 0.0017202381794152715 -0.00034201330292856473 0 0.0016263421749424492 -0.00018730574808972512 0 0.0017367308161220028 -0.00020882367233277817 0 0.0016263421749424492 -0.00018730574808972512 0 0.0016925837714905731 -9.3274408156408914e-05 0 0.0016263421749424492 -0.00018730574808972512 0 0.0016189734184182923 -6.3623899691568422e-05 0 0.0016925837714905731 -9.3274408156408914e-05 0 0.0022717139565254073 -0.00022695865301201095 0 0.0022600170569380519 -0.00022033168348219208 0 0.0022673742818977078 -0.00022251216782949727 0 0.0022614492330721757 -0.00022860840974278938 0 0.0022717139565254073 -0.00022695865301201095 0 0.0022673742818977078 -0.00022251216782949727 0 0.0016263421749424492 -0.00018730574808972512 0 0.0016189734184182923 -6.3623899691568422e-05 0 0.0015621373038989656 -4.0261624557616616e-05 0 0.0019464141750121335 -0.00020182663693151797 0 0.0018997815873135464 -0.00012855187327935648 0 0.0022717139565254073 -0.00022695865301201095 0 0.0022666940973488526 -0.00017991618627045982 0 0.0022568514636796761 -0.00020467711902863214 0 0.0022687598941751826 -0.00021717983112720711 0 0.0022697500577693311 -0.00021700748730581952 0 0.0022600170569380519 -0.00022033168348219208 0 0.0022673742818977078 -0.00022251216782949727 0 0.0022540137177558812 -0.00019412177916908958 0 0.0018997815873135464 -0.00012855187327935648 0 0.0020725740323470805 -8.469658856830823e-05 0 0.0015621373038989656 -4.0261624557616616e-05 0 0.0015887689445398239 -1.9427053173650582e-06 0 0.0015628531285775389 -1.7361295396562918e-06 0 0.0016189734184182923 -6.3623899691568422e-05 0 0.0015621373038989656 -4.0261624557616616e-05 0 0.0015887689445398239 -1.9427053173650582e-06 0 0.0016189734184182923 -6.3623899691568422e-05 0 0.0016925837714905731 -9.3274408156408914e-05 0 0.0015887689445398239 -1.9427053173650582e-06 0 0.0016925837714905731 -9.3274408156408914e-05 0 0.0015887689445398239 -1.9427053173650582e-06 0 0.0017286205925998318 -5.4716826003881236e-05 0 0.0015887689445398239 -1.9427053173650582e-06 0 0.0015595091096176699 -1.1922870866942897e-05 0 0.0015687656186613855 -6.6776514312919427e-06 0 0.0015887689445398239 -1.9427053173650582e-06 0 0.0015595091096176699 -1.1922870866942897e-05 0 0.0015421567147719112 -1.3494022922170338e-05 0 0.0015912722353179905 7.8797886103163212e-07 0 0.0017025356019533917 -2.3777023559679438e-05 0 0.0015887689445398239 -1.9427053173650582e-06 0 0.0017286205925998318 -5.4716826003881236e-05 0 0.0018356687520883137 -1.5577008513504372e-05 0 0.0015553493891925893 -1.5106124875159188e-05 0 0.001531129498322106 -2.6911714743446029e-05 0 0.0017130911228579481 -1.1986857390990481e-05 0 0.0017025356019533917 -2.3777023559679438e-05 0 0.0014714507217906121 -3.1301628915645735e-05 0 0.0015421567147719112 -1.3494022922170338e-05 0 0.0015070704220871511 -6.0960638855227386e-05 0 0.0015595091096176699 -1.1922870866942897e-05 0 0.0015421567147719112 -1.3494022922170338e-05 0 0.0015070704220871511 -6.0960638855227386e-05 0 0.0020603539652457752 -6.8407804789916103e-05 0 0.0018356687520883137 -1.5577008513504372e-05 0 0.0019063257812432751 -0.00011902526736803774 0 0.0018356687520883137 -1.5577008513504372e-05 0 0.0019063257812432751 -0.00011902526736803774 0 0.0017990346498060689 -0.00011329437339774354 0 0.0018559981170388408 -0.00019431178226751117 0 0.00197134792670094 -0.00019821420383554642 0 0.0019063257812432751 -0.00011902526736803774 0 0.0018559981170388408 -0.00019431178226751117 0 0.0019063257812432751 -0.00011902526736803774 0 0.0017990346498060689 -0.00011329437339774354 0 0.0018559981170388408 -0.00019431178226751117 0 0.0017367308161220028 -0.00020882367233277817 0 0.0017990346498060689 -0.00011329437339774354 0 0.0017367308161220028 -0.00020882367233277817 0 0.0016925837714905731 -9.3274408156408914e-05 0 0.0017990346498060689 -0.00011329437339774354 0 0.0016925837714905731 -9.3274408156408914e-05 0 0.0017286205925998318 -5.4716826003881236e-05 0 0.0017990346498060689 -0.00011329437339774354 0 0.0017286205925998318 -5.4716826003881236e-05 0 0.0018356687520883137 -1.5577008513504372e-05 0 0.0017990346498060689 -0.00011329437339774354 0 0.0023048685239392365 -0.00022444617534750689 0 0.0023035763453604064 -0.00022839617075046269 0 0.0023088872294716226 -0.00022754438519877751 0 0.0023048685239392365 -0.00022444617534750689 0 0.002300736241732871 -0.00022599261585462766 0 0.0023035763453604064 -0.00022839617075046269 0 0.0023048685239392365 -0.00022444617534750689 0 0.0023095173112741714 -0.00022240344415072112 0 0.0023088872294716226 -0.00022754438519877751 0 0.0023048685239392365 -0.00022444617534750689 0 0.0023052947932745817 -0.00021958114277836435 0 0.0023095173112741714 -0.00022240344415072112 0 0.0025065997842771016 -0.00017551671821090925 0 0.0024840783002005634 -0.0002252510848137429 0 0.0025261732135840507 -0.00019770232992066575 0 0.0023048685239392365 -0.00022444617534750689 0 0.0023052947932745817 -0.00021958114277836435 0 0.0023009431776157296 -0.00022268107064287902 0 0.0023052947932745817 -0.00021958114277836435 0 0.0023009431776157296 -0.00022268107064287902 0 0.0022965537798611342 -0.00022016676976462156 0 0.0023964279075265917 -0.00022397877043895707 0 0.0023431865209620683 -0.00022212630626769768 0 0.0024840783002005634 -0.0002252510848137429 0 0.0024176755482392016 -0.00020106476624713111 0 0.0023910300190442672 -0.00022672765915423767 0 0.0024721954704757963 -0.00018658262999883687 0 0.0024840783002005634 -0.0002252510848137429 0 0.0024176755482392016 -0.00020106476624713111 0 0.0023009431776157296 -0.00022268107064287902 0 0.0022975317923252169 -0.00022323786457649256 0 0.0022965537798611342 -0.00022016676976462156 0 0.0023009431776157296 -0.00022268107064287902 0 0.002300736241732871 -0.00022599261585462766 0 0.0022975317923252169 -0.00022323786457649256 0 0.0023048685239392365 -0.00022444617534750689 0 0.0023009431776157296 -0.00022268107064287902 0 0.002300736241732871 -0.00022599261585462766 0 0.002300736241732871 -0.00022599261585462766 0 0.0022973284374732958 -0.00022764537283901227 0 0.0022975317923252169 -0.00022323786457649256 0 0.0022973284374732958 -0.00022764537283901227 0 0.0022948197634507315 -0.0002245550035345349 0 0.0022975317923252169 -0.00022323786457649256 0 0.0022973284374732958 -0.00022764537283901227 0 0.0022948197634507315 -0.0002245550035345349 0 0.0022933031532001045 -0.00022981065319860501 0 0.0022948197634507315 -0.0002245550035345349 0 0.0022914069881666121 -0.00022511627186072035 0 0.0022933031532001045 -0.00022981065319860501 0 0.0022948197634507315 -0.0002245550035345349 0 0.0022955438228846382 -0.00022086821647328639 0 0.0022932827875756065 -0.00022110345843394635 0 0.0022948197634507315 -0.0002245550035345349 0 0.0022932827875756065 -0.00022110345843394635 0 0.0022914069881666121 -0.00022511627186072035 0 0.0022948197634507315 -0.0002245550035345349 0 0.0022955438228846382 -0.00022086821647328639 0 0.0022975317923252169 -0.00022323786457649256 0 0.0023686286670992298 -0.00018937517250529963 0 0.0023910300190442672 -0.00022672765915423767 0 0.0022962817001229612 -0.00021496301038174536 0 0.0022955438228846382 -0.00022086821647328639 0 0.0022965537798611342 -0.00022016676976462156 0 0.0022962817001229612 -0.00021496301038174536 0 0.0023431865209620683 -0.00022212630626769768 0 0.0023001747258487994 -0.00021717653065825331 0 0.0022955438228846382 -0.00022086821647328639 0 0.0022975317923252169 -0.00022323786457649256 0 0.0022965537798611342 -0.00022016676976462156 0 0.0023686286670992298 -0.00018937517250529963 0 0.0024176755482392016 -0.00020106476624713111 0 0.0023910300190442672 -0.00022672765915423767 0 0.0023411733559513159 -0.000168800063595172 0 0.0023686286670992298 -0.00018937517250529963 0 0.0022962817001229612 -0.00021496301038174536 0 0.0022955438228846382 -0.00022086821647328639 0 0.0022962817001229612 -0.00021496301038174536 0 0.0022932827875756065 -0.00022110345843394635 0 0.0022962817001229612 -0.00021496301038174536 0 0.0022832446614942854 -0.00022134305325258649 0 0.0022900142676111151 -0.00022144036318301824 0 0.0022832446614942854 -0.00022134305325258649 0 0.0022900142676111151 -0.00022144036318301824 0 0.0022855402041218071 -0.00022532264036894992 0 0.0022962817001229612 -0.00021496301038174536 0 0.0022932827875756065 -0.00022110345843394635 0 0.0022900142676111151 -0.00022144036318301824 0 0.0022932827875756065 -0.00022110345843394635 0 0.0022900142676111151 -0.00022144036318301824 0 0.0022914069881666121 -0.00022511627186072035 0 0.0022900142676111151 -0.00022144036318301824 0 0.0022914069881666121 -0.00022511627186072035 0 0.0022855402041218071 -0.00022532264036894992 0 0.0022914069881666121 -0.00022511627186072035 0 0.0022855402041218071 -0.00022532264036894992 0 0.0022883669992286417 -0.00022906958759606811 0 0.0022914069881666121 -0.00022511627186072035 0 0.0022883669992286417 -0.00022906958759606811 0 0.0022933031532001045 -0.00022981065319860501 0 0.0022754848540420015 -0.00022895425061639262 0 0.0022855402041218071 -0.00022532264036894992 0 0.0022883669992286417 -0.00022906958759606811 0 0.0022832446614942854 -0.00022134305325258649 0 0.0022754848540420015 -0.00022895425061639262 0 0.0022855402041218071 -0.00022532264036894992 0 0.0022704895454447706 -0.0002263627999574767 0 0.0022605343278689857 -0.00021948906749572479 0 0.0022717139565254073 -0.00022695865301201095 0 0.0022598164886748527 -0.00021645751113493885 0 0.0022568514636796761 -0.00020467711902863214 0 0.0022754848540420015 -0.00022895425061639262 0 0.0022598164886748527 -0.00021645751113493885 0 0.0022272518793010538 -0.00020506510466731183 0 0.0022717139565254073 -0.00022695865301201095 0 0.0022754848540420015 -0.00022895425061639262 0 0.0022598164886748527 -0.00021645751113493885 0 0.0022883669992286417 -0.00022906958759606811 0 0.0022904588845470714 -0.00023409315025873373 0 0.0022933031532001045 -0.00022981065319860501 0 0.0022754848540420015 -0.00022895425061639262 0 0.0022883669992286417 -0.00022906958759606811 0 0.0022904588845470714 -0.00023409315025873373 0 0.0022272518793010538 -0.00020506510466731183 0 0.0022471535553979577 -0.00018854224443202734 0 0.0022265331591118953 -0.00018130269377544613 0 0.0022666940973488526 -0.00017991618627045982 0 0.0022568514636796761 -0.00020467711902863214 0 0.0022471535553979577 -0.00018854224443202734 0 0.0022598164886748527 -0.00021645751113493885 0 0.0022272518793010538 -0.00020506510466731183 0 0.0022568514636796761 -0.00020467711902863214 0 0.0022272518793010538 -0.00020506510466731183 0 0.0022568514636796761 -0.00020467711902863214 0 0.0022471535553979577 -0.00018854224443202734 0 0.0022697500577693311 -0.00021700748730581952 0 0.0020725740323470805 -8.469658856830823e-05 0 0.0022666940973488526 -0.00017991618627045982 0 0.0022471535553979577 -0.00018854224443202734 0 0.0022388706974521711 -0.00015738545802687794 0 0.0022666940973488526 -0.00017991618627045982 0 0.0022388706974521711 -0.00015738545802687794 0 0.0022530782798254293 -0.00011821149122996434 0 0.0022388706974521711 -0.00015738545802687794 0 0.0022143446213718928 -0.000146614068008605 0 0.0022258953643305161 -0.00011907777609246381 0 0.0022388706974521711 -0.00015738545802687794 0 0.0022143446213718928 -0.000146614068008605 0 0.0022265331591118953 -0.00018130269377544613 0 0.0022471535553979577 -0.00018854224443202734 0 0.0022388706974521711 -0.00015738545802687794 0 0.0022265331591118953 -0.00018130269377544613 0 0.0022605343278689857 -0.00021948906749572479 0 0.002219192464261944 -0.00020127297364835775 0 0.0022073046704149993 -0.00017568730116007084 0 0.002219192464261944 -0.00020127297364835775 0 0.0022272518793010538 -0.00020506510466731183 0 0.0022265331591118953 -0.00018130269377544613 0 0.0021906809194480047 -0.00016239305753256193 0 0.0022904588845470714 -0.00023409315025873373 0 0.0022939073150640287 -0.00023623201853181886 0 0.0022939841119432873 -0.00023373416426988319 0 0.0022143446213718928 -0.000146614068008605 0 0.0021820096387176568 -0.00015991556152261205 0 0.0021986003274273827 -0.00011558092141499191 0 0.0022143446213718928 -0.000146614068008605 0 0.0022265331591118953 -0.00018130269377544613 0 0.0021820096387176568 -0.00015991556152261205 0 0.002219192464261944 -0.00020127297364835775 0 0.002132556777009137 -0.00013508289375301384 0 0.002219192464261944 -0.00020127297364835775 0 0.0019864844040109685 -9.2381620372283867e-05 0 0.0022939073150640287 -0.00023623201853181886 0 0.0022939841119432873 -0.00023373416426988319 0 0.002297431717851209 -0.000234049431063208 0 0.0022963190528432014 -0.00023154159399444568 0 0.0022939841119432873 -0.00023373416426988319 0 0.002297431717851209 -0.000234049431063208 0 0.0022963190528432014 -0.00023154159399444568 0 0.0022939841119432873 -0.00023373416426988319 0 0.0022933031532001045 -0.00022981065319860501 0 0.0022904588845470714 -0.00023409315025873373 0 0.0022939841119432873 -0.00023373416426988319 0 0.0022933031532001045 -0.00022981065319860501 0 0.0022973284374732958 -0.00022764537283901227 0 0.0022963190528432014 -0.00023154159399444568 0 0.0022933031532001045 -0.00022981065319860501 0 0.002300211944086071 -0.00023051892410910321 0 0.002297431717851209 -0.000234049431063208 0 0.0023032169988181335 -0.00023338091243714157 0 0.002300736241732871 -0.00022599261585462766 0 0.0022973284374732958 -0.00022764537283901227 0 0.002300211944086071 -0.00023051892410910321 0 0.0022973284374732958 -0.00022764537283901227 0 0.0022963190528432014 -0.00023154159399444568 0 0.002300211944086071 -0.00023051892410910321 0 0.002300736241732871 -0.00022599261585462766 0 0.002300211944086071 -0.00023051892410910321 0 0.0023035763453604064 -0.00022839617075046269 0 0.0022963190528432014 -0.00023154159399444568 0 0.002300211944086071 -0.00023051892410910321 0 0.002297431717851209 -0.000234049431063208 0 0.002297431717851209 -0.000234049431063208 0 0.0023032169988181335 -0.00023338091243714157 0 0.0022974119132846472 -0.00023820661726443751 0 0.0022353610120387519 -0.00021324257227425036 0 0.002132556777009137 -0.00013508289375301384 0 0.0021475816595745993 -0.00016194711668921722 0 0.0021487739298542193 -0.00018950176085337766 0 0.002175208195234658 -0.00015647964621478362 0 0.0022939073150640287 -0.00023623201853181886 0 0.002297431717851209 -0.000234049431063208 0 0.0022974119132846472 -0.00023820661726443751 0 0.0021475816595745993 -0.00016194711668921722 0 0.0021487739298542193 -0.00018950176085337766 0 0.002123335730144984 -0.00017730975768788065 0 0.0023032169988181335 -0.00023338091243714157 0 0.0023035763453604064 -0.00022839617075046269 0 0.0023088872294716226 -0.00022754438519877751 0 0.0022353610120387519 -0.00021324257227425036 0 0.0022142489087871487 -0.00023115459079572686 0 0.0021487739298542193 -0.00018950176085337766 0 0.002123335730144984 -0.00017730975768788065 0 0.0021203133548638254 -0.00022316606142901586 0 0.002300211944086071 -0.00023051892410910321 0 0.0023032169988181335 -0.00023338091243714157 0 0.0023035763453604064 -0.00022839617075046269 0 0.0019858499801766218 -2.1336628497626153e-05 0 0.0019836369008447521 -3.0758691986604512e-05 0 0.0019993476595886188 -3.5848347927436163e-05 0 0.0019858499801766218 -2.1336628497626153e-05 0 0.0019836369008447521 -3.0758691986604512e-05 0 0.0019791886701865484 -2.0665456768461179e-05 0 0.0021475816595745993 -0.00016194711668921722 0 0.0021374507633851142 -0.00013535423429162131 0 0.002123335730144984 -0.00017730975768788065 0 0.0021475816595745993 -0.00016194711668921722 0 0.0021374507633851142 -0.00013535423429162131 0 0.002175208195234658 -0.00015647964621478362 0 0.0020504721237156382 -7.6127425966476662e-05 0 0.002132556777009137 -0.00013508289375301384 0 0.0019836369008447521 -3.0758691986604512e-05 0 0.0019969819328501674 -3.9180339850930324e-05 0 0.0019993476595886188 -3.5848347927436163e-05 0 0.0021768910698173986 -0.0002073963017408685 0 0.0020524445497048091 -0.00013919141249182435 0 0.002089107718080845 -9.5052198366649655e-05 0 0.002132556777009137 -0.00013508289375301384 0 0.0019864844040109685 -9.2381620372283867e-05 0 0.0017602342325037151 -4.7449005861125976e-05 0 0.0017939533719069272 -8.7417602786767421e-05 0 0.0017881679144229376 -5.1233928910896989e-05 0 0.001880723240061076 -2.2696585658804809e-05 0 0.0019864844040109685 -9.2381620372283867e-05 0 0.0017881679144229376 -5.1233928910896989e-05 0 0.0018141445471207343 -6.1425563637727951e-05 0 0.0017990320315579489 -2.6328318014962738e-05 0 0.0017939533719069272 -8.7417602786767421e-05 0 0.0017881679144229376 -5.1233928910896989e-05 0 0.0018141445471207343 -6.1425563637727951e-05 0 0.0021898699867215032 -7.1289140316824391e-05 0 0.0021986003274273827 -0.00011558092141499191 0 0.0022180957282592114 -7.5855179955185883e-05 0 0.0019864844040109685 -9.2381620372283867e-05 0 0.0020255376813007328 -4.9605104574884e-05 0 0.0021495216599084631 -0.00011870228895896081 0 0.0021898699867215032 -7.1289140316824391e-05 0 0.0021986003274273827 -0.00011558092141499191 0 0.0021820096387176568 -0.00015991556152261205 0 0.0021495216599084631 -0.00011870228895896081 0 0.0021986003274273827 -0.00011558092141499191 0 0.0021986003274273827 -0.00011558092141499191 0 0.0022258953643305161 -0.00011907777609246381 0 0.0022180957282592114 -7.5855179955185883e-05 0 0.0022258953643305161 -0.00011907777609246381 0 0.002239123296055853 -9.817559671659267e-05 0 0.0022180957282592114 -7.5855179955185883e-05 0 0.0022143446213718928 -0.000146614068008605 0 0.0021986003274273827 -0.00011558092141499191 0 0.0022258953643305161 -0.00011907777609246381 0 0.0022388706974521711 -0.00015738545802687794 0 0.0022258953643305161 -0.00011907777609246381 0 0.0022530782798254293 -0.00011821149122996434 0 0.0022258953643305161 -0.00011907777609246381 0 0.0022530782798254293 -0.00011821149122996434 0 0.002239123296055853 -9.817559671659267e-05 0 0.0020725740323470805 -8.469658856830823e-05 0 0.0021562145535301332 -0.00013333847606675757 0 0.0022499466555909943 -0.00011646242432818092 0 0.002239123296055853 -9.817559671659267e-05 0 0.0022297536815251285 -2.8042112024205128e-05 0 0.0021898699867215032 -7.1289140316824391e-05 0 0.0022180957282592114 -7.5855179955185883e-05 0 0.0022243295024773073 -2.6604075737016696e-05 0 0.002239123296055853 -9.817559671659267e-05 0 0.0022180957282592114 -7.5855179955185883e-05 0 0.0022297536815251285 -2.8042112024205128e-05 0 0.0022180957282592114 -7.5855179955185883e-05 0 0.0022297536815251285 -2.8042112024205128e-05 0 0.0022243295024773073 -2.6604075737016696e-05 0 0.0020725740323470805 -8.469658856830823e-05 0 0.0017180389074767893 -4.431917099918189e-05 0 0.0020255376813007328 -4.9605104574884e-05 0 0.0017641738417842115 -3.3310232057866593e-05 0 0.0015556336646643245 -1.236898605351348e-05 0 0.0015549441933098915 -1.2601524088988804e-05 0 0.0015512691596128426 -1.4701593519743451e-05 0 0.0014971881562585523 -0.00011607951752489871 0 0.0014896611325634153 -8.2555794245158884e-05 0 0.0014776173928845305 -0.00010165508354344435 0 0.0017180389074767893 -4.431917099918189e-05 0 0.0015293052713470704 1.6257423879649015e-07 0 0.0015554154088927249 -1.2941924992582604e-05 0 0.0015549441933098915 -1.2601524088988804e-05 0 0.0015562846353099158 -1.2101318675340038e-05 0 0.0015554154088927249 -1.2941924992582604e-05 0 0.0015552654659465009 -1.2822293396115746e-05 0 0.0015549441933098915 -1.2601524088988804e-05 0 0.0017168149974954349 -7.4247276952912978e-05 0 0.0017060935085640716 -3.7688549409076365e-06 0 0.0016602552013251081 -5.8736642095325248e-05 0 0.0017180389074767893 -4.431917099918189e-05 0 0.0016842335322223628 -6.1442941925305073e-05 0 0.0017180389074767893 -4.431917099918189e-05 0 0.0017641738417842115 -3.3310232057866593e-05 0 0.0016842335322223628 -6.1442941925305073e-05 0 0.0017641738417842115 -3.3310232057866593e-05 0 0.0016842335322223628 -6.1442941925305073e-05 0 0.0016631747017022314 -6.4752288542818171e-05 0 0.0014971881562585523 -0.00011607951752489871 0 0.0014945220463725979 -0.00011943443217867125 0 0.0014776173928845305 -0.00010165508354344435 0 0.0015549441933098915 -1.2601524088988804e-05 0 0.0015518309738397262 -1.3988102547554448e-05 0 0.0015562846353099158 -1.2101318675340038e-05 0 0.0016842335322223628 -6.1442941925305073e-05 0 0.0015173511205527725 -4.2599556070821832e-05 0 0.0015549441933098915 -1.2601524088988804e-05 0 0.0015518309738397262 -1.3988102547554448e-05 0 0.0015512691596128426 -1.4701593519743451e-05 0 0.0014896611325634153 -8.2555794245158884e-05 0 0.0014776173928845305 -0.00010165508354344435 0 0.001469206037760553 -6.8798686226395966e-05 0 0.0015518309738397262 -1.3988102547554448e-05 0 0.0015512691596128426 -1.4701593519743451e-05 0 0.0015476372955615151 -1.6922674521361375e-05 0 0.0014554572131026209 -0.00010930807033209287 0 0.0014776173928845305 -0.00010165508354344435 0 0.0014477351578476526 -8.6010717146355482e-05 0 0.0014776173928845305 -0.00010165508354344435 0 0.0014477351578476526 -8.6010717146355482e-05 0 0.001469206037760553 -6.8798686226395966e-05 0 0.0014477351578476526 -8.6010717146355482e-05 0 0.0014438032627081658 -6.4855870839576314e-05 0 0.001469206037760553 -6.8798686226395966e-05 0 0.0018141445471207343 -6.1425563637727951e-05 0 0.001834249066116748 -3.5978534059355143e-05 0 0.0017990320315579489 -2.6328318014962738e-05 0 0.0014945220463725979 -0.00011943443217867125 0 0.0014554572131026209 -0.00010930807033209287 0 0.0014776173928845305 -0.00010165508354344435 0 0.0017641738417842115 -3.3310232057866593e-05 0 0.0016151289907014579 -6.8836674645094675e-05 0 0.0016151289907014579 -6.8836674645094675e-05 0 0.0015658621026312216 -5.2366201657764292e-05 0 0.0017881679144229376 -5.1233928910896989e-05 0 0.0017990320315579489 -2.6328318014962738e-05 0 0.0017630530426261763 -1.656141282901019e-05 0 0.0017602342325037151 -4.7449005861125976e-05 0 0.0017881679144229376 -5.1233928910896989e-05 0 0.0017630530426261763 -1.656141282901019e-05 0 0.0014477351578476526 -8.6010717146355482e-05 0 0.0014234189636964632 -7.3175762785155667e-05 0 0.0014179210901307054 -9.8543922976614823e-05 0 0.0014554572131026209 -0.00010930807033209287 0 0.0014477351578476526 -8.6010717146355482e-05 0 0.0014179210901307054 -9.8543922976614823e-05 0 0.0014477351578476526 -8.6010717146355482e-05 0 0.0014234189636964632 -7.3175762785155667e-05 0 0.0014438032627081658 -6.4855870839576314e-05 0 0.0014179210901307054 -9.8543922976614823e-05 0 0.0013964293065605203 -7.6597565723753974e-05 0 0.0013823339378273498 -8.6220509707091175e-05 0 0.0015658621026312216 -5.2366201657764292e-05 0 0.0017002578891827111 -5.561772614968922e-05 0 0.0014234189636964632 -7.3175762785155667e-05 0 0.0014179210901307054 -9.8543922976614823e-05 0 0.0013964293065605203 -7.6597565723753974e-05 0 0.001880723240061076 -2.2696585658804809e-05 0 0.0017002578891827111 -5.561772614968922e-05 0 0.0017602342325037151 -4.7449005861125976e-05 0 0.0017630530426261763 -1.656141282901019e-05 0 0.0017268438770480996 -7.0755570490290151e-06 0 0.0015597155423339051 1.1551939070364917e-06 0 0.0015631660486875529 -4.9043717081465082e-06 0 0.0015571367562323068 1.0332972128261806e-05 0 0.0015631660486875529 -4.9043717081465082e-06 0 0.0015532832468662917 -1.151031420818861e-05 0 0.0015453002026117795 -1.1059396009710074e-05 0 0.0015618121634436075 -3.4530478052649243e-06 0 0.0015524076819062452 -5.9730721643030534e-07 0 0.0015571479694901503 1.3037932555918808e-05 0 0.0015597155423339051 1.1551939070364917e-06 0 0.0015571367562323068 1.0332972128261806e-05 0 0.0015571479694901503 1.3037932555918808e-05 0 0.0015594412457329819 5.7715712946665694e-06 0 0.0015597155423339051 1.1551939070364917e-06 0 0.0015595091096176699 -1.1922870866942897e-05 0 0.0015594412457329819 5.7715712946665694e-06 0 0.0015597155423339051 1.1551939070364917e-06 0 0.0015597155423339051 1.1551939070364917e-06 0 0.0015631660486875529 -4.9043717081465082e-06 0 0.0015687656186613855 -6.6776514312919427e-06 0 0.0015595091096176699 -1.1922870866942897e-05 0 0.0015597155423339051 1.1551939070364917e-06 0 0.0015687656186613855 -6.6776514312919427e-06 0 0.0015887689445398239 -1.9427053173650582e-06 0 0.0015631660486875529 -4.9043717081465082e-06 0 0.0015687656186613855 -6.6776514312919427e-06 0 0.0015887689445398239 -1.9427053173650582e-06 0 0.0015631660486875529 -4.9043717081465082e-06 0 0.0015645276717006801 -3.617783114506e-06 0 0.0015887689445398239 -1.9427053173650582e-06 0 0.0015628531285775389 -1.7361295396562918e-06 0 0.0015645276717006801 -3.617783114506e-06 0 0.0015628531285775389 -1.7361295396562918e-06 0 0.0015652972806475571 -1.0061996400905875e-05 0 0.0015645276717006801 -3.617783114506e-06 0 0.0015652972806475571 -1.0061996400905875e-05 0 0.0015645276717006801 -3.617783114506e-06 0 0.0015600150631072723 -1.0318417620380172e-05 0 0.0015645276717006801 -3.617783114506e-06 0 0.0015600150631072723 -1.0318417620380172e-05 0 0.0015551594840170612 -1.1964814519730071e-05 0 0.0015631660486875529 -4.9043717081465082e-06 0 0.0015645276717006801 -3.617783114506e-06 0 0.0015532832468662917 -1.151031420818861e-05 0 0.0015645276717006801 -3.617783114506e-06 0 0.0015532832468662917 -1.151031420818861e-05 0 0.0015551594840170612 -1.1964814519730071e-05 0 0.0015532832468662917 -1.151031420818861e-05 0 0.0015551594840170612 -1.1964814519730071e-05 0 0.0015477309432787058 -1.5650791892577765e-05 0 0.0015551594840170612 -1.1964814519730071e-05 0 0.0015520452228261145 -1.3837227367475785e-05 0 0.0015477309432787058 -1.5650791892577765e-05 0 0.0015600150631072723 -1.0318417620380172e-05 0 0.0015551594840170612 -1.1964814519730071e-05 0 0.0015562846353099158 -1.2101318675340038e-05 0 0.0015554154088927249 -1.2941924992582604e-05 0 0.0015600150631072723 -1.0318417620380172e-05 0 0.0015562846353099158 -1.2101318675340038e-05 0 0.0015551594840170612 -1.1964814519730071e-05 0 0.0015562846353099158 -1.2101318675340038e-05 0 0.0015520452228261145 -1.3837227367475785e-05 0 0.0015518309738397262 -1.3988102547554448e-05 0 0.0015562846353099158 -1.2101318675340038e-05 0 0.0015520452228261145 -1.3837227367475785e-05 0 0.0015518309738397262 -1.3988102547554448e-05 0 0.0015520452228261145 -1.3837227367475785e-05 0 0.0015471400242647716 -1.61550660932271e-05 0 0.0015520452228261145 -1.3837227367475785e-05 0 0.0015471400242647716 -1.61550660932271e-05 0 0.0015477309432787058 -1.5650791892577765e-05 0 0.0015471400242647716 -1.61550660932271e-05 0 0.0015477309432787058 -1.5650791892577765e-05 0 0.0015437311004037287 -1.7944008025922334e-05 0 0.0015518309738397262 -1.3988102547554448e-05 0 0.0015471400242647716 -1.61550660932271e-05 0 0.0015476372955615151 -1.6922674521361375e-05 0 0.0015477309432787058 -1.5650791892577765e-05 0 0.0015445767810460984 -1.6366451281603709e-05 0 0.0015401603217826338 -2.0026874183615898e-05 0 0.0015532832468662917 -1.151031420818861e-05 0 0.0015477309432787058 -1.5650791892577765e-05 0 0.0015445767810460984 -1.6366451281603709e-05 0 0.0015532832468662917 -1.151031420818861e-05 0 0.0015445767810460984 -1.6366451281603709e-05 0 0.0015453002026117795 -1.1059396009710074e-05 0 0.0015433440177995438 -1.3841524830385148e-05 0 0.0015445767810460984 -1.6366451281603709e-05 0 0.0015453002026117795 -1.1059396009710074e-05 0 0.001557600926930998 1.8138531433724011e-05 0 0.0015571479694901503 1.3037932555918808e-05 0 0.0015571367562323068 1.0332972128261806e-05 0 0.0015500180606103848 1.8517989717471235e-06 0 0.0015524076819062452 -5.9730721643030534e-07 0 0.0015433440177995438 -1.3841524830385148e-05 0 0.0015445767810460984 -1.6366451281603709e-05 0 0.001543373054308073 -1.6473563062951919e-05 0 0.001543373054308073 -1.6473563062951919e-05 0 0.0015430245210632638 -1.8160404569197281e-05 0 0.0015450890404359163 -1.4142125734431726e-05 0 0.001543373054308073 -1.6473563062951919e-05 0 0.0015430245210632638 -1.8160404569197281e-05 0 0.0015413580396895082 -1.8752979880157371e-05 0 0.0015430245210632638 -1.8160404569197281e-05 0 0.0015418831273841334 -1.9320615796528039e-05 0 0.0015411118093967421 -1.8197236843648238e-05 0 0.0015430245210632638 -1.8160404569197281e-05 0 0.0015399156181653351 -1.7028943544507439e-05 0 0.0015411118093967421 -1.8197236843648238e-05 0 0.0015430245210632638 -1.8160404569197281e-05 0 0.0015418831273841334 -1.9320615796528039e-05 0 0.0015438661274700834 -2.237633661746591e-05 0 0.0015399156181653351 -1.7028943544507439e-05 0 0.0015413580396895082 -1.8752979880157371e-05 0 0.0015359084562370626 -1.9490403699043824e-05 0 0.0015430245210632638 -1.8160404569197281e-05 0 0.0015399156181653351 -1.7028943544507439e-05 0 0.0015413580396895082 -1.8752979880157371e-05 0 0.0015445767810460984 -1.6366451281603709e-05 0 0.0015413580396895082 -1.8752979880157371e-05 0 0.0015401603217826338 -2.0026874183615898e-05 0 0.0015445767810460984 -1.6366451281603709e-05 0 0.001543373054308073 -1.6473563062951919e-05 0 0.0015413580396895082 -1.8752979880157371e-05 0 0.0015477309432787058 -1.5650791892577765e-05 0 0.0015401603217826338 -2.0026874183615898e-05 0 0.0015437311004037287 -1.7944008025922334e-05 0 0.0015401603217826338 -2.0026874183615898e-05 0 0.0015408054017859638 -1.9088536291017201e-05 0 0.0015261723825705674 -2.4711755775272187e-05 0 0.0015401603217826338 -2.0026874183615898e-05 0 0.0015437311004037287 -1.7944008025922334e-05 0 0.0015408054017859638 -1.9088536291017201e-05 0 0.0015471400242647716 -1.61550660932271e-05 0 0.0015408054017859638 -1.9088536291017201e-05 0 0.0015476372955615151 -1.6922674521361375e-05 0 0.0015471400242647716 -1.61550660932271e-05 0 0.0015437311004037287 -1.7944008025922334e-05 0 0.0015408054017859638 -1.9088536291017201e-05 0 0.0015408054017859638 -1.9088536291017201e-05 0 0.0015459564920691537 -1.9609051259040701e-05 0 0.0015431437844907246 -2.1860076610403013e-05 0 0.0015408054017859638 -1.9088536291017201e-05 0 0.0015476372955615151 -1.6922674521361375e-05 0 0.0015459564920691537 -1.9609051259040701e-05 0 0.0015408054017859638 -1.9088536291017201e-05 0 0.0015261723825705674 -2.4711755775272187e-05 0 0.0015431437844907246 -2.1860076610403013e-05 0 0.0015401603217826338 -2.0026874183615898e-05 0 0.0015261723825705674 -2.4711755775272187e-05 0 0.0015359084562370626 -1.9490403699043824e-05 0 0.0015413580396895082 -1.8752979880157371e-05 0 0.0015401603217826338 -2.0026874183615898e-05 0 0.0015359084562370626 -1.9490403699043824e-05 0 0.00010784774794204582 -0.00011313349205892419 0 0.00015680038973073785 -9.5710085406169553e-05 0 0.00020839246302810371 -0.00014004042255732021 0 0.00080688034431548742 -5.7010743424320495e-05 0 0.00085738626804756084 -6.9796734417440769e-05 0 0.0015359084562370626 -1.9490403699043824e-05 0 0.0015040125029095342 1.022489654672902e-05 0 0.0015356315543098385 -7.5430000786230631e-06 0 0.0015261723825705674 -2.4711755775272187e-05 0 0.0015359084562370626 -1.9490403699043824e-05 0 0.0015040125029095342 1.022489654672902e-05 0 0.0015261723825705674 -2.4711755775272187e-05 0 0.0015040125029095342 1.022489654672902e-05 0 0.0014646810911703718 -5.2582188662350689e-06 0 0.00010784774794204582 -0.00011313349205892419 0 9.5745708308241106e-05 -7.1304452384965311e-05 0 0.00015680038973073785 -9.5710085406169553e-05 0 0.00010784774794204582 -0.00011313349205892419 0 9.5745708308241106e-05 -7.1304452384965311e-05 0 0.00010003890176032725 -9.1053998266640355e-05 0 9.5745708308241106e-05 -7.1304452384965311e-05 0 0.00015680038973073785 -9.5710085406169553e-05 0 0.00017489819190014103 -5.9008439191733303e-05 0 0.00015680038973073785 -9.5710085406169553e-05 0 0.00020755232238293849 -9.7584002824069706e-05 0 0.00020839246302810371 -0.00014004042255732021 0 0.00015680038973073785 -9.5710085406169553e-05 0 0.00017489819190014103 -5.9008439191733303e-05 0 0.00020755232238293849 -9.7584002824069706e-05 0 0.00017489819190014103 -5.9008439191733303e-05 0 0.00020755232238293849 -9.7584002824069706e-05 0 0.0002578533146759776 -3.7674576168375724e-05 0 0.00024838914163541429 -0.00013294793121132207 0 0.00025856737315827204 -6.9028628604247922e-05 0 0.00027772971229509297 -0.00011903461643004766 0 0.00024489755002255441 -0.00013799151607162653 0 0.000270512574498555 -9.0640418519930381e-05 0 0.00020755232238293849 -9.7584002824069706e-05 0 0.00024489755002255441 -0.00013799151607162653 0 0.0002578533146759776 -3.7674576168375724e-05 0 0.00029914230085468119 -0.00010789992850872583 0 0.00027772971229509297 -0.00011903461643004766 0 0.000270512574498555 -9.0640418519930381e-05 0 0.00029914230085468119 -0.00010789992850872583 0 0.00027772971229509297 -0.00011903461643004766 0 0.00029705480271247569 -0.0001475743895546774 0 0.00027772971229509297 -0.00011903461643004766 0 0.00029705480271247569 -0.0001475743895546774 0 0.00024489755002255441 -0.00013799151607162653 0 0.0015396338276481359 -1.7396674029162061e-05 0 0.0015396576627923989 -1.8784063086707846e-05 0 0.0015356315543098385 -7.5430000786230631e-06 0 0.0012396428522701993 -1.3443769258456842e-05 0 0.00098460616521512312 -0.00010121066526730429 0 0.0015409259219992032 -1.8506338019657307e-05 0 0.0015418831273841334 -1.9320615796528039e-05 0 0.0015438661274700834 -2.237633661746591e-05 0 0.0015396338276481359 -1.7396674029162061e-05 0 0.0015409259219992032 -1.8506338019657307e-05 0 0.0015418831273841334 -1.9320615796528039e-05 0 0.0015399156181653351 -1.7028943544507439e-05 0 0.0015396338276481359 -1.7396674029162061e-05 0 0.0015411118093967421 -1.8197236843648238e-05 0 0.0015396338276481359 -1.7396674029162061e-05 0 0.0015418831273841334 -1.9320615796528039e-05 0 0.0015411118093967421 -1.8197236843648238e-05 0 0.0015399156181653351 -1.7028943544507439e-05 0 0.0015396338276481359 -1.7396674029162061e-05 0 0.0015356315543098385 -7.5430000786230631e-06 0 0.00098460616521512312 -0.00010121066526730429 0 0.00085738626804756084 -6.9796734417440769e-05 0 0.00029705480271247569 -0.0001475743895546774 0 0.00020839246302810371 -0.00014004042255732021 0 0.00024489755002255441 -0.00013799151607162653 0 0.0015399156181653351 -1.7028943544507439e-05 0 0.0015359084562370626 -1.9490403699043824e-05 0 0.0015356315543098385 -7.5430000786230631e-06 0 0.00020755232238293849 -9.7584002824069706e-05 0 0.00020839246302810371 -0.00014004042255732021 0 0.00024489755002255441 -0.00013799151607162653 0 0.0011212983289419917 -4.2680829530638893e-05 0 0.0011889776459127806 -7.2265631800502174e-05 0 0.0012336260164073237 -3.1154331355572287e-05 0 0.0014050612822865043 -4.6185178468754375e-05 0 0.0014240861072932151 -3.0778016899001644e-05 0 0.0013819927301794948 -3.5704705041749208e-05 0 0.0012752650544733569 -3.28311590220021e-05 0 0.0013079234309737197 -3.5731002535293909e-05 0 0.0011212983289419917 -4.2680829530638893e-05 0 0.0011390450654681318 -7.8048466181715988e-05 0 0.0011889776459127806 -7.2265631800502174e-05 0 0.0014050612822865043 -4.6185178468754375e-05 0 0.0014252090658527618 -5.2980394939230026e-05 0 0.0014240861072932151 -3.0778016899001644e-05 0 0.0014050612822865043 -4.6185178468754375e-05 0 0.0014042838319785022 -6.0578136448864701e-05 0 0.0013903541550185344 -5.1017823270349526e-05 0 0.0013964293065605203 -7.6597565723753974e-05 0 0.0014042838319785022 -6.0578136448864701e-05 0 0.0013814801720990299 -6.3442302018714135e-05 0 0.0014234189636964632 -7.3175762785155667e-05 0 0.0014042838319785022 -6.0578136448864701e-05 0 0.0014252090658527618 -5.2980394939230026e-05 0 0.0014234189636964632 -7.3175762785155667e-05 0 0.0013964293065605203 -7.6597565723753974e-05 0 0.0014042838319785022 -6.0578136448864701e-05 0 0.0014050612822865043 -4.6185178468754375e-05 0 0.0014042838319785022 -6.0578136448864701e-05 0 0.0014252090658527618 -5.2980394939230026e-05 0 0.0014234189636964632 -7.3175762785155667e-05 0 0.0014252090658527618 -5.2980394939230026e-05 0 0.0014438032627081658 -6.4855870839576314e-05 0 0.0014252090658527618 -5.2980394939230026e-05 0 0.0014438032627081658 -6.4855870839576314e-05 0 0.0014519183251725204 -4.9161116492577661e-05 0 0.0011212983289419917 -4.2680829530638893e-05 0 0.0010415281465363459 -5.0166258461086857e-05 0 0.0011115907778591872 -8.6537554995104617e-05 0 0.0012752650544733569 -3.28311590220021e-05 0 0.0012476130093235453 -7.5881410259781755e-05 0 0.0014252090658527618 -5.2980394939230026e-05 0 0.0014240861072932151 -3.0778016899001644e-05 0 0.0014519183251725204 -4.9161116492577661e-05 0 0.0011212983289419917 -4.2680829530638893e-05 0 0.0011115907778591872 -8.6537554995104617e-05 0 0.0011390450654681318 -7.8048466181715988e-05 0 0.0014672074514120582 -2.8016051890073328e-05 0 0.0014519183251725204 -4.9161116492577661e-05 0 0.0014824867817174834 -4.9972469531527389e-05 0 0.0014240861072932151 -3.0778016899001644e-05 0 0.0014672074514120582 -2.8016051890073328e-05 0 0.0014519183251725204 -4.9161116492577661e-05 0 0.0012476130093235453 -7.5881410259781755e-05 0 0.0013824668917177423 -8.2152199403730556e-05 0 0.0012476130093235453 -7.5881410259781755e-05 0 0.0014595994117259942 -5.9068168593760451e-05 0 0.0014519183251725204 -4.9161116492577661e-05 0 0.001469206037760553 -6.8798686226395966e-05 0 0.0014824867817174834 -4.9972469531527389e-05 0 0.0014438032627081658 -6.4855870839576314e-05 0 0.0014519183251725204 -4.9161116492577661e-05 0 0.001469206037760553 -6.8798686226395966e-05 0 0.0015173511205527725 -4.2599556070821832e-05 0 0.0014595994117259942 -5.9068168593760451e-05 0 0.0015512691596128426 -1.4701593519743451e-05 0 0.0015501407741078087 -1.9755974733906602e-05 0 0.0015476372955615151 -1.6922674521361375e-05 0 0.0014896611325634153 -8.2555794245158884e-05 0 0.001469206037760553 -6.8798686226395966e-05 0 0.0014824867817174834 -4.9972469531527389e-05 0 0.0015501407741078087 -1.9755974733906602e-05 0 0.0015459564920691537 -1.9609051259040701e-05 0 0.0015431437844907246 -2.1860076610403013e-05 0 0.0015501407741078087 -1.9755974733906602e-05 0 0.0015476372955615151 -1.6922674521361375e-05 0 0.0015459564920691537 -1.9609051259040701e-05 0 0.0015728116129124642 -1.3650815440203894e-05 0 0.0013824668917177423 -8.2152199403730556e-05 0 0.0015261723825705674 -2.4711755775272187e-05 0 0.0014356755729818395 -4.2751306126505666e-05 0 0.0014646810911703718 -5.2582188662350689e-06 0 0.0015261723825705674 -2.4711755775272187e-05 0 0.0015431437844907246 -2.1860076610403013e-05 0 0.0015527751204888116 -2.9739426290645349e-05 0 0.0014595994117259942 -5.9068168593760451e-05 0 0.0013824668917177423 -8.2152199403730556e-05 0 0.0013647333825562511 -6.7254744604864763e-05 0 0.0013792387600198499 -8.8795556045134693e-05 0 0.0013752207458023837 -6.6772061681875079e-05 0 0.0015501407741078087 -1.9755974733906602e-05 0 0.0015431437844907246 -2.1860076610403013e-05 0 0.0015527751204888116 -2.9739426290645349e-05 0 0.00010784774794204582 -0.00011313349205892419 0 0.00010366319715295477 -9.0989132782996532e-05 0 0.00010761729021170364 -8.3340605110179274e-05 0 0.0015040125029095342 1.022489654672902e-05 0 0.0014646810911703718 -5.2582188662350689e-06 0 0.0014224280599524897 2.3346607164317504e-05 0 0.0014356755729818395 -4.2751306126505666e-05 0 0.0014646810911703718 -5.2582188662350689e-06 0 0.0014224280599524897 2.3346607164317504e-05 0 0.00080688034431548742 -5.7010743424320495e-05 0 0.00078442196827709836 1.9378199274458412e-05 0 0.00010982332216301904 -7.0600457403190365e-05 0 9.0918252037497103e-07 -9.7854205974667961e-05 0 9.5745708308241106e-05 -7.1304452384965311e-05 0 -2.9387805565591624e-05 -8.3003915021245126e-05 0 1.369247167164232e-05 -3.4610789795411948e-05 0 0.00010784774794204582 -0.00011313349205892419 0 0.00010003890176032725 -9.1053998266640355e-05 0 0.00010366319715295477 -9.0989132782996532e-05 0 9.5745708308241106e-05 -7.1304452384965311e-05 0 0.00010003890176032725 -9.1053998266640355e-05 0 0.00010400331877432638 -0.00010003529148937058 0 0.00010400331877432638 -0.00010003529148937058 0 0.00010366319715295477 -9.0989132782996532e-05 0 0.00010738171577480234 -9.0976569361681992e-05 0 0.00010003890176032725 -9.1053998266640355e-05 0 0.00010400331877432638 -0.00010003529148937058 0 0.00010366319715295477 -9.0989132782996532e-05 0 0.00010366319715295477 -9.0989132782996532e-05 0 0.00010738171577480234 -9.0976569361681992e-05 0 0.00010761729021170364 -8.3340605110179274e-05 0 9.0918252037497103e-07 -9.7854205974667961e-05 0 0.00020458016760533469 -4.781647346025347e-05 0 0.00010738171577480234 -9.0976569361681992e-05 0 0.00011586845892963892 -8.8935009521247223e-05 0 0.00010761729021170364 -8.3340605110179274e-05 0 -2.9387805565591624e-05 -8.3003915021245126e-05 0 -7.2025646725722945e-05 -5.9486454192070739e-05 0 -0.00011516302866952939 -8.6466988714550643e-05 0 0.00010400331877432638 -0.00010003529148937058 0 0.00012641322552551523 -8.9971660340792216e-05 0 0.00015451541638807453 -9.7374040504448828e-05 0 0.00011586845892963892 -8.8935009521247223e-05 0 0.00012641322552551523 -8.9971660340792216e-05 0 0.00010761729021170364 -8.3340605110179274e-05 0 0.00010400331877432638 -0.00010003529148937058 0 0.00011586845892963892 -8.8935009521247223e-05 0 0.00012641322552551523 -8.9971660340792216e-05 0 0.00010400331877432638 -0.00010003529148937058 0 0.00010738171577480234 -9.0976569361681992e-05 0 0.00011586845892963892 -8.8935009521247223e-05 0 -2.9387805565591624e-05 -8.3003915021245126e-05 0 -7.2025646725722945e-05 -5.9486454192070739e-05 0 -4.1519089604976474e-05 -3.2874346138442647e-05 0 0.0012476130093235453 -7.5881410259781755e-05 0 0.00062305767511417539 -5.7463353252402992e-05 0 0.0013824668917177423 -8.2152199403730556e-05 0 0.00078442196827709836 1.9378199274458412e-05 0 0.00012641322552551523 -8.9971660340792216e-05 0 0.00010761729021170364 -8.3340605110179274e-05 0 0.00014608016557812807 -8.0143089873293481e-05 0 0.00097365802286797083 -0.00016992530355140227 0 0.0010023834096058676 5.4736605775675742e-05 0 0.00082381454763313759 6.3307761051615413e-05 0 0.00097365802286797083 -0.00016992530355140227 0 0.0010388682829854221 -0.00016693328019842281 0 0.0010023834096058676 5.4736605775675742e-05 0 0.00078442196827709836 1.9378199274458412e-05 0 0.00062305767511417539 -5.7463353252402992e-05 0 0.0010415281465363459 -5.0166258461086857e-05 0 0.0011115907778591872 -8.6537554995104617e-05 0 0.0010854483759795864 -0.00011860624056880509 0 0.0011115907778591872 -8.6537554995104617e-05 0 0.0011400756857359022 -0.00010878874538341835 0 0.0011390450654681318 -7.8048466181715988e-05 0 0.0011115907778591872 -8.6537554995104617e-05 0 0.0011366801116041662 -0.00011467594010998795 0 0.0011400756857359022 -0.00010878874538341835 0 0.00062305767511417539 -5.7463353252402992e-05 0 0.00092667738356908729 -7.7675454811458207e-05 0 0.0011115907778591872 -8.6537554995104617e-05 0 0.0010854483759795864 -0.00011860624056880509 0 0.0011366801116041662 -0.00011467594010998795 0 0.00012641322552551523 -8.9971660340792216e-05 0 0.00014608016557812807 -8.0143089873293481e-05 0 0.00015451541638807453 -9.7374040504448828e-05 0 0.00020458016760533469 -4.781647346025347e-05 0 5.2492272289895151e-05 -3.843325759555869e-05 0 -0.00011516302866952939 -8.6466988714550643e-05 0 -0.00011870652786936237 -6.7670415222140871e-05 0 -0.00014271045121008673 -3.4590656593932794e-05 0 0.00062305767511417539 -5.7463353252402992e-05 0 0.00020458016760533469 -4.781647346025347e-05 0 -0.00011516302866952939 -8.6466988714550643e-05 0 -0.00011870652786936237 -6.7670415222140871e-05 0 -9.6779488929721297e-05 -5.1582553849353934e-05 0 -7.2025646725722945e-05 -5.9486454192070739e-05 0 -0.00011516302866952939 -8.6466988714550643e-05 0 -9.6779488929721297e-05 -5.1582553849353934e-05 0 0.00048273327576494544 -3.2111173500801608e-05 0 0.00051658712881044776 -8.6864016174164195e-05 0 0.00060802183018353556 -3.74720660820963e-05 0 0.00020458016760533469 -4.781647346025347e-05 0 0.0006989905084085501 -5.7861129537886e-05 0 0.00051658712881044776 -8.6864016174164195e-05 0 0.00060802183018353556 -3.74720660820963e-05 0 0.00073340066120445397 -4.2918135832089247e-05 0 0.00025890107195756119 -3.7054000197437479e-05 0 0.00026628165659311895 -5.0450646130419242e-05 0 0.00027914881250360081 -3.3646011025803266e-05 0 0.00092667738356908729 -7.7675454811458207e-05 0 0.0006989905084085501 -5.7861129537886e-05 0 0.0011445293065310254 -0.000110482573090332 0 0.0011676598167243205 -0.00011101216537018853 0 0.0011400756857359022 -0.00010878874538341835 0 0.0011889776459127806 -7.2265631800502174e-05 0 0.0012459581471707586 -0.00010072704065540121 0 0.0011400756857359022 -0.00010878874538341835 0 0.0010984169415197119 -0.00012362508861861628 0 0.0011138958964776163 -9.9634717682192445e-05 0 0.0011366801116041662 -0.00011467594010998795 0 0.0011400756857359022 -0.00010878874538341835 0 0.0011138958964776163 -9.9634717682192445e-05 0 0.0011400756857359022 -0.00010878874538341835 0 0.0011390450654681318 -7.8048466181715988e-05 0 0.0011889776459127806 -7.2265631800502174e-05 0 0.00027283427674156891 -6.3771910232031861e-05 0 0.00026628165659311895 -5.0450646130419242e-05 0 0.00027941550150494953 -5.1686519627170054e-05 0 -0.00016858746285337357 7.9675946043728784e-06 0 -0.00014271045121008673 -3.4590656593932794e-05 0 -0.00015520238888126663 1.2641124683947257e-05 0 -3.994361154436552e-06 -4.5478674740875823e-05 0 5.2492272289895151e-05 -3.843325759555869e-05 0 -0.00014271045121008673 -3.4590656593932794e-05 0 -0.00011107397253804029 -2.626409025651985e-05 0 -0.00015520238888126663 1.2641124683947257e-05 0 -3.994361154436552e-06 -4.5478674740875823e-05 0 -0.00029425966333970641 -2.7240300489271635e-05 0 0.00026628165659311895 -5.0450646130419242e-05 0 0.00027941550150494953 -5.1686519627170054e-05 0 0.00027914881250360081 -3.3646011025803266e-05 0 -0.0001184657918401707 -5.9480207848087997e-05 0 -0.00012571482318847468 -1.379544831118399e-05 0 -0.00011870652786936237 -6.7670415222140871e-05 0 -0.00014271045121008673 -3.4590656593932794e-05 0 -0.00011107397253804029 -2.626409025651985e-05 0 -0.00011870652786936237 -6.7670415222140871e-05 0 -9.6779488929721297e-05 -5.1582553849353934e-05 0 -0.00011169239838861833 4.3244017024587165e-07 0 -9.6779488929721297e-05 -5.1582553849353934e-05 0 -0.00011169239838861833 4.3244017024587165e-07 0 -8.6991645558515059e-05 -2.062472277170426e-05 0 -0.00012571482318847468 -1.379544831118399e-05 0 -0.00010232879386547711 -2.0976938679452127e-05 0 -0.00012571482318847468 -1.379544831118399e-05 0 -0.00029425966333970641 -2.7240300489271635e-05 0 -0.00020400137126489341 -3.4708577109846504e-05 0 -0.00019196585754569491 2.6611927258775832e-05 0 -0.00025091912013780758 7.0394443704833065e-06 0 -0.00012571482318847468 -1.379544831118399e-05 0 -0.00022220110215099352 4.0521273118567273e-05 0 -0.00011059284882152259 9.021367505162936e-06 0 -6.3524907404447097e-05 3.956581282776521e-05 0 -7.3456282069093746e-05 9.6028482267052325e-05 0 -6.3524907404447097e-05 3.956581282776521e-05 0 -3.2619099125865699e-05 5.7419121589307477e-05 0 -5.0802951946794232e-05 8.2721231494864886e-05 0 -6.3524907404447097e-05 3.956581282776521e-05 0 -6.3318045967953001e-05 1.0689230641903068e-06 0 -1.2266736131890817e-05 1.1264768923926964e-05 0 -0.00011059284882152259 9.021367505162936e-06 0 -6.3524907404447097e-05 3.956581282776521e-05 0 -6.3318045967953001e-05 1.0689230641903068e-06 0 -0.00011059284882152259 9.021367505162936e-06 0 -6.3318045967953001e-05 1.0689230641903068e-06 0 -8.6991645558515059e-05 -2.062472277170426e-05 0 -6.3318045967953001e-05 1.0689230641903068e-06 0 -8.6991645558515059e-05 -2.062472277170426e-05 0 -4.1519089604976474e-05 -3.2874346138442647e-05 0 -7.2025646725722945e-05 -5.9486454192070739e-05 0 -8.6991645558515059e-05 -2.062472277170426e-05 0 -4.1519089604976474e-05 -3.2874346138442647e-05 0 -7.2025646725722945e-05 -5.9486454192070739e-05 0 -9.6779488929721297e-05 -5.1582553849353934e-05 0 -8.6991645558515059e-05 -2.062472277170426e-05 0 -6.3318045967953001e-05 1.0689230641903068e-06 0 -4.1519089604976474e-05 -3.2874346138442647e-05 0 -1.2266736131890817e-05 1.1264768923926964e-05 0 -4.1519089604976474e-05 -3.2874346138442647e-05 0 -1.2266736131890817e-05 1.1264768923926964e-05 0 1.369247167164232e-05 -3.4610789795411948e-05 0 -2.9387805565591624e-05 -8.3003915021245126e-05 0 -4.1519089604976474e-05 -3.2874346138442647e-05 0 1.369247167164232e-05 -3.4610789795411948e-05 0 -1.2266736131890817e-05 1.1264768923926964e-05 0 1.369247167164232e-05 -3.4610789795411948e-05 0 6.3661320363539e-05 -1.8724483144239493e-06 0 -1.2266736131890817e-05 1.1264768923926964e-05 0 6.3661320363539e-05 -1.8724483144239493e-06 0 4.3185761239909908e-05 5.7728940109134854e-05 0 -1.2266736131890817e-05 1.1264768923926964e-05 0 -3.2619099125865699e-05 5.7419121589307477e-05 0 4.3185761239909908e-05 5.7728940109134854e-05 0 -6.3524907404447097e-05 3.956581282776521e-05 0 -1.2266736131890817e-05 1.1264768923926964e-05 0 -3.2619099125865699e-05 5.7419121589307477e-05 0 -3.2619099125865699e-05 5.7419121589307477e-05 0 -4.9716058467376356e-05 0.0001058879872664846 0 4.3185761239909908e-05 5.7728940109134854e-05 0 -5.5363187677038459e-05 0.00011060479688232892 0 -7.5412227858540971e-05 0.00012030990971763091 0 -4.9716058467376356e-05 0.0001058879872664846 0 4.3185761239909908e-05 5.7728940109134854e-05 0 8.6589148692722855e-05 0.00013618074377432063 0 -4.9716058467376356e-05 0.0001058879872664846 0 -9.1998822298548977e-05 6.1562407223800109e-05 0 -0.00023211011717737726 0.00011211272060159832 0 -3.2619099125865699e-05 5.7419121589307477e-05 0 -4.9716058467376356e-05 0.0001058879872664846 0 -5.0802951946794232e-05 8.2721231494864886e-05 0 -4.9716058467376356e-05 0.0001058879872664846 0 -9.1998822298548977e-05 6.1562407223800109e-05 0 -4.0305786084401586e-05 8.7098227890658003e-05 0 -0.00015122631188714861 -8.551840690606051e-07 0 -5.2311564861100495e-05 9.7704905805360313e-06 0 -0.00014011621210683925 -0.0001371017956354113 0 -9.1998822298548977e-05 6.1562407223800109e-05 0 -0.00015122631188714861 -8.551840690606051e-07 0 -0.00023211011717737726 0.00011211272060159832 0 -9.1998822298548977e-05 6.1562407223800109e-05 0 -0.00015122631188714861 -8.551840690606051e-07 0 -5.2311564861100495e-05 9.7704905805360313e-06 0 -0.00022220110215099352 4.0521273118567273e-05 0 -0.00075920439856817182 -4.7515405926416526e-05 0 -0.00057234910621983077 -2.4683867532693643e-05 0 -0.00057256505210899673 2.9372335661843087e-05 0 -0.00060024877743488378 -8.6853268809643385e-05 0 -5.2311564861100495e-05 9.7704905805360313e-06 0 1.368641150010401e-05 0.00010441221659361499 0 -7.1555964387766476e-06 -5.7428811637288946e-05 0 -9.1998822298548977e-05 6.1562407223800109e-05 0 -5.2311564861100495e-05 9.7704905805360313e-06 0 -4.0305786084401586e-05 8.7098227890658003e-05 0 -0.00057234910621983077 -2.4683867532693643e-05 0 -0.00055756052934446997 -6.5999243763997204e-05 0 -0.00060024877743488378 -8.6853268809643385e-05 0 -6.3524907404447097e-05 3.956581282776521e-05 0 -7.3456282069093746e-05 9.6028482267052325e-05 0 -5.0802951946794232e-05 8.2721231494864886e-05 0 -0.00022220110215099352 4.0521273118567273e-05 0 -3.2141372016504146e-05 9.75292525981105e-05 0 -5.2311564861100495e-05 9.7704905805360313e-06 0 1.368641150010401e-05 0.00010441221659361499 0 -4.0305786084401586e-05 8.7098227890658003e-05 0 -4.9716058467376356e-05 0.0001058879872664846 0 -4.0305786084401586e-05 8.7098227890658003e-05 0 -5.0802951946794232e-05 8.2721231494864886e-05 0 -7.3456282069093746e-05 9.6028482267052325e-05 0 -4.0305786084401586e-05 8.7098227890658003e-05 0 -5.0802951946794232e-05 8.2721231494864886e-05 0 -0.00022220110215099352 4.0521273118567273e-05 0 -0.00029425966333970641 -2.7240300489271635e-05 0 -0.00057256505210899673 2.9372335661843087e-05 0 -0.00052636167544087308 -4.3130224091427042e-06 0 -0.00045558567060707947 6.689895565652109e-05 0 -0.00057234910621983077 -2.4683867532693643e-05 0 -0.00057256505210899673 2.9372335661843087e-05 0 -0.00052636167544087308 -4.3130224091427042e-06 0 -0.00085156614603252201 -2.0761897036814e-05 0 -0.00080512401659239841 1.5687138590656322e-06 0 -0.00081029836315681017 -4.0352737206368273e-05 0 -0.00055662736070093784 -6.6663765019821494e-05 0 -0.00052636167544087308 -4.3130224091427042e-06 0 -0.00047531174562908892 -2.7523580015031386e-05 0 -0.00083185545963911859 -2.8828818007762617e-05 0 -0.00064486150706762253 -1.2882858127855844e-05 0 -0.00057234910621983077 -2.4683867532693643e-05 0 -0.00055662736070093784 -6.6663765019821494e-05 0 -0.00052636167544087308 -4.3130224091427042e-06 0 -0.0006595566540838582 -8.3431276933593754e-05 0 -0.00083185545963911859 -2.8828818007762617e-05 0 -0.00080512401659239841 1.5687138590656322e-06 0 -0.00081029836315681017 -4.0352737206368273e-05 0 -0.00077648266720922537 -3.2136541764447897e-05 0 -0.00064486150706762253 -1.2882858127855844e-05 0 -0.0003997921348490178 -4.5579575058852898e-05 0 -0.00080512401659239841 1.5687138590656322e-06 0 -0.00075772021498144663 2.342261117830843e-05 0 -0.00077648266720922537 -3.2136541764447897e-05 0 -0.00047531174562908892 -2.7523580015031386e-05 0 -0.00045558567060707947 6.689895565652109e-05 0 -0.00039500817272061106 1.1105284964334261e-05 0 -0.00052636167544087308 -4.3130224091427042e-06 0 -0.00047531174562908892 -2.7523580015031386e-05 0 -0.00045558567060707947 6.689895565652109e-05 0 -0.00015907121658171675 -4.6843839326774158e-05 0 -0.00018772575922261788 -5.6166703828324734e-05 0 -0.00014266648826153866 -7.3190239340067265e-05 0 -0.00029425966333970641 -2.7240300489271635e-05 0 -0.0003997921348490178 -4.5579575058852898e-05 0 0.00026968365998143295 7.0334765242130982e-05 0 0.0002578533146759776 -3.7674576168375724e-05 0 0.00015160065661749922 2.0511189989648844e-05 0 0.00026968365998143295 7.0334765242130982e-05 0 0.00015160065661749922 2.0511189989648844e-05 0 0.0001919018665925079 9.1000156790280496e-05 0 0.00031715274076068528 1.3647169721265052e-05 0 0.00025856737315827204 -6.9028628604247922e-05 0 0.00027999183839356355 -6.2975758693790179e-05 0 0.00029495715494426606 -6.2675121500019036e-05 0 0.00030205916825141641 -7.5718917108042269e-05 0 0.00027999183839356355 -6.2975758693790179e-05 0 0.000270512574498555 -9.0640418519930381e-05 0 0.00030205916825141641 -7.5718917108042269e-05 0 0.00029914230085468119 -0.00010789992850872583 0 0.000270512574498555 -9.0640418519930381e-05 0 0.00030205916825141641 -7.5718917108042269e-05 0 0.00017489819190014103 -5.9008439191733303e-05 0 0.0002578533146759776 -3.7674576168375724e-05 0 0.00015160065661749922 2.0511189989648844e-05 0 9.5745708308241106e-05 -7.1304452384965311e-05 0 0.00017489819190014103 -5.9008439191733303e-05 0 0.00015160065661749922 2.0511189989648844e-05 0 9.5745708308241106e-05 -7.1304452384965311e-05 0 6.3661320363539e-05 -1.8724483144239493e-06 0 0.00015160065661749922 2.0511189989648844e-05 0 9.5745708308241106e-05 -7.1304452384965311e-05 0 1.369247167164232e-05 -3.4610789795411948e-05 0 6.3661320363539e-05 -1.8724483144239493e-06 0 6.3661320363539e-05 -1.8724483144239493e-06 0 4.3185761239909908e-05 5.7728940109134854e-05 0 0.00015160065661749922 2.0511189989648844e-05 0 4.3185761239909908e-05 5.7728940109134854e-05 0 0.00015160065661749922 2.0511189989648844e-05 0 8.6589148692722855e-05 0.00013618074377432063 0 0.00015160065661749922 2.0511189989648844e-05 0 8.6589148692722855e-05 0.00013618074377432063 0 0.0001919018665925079 9.1000156790280496e-05 0 0.00018701794711382599 0.00015379083225553367 0 8.6589148692722855e-05 0.00013618074377432063 0 0.0001919018665925079 9.1000156790280496e-05 0 -0.00010930104910699401 0.00012317541312073247 0 -7.5412227858540971e-05 0.00012030990971763091 0 -0.00015122631188714861 -8.551840690606051e-07 0 -0.00023211011717737726 0.00011211272060159832 0 -0.00028656822627732322 -4.369854625324295e-05 0 -0.00040847926232488946 8.2965243287413411e-05 0 -0.00047235396397157342 -3.7511038687257594e-05 0 -0.00028656822627732322 -4.369854625324295e-05 0 -0.00040847926232488946 8.2965243287413411e-05 0 -0.00023211011717737726 0.00011211272060159832 0 -0.00028656822627732322 -4.369854625324295e-05 0 -0.00040847926232488946 8.2965243287413411e-05 0 -0.00047235396397157342 -3.7511038687257594e-05 0 -0.00058246658488349235 4.4704346349423931e-05 0 -0.00010930104910699401 0.00012317541312073247 0 -0.00015348383580455818 4.8047362488963029e-05 0 0.00018701794711382599 0.00015379083225553367 0 0.00023273730630020019 0.00012128739616991823 0 0.0001919018665925079 9.1000156790280496e-05 0 0.00018701794711382599 0.00015379083225553367 0 0.00023273730630020019 0.00012128739616991823 0 0.00027865538781253745 0.00017444905690744259 0 0.00026968365998143295 7.0334765242130982e-05 0 0.00023273730630020019 0.00012128739616991823 0 0.0001919018665925079 9.1000156790280496e-05 0 0.00027999183839356355 -6.2975758693790179e-05 0 0.00028891580707728477 -5.5376179027564603e-05 0 0.0002833776681228625 -4.7318014609559991e-05 0 0.00031715274076068528 1.3647169721265052e-05 0 -0.00015348383580455818 4.8047362488963029e-05 0 0.00026968365998143295 7.0334765242130982e-05 0 0.00023273730630020019 0.00012128739616991823 0 0.00027865538781253745 0.00017444905690744259 0 0.00027999183839356355 -6.2975758693790179e-05 0 0.00028891580707728477 -5.5376179027564603e-05 0 0.00029495715494426606 -6.2675121500019036e-05 0 0.00028891580707728477 -5.5376179027564603e-05 0 0.000290986191950677 -5.2130261346635831e-05 0 0.00028866994271760583 -5.0253380691730826e-05 0 0.00028866994271760583 -5.0253380691730826e-05 0 0.00029043795813084929 -4.7882706572949468e-05 0 0.00029245673767812059 -5.0204765713011202e-05 0 0.00029097800750974787 -4.6891149679118975e-05 0 0.00029043795813084929 -4.7882706572949468e-05 0 0.0002833776681228625 -4.7318014609559991e-05 0 0.00028891580707728477 -5.5376179027564603e-05 0 0.00028866994271760583 -5.0253380691730826e-05 0 0.0002833776681228625 -4.7318014609559991e-05 0 -0.00015348383580455818 4.8047362488963029e-05 0 -0.00060513992791764862 -9.2436958822729012e-05 0 0.000290986191950677 -5.2130261346635831e-05 0 0.00028866994271760583 -5.0253380691730826e-05 0 0.00029245673767812059 -5.0204765713011202e-05 0 -0.00047235396397157342 -3.7511038687257594e-05 0 -0.00058246658488349235 4.4704346349423931e-05 0 -0.00060658821179443868 -8.2276664920476748e-05 0 -0.00067605973801598764 3.8386236106703614e-05 0 -0.00059093307348352805 6.0259941433077511e-05 0 -0.00061531044893421119 -7.6560831743158368e-05 0 1.0440897204567255e-06 -6.8461532669218718e-05 0 -0.00015348383580455818 4.8047362488963029e-05 0 0.00028866994271760583 -5.0253380691730826e-05 0 0.00029043795813084929 -4.7882706572949468e-05 0 0.0002833776681228625 -4.7318014609559991e-05 0 1.0440897204567255e-06 -6.8461532669218718e-05 0 1.9235532508595685e-05 -5.4262939284601192e-05 0 1.0440897204567255e-06 -6.8461532669218718e-05 0 0.00040509360799535987 -2.8468895860834401e-05 0 0.00029186637303379466 -4.7506253310328167e-05 0 0.00029547140966425646 -4.9552801614366407e-05 0 0.00029977300432535136 -4.7626764802967357e-05 0 0.00029547140966425646 -4.9552801614366407e-05 0 0.00029977300432535136 -4.7626764802967357e-05 0 0.00029962531026011603 -5.2321084722686348e-05 0 0.00029547140966425646 -4.9552801614366407e-05 0 0.0002951384642683607 -5.2116577583884665e-05 0 0.00029962531026011603 -5.2321084722686348e-05 0 0.00029245673767812059 -5.0204765713011202e-05 0 0.00029547140966425646 -4.9552801614366407e-05 0 0.0002951384642683607 -5.2116577583884665e-05 0 0.000290986191950677 -5.2130261346635831e-05 0 0.00029245673767812059 -5.0204765713011202e-05 0 0.0002951384642683607 -5.2116577583884665e-05 0 0.00029245673767812059 -5.0204765713011202e-05 0 0.00029272053901647648 -4.8769014912608204e-05 0 0.00029547140966425646 -4.9552801614366407e-05 0 0.00029186637303379466 -4.7506253310328167e-05 0 0.00029272053901647648 -4.8769014912608204e-05 0 0.00029547140966425646 -4.9552801614366407e-05 0 0.00029043795813084929 -4.7882706572949468e-05 0 0.00029245673767812059 -5.0204765713011202e-05 0 0.00029272053901647648 -4.8769014912608204e-05 0 0.00029186637303379466 -4.7506253310328167e-05 0 0.00029043795813084929 -4.7882706572949468e-05 0 0.00029272053901647648 -4.8769014912608204e-05 0 0.00029977300432535136 -4.7626764802967357e-05 0 0.00030541603157289266 -5.3474280986817239e-05 0 0.00029962531026011603 -5.2321084722686348e-05 0 0.00029977300432535136 -4.7626764802967357e-05 0 0.00030541603157289266 -5.3474280986817239e-05 0 0.0003114318909960457 -5.0720233063419911e-05 0 0.00030541603157289266 -5.3474280986817239e-05 0 0.00030393753283482444 -5.7060731809714362e-05 0 0.00031563709082710621 -6.1602093745777103e-05 0 0.00030541603157289266 -5.3474280986817239e-05 0 0.00030393753283482444 -5.7060731809714362e-05 0 0.00029962531026011603 -5.2321084722686348e-05 0 0.00030393753283482444 -5.7060731809714362e-05 0 0.00031563709082710621 -6.1602093745777103e-05 0 0.0003049165971304728 -6.416161247343644e-05 0 0.00028891580707728477 -5.5376179027564603e-05 0 0.000290986191950677 -5.2130261346635831e-05 0 0.0002967494160177797 -5.6867662427376586e-05 0 0.000290986191950677 -5.2130261346635831e-05 0 0.0002951384642683607 -5.2116577583884665e-05 0 0.0002967494160177797 -5.6867662427376586e-05 0 0.0002951384642683607 -5.2116577583884665e-05 0 0.00029962531026011603 -5.2321084722686348e-05 0 0.0002967494160177797 -5.6867662427376586e-05 0 0.00030393753283482444 -5.7060731809714362e-05 0 0.00029962531026011603 -5.2321084722686348e-05 0 0.0002967494160177797 -5.6867662427376586e-05 0 0.00030393753283482444 -5.7060731809714362e-05 0 0.0002967494160177797 -5.6867662427376586e-05 0 0.0003049165971304728 -6.416161247343644e-05 0 0.0002967494160177797 -5.6867662427376586e-05 0 0.00029495715494426606 -6.2675121500019036e-05 0 0.0003049165971304728 -6.416161247343644e-05 0 0.00028891580707728477 -5.5376179027564603e-05 0 0.0002967494160177797 -5.6867662427376586e-05 0 0.00029495715494426606 -6.2675121500019036e-05 0 0.00029495715494426606 -6.2675121500019036e-05 0 0.00030205916825141641 -7.5718917108042269e-05 0 0.0003049165971304728 -6.416161247343644e-05 0 0.00030205916825141641 -7.5718917108042269e-05 0 0.0003049165971304728 -6.416161247343644e-05 0 0.00030967159981058631 -7.6039311753624416e-05 0 0.0003049165971304728 -6.416161247343644e-05 0 0.0003244971994873737 -7.3299017569350628e-05 0 0.00030967159981058631 -7.6039311753624416e-05 0 0.00031563709082710621 -6.1602093745777103e-05 0 0.0003049165971304728 -6.416161247343644e-05 0 0.0003244971994873737 -7.3299017569350628e-05 0 0.00031273485701699167 -9.063201829904107e-05 0 0.00033816760450777641 -8.7289403212548986e-05 0 0.00033542395770545872 -0.00010738140933733247 0 0.0003244971994873737 -7.3299017569350628e-05 0 0.00031273485701699167 -9.063201829904107e-05 0 0.00033816760450777641 -8.7289403212548986e-05 0 0.0003244971994873737 -7.3299017569350628e-05 0 0.00030967159981058631 -7.6039311753624416e-05 0 0.00031273485701699167 -9.063201829904107e-05 0 0.00028231528182727457 -6.5231550624253237e-05 0 0.00071330101427511945 -6.8297794631753234e-05 0 0.00029914230085468119 -0.00010789992850872583 0 0.00030205916825141641 -7.5718917108042269e-05 0 0.00033996977809737036 -8.9580049270096052e-05 0 0.00030205916825141641 -7.5718917108042269e-05 0 0.00030967159981058631 -7.6039311753624416e-05 0 0.00031273485701699167 -9.063201829904107e-05 0 0.00032059194380770799 -8.7030601008020842e-05 0 0.00028231528182727457 -6.5231550624253237e-05 0 0.00070283234707221854 -5.9563745252018692e-05 0 0.00061516649207414033 -6.8159190221711208e-05 0 0.00036294515215127188 -9.7616478411711175e-05 0 0.00033816760450777641 -8.7289403212548986e-05 0 0.00033542395770545872 -0.00010738140933733247 0 0.00070283234707221854 -5.9563745252018692e-05 0 0.00071330101427511945 -6.8297794631753234e-05 0 0.00036294515215127188 -9.7616478411711175e-05 0 0.00033816760450777641 -8.7289403212548986e-05 0 0.00034887725065975325 -6.0160126869607275e-05 0 0.00031563709082710621 -6.1602093745777103e-05 0 0.0003244971994873737 -7.3299017569350628e-05 0 0.00034887725065975325 -6.0160126869607275e-05 0 0.0003244971994873737 -7.3299017569350628e-05 0 0.00033816760450777641 -8.7289403212548986e-05 0 0.00034887725065975325 -6.0160126869607275e-05 0 0.00032199573993075826 -7.7199792367093953e-05 0 0.00033955525001629419 -6.808839520666148e-05 0 0.00035613963028119811 -0.00010247153357922357 0 0.00028704611825606342 -6.2635025902511661e-05 0 0.00061516649207414033 -6.8159190221711208e-05 0 0.00036294515215127188 -9.7616478411711175e-05 0 0.00034887725065975325 -6.0160126869607275e-05 0 0.00039481044505478832 -8.4565851972658818e-05 0 0.00032199573993075826 -7.7199792367093953e-05 0 0.00033955525001629419 -6.808839520666148e-05 0 0.00032605774480647212 -5.411520590547633e-05 0 0.00032748531385011313 -6.0406597653775784e-05 0 0.00028704611825606342 -6.2635025902511661e-05 0 0.00032199573993075826 -7.7199792367093953e-05 0 0.0003114318909960457 -5.0720233063419911e-05 0 0.00032605774480647212 -5.411520590547633e-05 0 0.00030541603157289266 -5.3474280986817239e-05 0 0.00031563709082710621 -6.1602093745777103e-05 0 0.00034887725065975325 -6.0160126869607275e-05 0 0.00030541603157289266 -5.3474280986817239e-05 0 0.00032199573993075826 -7.7199792367093953e-05 0 0.0003114318909960457 -5.0720233063419911e-05 0 0.0003114318909960457 -5.0720233063419911e-05 0 0.00032605774480647212 -5.411520590547633e-05 0 0.00031570354918421592 -4.1998752028248593e-05 0 0.00033955525001629419 -6.808839520666148e-05 0 0.00032605774480647212 -5.411520590547633e-05 0 0.00035205822485076679 -5.375118995122121e-05 0 0.00032605774480647212 -5.411520590547633e-05 0 0.00035205822485076679 -5.375118995122121e-05 0 0.00032992348104660975 -4.1243278126622005e-05 0 0.00032605774480647212 -5.411520590547633e-05 0 0.00031570354918421592 -4.1998752028248593e-05 0 0.00032992348104660975 -4.1243278126622005e-05 0 0.00035205822485076679 -5.375118995122121e-05 0 0.00037864414686538907 -5.4080462158531087e-05 0 0.00036583947316635491 -4.3300219223212685e-05 0 0.00035205822485076679 -5.375118995122121e-05 0 0.00037864414686538907 -5.4080462158531087e-05 0 0.00037539614264170927 -6.295967033482525e-05 0 0.00037864414686538907 -5.4080462158531087e-05 0 0.00038401061360921959 -5.119350568364733e-05 0 0.00036583947316635491 -4.3300219223212685e-05 0 0.00037539614264170927 -6.295967033482525e-05 0 0.00036061727246333762 -7.3782101134732729e-05 0 0.00038699726701401234 -9.037026770191763e-05 0 0.00037539614264170927 -6.295967033482525e-05 0 0.0004010366086705318 -5.4520952334245453e-05 0 0.00038699726701401234 -9.037026770191763e-05 0 0.00037864414686538907 -5.4080462158531087e-05 0 0.00037539614264170927 -6.295967033482525e-05 0 0.0004010366086705318 -5.4520952334245453e-05 0 0.00033955525001629419 -6.808839520666148e-05 0 0.00035205822485076679 -5.375118995122121e-05 0 0.00036061727246333762 -7.3782101134732729e-05 0 0.00035205822485076679 -5.375118995122121e-05 0 0.00037539614264170927 -6.295967033482525e-05 0 0.00036061727246333762 -7.3782101134732729e-05 0 2.3165143134367395e-05 2.3875858317251578e-10 0 -1.7620493752423502e-06 -6.1680453541628413e-06 0 0.00029486758028374562 -7.6542001833443069e-06 0 0.00039922382883468007 -7.6177683192166251e-05 0 0.00039410352708776225 -6.0276815709887003e-05 0 0.00038989611470551807 -5.1099882381166879e-05 0 0.00039922382883468007 -7.6177683192166251e-05 0 0.00039844575716854155 -6.1782181775294794e-05 0 0.00039410352708776225 -6.0276815709887003e-05 0 0.00039922382883468007 -7.6177683192166251e-05 0 0.00039844575716854155 -6.1782181775294794e-05 0 0.00038573589408080858 -4.9200319949530869e-05 0 0.00039844575716854155 -6.1782181775294794e-05 0 0.00039585159783412938 -5.6353457232819641e-05 0 0.00040900175963053017 -4.9717172374202008e-05 0 0.00039844575716854155 -6.1782181775294794e-05 0 0.00039410352708776225 -6.0276815709887003e-05 0 0.00039585159783412938 -5.6353457232819641e-05 0 0.00037864414686538907 -5.4080462158531087e-05 0 0.00038401061360921959 -5.119350568364733e-05 0 0.00039585159783412938 -5.6353457232819641e-05 0 0.00039410352708776225 -6.0276815709887003e-05 0 0.00038401061360921959 -5.119350568364733e-05 0 0.00039585159783412938 -5.6353457232819641e-05 0 0.00037864414686538907 -5.4080462158531087e-05 0 0.00039585159783412938 -5.6353457232819641e-05 0 0.0004010366086705318 -5.4520952334245453e-05 0 0.0004010366086705318 -5.4520952334245453e-05 0 0.00040900175963053017 -4.9717172374202008e-05 0 0.00044721004536653314 -5.0056115442756818e-05 0 0.00039585159783412938 -5.6353457232819641e-05 0 0.0004010366086705318 -5.4520952334245453e-05 0 0.00040900175963053017 -4.9717172374202008e-05 0 2.3165143134367395e-05 2.3875858317251578e-10 0 0.00029486758028374562 -7.6542001833443069e-06 0 0.00031381079548140355 -1.6293435138264102e-07 0 0.00039922382883468007 -7.6177683192166251e-05 0 0.00038573589408080858 -4.9200319949530869e-05 0 0.00029486758028374562 -7.6542001833443069e-06 0 0.00019076784389105941 -2.2589807930586091e-05 0 0.00027127465948361562 3.6844806595061698e-06 0 0.00039844575716854155 -6.1782181775294794e-05 0 0.00040900175963053017 -4.9717172374202008e-05 0 0.00038573589408080858 -4.9200319949530869e-05 0 0.00040900175963053017 -4.9717172374202008e-05 0 0.00038573589408080858 -4.9200319949530869e-05 0 0.0003774835067093821 -3.3272642376203177e-05 0 0.00040900175963053017 -4.9717172374202008e-05 0 0.00044721004536653314 -5.0056115442756818e-05 0 0.0003774835067093821 -3.3272642376203177e-05 0 0.0003774835067093821 -3.3272642376203177e-05 0 0.00029486758028374562 -7.6542001833443069e-06 0 0.00031381079548140355 -1.6293435138264102e-07 0 0.00044721004536653314 -5.0056115442756818e-05 0 0.0003774835067093821 -3.3272642376203177e-05 0 0.00031381079548140355 -1.6293435138264102e-07 0 0.00038573589408080858 -4.9200319949530869e-05 0 0.0003774835067093821 -3.3272642376203177e-05 0 0.00029486758028374562 -7.6542001833443069e-06 0 0.00031381079548140355 -1.6293435138264102e-07 0 0.00057935341778866316 -3.7013198244185803e-06 0 0.00060398053048669575 1.5544708834120134e-07 0 0.00044721004536653314 -5.0056115442756818e-05 0 0.00031381079548140355 -1.6293435138264102e-07 0 0.00057935341778866316 -3.7013198244185803e-06 0 0.00046984035797925075 -5.7928415460739405e-05 0 0.00053205799658573685 -7.2629498876011002e-05 0 0.00044721004536653314 -5.0056115442756818e-05 0 0.00057935341778866316 -3.7013198244185803e-06 0 0.00070155269809410599 -6.4365349257703255e-05 0 0.0004010366086705318 -5.4520952334245453e-05 0 0.00044721004536653314 -5.0056115442756818e-05 0 0.00038699726701401234 -9.037026770191763e-05 0 0.00057935341778866316 -3.7013198244185803e-06 0 0.00070155269809410599 -6.4365349257703255e-05 0 0.00075882051286800371 -9.8172747632527682e-06 0 0.00057935341778866316 -3.7013198244185803e-06 0 0.00075882051286800371 -9.8172747632527682e-06 0 0.00066219810603572536 3.9127852592538778e-05 0 0.00057935341778866316 -3.7013198244185803e-06 0 0.00060398053048669575 1.5544708834120134e-07 0 0.00066219810603572536 3.9127852592538778e-05 0 0.00033955525001629419 -6.808839520666148e-05 0 0.00036061727246333762 -7.3782101134732729e-05 0 0.00035613963028119811 -0.00010247153357922357 0 0.00036061727246333762 -7.3782101134732729e-05 0 0.00038699726701401234 -9.037026770191763e-05 0 0.00035613963028119811 -0.00010247153357922357 0 0.00053205799658573685 -7.2629498876011002e-05 0 0.00061516649207414033 -6.8159190221711208e-05 0 0.00070155269809410599 -6.4365349257703255e-05 0 0.00075882051286800371 -9.8172747632527682e-06 0 0.00078180357186886506 -4.1529622978329637e-05 0 0.00085084895132912916 -4.0447174440406036e-05 0 0.00061516649207414033 -6.8159190221711208e-05 0 0.0010367540740089235 -1.3003152635472572e-05 0 0.00099757366798859486 -9.9689343150357915e-05 0 0.0010308073560174622 2.966567325549592e-05 0 0.00075882051286800371 -9.8172747632527682e-06 0 0.00099757366798859486 -9.9689343150357915e-05 0 0.0010308073560174622 2.966567325549592e-05 0 0.0010308073560174622 2.966567325549592e-05 0 0.0010780469329461546 -0.00011310770064801534 0 0.0010110274265387935 -1.7715277566492718e-05 0 0.0010292883735412185 1.7124686231356696e-05 0 0.00098423948854611397 -2.2543223907181168e-05 0 0.0010308073560174622 2.966567325549592e-05 0 0.0011804569400358765 -7.4574746301171314e-05 0 0.0012958225340714683 -0.00012347501098050541 0 0.00075882051286800371 -9.8172747632527682e-06 0 0.0010308073560174622 2.966567325549592e-05 0 0.00067183696654972479 6.4728204365443995e-05 0 0.0012611468941801458 -0.0001223163057097906 0 0.0012958225340714683 -0.00012347501098050541 0 0.0012912755242283373 -6.7652445149013457e-05 0 0.0011804569400358765 -7.4574746301171314e-05 0 0.0012611468941801458 -0.0001223163057097906 0 0.0012958225340714683 -0.00012347501098050541 0 0.0012611468941801458 -0.0001223163057097906 0 0.0013752585415332029 -7.6974814721702102e-05 0 0.0013254760796256504 -5.9457407777904037e-05 0 0.0012611468941801458 -0.0001223163057097906 0 0.0013254760796256504 -5.9457407777904037e-05 0 0.0012912755242283373 -6.7652445149013457e-05 0 0.0010308073560174622 2.966567325549592e-05 0 0.0011804569400358765 -7.4574746301171314e-05 0 0.0010780469329461546 -0.00011310770064801534 0 0.0012731558586845965 -0.00012457488927118226 0 0.0012808376563639115 -0.00011230959290321024 0 0.0012611468941801458 -0.0001223163057097906 0 0.0013752585415332029 -7.6974814721702102e-05 0 0.0015053959211470346 -0.0001649557414423696 0 0.0013794724629628157 -0.00012746002692061906 0 0.0012808376563639115 -0.00011230959290321024 0 0.0011804569400358765 -7.4574746301171314e-05 0 0.0012611468941801458 -0.0001223163057097906 0 0.0010780469329461546 -0.00011310770064801534 0 0.00060398053048669575 1.5544708834120134e-07 0 0.00066219810603572536 3.9127852592538778e-05 0 0.00089376167710772023 -7.1476818982397495e-08 0 0.00075882051286800371 -9.8172747632527682e-06 0 0.00066219810603572536 3.9127852592538778e-05 0 0.00067183696654972479 6.4728204365443995e-05 0 0.0012958225340714683 -0.00012347501098050541 0 0.0011753286406549152 -5.0089963413597586e-06 0 0.0012912755242283373 -6.7652445149013457e-05 0 0.00066219810603572536 3.9127852592538778e-05 0 0.00067183696654972479 6.4728204365443995e-05 0 0.00089376167710772023 -7.1476818982397495e-08 0 0.00098423948854611397 -2.2543223907181168e-05 0 0.00089420957597422153 -5.3291999633226968e-09 0 0.0012958225340714683 -0.00012347501098050541 0 0.00089480869724665546 -3.8888645326554545e-07 0 0.0011753286406549152 -5.0089963413597586e-06 0 0.0011753286406549152 -5.0089963413597586e-06 0 0.0012710215289544575 3.9586127785380481e-06 0 0.0011485817659350954 1.496872275501067e-07 0 0.00089480869724665546 -3.8888645326554545e-07 0 0.0011753286406549152 -5.0089963413597586e-06 0 0.0011485817659350954 1.496872275501067e-07 0 0.0011753286406549152 -5.0089963413597586e-06 0 0.0012851027165031387 -1.0369388111877929e-05 0 0.0012710215289544575 3.9586127785380481e-06 0 0.0011753286406549152 -5.0089963413597586e-06 0 0.0012851027165031387 -1.0369388111877929e-05 0 0.0012912755242283373 -6.7652445149013457e-05 0 0.0014413805343783074 2.9748448224907626e-05 0 0.0013962622509967688 2.6723520708896785e-05 0 0.001353240678313918 1.1652178945535842e-05 0 0.0013962622509967688 2.6723520708896785e-05 0 0.001353240678313918 1.1652178945535842e-05 0 0.0012710215289544575 3.9586127785380481e-06 0 0.0012851027165031387 -1.0369388111877929e-05 0 0.001353240678313918 1.1652178945535842e-05 0 0.0012710215289544575 3.9586127785380481e-06 0 0.0013962622509967688 2.6723520708896785e-05 0 0.0012710215289544575 3.9586127785380481e-06 0 0.0011485817659350954 1.496872275501067e-07 0 0.001394240569785882 -2.972774833112553e-05 0 0.0014624372491248876 -2.8018945583600497e-05 0 0.0014302020355734602 1.0997085432331575e-05 0 0.0013752585415332029 -7.6974814721702102e-05 0 0.0014283513174468577 -9.1930962126185792e-05 0 0.0014624372491248876 -2.8018945583600497e-05 0 0.0013752585415332029 -7.6974814721702102e-05 0 0.001394240569785882 -2.972774833112553e-05 0 0.0014624372491248876 -2.8018945583600497e-05 0 0.001394240569785882 -2.972774833112553e-05 0 0.0013254760796256504 -5.9457407777904037e-05 0 0.0013439208639260214 -2.2840764001426175e-05 0 0.0013752585415332029 -7.6974814721702102e-05 0 0.001394240569785882 -2.972774833112553e-05 0 0.0013254760796256504 -5.9457407777904037e-05 0 0.0012851027165031387 -1.0369388111877929e-05 0 0.0012912755242283373 -6.7652445149013457e-05 0 0.0013439208639260214 -2.2840764001426175e-05 0 0.0013254760796256504 -5.9457407777904037e-05 0 0.0012912755242283373 -6.7652445149013457e-05 0 0.0013439208639260214 -2.2840764001426175e-05 0 0.0012851027165031387 -1.0369388111877929e-05 0 0.001353240678313918 1.1652178945535842e-05 0 0.0013439208639260214 -2.2840764001426175e-05 0 0.001394240569785882 -2.972774833112553e-05 0 0.0013439208639260214 -2.2840764001426175e-05 0 0.0014302020355734602 1.0997085432331575e-05 0 0.0014413805343783074 2.9748448224907626e-05 0 0.001353240678313918 1.1652178945535842e-05 0 0.0014302020355734602 1.0997085432331575e-05 0 0.001353240678313918 1.1652178945535842e-05 0 0.0013439208639260214 -2.2840764001426175e-05 0 0.0014302020355734602 1.0997085432331575e-05 0 0.00149218904588908 3.7697518645180292e-05 0 0.0014413805343783074 2.9748448224907626e-05 0 0.0014302020355734602 1.0997085432331575e-05 0 0.00149218904588908 3.7697518645180292e-05 0 0.0014302020355734602 1.0997085432331575e-05 0 0.0015004286551797267 2.3080395804677275e-05 0 0.0014624372491248876 -2.8018945583600497e-05 0 0.0014302020355734602 1.0997085432331575e-05 0 0.0015004286551797267 2.3080395804677275e-05 0 0.0014624372491248876 -2.8018945583600497e-05 0 0.0015004286551797267 2.3080395804677275e-05 0 0.0015225736243534651 -1.3714268666798835e-05 0 0.0015302078838835963 1.8328130440804623e-05 0 0.0015004286551797267 2.3080395804677275e-05 0 0.0015225736243534651 -1.3714268666798835e-05 0 0.0014624372491248876 -2.8018945583600497e-05 0 0.0015225736243534651 -1.3714268666798835e-05 0 0.0015196147593487844 -5.9815064445220999e-05 0 0.0015225736243534651 -1.3714268666798835e-05 0 0.0015426630267718574 -2.2229011993934922e-05 0 0.0015196147593487844 -5.9815064445220999e-05 0 0.0015225736243534651 -1.3714268666798835e-05 0 0.0015437446725514851 -2.0206309005855001e-06 0 0.0015426630267718574 -2.2229011993934922e-05 0 0.0015302078838835963 1.8328130440804623e-05 0 0.0015225736243534651 -1.3714268666798835e-05 0 0.0015437446725514851 -2.0206309005855001e-06 0 0.0015437446725514851 -2.0206309005855001e-06 0 0.0015450890404359163 -1.4142125734431726e-05 0 0.0015426630267718574 -2.2229011993934922e-05 0 0.0015433440177995438 -1.3841524830385148e-05 0 0.001543373054308073 -1.6473563062951919e-05 0 0.0015450890404359163 -1.4142125734431726e-05 0 0.0015433440177995438 -1.3841524830385148e-05 0 0.0015437446725514851 -2.0206309005855001e-06 0 0.0015450890404359163 -1.4142125734431726e-05 0 0.0015450890404359163 -1.4142125734431726e-05 0 0.0015438661274700834 -2.237633661746591e-05 0 0.0015426630267718574 -2.2229011993934922e-05 0 0.0015430245210632638 -1.8160404569197281e-05 0 0.0015450890404359163 -1.4142125734431726e-05 0 0.0015438661274700834 -2.237633661746591e-05 0 0.0015438661274700834 -2.237633661746591e-05 0 0.0015426630267718574 -2.2229011993934922e-05 0 0.0015428603092394236 -3.2632886312203157e-05 0 0.00099386430281809884 -0.00013450682204840767 0 0.00097050957486012753 -8.817131485495345e-05 0 0.0010561687871218325 -0.00010099912086424504 0 0.0015426630267718574 -2.2229011993934922e-05 0 0.0015428603092394236 -3.2632886312203157e-05 0 0.0015196147593487844 -5.9815064445220999e-05 0 0.0015409259219992032 -1.8506338019657307e-05 0 0.0015438661274700834 -2.237633661746591e-05 0 0.0015428603092394236 -3.2632886312203157e-05 0 0.000884112635361442 -0.0001268501104189137 0 0.00099386430281809884 -0.00013450682204840767 0 0.00097050957486012753 -8.817131485495345e-05 0 0.00098460616521512312 -0.00010121066526730429 0 0.0013141420740221009 -8.2298855023252534e-05 0 0.00098460616521512312 -0.00010121066526730429 0 0.00058247745046552998 -0.0001301603652213831 0 0.00029914230085468119 -0.00010789992850872583 0 0.00029705480271247569 -0.0001475743895546774 0 0.00033310996217985971 -0.00012737717541884077 0 0.00029914230085468119 -0.00010789992850872583 0 0.00033996977809737036 -8.9580049270096052e-05 0 0.00033310996217985971 -0.00012737717541884077 0 0.00058247745046552998 -0.0001301603652213831 0 0.00071330101427511945 -6.8297794631753234e-05 0 0.00033996977809737036 -8.9580049270096052e-05 0 0.00033310996217985971 -0.00012737717541884077 0 0.00037691843704931418 -0.00010929654475511305 0 0.00097050957486012753 -8.817131485495345e-05 0 0.0010561687871218325 -0.00010099912086424504 0 0.0010620104115735985 -4.4796129580390291e-05 0 0.0010367540740089235 -1.3003152635472572e-05 0 0.0010142448759583303 -1.5260239813062467e-05 0 0.0010110274265387935 -1.7715277566492718e-05 0 0.00071330101427511945 -6.8297794631753234e-05 0 0.0011101408141403449 -7.1809481952031984e-05 0 0.0010561687871218325 -0.00010099912086424504 0 0.0010620104115735985 -4.4796129580390291e-05 0 0.0011472971295036305 -9.5375749734269528e-05 0 0.0010367540740089235 -1.3003152635472572e-05 0 0.0010308073560174622 2.966567325549592e-05 0 0.0010110274265387935 -1.7715277566492718e-05 0 0.0014283513174468577 -9.1930962126185792e-05 0 0.0014624372491248876 -2.8018945583600497e-05 0 0.0015196147593487844 -5.9815064445220999e-05 0 0.0012808376563639115 -0.00011230959290321024 0 0.0011101408141403449 -7.1809481952031984e-05 0 0.0012808376563639115 -0.00011230959290321024 0 0.0013132417652434235 -0.00010214782621580244 0 0.0012335251226618573 -0.00014852199417441796 0 0.0011472971295036305 -9.5375749734269528e-05 0 0.0011113052965568287 -0.00014218973335960506 0 0.0010561687871218325 -0.00010099912086424504 0 0.0011472971295036305 -9.5375749734269528e-05 0 0.0011113052965568287 -0.00014218973335960506 0 0.0013141420740221009 -8.2298855023252534e-05 0 0.0013132417652434235 -0.00010214782621580244 0 0.00099386430281809884 -0.00013450682204840767 0 0.0010561687871218325 -0.00010099912086424504 0 0.0011113052965568287 -0.00014218973335960506 0 3.1808693124318768e-05 -0.00055519070623852556 0 2.5605941591504537e-05 -0.00051674638431586321 0 6.1030152809732184e-05 -0.00056635650515126648 0 3.1808693124318768e-05 -0.00055519070623852556 0 -2.5225531835282157e-05 -0.00051399613442067486 0 2.5605941591504537e-05 -0.00051674638431586321 0 -2.5225531835282157e-05 -0.00051399613442067486 0 4.7038371395722349e-05 -0.0006038523558382549 0 -0.00018890428515920988 -0.00054994507583068074 0 3.1808693124318768e-05 -0.00055519070623852556 0 -2.5225531835282157e-05 -0.00051399613442067486 0 4.7038371395722349e-05 -0.0006038523558382549 0 -2.5225531835282157e-05 -0.00051399613442067486 0 -0.00010842298904338763 -0.00045855372148178301 0 -5.3710155222254374e-05 -0.00044184393003575498 0 -0.00010842298904338763 -0.00045855372148178301 0 -5.3710155222254374e-05 -0.00044184393003575498 0 -0.00011834755767238876 -0.00039639047619985314 0 -5.3710155222254374e-05 -0.00044184393003575498 0 -1.6514992128808302e-05 -0.00045099192388479547 0 -1.2689822975644145e-05 -0.0004827845065472218 0 -2.5225531835282157e-05 -0.00051399613442067486 0 -5.3710155222254374e-05 -0.00044184393003575498 0 -1.2689822975644145e-05 -0.0004827845065472218 0 -2.5225531835282157e-05 -0.00051399613442067486 0 -1.2689822975644145e-05 -0.0004827845065472218 0 2.5605941591504537e-05 -0.00051674638431586321 0 2.5605941591504537e-05 -0.00051674638431586321 0 1.8639492004452251e-05 -0.00047645725937900136 0 9.3712079011552848e-05 -0.00049414371744892942 0 -1.2689822975644145e-05 -0.0004827845065472218 0 2.5605941591504537e-05 -0.00051674638431586321 0 1.8639492004452251e-05 -0.00047645725937900136 0 -1.6514992128808302e-05 -0.00045099192388479547 0 1.8639492004452251e-05 -0.00047645725937900136 0 -1.7710925203965512e-05 -0.00040096056869136506 0 -1.6514992128808302e-05 -0.00045099192388479547 0 -1.2689822975644145e-05 -0.0004827845065472218 0 1.8639492004452251e-05 -0.00047645725937900136 0 9.3712079011552848e-05 -0.00049414371744892942 0 0.00014939500344750034 -0.00043893504149290931 0 0.00014917529527353881 -0.00054705276368815516 0 2.5605941591504537e-05 -0.00051674638431586321 0 9.3712079011552848e-05 -0.00049414371744892942 0 0.00014917529527353881 -0.00054705276368815516 0 1.8639492004452251e-05 -0.00047645725937900136 0 7.2732638626241293e-05 -0.00043817513397939264 0 9.3712079011552848e-05 -0.00049414371744892942 0 7.2732638626241293e-05 -0.00043817513397939264 0 9.3712079011552848e-05 -0.00049414371744892942 0 0.00014939500344750034 -0.00043893504149290931 0 0.00014939500344750034 -0.00043893504149290931 0 0.00014917529527353881 -0.00054705276368815516 0 0.00024031523652981801 -0.00048548874750798787 0 0.00014939500344750034 -0.00043893504149290931 0 0.00022169229399709008 -0.00041430810344868078 0 0.00024031523652981801 -0.00048548874750798787 0 0.00014917529527353881 -0.00054705276368815516 0 0.00028791910678126469 -0.00058190016390410274 0 0.00024031523652981801 -0.00048548874750798787 0 9.0890427270465393e-05 -0.00055781077568381736 0 0.00028778907363725124 -0.00040205502548250045 0 7.2809730934093715e-05 -0.00054450817310140081 0 6.8678005687689478e-05 -0.00055443660254005187 0 7.1707448674262955e-05 -0.00055141290004300338 0 3.6693621291067193e-05 -0.00051785297994993355 0 9.0890427270465393e-05 -0.00055781077568381736 0 2.5605941591504537e-05 -0.00051674638431586321 0 7.2809730934093715e-05 -0.00054450817310140081 0 6.1030152809732184e-05 -0.00056635650515126648 0 7.2809730934093715e-05 -0.00054450817310140081 0 6.1030152809732184e-05 -0.00056635650515126648 0 6.8678005687689478e-05 -0.00055443660254005187 0 6.1030152809732184e-05 -0.00056635650515126648 0 6.8678005687689478e-05 -0.00055443660254005187 0 8.2249853117137445e-05 -0.00054068384663409077 0 6.8678005687689478e-05 -0.00055443660254005187 0 5.942856932408244e-05 -0.00054440996113965716 0 7.1707448674262955e-05 -0.00055141290004300338 0 5.942856932408244e-05 -0.00054440996113965716 0 8.2249853117137445e-05 -0.00054068384663409077 0 0.00010374179470951954 -0.00047456356989245306 0 6.8678005687689478e-05 -0.00055443660254005187 0 5.942856932408244e-05 -0.00054440996113965716 0 8.2249853117137445e-05 -0.00054068384663409077 0 6.1030152809732184e-05 -0.00056635650515126648 0 8.2249853117137445e-05 -0.00054068384663409077 0 0.0001000160884968702 -0.00053886235504891115 0 6.1030152809732184e-05 -0.00056635650515126648 0 0.0001000160884968702 -0.00053886235504891115 0 4.7038371395722349e-05 -0.0006038523558382549 0 3.1808693124318768e-05 -0.00055519070623852556 0 6.1030152809732184e-05 -0.00056635650515126648 0 4.7038371395722349e-05 -0.0006038523558382549 0 0.0001000160884968702 -0.00053886235504891115 0 4.7038371395722349e-05 -0.0006038523558382549 0 0.00014218141871322917 -0.00054076545967394281 0 4.7038371395722349e-05 -0.0006038523558382549 0 0.00014218141871322917 -0.00054076545967394281 0 0.00020803637721747008 -0.00057520223090792584 0 0.00014218141871322917 -0.00054076545967394281 0 0.00020803637721747008 -0.00057520223090792584 0 0.00025205934002317775 -0.00052721392752399501 0 0.00027650105670920804 -0.00057027061434923696 0 0.00032775427650160414 -0.00055912181526734635 0 0.00025205934002317775 -0.00052721392752399501 0 0.00020803637721747008 -0.00057520223090792584 0 0.00027650105670920804 -0.00057027061434923696 0 0.00025205934002317775 -0.00052721392752399501 0 0.00027650105670920804 -0.00057027061434923696 0 0.0002830845660253824 -0.00061771126460324151 0 0.00031975710900221757 -0.00059275880422612068 0 0.00020803637721747008 -0.00057520223090792584 0 0.00027650105670920804 -0.00057027061434923696 0 0.0002830845660253824 -0.00061771126460324151 0 0.00020803637721747008 -0.00057520223090792584 0 0.0002830845660253824 -0.00061771126460324151 0 0.00023619140442835868 -0.00068832008604210538 0 0.0002830845660253824 -0.00061771126460324151 0 0.00031982754140409935 -0.00065761327042726146 0 0.00023619140442835868 -0.00068832008604210538 0 4.7038371395722349e-05 -0.0006038523558382549 0 0.00020803637721747008 -0.00057520223090792584 0 0.00023619140442835868 -0.00068832008604210538 0 0.00040433121510908703 -0.00059180454317185962 0 0.00038013682557412235 -0.0005570423701827305 0 0.00042535383953648846 -0.00056722551815740867 0 0.00040433121510908703 -0.00059180454317185962 0 0.00036292308130874936 -0.00059326764231812975 0 0.00038013682557412235 -0.0005570423701827305 0 0.00040433121510908703 -0.00059180454317185962 0 0.00036292308130874936 -0.00059326764231812975 0 0.00039310963668921024 -0.00062478220827320917 0 0.00036292308130874936 -0.00059326764231812975 0 0.00032775427650160414 -0.00055912181526734635 0 0.00038013682557412235 -0.0005570423701827305 0 0.00027650105670920804 -0.00057027061434923696 0 0.00032775427650160414 -0.00055912181526734635 0 0.00031975710900221757 -0.00059275880422612068 0 0.00036292308130874936 -0.00059326764231812975 0 0.00032775427650160414 -0.00055912181526734635 0 0.00031975710900221757 -0.00059275880422612068 0 0.0002830845660253824 -0.00061771126460324151 0 0.00031975710900221757 -0.00059275880422612068 0 0.00034471935618875119 -0.00062694208913656392 0 0.0002830845660253824 -0.00061771126460324151 0 0.00034471935618875119 -0.00062694208913656392 0 0.00031982754140409935 -0.00065761327042726146 0 0.00034471935618875119 -0.00062694208913656392 0 0.00037032681422176741 -0.00065687743392923049 0 0.00031982754140409935 -0.00065761327042726146 0 0.00036292308130874936 -0.00059326764231812975 0 0.00034471935618875119 -0.00062694208913656392 0 0.00039310963668921024 -0.00062478220827320917 0 0.00036292308130874936 -0.00059326764231812975 0 0.00031975710900221757 -0.00059275880422612068 0 0.00034471935618875119 -0.00062694208913656392 0 0.00034471935618875119 -0.00062694208913656392 0 0.00039310963668921024 -0.00062478220827320917 0 0.00037032681422176741 -0.00065687743392923049 0 0.00039310963668921024 -0.00062478220827320917 0 0.00040662605612663621 -0.00065070038014613054 0 0.00042917010635842894 -0.00063087405772313239 0 0.00039310963668921024 -0.00062478220827320917 0 0.00042917010635842894 -0.00063087405772313239 0 0.00041938492155504432 -0.00061462178218643269 0 0.00040433121510908703 -0.00059180454317185962 0 0.00039310963668921024 -0.00062478220827320917 0 0.00041938492155504432 -0.00061462178218643269 0 0.00041469446112374304 -0.00066621748552060666 0 0.00040662605612663621 -0.00065070038014613054 0 0.00038934467624484188 -0.00067496030870743402 0 0.00040662605612663621 -0.00065070038014613054 0 0.00037032681422176741 -0.00065687743392923049 0 0.00038934467624484188 -0.00067496030870743402 0 0.00039310963668921024 -0.00062478220827320917 0 0.00040662605612663621 -0.00065070038014613054 0 0.00037032681422176741 -0.00065687743392923049 0 0.00037032681422176741 -0.00065687743392923049 0 0.00038934467624484188 -0.00067496030870743402 0 0.00035844962390465878 -0.0006956588674552071 0 0.00037032681422176741 -0.00065687743392923049 0 0.00031982754140409935 -0.00065761327042726146 0 0.00035844962390465878 -0.0006956588674552071 0 -0.0002629989247992229 -0.00046077894932784627 0 -0.00029073275305498613 -0.00047694853201796537 0 -0.00023367444337015549 -0.00048209667883853042 0 -0.0002629989247992229 -0.00046077894932784627 0 -0.00028625893768432982 -0.00047509169197142972 0 -0.00027053774464863301 -0.00042407360371808785 0 -0.0002629989247992229 -0.00046077894932784627 0 -0.00028625893768432982 -0.00047509169197142972 0 -0.00029073275305498613 -0.00047694853201796537 0 0.00038934467624484188 -0.00067496030870743402 0 0.00035844962390465878 -0.0006956588674552071 0 0.00043987819890255788 -0.00067640671226678803 0 0.00041469446112374304 -0.00066621748552060666 0 0.00038934467624484188 -0.00067496030870743402 0 0.00043987819890255788 -0.00067640671226678803 0 -0.00029073275305498613 -0.00047694853201796537 0 -0.00025007140114948655 -0.00049729440665410797 0 -0.00021543324532787581 -0.00047765089419530242 0 -0.00029062014447056979 -0.00047277407275788156 0 -0.0002908659226819525 -0.00047358532799171636 0 -0.00028625893768432982 -0.00047509169197142972 0 -0.00029073275305498613 -0.00047694853201796537 0 -0.00025007140114948655 -0.00049729440665410797 0 3.1812767013679607e-05 -0.000585206794484187 0 0.00012282716183242837 -0.00058634393814190836 0 -2.5225531835282157e-05 -0.00051399613442067486 0 -0.00010842298904338763 -0.00045855372148178301 0 -0.00018890428515920988 -0.00054994507583068074 0 4.2670194536362757e-05 -0.00060735583622014333 0 2.5594749611303422e-05 -0.00061449353130101536 0 -0.00029073275305498613 -0.00047694853201796537 0 -0.00018890428515920988 -0.00054994507583068074 0 -0.00023367444337015549 -0.00048209667883853042 0 0.00031982754140409935 -0.00065761327042726146 0 0.00035844962390465878 -0.0006956588674552071 0 0.00023619140442835868 -0.00068832008604210538 0 3.1812767013679607e-05 -0.000585206794484187 0 2.5594749611303422e-05 -0.00061449353130101536 0 -0.00023367444337015549 -0.00048209667883853042 0 -0.00017302580949137079 -0.0004327137307670745 0 -0.00022466493476302335 -0.00041970086251201744 0 -0.00018890428515920988 -0.00054994507583068074 0 -0.00023367444337015549 -0.00048209667883853042 0 -0.00017302580949137079 -0.0004327137307670745 0 -0.0002629989247992229 -0.00046077894932784627 0 -0.00023367444337015549 -0.00048209667883853042 0 -0.00022466493476302335 -0.00041970086251201744 0 -0.00010842298904338763 -0.00045855372148178301 0 -0.00018890428515920988 -0.00054994507583068074 0 -0.00017302580949137079 -0.0004327137307670745 0 -0.00017687157713583749 -0.00039240692104893209 0 -0.00017302580949137079 -0.0004327137307670745 0 -0.00011834755767238876 -0.00039639047619985314 0 -0.00010842298904338763 -0.00045855372148178301 0 -0.00017302580949137079 -0.0004327137307670745 0 -0.00011834755767238876 -0.00039639047619985314 0 -0.00017687157713583749 -0.00039240692104893209 0 -0.00017347783667096822 -0.00036073351670499445 0 -0.00011834755767238876 -0.00039639047619985314 0 -0.00017687157713583749 -0.00039240692104893209 0 -0.00022466493476302335 -0.00041970086251201744 0 -0.00021456137866112933 -0.00037429609610762358 0 -0.00017687157713583749 -0.00039240692104893209 0 -0.00017302580949137079 -0.0004327137307670745 0 -0.00022466493476302335 -0.00041970086251201744 0 -0.0002629989247992229 -0.00046077894932784627 0 -0.00022466493476302335 -0.00041970086251201744 0 -0.00027053774464863301 -0.00042407360371808785 0 -0.00022466493476302335 -0.00041970086251201744 0 -0.00025178265201581686 -0.0003941811931667092 0 -0.00027053774464863301 -0.00042407360371808785 0 -0.00022466493476302335 -0.00041970086251201744 0 -0.00025178265201581686 -0.0003941811931667092 0 -0.00021456137866112933 -0.00037429609610762358 0 -0.00025420918300087723 -0.00035808850667752942 0 -0.0002083239845984841 -0.00034420668315877624 0 -0.00021456137866112933 -0.00037429609610762358 0 -0.00025178265201581686 -0.0003941811931667092 0 -0.00025420918300087723 -0.00035808850667752942 0 -0.00021456137866112933 -0.00037429609610762358 0 -0.0002083239845984841 -0.00034420668315877624 0 -0.00017347783667096822 -0.00036073351670499445 0 -0.00017715360316559762 -0.00032823652889238495 0 -0.0002083239845984841 -0.00034420668315877624 0 -0.00017347783667096822 -0.00036073351670499445 0 -0.00021456137866112933 -0.00037429609610762358 0 -0.00017687157713583749 -0.00039240692104893209 0 -0.00017347783667096822 -0.00036073351670499445 0 -0.00021456137866112933 -0.00037429609610762358 0 -0.00028625893768432982 -0.00047509169197142972 0 -0.00034943415235713405 -0.00043870344016250993 0 -0.0003072583421343434 -0.00043108697651525403 0 -0.00035060104203333994 -0.00039720790907407091 0 -0.00034943415235713405 -0.00043870344016250993 0 -0.0003072583421343434 -0.00043108697651525403 0 -0.00035060104203333994 -0.00039720790907407091 0 -0.0003072583421343434 -0.00043108697651525403 0 -0.00029984670484808879 -0.00038631483159838143 0 -0.0003072583421343434 -0.00043108697651525403 0 -0.00027053774464863301 -0.00042407360371808785 0 -0.00029984670484808879 -0.00038631483159838143 0 -0.00028625893768432982 -0.00047509169197142972 0 -0.0003072583421343434 -0.00043108697651525403 0 -0.00027053774464863301 -0.00042407360371808785 0 -0.00025178265201581686 -0.0003941811931667092 0 -0.00027053774464863301 -0.00042407360371808785 0 -0.00029984670484808879 -0.00038631483159838143 0 -0.00025178265201581686 -0.0003941811931667092 0 -0.00025420918300087723 -0.00035808850667752942 0 -0.00029984670484808879 -0.00038631483159838143 0 -0.00025420918300087723 -0.00035808850667752942 0 -0.00029984670484808879 -0.00038631483159838143 0 -0.00030103161281756335 -0.00035073275500047401 0 -0.00029984670484808879 -0.00038631483159838143 0 -0.00032655871119044021 -0.00036937314513176288 0 -0.00030103161281756335 -0.00035073275500047401 0 -0.00033933484481716902 -0.00039060652976450315 0 -0.00029984670484808879 -0.00038631483159838143 0 -0.00032655871119044021 -0.00036937314513176288 0 -0.00034910779458912668 -0.00039654813468191502 0 -0.00030410287490395419 -0.00038665254800871417 0 -0.00032655871119044021 -0.00036937314513176288 0 -0.00033681312006873153 -0.00034727048267530131 0 -0.00035422046190266513 -0.00036751585009385101 0 -0.00033933484481716902 -0.00039060652976450315 0 -0.00032655871119044021 -0.00036937314513176288 0 -0.00035422046190266513 -0.00036751585009385101 0 -0.00033681312006873153 -0.00034727048267530131 0 -0.00030103161281756335 -0.00035073275500047401 0 -0.00032453268921306074 -0.00032375768625545549 0 -0.00033681312006873153 -0.00034727048267530131 0 -0.00032453268921306074 -0.00032375768625545549 0 -0.00035637418470028606 -0.00032412186105630554 0 -0.00032655871119044021 -0.00036937314513176288 0 -0.00033681312006873153 -0.00034727048267530131 0 -0.00030103161281756335 -0.00035073275500047401 0 -0.00025420918300087723 -0.00035808850667752942 0 -0.00030103161281756335 -0.00035073275500047401 0 -0.00028144198444186093 -0.00032470459718564814 0 -0.00030103161281756335 -0.00035073275500047401 0 -0.00028144198444186093 -0.00032470459718564814 0 -0.00032453268921306074 -0.00032375768625545549 0 -0.00028144198444186093 -0.00032470459718564814 0 -0.00031483123079741716 -0.00030203219242848069 0 -0.00028082880950628124 -0.00029901397305640736 0 -0.00028144198444186093 -0.00032470459718564814 0 -0.00032453268921306074 -0.00032375768625545549 0 -0.00031483123079741716 -0.00030203219242848069 0 -0.00032453268921306074 -0.00032375768625545549 0 -0.000355952056911409 -0.00030473409047246803 0 -0.00031483123079741716 -0.00030203219242848069 0 -0.00032453268921306074 -0.00032375768625545549 0 -0.00035637418470028606 -0.00032412186105630554 0 -0.000355952056911409 -0.00030473409047246803 0 -0.0002083239845984841 -0.00034420668315877624 0 -0.00021552883673091889 -0.00031328870483288428 0 -0.00024188907952300465 -0.0003283617156705667 0 -0.0002083239845984841 -0.00034420668315877624 0 -0.00021552883673091889 -0.00031328870483288428 0 -0.00017715360316559762 -0.00032823652889238495 0 -0.00025420918300087723 -0.00035808850667752942 0 -0.00028144198444186093 -0.00032470459718564814 0 -0.00024188907952300465 -0.0003283617156705667 0 -0.00025420918300087723 -0.00035808850667752942 0 -0.0002083239845984841 -0.00034420668315877624 0 -0.00024188907952300465 -0.0003283617156705667 0 -0.00028144198444186093 -0.00032470459718564814 0 -0.00025230999635509618 -0.00030942590741976129 0 -0.00028082880950628124 -0.00029901397305640736 0 -0.00025230999635509618 -0.00030942590741976129 0 -0.00028082880950628124 -0.00029901397305640736 0 -0.00024197363172374009 -0.00028861666092707642 0 -0.00028144198444186093 -0.00032470459718564814 0 -0.00024188907952300465 -0.0003283617156705667 0 -0.00025230999635509618 -0.00030942590741976129 0 -0.00021552883673091889 -0.00031328870483288428 0 -0.00025230999635509618 -0.00030942590741976129 0 -0.00024197363172374009 -0.00028861666092707642 0 -0.00021552883673091889 -0.00031328870483288428 0 -0.0002091877573578407 -0.00029810214606028096 0 -0.00024197363172374009 -0.00028861666092707642 0 -0.00021552883673091889 -0.00031328870483288428 0 -0.00024188907952300465 -0.0003283617156705667 0 -0.00025230999635509618 -0.00030942590741976129 0 -0.0002091877573578407 -0.00029810214606028096 0 -0.00019818146866942802 -0.00029171345092040077 0 -0.00021809704612625377 -0.00027988731904730077 0 -0.0002091877573578407 -0.00029810214606028096 0 -0.00019638511488883145 -0.00031190775298873137 0 -0.00018590906298289489 -0.00030839539940006786 0 -0.0002091877573578407 -0.00029810214606028096 0 -0.00019818146866942802 -0.00029171345092040077 0 -0.00018590906298289489 -0.00030839539940006786 0 -0.00021552883673091889 -0.00031328870483288428 0 -0.0002091877573578407 -0.00029810214606028096 0 -0.00019638511488883145 -0.00031190775298873137 0 -0.00019022778968978769 -0.00029119665791306227 0 -0.00019818146866942802 -0.00029171345092040077 0 -0.00021147921286864392 -0.00027124826301675077 0 -0.00019818146866942802 -0.00029171345092040077 0 -0.00017841165792811361 -0.00030513176431131296 0 -0.00018590906298289489 -0.00030839539940006786 0 -0.00019022778968978769 -0.00029119665791306227 0 -0.00019818146866942802 -0.00029171345092040077 0 -0.00017841165792811361 -0.00030513176431131296 0 -0.00019022778968978769 -0.00029119665791306227 0 -0.00017841165792811361 -0.00030513176431131296 0 -0.00017629366116001316 -0.00030237483264854322 0 -0.00017841165792811361 -0.00030513176431131296 0 -0.00016627705788919262 -0.00031805306123080276 0 -0.00016123876594418559 -0.00031834787283368577 0 -0.00017841165792811361 -0.00030513176431131296 0 -0.00016123876594418559 -0.00031834787283368577 0 -0.00017629366116001316 -0.00030237483264854322 0 -0.00017841165792811361 -0.00030513176431131296 0 -0.00016627705788919262 -0.00031805306123080276 0 -0.00018590906298289489 -0.00030839539940006786 0 -0.00016627705788919262 -0.00031805306123080276 0 -0.00016123876594418559 -0.00031834787283368577 0 -0.00014775116124272737 -0.00033210738226411923 0 -0.00016123876594418559 -0.00031834787283368577 0 -0.00014775116124272737 -0.00033210738226411923 0 -0.00014302560829782671 -0.00033187800749308555 0 -0.00021552883673091889 -0.00031328870483288428 0 -0.00019638511488883145 -0.00031190775298873137 0 -0.00017715360316559762 -0.00032823652889238495 0 -0.00019638511488883145 -0.00031190775298873137 0 -0.00018590906298289489 -0.00030839539940006786 0 -0.00017715360316559762 -0.00032823652889238495 0 -0.00016627705788919262 -0.00031805306123080276 0 -0.00018590906298289489 -0.00030839539940006786 0 -0.00017715360316559762 -0.00032823652889238495 0 -0.00016627705788919262 -0.00031805306123080276 0 -0.00017715360316559762 -0.00032823652889238495 0 -0.00014775116124272737 -0.00033210738226411923 0 -0.00017347783667096822 -0.00036073351670499445 0 -0.00017715360316559762 -0.00032823652889238495 0 -0.00014469192173030473 -0.00035254098335656364 0 -0.00017347783667096822 -0.00036073351670499445 0 -0.00014469192173030473 -0.00035254098335656364 0 -0.00011834755767238876 -0.00039639047619985314 0 -0.00014469192173030473 -0.00035254098335656364 0 -0.00011512314091302023 -0.00035157931583995345 0 -0.00011834755767238876 -0.00039639047619985314 0 -0.00017715360316559762 -0.00032823652889238495 0 -0.00014469192173030473 -0.00035254098335656364 0 -0.00014775116124272737 -0.00033210738226411923 0 -0.00014469192173030473 -0.00035254098335656364 0 -0.00014775116124272737 -0.00033210738226411923 0 -0.00011512314091302023 -0.00035157931583995345 0 -0.00014775116124272737 -0.00033210738226411923 0 -0.00012843192485793387 -0.00033950814742877202 0 -0.00011512314091302023 -0.00035157931583995345 0 -0.00014775116124272737 -0.00033210738226411923 0 -0.00014302560829782671 -0.00033187800749308555 0 -0.00012843192485793387 -0.00033950814742877202 0 -0.00014302560829782671 -0.00033187800749308555 0 -0.00012843192485793387 -0.00033950814742877202 0 -0.00013338294829249507 -0.00033775803895476787 0 -0.00010860275004747812 -0.00034599708805850066 0 -6.6466142091798678e-05 -0.00037409208948049199 0 -0.00011257270985616967 -0.000342072177232993 0 -0.00013338294829249507 -0.00033775803895476787 0 -0.00010860275004747812 -0.00034599708805850066 0 -0.0001355727597996681 -0.00033103450301179087 0 -0.00012843192485793387 -0.00033950814742877202 0 -0.00013338294829249507 -0.00033775803895476787 0 -0.00010860275004747812 -0.00034599708805850066 0 -0.00010426364409592655 -0.00032213105945312094 0 -6.3499201870450257e-05 -0.0003146821455599128 0 -0.00012843192485793387 -0.00033950814742877202 0 -0.00010860275004747812 -0.00034599708805850066 0 -0.00011512314091302023 -0.00035157931583995345 0 -0.00010860275004747812 -0.00034599708805850066 0 -0.00011512314091302023 -0.00035157931583995345 0 -6.6466142091798678e-05 -0.00037409208948049199 0 -0.00011512314091302023 -0.00035157931583995345 0 -6.6466142091798678e-05 -0.00037409208948049199 0 -0.00011834755767238876 -0.00039639047619985314 0 1.8639492004452251e-05 -0.00047645725937900136 0 -1.7710925203965512e-05 -0.00040096056869136506 0 3.2918041000666796e-05 -0.00032528007555805304 0 -7.6108233913295956e-05 -0.00036366122912204017 0 -6.3499201870450257e-05 -0.0003146821455599128 0 -6.6466142091798678e-05 -0.00037409208948049199 0 -1.7710925203965512e-05 -0.00040096056869136506 0 8.7758583187426962e-06 -0.00032271877142539811 0 -5.3710155222254374e-05 -0.00044184393003575498 0 -1.6514992128808302e-05 -0.00045099192388479547 0 -1.7710925203965512e-05 -0.00040096056869136506 0 -5.3710155222254374e-05 -0.00044184393003575498 0 -6.6466142091798678e-05 -0.00037409208948049199 0 -1.7710925203965512e-05 -0.00040096056869136506 0 -5.3710155222254374e-05 -0.00044184393003575498 0 -6.6466142091798678e-05 -0.00037409208948049199 0 -0.00011834755767238876 -0.00039639047619985314 0 0.00014939500344750034 -0.00043893504149290931 0 0.00011897152759970417 -0.00037925631441528359 0 0.00020875966173715426 -0.00032736444691275671 0 0.00014939500344750034 -0.00043893504149290931 0 0.00022169229399709008 -0.00041430810344868078 0 0.00020875966173715426 -0.00032736444691275671 0 7.2732638626241293e-05 -0.00043817513397939264 0 0.00011897152759970417 -0.00037925631441528359 0 7.9816563829475956e-05 -0.00031504268458864052 0 0.00011897152759970417 -0.00037925631441528359 0 7.9816563829475956e-05 -0.00031504268458864052 0 0.00020875966173715426 -0.00032736444691275671 0 2.4310214397256631e-05 -0.00048199645762813818 0 2.2122798027509555e-05 -0.00028637180762529309 0 1.8639492004452251e-05 -0.00047645725937900136 0 7.2732638626241293e-05 -0.00043817513397939264 0 7.9816563829475956e-05 -0.00031504268458864052 0 7.2732638626241293e-05 -0.00043817513397939264 0 0.00014939500344750034 -0.00043893504149290931 0 0.00011897152759970417 -0.00037925631441528359 0 -1.7710925203965512e-05 -0.00040096056869136506 0 8.7758583187426962e-06 -0.00032271877142539811 0 3.2918041000666796e-05 -0.00032528007555805304 0 4.8366229167945787e-05 -0.00016326927829855514 0 4.7870352131899541e-05 -0.00016427641792039107 0 4.3742752593640818e-05 -0.00016225908308674313 0 -0.00013338294829249507 -0.00033775803895476787 0 -0.0001355727597996681 -0.00033103450301179087 0 -0.00014633776064485235 -0.00033248736028122696 0 -6.3499201870450257e-05 -0.0003146821455599128 0 2.2122798027509555e-05 -0.00028637180762529309 0 -6.3499201870450257e-05 -0.0003146821455599128 0 -1.9843759747883691e-05 -0.00025772038525719503 0 2.2122798027509555e-05 -0.00028637180762529309 0 -1.9843759747883691e-05 -0.00025772038525719503 0 -2.8385135539455876e-05 -0.00028478505518511892 0 -1.7275426887181952e-05 -0.00028578316787594368 0 -1.1678885621225132e-05 -0.00027162079862965381 0 -0.00014302560829782671 -0.00033187800749308555 0 -0.00013338294829249507 -0.00033775803895476787 0 -0.00014633776064485235 -0.00033248736028122696 0 -0.00014302560829782671 -0.00033187800749308555 0 -0.00014633776064485235 -0.00033248736028122696 0 -0.00015298216775657528 -0.00032494224981030601 0 4.7870352131899541e-05 -0.00016427641792039107 0 4.3742752593640818e-05 -0.00016225908308674313 0 4.1679522625186426e-05 -0.00016283591805825174 0 2.2122798027509555e-05 -0.00028637180762529309 0 0.00013607230606574888 -0.00024610292642214635 0 -1.9843759747883691e-05 -0.00025772038525719503 0 3.1379796993015223e-05 -0.0001783494737319146 0 4.7870352131899541e-05 -0.00016427641792039107 0 4.4466456197273856e-05 -0.00016860701309195702 0 4.1679522625186426e-05 -0.00016283591805825174 0 -2.8909541806177591e-05 -0.00023586107985860077 0 2.0123970852725692e-06 -0.00021069012204312954 0 -1.4943618513086084e-05 -0.00020144918222630463 0 -1.9843759747883691e-05 -0.00025772038525719503 0 -0.00017158644719172538 -0.00025158540184260311 0 -0.00014633776064485235 -0.00033248736028122696 0 -0.00016308549835385502 -0.00031368155489154282 0 -0.00017325691736434914 -0.00029522293051699759 0 -0.00014633776064485235 -0.00033248736028122696 0 -0.00015298216775657528 -0.00032494224981030601 0 -0.00016308549835385502 -0.00031368155489154282 0 -0.00016123876594418559 -0.00031834787283368577 0 -0.00015298216775657528 -0.00032494224981030601 0 -0.00016308549835385502 -0.00031368155489154282 0 -0.00016123876594418559 -0.00031834787283368577 0 -0.00014302560829782671 -0.00033187800749308555 0 -0.00015298216775657528 -0.00032494224981030601 0 -0.00016308549835385502 -0.00031368155489154282 0 -0.00017342546330864641 -0.00029896542736217136 0 -0.00017325691736434914 -0.00029522293051699759 0 -0.00016308549835385502 -0.00031368155489154282 0 -0.00017342546330864641 -0.00029896542736217136 0 -0.00017629366116001316 -0.00030237483264854322 0 -0.00016123876594418559 -0.00031834787283368577 0 -0.00016308549835385502 -0.00031368155489154282 0 -0.00017629366116001316 -0.00030237483264854322 0 -0.0001903223050705384 -0.00028609242089927387 0 -0.00018030858249061521 -0.00029115052452255197 0 -0.00021085085284652024 -0.00026862593300138143 0 -0.00019022778968978769 -0.00029119665791306227 0 -0.00017629366116001316 -0.00030237483264854322 0 -0.0001903223050705384 -0.00028609242089927387 0 -0.00017342546330864641 -0.00029896542736217136 0 -0.00017629366116001316 -0.00030237483264854322 0 -0.0001903223050705384 -0.00028609242089927387 0 -0.00017342546330864641 -0.00029896542736217136 0 -0.0001903223050705384 -0.00028609242089927387 0 -0.00018030858249061521 -0.00029115052452255197 0 -0.00019022778968978769 -0.00029119665791306227 0 -0.0001903223050705384 -0.00028609242089927387 0 -0.00021147921286864392 -0.00027124826301675077 0 2.0123970852725692e-06 -0.00021069012204312954 0 -1.4943618513086084e-05 -0.00020144918222630463 0 9.453353749871119e-06 -0.00018958518320128111 0 -0.00029260695286273587 -0.00023925899688712811 0 -0.00030314572892370579 -0.00024468973985198125 0 -0.00030176725998034518 -0.00025152828499782975 0 -0.00017158644719172538 -0.00025158540184260311 0 -0.00014253874742007903 -0.00021385562872062669 0 -0.00018214968554792937 -0.00026810458144744739 0 -0.00017158644719172538 -0.00025158540184260311 0 4.4466456197273856e-05 -0.00016860701309195702 0 2.5282121193948455e-05 -0.00017736227126293686 0 2.2139534449577946e-05 -0.00018943150634391639 0 3.1379796993015223e-05 -0.0001783494737319146 0 1.799364534533291e-05 -0.00019416501408511287 0 2.0123970852725692e-06 -0.00021069012204312954 0 9.453353749871119e-06 -0.00018958518320128111 0 2.2139534449577946e-05 -0.00018943150634391639 0 4.4466456197273856e-05 -0.00016860701309195702 0 3.7788120700102804e-05 -0.00016588345801506825 0 3.1297336335153063e-05 -0.00016957878849273273 0 4.4466456197273856e-05 -0.00016860701309195702 0 3.1297336335153063e-05 -0.00016957878849273273 0 2.5282121193948455e-05 -0.00017736227126293686 0 3.7788120700102804e-05 -0.00016588345801506825 0 4.1679522625186426e-05 -0.00016283591805825174 0 3.2888335488692546e-05 -0.00016231370459243824 0 3.7788120700102804e-05 -0.00016588345801506825 0 3.1297336335153063e-05 -0.00016957878849273273 0 3.2888335488692546e-05 -0.00016231370459243824 0 4.4466456197273856e-05 -0.00016860701309195702 0 3.7788120700102804e-05 -0.00016588345801506825 0 4.1679522625186426e-05 -0.00016283591805825174 0 2.5756124229638528e-05 -0.00016401125702377521 0 1.8365840472410863e-05 -0.00016390515681364773 0 2.2501188291301601e-05 -0.00016017101322266612 0 2.5756124229638528e-05 -0.00016401125702377521 0 2.6778349428821134e-05 -0.00015936749530834248 0 2.2501188291301601e-05 -0.00016017101322266612 0 2.5756124229638528e-05 -0.00016401125702377521 0 3.1297336335153063e-05 -0.00016957878849273273 0 3.2888335488692546e-05 -0.00016231370459243824 0 2.5756124229638528e-05 -0.00016401125702377521 0 3.2888335488692546e-05 -0.00016231370459243824 0 2.6778349428821134e-05 -0.00015936749530834248 0 3.1297336335153063e-05 -0.00016957878849273273 0 2.344511364029195e-05 -0.00017027221394582027 0 2.5282121193948455e-05 -0.00017736227126293686 0 2.5756124229638528e-05 -0.00016401125702377521 0 3.1297336335153063e-05 -0.00016957878849273273 0 2.344511364029195e-05 -0.00017027221394582027 0 2.344511364029195e-05 -0.00017027221394582027 0 1.8033674441812137e-05 -0.00017604045265932948 0 2.5282121193948455e-05 -0.00017736227126293686 0 2.5756124229638528e-05 -0.00016401125702377521 0 2.344511364029195e-05 -0.00017027221394582027 0 1.8365840472410863e-05 -0.00016390515681364773 0 2.344511364029195e-05 -0.00017027221394582027 0 1.8365840472410863e-05 -0.00016390515681364773 0 1.8033674441812137e-05 -0.00017604045265932948 0 2.5282121193948455e-05 -0.00017736227126293686 0 2.2139534449577946e-05 -0.00018943150634391639 0 1.6449088567073703e-05 -0.00018373905419368969 0 1.8033674441812137e-05 -0.00017604045265932948 0 2.5282121193948455e-05 -0.00017736227126293686 0 1.6449088567073703e-05 -0.00018373905419368969 0 2.2139534449577946e-05 -0.00018943150634391639 0 1.6449088567073703e-05 -0.00018373905419368969 0 9.6741874346408359e-06 -0.00018694823960833771 0 8.2590323847143696e-06 -0.00017923872643906357 0 -1.818498484929462e-06 -0.00018873480225952102 0 1.8033674441812137e-05 -0.00017604045265932948 0 9.6741874346408359e-06 -0.00018694823960833771 0 -5.760580972903339e-06 -0.00017903830660345081 0 1.8033674441812137e-05 -0.00017604045265932948 0 -3.1304757054761576e-05 -0.00020077954322695568 0 -4.9249384404457136e-06 -0.00017017723359676902 0 9.6741874346408359e-06 -0.00018694823960833771 0 -5.760580972903339e-06 -0.00017903830660345081 0 1.2009312810664361e-06 -0.00019575772597819072 0 -3.1304757054761576e-05 -0.00020077954322695568 0 -2.6963294291296274e-05 -0.00016715887141712605 0 -4.9249384404457136e-06 -0.00017017723359676902 0 1.8033674441812137e-05 -0.00017604045265932948 0 1.6449088567073703e-05 -0.00018373905419368969 0 9.6741874346408359e-06 -0.00018694823960833771 0 -3.1304757054761576e-05 -0.00020077954322695568 0 -9.5903554301813982e-05 -0.00022987671680236029 0 -7.8766106908172295e-05 -0.00018263272103943067 0 -1.818498484929462e-06 -0.00018873480225952102 0 -0.00016882714759026827 -0.00015661777786447236 0 -5.760580972903339e-06 -0.00017903830660345081 0 -3.1218385453446049e-05 -0.00018611075521431431 0 -1.4955792866652385e-05 -0.00019897227445350789 0 -3.1304757054761576e-05 -0.00020077954322695568 0 -4.8857000223541322e-05 -0.00016539825781756564 0 -7.8766106908172295e-05 -0.00018263272103943067 0 -4.8857000223541322e-05 -0.00016539825781756564 0 -7.8766106908172295e-05 -0.00018263272103943067 0 -7.8496530792760766e-05 -0.00014854835129487495 0 -3.1304757054761576e-05 -0.00020077954322695568 0 -4.8857000223541322e-05 -0.00016539825781756564 0 -2.6963294291296274e-05 -0.00016715887141712605 0 -4.8857000223541322e-05 -0.00016539825781756564 0 -2.6963294291296274e-05 -0.00016715887141712605 0 -3.5297447649719062e-05 -0.0001468047136414722 0 -4.8857000223541322e-05 -0.00016539825781756564 0 -3.5297447649719062e-05 -0.0001468047136414722 0 -5.5746385060933522e-05 -0.00013657869403912128 0 -3.5297447649719062e-05 -0.0001468047136414722 0 -2.1448438056211427e-05 -0.00012738742160437033 0 -4.0250108981255053e-05 -0.0001256813398085793 0 -3.5297447649719062e-05 -0.0001468047136414722 0 -5.5746385060933522e-05 -0.00013657869403912128 0 -4.0250108981255053e-05 -0.0001256813398085793 0 -5.5746385060933522e-05 -0.00013657869403912128 0 -7.2495393425491475e-05 -0.00012293051954829644 0 -7.8496530792760766e-05 -0.00014854835129487495 0 -4.8857000223541322e-05 -0.00016539825781756564 0 -5.5746385060933522e-05 -0.00013657869403912128 0 -7.8496530792760766e-05 -0.00014854835129487495 0 1.8365840472410863e-05 -0.00016390515681364773 0 -1.1793774710373095e-06 -0.00015713718470448978 0 -4.9249384404457136e-06 -0.00017017723359676902 0 1.8365840472410863e-05 -0.00016390515681364773 0 1.8033674441812137e-05 -0.00017604045265932948 0 -4.9249384404457136e-06 -0.00017017723359676902 0 -2.6963294291296274e-05 -0.00016715887141712605 0 -4.9249384404457136e-06 -0.00017017723359676902 0 -1.5433403286623679e-05 -0.00015249479043183111 0 -2.6963294291296274e-05 -0.00016715887141712605 0 -3.5297447649719062e-05 -0.0001468047136414722 0 -1.5433403286623679e-05 -0.00015249479043183111 0 -1.1793774710373095e-06 -0.00015713718470448978 0 -4.9249384404457136e-06 -0.00017017723359676902 0 -1.5433403286623679e-05 -0.00015249479043183111 0 -1.1793774710373095e-06 -0.00015713718470448978 0 -1.5433403286623679e-05 -0.00015249479043183111 0 -2.7633957130845331e-06 -0.00014165102772129874 0 -3.5297447649719062e-05 -0.0001468047136414722 0 -1.5433403286623679e-05 -0.00015249479043183111 0 -2.1448438056211427e-05 -0.00012738742160437033 0 -1.5433403286623679e-05 -0.00015249479043183111 0 -2.7633957130845331e-06 -0.00014165102772129874 0 -2.1448438056211427e-05 -0.00012738742160437033 0 2.0857149973751727e-05 -0.00016346490667490862 0 9.6089801055458763e-06 -0.00012099741730113715 0 1.8365840472410863e-05 -0.00016390515681364773 0 -2.7633957130845331e-06 -0.00014165102772129874 0 7.9866486932530683e-07 -0.00011356243389874925 0 1.8365840472410863e-05 -0.00016390515681364773 0 2.2021696756747206e-05 -0.00015740120158889853 0 2.2501188291301601e-05 -0.00016017101322266612 0 1.8365840472410863e-05 -0.00016390515681364773 0 -1.1793774710373095e-06 -0.00015713718470448978 0 -2.7633957130845331e-06 -0.00014165102772129874 0 2.2021696756747206e-05 -0.00015740120158889853 0 2.2501188291301601e-05 -0.00016017101322266612 0 2.3680554953357028e-05 -0.00015738204771904198 0 2.2021696756747206e-05 -0.00015740120158889853 0 2.3427673876009875e-05 -0.00015541722496901499 0 2.3680554953357028e-05 -0.00015738204771904198 0 7.9866486932530683e-07 -0.00011356243389874925 0 -2.1448438056211427e-05 -0.00012738742160437033 0 -2.2968270016474082e-05 -9.9780131402934198e-05 0 -2.7633957130845331e-06 -0.00014165102772129874 0 7.9866486932530683e-07 -0.00011356243389874925 0 -2.1448438056211427e-05 -0.00012738742160437033 0 7.9866486932530683e-07 -0.00011356243389874925 0 -2.2968270016474082e-05 -9.9780131402934198e-05 0 -2.2841242194100042e-05 -7.0406209214259161e-05 0 2.2021696756747206e-05 -0.00015740120158889853 0 2.3427673876009875e-05 -0.00015541722496901499 0 2.2742710231995625e-05 -0.00015300369382041998 0 9.6089801055458763e-06 -0.00012099741730113715 0 0.00023865500659301164 -9.8961813349560733e-05 0 2.3427673876009875e-05 -0.00015541722496901499 0 2.3680554953357028e-05 -0.00015738204771904198 0 2.5864126732886567e-05 -0.00015495719256496785 0 2.3427673876009875e-05 -0.00015541722496901499 0 2.4907253652757209e-05 -0.00015171097898778596 0 2.5864126732886567e-05 -0.00015495719256496785 0 0.00011874192340441635 -0.00020238318292084055 0 0.00026087975733922979 -0.00013892059191982189 0 -7.2495393425491475e-05 -0.00012293051954829644 0 -5.2736702600218122e-05 -0.00011524260966546848 0 -6.3471692141955419e-05 -0.00010283446668061632 0 -5.5746385060933522e-05 -0.00013657869403912128 0 -7.2495393425491475e-05 -0.00012293051954829644 0 -5.2736702600218122e-05 -0.00011524260966546848 0 -2.1448438056211427e-05 -0.00012738742160437033 0 -2.2968270016474082e-05 -9.9780131402934198e-05 0 -3.6153687587875984e-05 -0.00010754861139672945 0 -5.2736702600218122e-05 -0.00011524260966546848 0 -3.6153687587875984e-05 -0.00010754861139672945 0 -4.731357294969697e-05 -9.5653132081540909e-05 0 -5.2736702600218122e-05 -0.00011524260966546848 0 -4.0250108981255053e-05 -0.0001256813398085793 0 -3.6153687587875984e-05 -0.00010754861139672945 0 -5.5746385060933522e-05 -0.00013657869403912128 0 -5.2736702600218122e-05 -0.00011524260966546848 0 -4.0250108981255053e-05 -0.0001256813398085793 0 -2.1448438056211427e-05 -0.00012738742160437033 0 -4.0250108981255053e-05 -0.0001256813398085793 0 -3.6153687587875984e-05 -0.00010754861139672945 0 -2.2968270016474082e-05 -9.9780131402934198e-05 0 -3.5625926547764381e-05 -8.5931205267657487e-05 0 -2.2841242194100042e-05 -7.0406209214259161e-05 0 -2.2968270016474082e-05 -9.9780131402934198e-05 0 -3.6153687587875984e-05 -0.00010754861139672945 0 -3.5625926547764381e-05 -8.5931205267657487e-05 0 -3.5625926547764381e-05 -8.5931205267657487e-05 0 -4.731357294969697e-05 -9.5653132081540909e-05 0 -5.0004647026568287e-05 -7.5123535007724204e-05 0 -3.6153687587875984e-05 -0.00010754861139672945 0 -3.5625926547764381e-05 -8.5931205267657487e-05 0 -4.731357294969697e-05 -9.5653132081540909e-05 0 -4.731357294969697e-05 -9.5653132081540909e-05 0 -6.3471692141955419e-05 -0.00010283446668061632 0 -5.0004647026568287e-05 -7.5123535007724204e-05 0 -6.3471692141955419e-05 -0.00010283446668061632 0 -5.0004647026568287e-05 -7.5123535007724204e-05 0 -8.683493337453752e-05 -0.00010851570471937444 0 -5.2736702600218122e-05 -0.00011524260966546848 0 -4.731357294969697e-05 -9.5653132081540909e-05 0 -6.3471692141955419e-05 -0.00010283446668061632 0 0.00040259734515897918 -5.1448274480203045e-05 0 0.00041570085640871496 -8.3641107747801344e-05 0 0.00038727302337704763 -9.9135960414492759e-05 0 0.00040259734515897918 -5.1448274480203045e-05 0 0.00036031633916366429 -4.7662337645834447e-05 0 0.00038727302337704763 -9.9135960414492759e-05 0 0.00023865500659301164 -9.8961813349560733e-05 0 0.00051215507283013464 -0.00013003828528937146 0 -5.5405359275037721e-05 -7.0605089807009559e-05 0 -5.0004647026568287e-05 -7.5123535007724204e-05 0 -2.2841242194100042e-05 -7.0406209214259161e-05 0 0.00015715433004427772 -6.1473216055282564e-05 0 0.00023865500659301164 -9.8961813349560733e-05 0 -3.5625926547764381e-05 -8.5931205267657487e-05 0 -5.0004647026568287e-05 -7.5123535007724204e-05 0 -2.2841242194100042e-05 -7.0406209214259161e-05 0 0.00057259804122613493 -6.4757664676052848e-05 0 0.00055112421867430648 -0.00011067555166777864 0 0.00061518563116217003 -0.00014630794638199703 0 0.00051533942718566907 -5.9878258370960387e-05 0 0.00057259804122613493 -6.4757664676052848e-05 0 0.00055112421867430648 -0.00011067555166777864 0 2.3427673876009875e-05 -0.00015541722496901499 0 2.5667142160902408e-05 -0.00015342318075570256 0 2.2742710231995625e-05 -0.00015300369382041998 0 0.00026087975733922979 -0.00013892059191982189 0 0.00023865500659301164 -9.8961813349560733e-05 0 0.00051533942718566907 -5.9878258370960387e-05 0 0.00055112421867430648 -0.00011067555166777864 0 0.00049302389300753336 -0.00010114601580128794 0 0.00026087975733922979 -0.00013892059191982189 0 0.00054967191496546196 -0.00018931438019833557 0 2.4907253652757209e-05 -0.00015171097898778596 0 3.1897377037114261e-05 -0.00015095339655386996 0 2.5864126732886567e-05 -0.00015495719256496785 0 0.00036688697206354887 -0.00015623171368950775 0 0.00034022938181651525 -0.00020461562076242912 0 0.00029568656465564443 -0.00014968032143431058 0 0.00026087975733922979 -0.00013892059191982189 0 0.000181941374742719 -0.00019171185611784102 0 0.00054967191496546196 -0.00018931438019833557 0 0.000181941374742719 -0.00019171185611784102 0 0.00038912734112119576 -0.00040250682171328987 0 0.00033570982870062386 -0.00033734329702530256 0 0.00029951439916349985 -0.00041361168102168499 0 0.00020875966173715426 -0.00032736444691275671 0 0.00033570982870062386 -0.00033734329702530256 0 0.00029951439916349985 -0.00041361168102168499 0 0.00013607230606574888 -0.00024610292642214635 0 0.000181941374742719 -0.00019171185611784102 0 0.00022169229399709008 -0.00041430810344868078 0 0.00020875966173715426 -0.00032736444691275671 0 0.00029951439916349985 -0.00041361168102168499 0 4.3742752593640818e-05 -0.00016225908308674313 0 4.4009547127115327e-05 -0.00016313168633490103 0 4.1679522625186426e-05 -0.00016283591805825174 0 3.1897377037114261e-05 -0.00015095339655386996 0 4.1679522625186426e-05 -0.00016283591805825174 0 3.2888335488692546e-05 -0.00016231370459243824 0 0.000181941374742719 -0.00019171185611784102 0 8.1622146888619969e-06 -0.00013358805319827784 0 3.1897377037114261e-05 -0.00015095339655386996 0 3.2888335488692546e-05 -0.00016231370459243824 0 2.6778349428821134e-05 -0.00015936749530834248 0 2.6778349428821134e-05 -0.00015936749530834248 0 2.3680554953357028e-05 -0.00015738204771904198 0 2.5864126732886567e-05 -0.00015495719256496785 0 2.6778349428821134e-05 -0.00015936749530834248 0 2.2501188291301601e-05 -0.00016017101322266612 0 2.3680554953357028e-05 -0.00015738204771904198 0 3.1897377037114261e-05 -0.00015095339655386996 0 2.6778349428821134e-05 -0.00015936749530834248 0 2.5864126732886567e-05 -0.00015495719256496785 0 -0.00018772575922261788 -5.6166703828324734e-05 0 -0.00014266648826153866 -7.3190239340067265e-05 0 -0.00013019379981857294 -0.00010840577060502362 0 -0.00015833409534828945 -4.7011131551123864e-05 0 -0.00014266648826153866 -7.3190239340067265e-05 0 -9.766628411390792e-05 -5.6284057017428754e-05 0 -3.994361154436552e-06 -4.5478674740875823e-05 0 -7.4409690843859182e-05 -2.8043083382989436e-05 0 -0.00014266648826153866 -7.3190239340067265e-05 0 -9.766628411390792e-05 -5.6284057017428754e-05 0 -0.00013019379981857294 -0.00010840577060502362 0 -0.00075772021498144663 2.342261117830843e-05 0 -0.00074580114132511105 -2.8508897131858611e-05 0 -0.00077648266720922537 -3.2136541764447897e-05 0 -0.00075772021498144663 2.342261117830843e-05 0 -0.00072261544160956523 -9.6232347074856813e-06 0 -0.00074580114132511105 -2.8508897131858611e-05 0 -0.0003997921348490178 -4.5579575058852898e-05 0 -0.00049698408424242153 -6.9598122852063598e-05 0 -0.00027424650644667877 -0.00012557911307614671 0 -0.00025478886188839061 -0.00014019700328234496 0 -0.00024239645141889025 -0.00012974598793048025 0 -0.00025478886188839061 -0.00014019700328234496 0 -0.00023705331212163193 -0.00014021442153578121 0 -0.00023931900922221706 -0.00015273961439996441 0 -0.00025478886188839061 -0.00014019700328234496 0 -0.00024239645141889025 -0.00012974598793048025 0 -0.00023705331212163193 -0.00014021442153578121 0 -0.00027424650644667877 -0.00012557911307614671 0 -0.00024019839931763113 -0.00011008395496240651 0 -0.00024266168841509972 -0.00011485184152579419 0 -0.0003997921348490178 -4.5579575058852898e-05 0 -9.8934002365630327e-05 -8.1343222221686091e-05 0 -0.00027424650644667877 -0.00012557911307614671 0 -0.00024239645141889025 -0.00012974598793048025 0 -0.00024266168841509972 -0.00011485184152579419 0 -9.766628411390792e-05 -5.6284057017428754e-05 0 -0.00013019379981857294 -0.00010840577060502362 0 -3.7153580880920494e-05 -6.3605231211696272e-05 0 -0.00024019839931763113 -0.00011008395496240651 0 -0.00024266168841509972 -0.00011485184152579419 0 -0.0001906066671057553 -0.00013897139353570516 0 -0.00016220924246809971 -0.00011085348293385746 0 -0.00012161472659583849 -0.00015689002797072998 0 -0.00011970273671892733 -4.9392404036690177e-05 0 -0.00024019839931763113 -0.00011008395496240651 0 -0.00016220924246809971 -0.00011085348293385746 0 -0.0001906066671057553 -0.00013897139353570516 0 -0.00016220924246809971 -0.00011085348293385746 0 -0.0001906066671057553 -0.00013897139353570516 0 -0.00012161472659583849 -0.00015689002797072998 0 -0.0001906066671057553 -0.00013897139353570516 0 -0.00015975196153526205 -0.00018689358784258108 0 -0.00012161472659583849 -0.00015689002797072998 0 -0.00023990194387437047 -0.00011809711839979037 0 -0.00019205365430224048 -0.00016083995211663317 0 -0.00024239645141889025 -0.00012974598793048025 0 -0.00024266168841509972 -0.00011485184152579419 0 -0.00023008250929381876 -0.00013088746690582682 0 -0.00024266168841509972 -0.00011485184152579419 0 -0.0001906066671057553 -0.00013897139353570516 0 -0.00015975196153526205 -0.00018689358784258108 0 -0.00024239645141889025 -0.00012974598793048025 0 -0.00023705331212163193 -0.00014021442153578121 0 -0.00023008250929381876 -0.00013088746690582682 0 -0.00023705331212163193 -0.00014021442153578121 0 -0.00023008250929381876 -0.00013088746690582682 0 -0.00021493546071975778 -0.0001442862510007944 0 -0.00023705331212163193 -0.00014021442153578121 0 -0.00021493546071975778 -0.0001442862510007944 0 -0.00023931900922221706 -0.00015273961439996441 0 -0.00019205365430224048 -0.00016083995211663317 0 -0.00016882714759026827 -0.00015661777786447236 0 -0.00015975196153526205 -0.00018689358784258108 0 -0.00010996403736568866 -0.00019133522170371016 0 -9.5903554301813982e-05 -0.00022987671680236029 0 -0.00010996403736568866 -0.00019133522170371016 0 -9.5903554301813982e-05 -0.00022987671680236029 0 -7.8766106908172295e-05 -0.00018263272103943067 0 -0.00012359226992382304 -0.00015410247584303024 0 -5.7958363444601329e-05 -6.1299194804249023e-05 0 -7.8766106908172295e-05 -0.00018263272103943067 0 -0.00012161472659583849 -0.00015689002797072998 0 -7.8496530792760766e-05 -0.00014854835129487495 0 -0.00012161472659583849 -0.00015689002797072998 0 -9.5591572828893708e-05 -0.00012879808156583735 0 -0.00011675041580094323 -0.00010097495960683998 0 -0.00015975196153526205 -0.00018689358784258108 0 -0.00010996403736568866 -0.00019133522170371016 0 -0.00012161472659583849 -0.00015689002797072998 0 -0.00010996403736568866 -0.00019133522170371016 0 -7.8766106908172295e-05 -0.00018263272103943067 0 -0.00012161472659583849 -0.00015689002797072998 0 -0.00012161472659583849 -0.00015689002797072998 0 -9.5591572828893708e-05 -0.00012879808156583735 0 -7.8496530792760766e-05 -0.00014854835129487495 0 -7.2495393425491475e-05 -0.00012293051954829644 0 -9.5591572828893708e-05 -0.00012879808156583735 0 -7.8496530792760766e-05 -0.00014854835129487495 0 -5.0004647026568287e-05 -7.5123535007724204e-05 0 -8.683493337453752e-05 -0.00010851570471937444 0 -0.00011675041580094323 -0.00010097495960683998 0 -6.7555987315148514e-05 -8.4265042282854064e-05 0 -5.7958363444601329e-05 -6.1299194804249023e-05 0 -7.2495393425491475e-05 -0.00012293051954829644 0 -6.3471692141955419e-05 -0.00010283446668061632 0 -8.683493337453752e-05 -0.00010851570471937444 0 -7.2495393425491475e-05 -0.00012293051954829644 0 -9.5591572828893708e-05 -0.00012879808156583735 0 -8.683493337453752e-05 -0.00010851570471937444 0 -9.5591572828893708e-05 -0.00012879808156583735 0 -8.683493337453752e-05 -0.00010851570471937444 0 -0.00011675041580094323 -0.00010097495960683998 0 -5.7958363444601329e-05 -6.1299194804249023e-05 0 0.00012800513526999675 -1.8332699405189861e-05 0 0.00015715433004427772 -6.1473216055282564e-05 0 0.00023089698495578698 -9.1094454513233208e-05 0 -5.5405359275037721e-05 -7.0605089807009559e-05 0 -5.0004647026568287e-05 -7.5123535007724204e-05 0 -6.448875779502192e-05 -7.9028122658831473e-05 0 0.00040259734515897918 -5.1448274480203045e-05 0 0.00044370377022856885 -5.5494880111490368e-05 0 0.00041570085640871496 -8.3641107747801344e-05 0 -5.5405359275037721e-05 -7.0605089807009559e-05 0 -6.448875779502192e-05 -7.9028122658831473e-05 0 -6.3571610722155144e-05 -7.3161290321021834e-05 0 0.00023089698495578698 -9.1094454513233208e-05 0 0.00012800513526999675 -1.8332699405189861e-05 0 -5.5405359275037721e-05 -7.0605089807009559e-05 0 -6.3022463316834531e-05 -7.0655897337617657e-05 0 -6.3571610722155144e-05 -7.3161290321021834e-05 0 0.00030720307264986982 -5.3128836537711067e-05 0 0.00030292708893687217 -4.9718671035593418e-05 0 0.00029101465653609819 -5.8471925096155763e-05 0 0.00030845118110205648 -5.0397635469671573e-05 0 0.00030292708893687217 -4.9718671035593418e-05 0 0.00030991376552964986 -3.583118846471984e-05 0 0.00030292708893687217 -4.9718671035593418e-05 0 0.00029197142890986582 -4.6606494492035102e-05 0 0.00029972548325954678 -4.1787970364941074e-05 0 0.00030713861558124032 -5.0353291392393027e-05 0 0.00030720307264986982 -5.3128836537711067e-05 0 0.00030292708893687217 -4.9718671035593418e-05 0 0.00023089698495578698 -9.1094454513233208e-05 0 0.00029693778183967524 -7.6515126154837358e-05 0 0.00012800513526999675 -1.8332699405189861e-05 0 0.00014245556112669908 -3.3397212073585871e-05 0 -9.8934002365630327e-05 -8.1343222221686091e-05 0 -5.7958363444601329e-05 -6.1299194804249023e-05 0 -0.00024019839931763113 -0.00011008395496240651 0 -0.00016220924246809971 -0.00011085348293385746 0 -0.00011970273671892733 -4.9392404036690177e-05 0 5.3478898164082657e-05 -1.9656147137921729e-05 0 5.3698411506725986e-05 2.0545411443276948e-05 0 -5.1138099108371829e-05 -1.2932650563706045e-05 0 -3.7153580880920494e-05 -6.3605231211696272e-05 0 5.3478898164082657e-05 -1.9656147137921729e-05 0 -5.1138099108371829e-05 -1.2932650563706045e-05 0 -9.766628411390792e-05 -5.6284057017428754e-05 0 -3.7153580880920494e-05 -6.3605231211696272e-05 0 -5.1138099108371829e-05 -1.2932650563706045e-05 0 0.00029101465653609819 -5.8471925096155763e-05 0 0.00029197142890986582 -4.6606494492035102e-05 0 0.00027941550150494953 -5.1686519627170054e-05 0 0.00030292708893687217 -4.9718671035593418e-05 0 0.00029101465653609819 -5.8471925096155763e-05 0 0.00029197142890986582 -4.6606494492035102e-05 0 0.00029197142890986582 -4.6606494492035102e-05 0 0.00027941550150494953 -5.1686519627170054e-05 0 0.00027914881250360081 -3.3646011025803266e-05 0 0.00027283427674156891 -6.3771910232031861e-05 0 0.00029101465653609819 -5.8471925096155763e-05 0 0.00027941550150494953 -5.1686519627170054e-05 0 -0.00015833409534828945 -4.7011131551123864e-05 0 -9.766628411390792e-05 -5.6284057017428754e-05 0 -5.1138099108371829e-05 -1.2932650563706045e-05 0 -3.994361154436552e-06 -4.5478674740875823e-05 0 0.00014245556112669908 -3.3397212073585871e-05 0 0.0006989905084085501 -5.7861129537886e-05 0 0.00091084227517982297 -8.3769846029804079e-05 0 0.0010984169415197119 -0.00012362508861861628 0 0.0011138958964776163 -9.9634717682192445e-05 0 0.0010506175682319699 -0.00010717184417493716 0 0.0006989905084085501 -5.7861129537886e-05 0 0.0004347157258149817 -4.6932397404672874e-05 0 0.00029197142890986582 -4.6606494492035102e-05 0 0.00027914881250360081 -3.3646011025803266e-05 0 0.00029424090083859136 -3.4914781435501991e-05 0 0.00029197142890986582 -4.6606494492035102e-05 0 0.00029424090083859136 -3.4914781435501991e-05 0 0.00029972548325954678 -4.1787970364941074e-05 0 0.00070353035707631357 -6.4915926720975577e-05 0 0.00066731095576578819 -6.1777913335284479e-05 0 0.00066777684459430131 -7.0711012419310651e-05 0 0.0012459581471707586 -0.00010072704065540121 0 0.0013337158905629889 -7.5914448671032976e-05 0 0.0012913510111085694 -6.3116907988919902e-05 0 0.0010984169415197119 -0.00012362508861861628 0 0.0010506175682319699 -0.00010717184417493716 0 0.0010416045091940739 -0.00013311470974076997 0 0.0011676598167243205 -0.00011101216537018853 0 0.0012000549537102704 -0.00010162173833680226 0 0.00066777684459430131 -7.0711012419310651e-05 0 0.00063079769181585167 -5.9633916027338465e-05 0 0.00063168558399429096 -7.7704586734833923e-05 0 0.0010506175682319699 -0.00010717184417493716 0 0.0010416045091940739 -0.00013311470974076997 0 0.00097923167407226144 -0.00012005156883607799 0 0.0012000549537102704 -0.00010162173833680226 0 0.0010880378273178375 -0.00011984965544141464 0 0.0010416045091940739 -0.00013311470974076997 0 0.00097923167407226144 -0.00012005156883607799 0 0.00097972700911061342 -0.00014244439756530279 0 0.00091084227517982297 -8.3769846029804079e-05 0 0.00075563201732989772 -0.00012420522290136119 0 0.00029424090083859136 -3.4914781435501991e-05 0 0.00029972548325954678 -4.1787970364941074e-05 0 0.00030991376552964986 -3.583118846471984e-05 0 0.00030292708893687217 -4.9718671035593418e-05 0 0.00029972548325954678 -4.1787970364941074e-05 0 0.00030991376552964986 -3.583118846471984e-05 0 0.00066731095576578819 -6.1777913335284479e-05 0 0.00066777684459430131 -7.0711012419310651e-05 0 0.00063079769181585167 -5.9633916027338465e-05 0 0.0004347157258149817 -4.6932397404672874e-05 0 0.00048997370976639756 -4.0950381420826603e-05 0 0.00044370377022856885 -5.5494880111490368e-05 0 0.00044652041035000951 -0.00011191292823347874 0 0.00043319264118613852 -9.8267723072380264e-05 0 0.00044370377022856885 -5.5494880111490368e-05 0 0.00043319264118613852 -9.8267723072380264e-05 0 0.00041570085640871496 -8.3641107747801344e-05 0 0.00023089698495578698 -9.1094454513233208e-05 0 0.00048997370976639756 -4.0950381420826603e-05 0 0.00044652041035000951 -0.00011191292823347874 0 0.00043222458178537388 -0.00011161546753229819 0 0.00043369337496129571 -0.00012388698149856604 0 0.00044652041035000951 -0.00011191292823347874 0 0.00043222458178537388 -0.00011161546753229819 0 0.00043319264118613852 -9.8267723072380264e-05 0 0.00043319264118613852 -9.8267723072380264e-05 0 0.00041570085640871496 -8.3641107747801344e-05 0 0.00041715218433304672 -0.00011245957646240636 0 0.00043222458178537388 -0.00011161546753229819 0 0.00043319264118613852 -9.8267723072380264e-05 0 0.00041715218433304672 -0.00011245957646240636 0 0.00043222458178537388 -0.00011161546753229819 0 0.00041715218433304672 -0.00011245957646240636 0 0.00043369337496129571 -0.00012388698149856604 0 0.00041715218433304672 -0.00011245957646240636 0 0.00043369337496129571 -0.00012388698149856604 0 0.00041420153958133702 -0.00014986176209296436 0 0.00043369337496129571 -0.00012388698149856604 0 0.00044826125960642206 -0.00014290433411871819 0 0.00041420153958133702 -0.00014986176209296436 0 0.00048997370976639756 -4.0950381420826603e-05 0 0.00075563201732989772 -0.00012420522290136119 0 0.00044652041035000951 -0.00011191292823347874 0 0.00043369337496129571 -0.00012388698149856604 0 0.00044826125960642206 -0.00014290433411871819 0 0.00088902476063257524 -0.00011474248112874833 0 0.00084149628385238459 -0.00015867619916593207 0 0.00088967756047239708 -0.00015124516140398311 0 0.00075563201732989772 -0.00012420522290136119 0 0.0010880378273178375 -0.00011984965544141464 0 0.00075563201732989772 -0.00012420522290136119 0 0.00064262397471785194 -0.00013974935380200868 0 0.00088902476063257524 -0.00011474248112874833 0 0.00082591850011732248 -0.00012717852726116217 0 0.00084149628385238459 -0.00015867619916593207 0 0.00066016659629665085 -0.00022808072583279431 0 0.00067476709732763147 -0.00025737932880048154 0 0.00063446259647996831 -0.00023355840968063932 0 0.00064262397471785194 -0.00013974935380200868 0 0.00096122765953104191 -0.00020946966335220319 0 0.0011498366622778194 -0.00025424595356012404 0 0.0011825109876165798 -0.00031952973828079 0 0.0010906747149757011 -0.00027679531745596362 0 0.00096122765953104191 -0.00020946966335220319 0 0.0014055349089483402 -0.00014469375710769665 0 0.001158240187524599 -0.00014782057521996693 0 0.0011804808505062377 -0.00016267033437702188 0 0.0011770761057689359 -0.0001849909300689976 0 0.0011955571370585803 -0.00014200480961845568 0 0.0011804808505062377 -0.00016267033437702188 0 0.0011966747093269936 -0.00019009117175647873 0 0.00096122765953104191 -0.00020946966335220319 0 0.0010880378273178375 -0.00011984965544141464 0 0.001158240187524599 -0.00014782057521996693 0 0.0011955571370585803 -0.00014200480961845568 0 0.0011804808505062377 -0.00016267033437702188 0 0.0013480864856594697 -5.4495952541727806e-05 0 0.0013379806977217407 -5.2067864388676462e-05 0 0.0013435701934328042 -5.2792297970111799e-05 0 0.0010880378273178375 -0.00011984965544141464 0 0.0013423370261828342 -0.00010630171370394545 0 0.0011804808505062377 -0.00016267033437702188 0 0.0011966747093269936 -0.00019009117175647873 0 0.0011770761057689359 -0.0001849909300689976 0 0.0013423370261828342 -0.00010630171370394545 0 0.0014055349089483402 -0.00014469375710769665 0 0.0018536025605966017 9.4880307062143967e-05 0 0.0018586891006597971 8.9231292216231166e-05 0 0.0018485385431533231 9.2633671869608985e-05 0 0.0019944606889126235 4.6738905308939859e-05 0 0.0019246862461694053 7.4174178557336084e-05 0 0.0019713249190279488 3.1051784506595338e-05 0 0.0018563778756329129 9.9472703430899764e-05 0 0.0018536025605966017 9.4880307062143967e-05 0 0.0018459172062673032 9.9435479042764196e-05 0 0.0018450347010359541 2.5289302480076232e-05 0 0.0018973725701173596 8.043626075128672e-05 0 0.0016837666438894777 -3.1182342090124898e-05 0 0.0016832239251370232 1.9529647833546972e-05 0 0.0017114014192131423 -3.8756149105941976e-05 0 0.0018536025605966017 9.4880307062143967e-05 0 0.0018586891006597971 8.9231292216231166e-05 0 0.0018584644435609154 9.3280471630797053e-05 0 0.0018450347010359541 2.5289302480076232e-05 0 0.0016016974618292103 -4.9517565104917837e-06 0 0.0018563778756329129 9.9472703430899764e-05 0 0.0018536025605966017 9.4880307062143967e-05 0 0.0018584644435609154 9.3280471630797053e-05 0 0.0014055349089483402 -0.00014469375710769665 0 0.0016016974618292103 -4.9517565104917837e-06 0 0.0013511838702741986 -6.0936324616153118e-05 0 0.0013519457440620214 -6.2310561319262668e-05 0 0.00135274113419661 -6.2341784264530778e-05 0 0.0014676453521828502 -7.3714886941257858e-05 0 0.0014751252769401948 -7.5847524734628125e-05 0 0.0014682251858973371 -5.9431413518084264e-05 0 0.0013423370261828342 -0.00010630171370394545 0 0.0016016974618292103 -4.9517565104917837e-06 0 0.0013511838702741986 -6.0936324616153118e-05 0 0.0013553517947842381 -6.2123372824043124e-05 0 0.0013592961434409495 -5.7418239342648326e-05 0 0.0013423370261828342 -0.00010630171370394545 0 0.0013579359548956196 -4.3263169438057052e-05 0 0.001352514917304753 -6.4606697821537328e-05 0 0.0013553517947842381 -6.2123372824043124e-05 0 0.0013586401445560964 -7.1638699496857756e-05 0 0.0013511838702741986 -6.0936324616153118e-05 0 0.00135274113419661 -6.2341784264530778e-05 0 0.0013553517947842381 -6.2123372824043124e-05 0 0.00135274113419661 -6.2341784264530778e-05 0 0.001352514917304753 -6.4606697821537328e-05 0 0.0013553517947842381 -6.2123372824043124e-05 0 0.0013519457440620214 -6.2310561319262668e-05 0 0.00135274113419661 -6.2341784264530778e-05 0 0.001352514917304753 -6.4606697821537328e-05 0 0.0016016974618292103 -4.9517565104917837e-06 0 0.0017230344299092742 5.5764552051518433e-06 0 0.0018450347010359541 2.5289302480076232e-05 0 0.0017230344299092742 5.5764552051518433e-06 0 0.0013379806977217407 -5.2067864388676462e-05 0 0.0013430824007179523 -4.9652601724738319e-05 0 0.0013592961434409495 -5.7418239342648326e-05 0 0.0013337158905629889 -7.5914448671032976e-05 0 0.0013480864856594697 -5.4495952541727806e-05 0 0.0013428761688265357 -5.5367260942748448e-05 0 0.0013430824007179523 -4.9652601724738319e-05 0 0.0013428761688265357 -5.5367260942748448e-05 0 0.0013443183951369851 -4.5920103207824788e-05 0 0.0013379806977217407 -5.2067864388676462e-05 0 0.0013430824007179523 -4.9652601724738319e-05 0 0.0013435701934328042 -5.2792297970111799e-05 0 0.0013430824007179523 -4.9652601724738319e-05 0 0.0013435701934328042 -5.2792297970111799e-05 0 0.0013428761688265357 -5.5367260942748448e-05 0 0.0013480864856594697 -5.4495952541727806e-05 0 0.0013435701934328042 -5.2792297970111799e-05 0 0.0013428761688265357 -5.5367260942748448e-05 0 0.0013337158905629889 -7.5914448671032976e-05 0 0.0013428761688265357 -5.5367260942748448e-05 0 0.0013443183951369851 -4.5920103207824788e-05 0 0.0012913510111085694 -6.3116907988919902e-05 0 0.0013443183951369851 -4.5920103207824788e-05 0 0.0012336260164073237 -3.1154331355572287e-05 0 0.0013430824007179523 -4.9652601724738319e-05 0 0.0013443183951369851 -4.5920103207824788e-05 0 0.0013592961434409495 -5.7418239342648326e-05 0 0.0013411951115944337 -4.2732478763296101e-05 0 0.0013079234309737197 -3.5731002535293909e-05 0 0.0013443183951369851 -4.5920103207824788e-05 0 0.0013708932658410401 -5.0126813811234446e-05 0 0.0013819927301794948 -3.5704705041749208e-05 0 0.0013337158905629889 -7.5914448671032976e-05 0 0.0012913510111085694 -6.3116907988919902e-05 0 0.0013443183951369851 -4.5920103207824788e-05 0 0.0013443183951369851 -4.5920103207824788e-05 0 0.0013592961434409495 -5.7418239342648326e-05 0 0.0013708932658410401 -5.0126813811234446e-05 0 0.0013553517947842381 -6.2123372824043124e-05 0 0.0013592961434409495 -5.7418239342648326e-05 0 0.0013586401445560964 -7.1638699496857756e-05 0 0.0013592961434409495 -5.7418239342648326e-05 0 0.0013707463637180756 -7.1108466137663351e-05 0 0.0013586401445560964 -7.1638699496857756e-05 0 0.0013592961434409495 -5.7418239342648326e-05 0 0.0013708932658410401 -5.0126813811234446e-05 0 0.0013814801720990299 -6.3442302018714135e-05 0 0.0013592961434409495 -5.7418239342648326e-05 0 0.0013814801720990299 -6.3442302018714135e-05 0 0.0013707463637180756 -7.1108466137663351e-05 0 0.0013814801720990299 -6.3442302018714135e-05 0 0.0013707463637180756 -7.1108466137663351e-05 0 0.0013800094098155341 -7.377320823530751e-05 0 0.0013708932658410401 -5.0126813811234446e-05 0 0.0013814801720990299 -6.3442302018714135e-05 0 0.0013903541550185344 -5.1017823270349526e-05 0 0.0014042838319785022 -6.0578136448864701e-05 0 0.0013814801720990299 -6.3442302018714135e-05 0 0.0013903541550185344 -5.1017823270349526e-05 0 0.0014050612822865043 -4.6185178468754375e-05 0 0.0013903541550185344 -5.1017823270349526e-05 0 0.0013819927301794948 -3.5704705041749208e-05 0 0.0013708932658410401 -5.0126813811234446e-05 0 0.0013903541550185344 -5.1017823270349526e-05 0 0.0013819927301794948 -3.5704705041749208e-05 0 0.0012459581471707586 -0.00010072704065540121 0 0.0012913510111085694 -6.3116907988919902e-05 0 0.0012336260164073237 -3.1154331355572287e-05 0 0.0011889776459127806 -7.2265631800502174e-05 0 0.0012459581471707586 -0.00010072704065540121 0 0.0012336260164073237 -3.1154331355572287e-05 0 0.00081751790697917625 -0.0002282351138369187 0 0.0009133716107615306 -0.00020165882168736801 0 0.00099946562586726313 -0.00027384962723269677 0 0.00086020130314933257 -0.00016242234917667234 0 0.00081319585986585371 -0.00020122029456081929 0 0.00082030571808509964 -0.00011736830387560795 0 0.00086020130314933257 -0.00016242234917667234 0 0.00081751790697917625 -0.0002282351138369187 0 0.0009133716107615306 -0.00020165882168736801 0 0.00086020130314933257 -0.00016242234917667234 0 0.00081319585986585371 -0.00020122029456081929 0 0.00081751790697917625 -0.0002282351138369187 0 0.00099386857297579178 -0.00013631868727823404 0 0.0010218036994259318 -8.8356168030929007e-05 0 0.0010218036994259318 -8.8356168030929007e-05 0 0.00028778907363725124 -0.00040205502548250045 0 0.00028791910678126469 -0.00058190016390410274 0 0.00024031523652981801 -0.00048548874750798787 0 0.00033890429322957783 -0.00049230968792749223 0 0.00081319585986585371 -0.00020122029456081929 0 0.00081694366487833738 -0.00022829665134189232 0 0.00076395780835679448 -0.00021495015179154591 0 0.00081319585986585371 -0.00020122029456081929 0 0.00076395780835679448 -0.00021495015179154591 0 0.00082030571808509964 -0.00011736830387560795 0 0.00028778907363725124 -0.00040205502548250045 0 0.00058917175716275436 -0.00028386115846113158 0 0.00029951439916349985 -0.00041361168102168499 0 0.00024031523652981801 -0.00048548874750798787 0 0.00033890429322957783 -0.00049230968792749223 0 0.00022169229399709008 -0.00041430810344868078 0 0.00029951439916349985 -0.00041361168102168499 0 0.00024031523652981801 -0.00048548874750798787 0 0.00087331841387250332 -2.093658166491776e-05 0 0.00086020130314933257 -0.00016242234917667234 0 0.00082030571808509964 -0.00011736830387560795 0 0.00087331841387250332 -2.093658166491776e-05 0 0.00086020130314933257 -0.00016242234917667234 0 0.00097605057410895103 -0.00014258843778246094 0 0.00054967191496546196 -0.00018931438019833557 0 0.00058917175716275436 -0.00028386115846113158 0 0.00038912734112119576 -0.00040250682171328987 0 0.00029951439916349985 -0.00041361168102168499 0 0.00033890429322957783 -0.00049230968792749223 0 0.00055112421867430648 -0.00011067555166777864 0 0.00061518563116217003 -0.00014630794638199703 0 0.00055997798376910407 -0.0001816598434726314 0 0.00054967191496546196 -0.00018931438019833557 0 0.00078137668020289528 -0.00015256834458486946 0 0.00055112421867430648 -0.00011067555166777864 0 0.00049302389300753336 -0.00010114601580128794 0 0.00055997798376910407 -0.0001816598434726314 0 0.00041570085640871496 -8.3641107747801344e-05 0 0.00041715218433304672 -0.00011245957646240636 0 0.00038727302337704763 -9.9135960414492759e-05 0 0.00061518563116217003 -0.00014630794638199703 0 0.00061583859349028758 -0.00020565422644070638 0 0.00055997798376910407 -0.0001816598434726314 0 0.00064262397471785194 -0.00013974935380200868 0 0.00051215507283013464 -0.00013003828528937146 0 0.00041715218433304672 -0.00011245957646240636 0 0.00041420153958133702 -0.00014986176209296436 0 0.00038727302337704763 -9.9135960414492759e-05 0 0.00097605057410895103 -0.00014258843778246094 0 0.00099946562586726313 -0.00027384962723269677 0 0.0010812627628304335 -0.00026580516102948492 0 0.00078137668020289528 -0.00015256834458486946 0 0.00085445125365321832 -0.00023948805482489275 0 0.00061583859349028758 -0.00020565422644070638 0 0.00055997798376910407 -0.0001816598434726314 0 0.00062822800634761437 -0.00026388558603689604 0 0.00065793687604937174 -0.00022866947959789222 0 0.00061518563116217003 -0.00014630794638199703 0 0.00061583859349028758 -0.00020565422644070638 0 0.00065793687604937174 -0.00022866947959789222 0 0.00061583859349028758 -0.00020565422644070638 0 0.00063446259647996831 -0.00023355840968063932 0 0.00061583859349028758 -0.00020565422644070638 0 0.00063446259647996831 -0.00023355840968063932 0 0.00062822800634761437 -0.00026388558603689604 0 0.00064262397471785194 -0.00013974935380200868 0 0.00063529965780295694 -0.00016484175160410983 0 0.00086020130314933257 -0.00016242234917667234 0 0.00097605057410895103 -0.00014258843778246094 0 0.0009133716107615306 -0.00020165882168736801 0 0.00097605057410895103 -0.00014258843778246094 0 0.0009133716107615306 -0.00020165882168736801 0 0.00099946562586726313 -0.00027384962723269677 0 0.0018364145861552716 0.00011727215747132782 0 0.0018459172062673032 9.9435479042764196e-05 0 0.0018354280953155765 9.0373211700746218e-05 0 0.0018364145861552716 0.00011727215747132782 0 0.0018354280953155765 9.0373211700746218e-05 0 0.00180279226576995 0.00010576537357137413 0 0.0011825109876165798 -0.00031952973828079 0 0.00099946562586726313 -0.00027384962723269677 0 0.0010906747149757011 -0.00027679531745596362 0 0.0014055349089483402 -0.00014469375710769665 0 0.0014944843034515589 -7.5408449853221914e-05 0 0.0018563778756329129 9.9472703430899764e-05 0 0.0018364145861552716 0.00011727215747132782 0 0.0018459172062673032 9.9435479042764196e-05 0 0.0011498366622778194 -0.00025424595356012404 0 0.0010813778488377953 -0.00026535388076039796 0 0.0010906747149757011 -0.00027679531745596362 0 0.00067476709732763147 -0.00025737932880048154 0 0.00063446259647996831 -0.00023355840968063932 0 0.00062822800634761437 -0.00026388558603689604 0 0.00096122765953104191 -0.00020946966335220319 0 0.00085445125365321832 -0.00023948805482489275 0 0.00085445125365321832 -0.00023948805482489275 0 0.00087766413446359944 -0.00025706581148161487 0 0.00099946562586726313 -0.00027384962723269677 0 0.0010812627628304335 -0.00026580516102948492 0 0.0010906747149757011 -0.00027679531745596362 0 0.0019246862461694053 7.4174178557336084e-05 0 0.0018354280953155765 9.0373211700746218e-05 0 0.0019071260158795462 3.1937388185942188e-05 0 0.0018973725701173596 8.043626075128672e-05 0 0.0018370534286595982 9.2025241519036447e-05 0 0.0018459172062673032 9.9435479042764196e-05 0 0.0018485385431533231 9.2633671869608985e-05 0 0.0018354280953155765 9.0373211700746218e-05 0 0.0018536025605966017 9.4880307062143967e-05 0 0.0018459172062673032 9.9435479042764196e-05 0 0.0018485385431533231 9.2633671869608985e-05 0 0.0018354280953155765 9.0373211700746218e-05 0 0.0017724638413617016 6.4681322627517014e-05 0 0.0018163786850769372 3.2120780243602404e-05 0 0.0018354280953155765 9.0373211700746218e-05 0 0.0017724638413617016 6.4681322627517014e-05 0 0.00180279226576995 0.00010576537357137413 0 0.00019502161097724653 -0.00034311367143707405 0 0.00019532765370250483 -0.00041276981005043532 0 0.00017103633564324872 -0.00037856168373978438 0 0.0010218036994259318 -8.8356168030929007e-05 0 0.00097620872219263209 -0.00017603878864456577 0 0.0010218036994259318 -8.8356168030929007e-05 0 0.0014944843034515589 -7.5408449853221914e-05 0 0.0017596509497287303 0.00014535401400512512 0 0.0017724638413617016 6.4681322627517014e-05 0 0.00180279226576995 0.00010576537357137413 0 0.0017596509497287303 0.00014535401400512512 0 0.0018364145861552716 0.00011727215747132782 0 0.00180279226576995 0.00010576537357137413 0 0.00013671496846364946 -0.00039971489923596571 0 0.0001739464726330125 -0.00033841970078134849 0 0.00017103633564324872 -0.00037856168373978438 0 0.00019502161097724653 -0.00034311367143707405 0 0.0001739464726330125 -0.00033841970078134849 0 0.00017103633564324872 -0.00037856168373978438 0 7.0905466871120363e-05 -0.00048783555364951073 0 0.00028778907363725124 -0.00040205502548250045 0 0.00013671496846364946 -0.00039971489923596571 0 0.00019532765370250483 -0.00041276981005043532 0 0.0001561792458956532 -0.00044462377711950796 0 0.00013671496846364946 -0.00039971489923596571 0 0.00019532765370250483 -0.00041276981005043532 0 0.00017103633564324872 -0.00037856168373978438 0 0.00018502502863131776 -0.00045607184947302844 0 0.00016838858758550432 -0.0004627314301715463 0 0.00014463070715388328 -0.00046354774924975764 0 0.0001561792458956532 -0.00044462377711950796 0 0.00018502502863131776 -0.00045607184947302844 0 0.00014463070715388328 -0.00046354774924975764 0 0.00097620872219263209 -0.00017603878864456577 0 0.00099921941141335583 -0.0002420960315327907 0 0.00019532765370250483 -0.00041276981005043532 0 0.0001561792458956532 -0.00044462377711950796 0 0.00018502502863131776 -0.00045607184947302844 0 0.0017724638413617016 6.4681322627517014e-05 0 0.0017914724711092476 -4.0221592344195754e-05 0 0.0018163786850769372 3.2120780243602404e-05 0 0.0018354280953155765 9.0373211700746218e-05 0 0.0018645314982620638 1.1129411599676307e-05 0 0.0019071260158795462 3.1937388185942188e-05 0 0.0018354280953155765 9.0373211700746218e-05 0 0.0018163786850769372 3.2120780243602404e-05 0 0.0018645314982620638 1.1129411599676307e-05 0 0.0017914724711092476 -4.0221592344195754e-05 0 0.0018163786850769372 3.2120780243602404e-05 0 0.0018645314982620638 1.1129411599676307e-05 0 0.0019071260158795462 3.1937388185942188e-05 0 0.0019452161794193418 3.5292917856706514e-06 0 0.0019475304451467268 2.8370408853777624e-05 0 0.0019246862461694053 7.4174178557336084e-05 0 0.0019071260158795462 3.1937388185942188e-05 0 0.0019475304451467268 2.8370408853777624e-05 0 0.0018645314982620638 1.1129411599676307e-05 0 0.0019071260158795462 3.1937388185942188e-05 0 0.0019131627464891684 -7.7276146690075692e-06 0 0.0019131627464891684 -7.7276146690075692e-06 0 0.0019452161794193418 3.5292917856706514e-06 0 0.0019458511734050407 -2.6858998212055341e-05 0 0.0019071260158795462 3.1937388185942188e-05 0 0.0019131627464891684 -7.7276146690075692e-06 0 0.0019452161794193418 3.5292917856706514e-06 0 0.0018645314982620638 1.1129411599676307e-05 0 0.0019131627464891684 -7.7276146690075692e-06 0 0.0018914316383612912 -5.2670041824051637e-05 0 0.0019131627464891684 -7.7276146690075692e-06 0 0.0019458511734050407 -2.6858998212055341e-05 0 0.0018914316383612912 -5.2670041824051637e-05 0 0.0019458511734050407 -2.6858998212055341e-05 0 0.0018914316383612912 -5.2670041824051637e-05 0 0.0019560963538122044 -6.3828528270238602e-05 0 0.0017914724711092476 -4.0221592344195754e-05 0 0.0018645314982620638 1.1129411599676307e-05 0 0.0018914316383612912 -5.2670041824051637e-05 0 0.0017914724711092476 -4.0221592344195754e-05 0 0.0018914316383612912 -5.2670041824051637e-05 0 0.0018131548878436113 -0.00014962745090415781 0 0.0018914316383612912 -5.2670041824051637e-05 0 0.0019338208738963545 -0.00010330330108010655 0 0.0018131548878436113 -0.00014962745090415781 0 0.0019338208738963545 -0.00010330330108010655 0 0.0019560963538122044 -6.3828528270238602e-05 0 0.0019880323138854847 -0.00011118046898632367 0 0.0018914316383612912 -5.2670041824051637e-05 0 0.0019338208738963545 -0.00010330330108010655 0 0.0019560963538122044 -6.3828528270238602e-05 0 0.0019338208738963545 -0.00010330330108010655 0 0.0019351908040906201 -0.00015842218849887712 0 0.0019880323138854847 -0.00011118046898632367 0 0.0019338208738963545 -0.00010330330108010655 0 0.0019351908040906201 -0.00015842218849887712 0 0.0018131548878436113 -0.00014962745090415781 0 0.0019351908040906201 -0.00015842218849887712 0 0.0018131548878436113 -0.00014962745090415781 0 0.0019201495486588082 -0.00024996439601151263 0 0.00017962568750168551 -0.00046106532569295923 0 0.00017208333024732098 -0.00046165309976714384 0 0.00016838858758550432 -0.0004627314301715463 0 0.00017962568750168551 -0.00046106532569295923 0 0.00017208333024732098 -0.00046165309976714384 0 0.00017920189446549647 -0.00045620590369393376 0 0.00017208333024732098 -0.00046165309976714384 0 0.00017752124128735886 -0.00045508967028275909 0 0.00017920189446549647 -0.00045620590369393376 0 0.00017208333024732098 -0.00046165309976714384 0 0.00017752124128735886 -0.00045508967028275909 0 0.00016677620166885251 -0.00046299000872527222 0 0.00017208333024732098 -0.00046165309976714384 0 0.00016677620166885251 -0.00046299000872527222 0 0.00015623193136101807 -0.00046142784936049517 0 0.00016838858758550432 -0.0004627314301715463 0 0.00015623193136101807 -0.00046142784936049517 0 0.00014463070715388328 -0.00046354774924975764 0 0.00017208333024732098 -0.00046165309976714384 0 0.00016838858758550432 -0.0004627314301715463 0 0.00015623193136101807 -0.00046142784936049517 0 0.00099921941141335583 -0.0002420960315327907 0 0.00092376760050644625 -0.00032858053924325094 0 0.00018502502863131776 -0.00045607184947302844 0 0.00017962568750168551 -0.00046106532569295923 0 0.00016838858758550432 -0.0004627314301715463 0 0.0019791886701865484 -2.0665456768461179e-05 0 0.0019765394359293875 -1.5758207436606809e-05 0 0.0019758488745454592 -1.8063454210793495e-05 0 0.0019791886701865484 -2.0665456768461179e-05 0 0.0019758488745454592 -1.8063454210793495e-05 0 0.0019765655758100338 -2.2902318088209586e-05 0 0.0019858499801766218 -2.1336628497626153e-05 0 0.0019791886701865484 -2.0665456768461179e-05 0 0.0019765394359293875 -1.5758207436606809e-05 0 0.0013964293065605203 -7.6597565723753974e-05 0 0.0013823339378273498 -8.6220509707091175e-05 0 0.0013850582739373376 -8.0422772357378056e-05 0 0.0013964293065605203 -7.6597565723753974e-05 0 0.0013850582739373376 -8.0422772357378056e-05 0 0.0013800094098155341 -7.377320823530751e-05 0 0.0013964293065605203 -7.6597565723753974e-05 0 0.0013814801720990299 -6.3442302018714135e-05 0 0.0013800094098155341 -7.377320823530751e-05 0 0.0013823339378273498 -8.6220509707091175e-05 0 0.0013850582739373376 -8.0422772357378056e-05 0 0.0013800094098155341 -7.377320823530751e-05 0 0.0013823339378273498 -8.6220509707091175e-05 0 0.0013707463637180756 -7.1108466137663351e-05 0 0.0013800094098155341 -7.377320823530751e-05 0 0.0019765394359293875 -1.5758207436606809e-05 0 0.0019741643160619141 -1.6537067000668432e-05 0 0.0019758488745454592 -1.8063454210793495e-05 0 0.0013823339378273498 -8.6220509707091175e-05 0 0.0013707463637180756 -7.1108466137663351e-05 0 0.0013586401445560964 -7.1638699496857756e-05 0 0.0017002578891827111 -5.561772614968922e-05 0 0.0016550247067171752 -4.3593051584291662e-05 0 0.0019741643160619141 -1.6537067000668432e-05 0 0.0019758488745454592 -1.8063454210793495e-05 0 0.0019756066941684237 -1.693490781527494e-05 0 0.0019758488745454592 -1.8063454210793495e-05 0 0.0019769136010662994 -1.8150672276595088e-05 0 0.0019765655758100338 -2.2902318088209586e-05 0 0.0019758488745454592 -1.8063454210793495e-05 0 0.0019769136010662994 -1.8150672276595088e-05 0 0.0019756066941684237 -1.693490781527494e-05 0 0.0019769136010662994 -1.8150672276595088e-05 0 0.0019767817423760508 -1.4882557003349881e-05 0 0.0019784028931400899 -1.5816285985723139e-05 0 0.0020154967668685139 -4.3352743115054369e-05 0 0.0019795029448986599 -1.7855534518217832e-05 0 0.0019769136010662994 -1.8150672276595088e-05 0 0.0019756066941684237 -1.693490781527494e-05 0 0.0019784028931400899 -1.5816285985723139e-05 0 0.0019741643160619141 -1.6537067000668432e-05 0 0.0019756066941684237 -1.693490781527494e-05 0 0.0019747677507201931 -1.6675116577610089e-05 0 0.0019744307904615331 -1.6681900414229683e-05 0 0.0019741643160619141 -1.6537067000668432e-05 0 0.0019747677507201931 -1.6675116577610089e-05 0 0.0017230344299092742 5.5764552051518433e-06 0 0.0016550247067171752 -4.3593051584291662e-05 0 0.001974253620737867 -1.6848126886910106e-05 0 0.0019747677507201931 -1.6675116577610089e-05 0 0.0019759398721700969 -1.6539496290203153e-05 0 0.001974253620737867 -1.6848126886910106e-05 0 0.0019744171691945724 -1.667994220721582e-05 0 0.0019747677507201931 -1.6675116577610089e-05 0 0.0017230344299092742 5.5764552051518433e-06 0 0.0017687060775289285 -2.8488603817882978e-05 0 0.0019756066941684237 -1.693490781527494e-05 0 0.0019747677507201931 -1.6675116577610089e-05 0 0.0019759398721700969 -1.6539496290203153e-05 0 0.0019756066941684237 -1.693490781527494e-05 0 0.0019759398721700969 -1.6539496290203153e-05 0 0.0019784028931400899 -1.5816285985723139e-05 0 0.0019764393461594314 1.0322017955740709e-05 0 0.0019767817423760508 -1.4882557003349881e-05 0 0.0019784028931400899 -1.5816285985723139e-05 0 0.001974253620737867 -1.6848126886910106e-05 0 0.0019759398721700969 -1.6539496290203153e-05 0 0.0019784028931400899 -1.5816285985723139e-05 0 0.0019944606889126235 4.6738905308939859e-05 0 0.0019764393461594314 1.0322017955740709e-05 0 0.0019784028931400899 -1.5816285985723139e-05 0 0.0018450347010359541 2.5289302480076232e-05 0 0.0019928433440010115 -1.545079287399225e-05 0 0.0019944606889126235 4.6738905308939859e-05 0 0.0019764393461594314 1.0322017955740709e-05 0 0.0019713249190279488 3.1051784506595338e-05 0 0.0019246862461694053 7.4174178557336084e-05 0 0.0019713249190279488 3.1051784506595338e-05 0 0.0019475304451467268 2.8370408853777624e-05 0 0.0019713249190279488 3.1051784506595338e-05 0 0.0019475304451467268 2.8370408853777624e-05 0 0.0019657906924327377 8.8108008493138041e-06 0 0.0019764393461594314 1.0322017955740709e-05 0 0.0019713249190279488 3.1051784506595338e-05 0 0.0019657906924327377 8.8108008493138041e-06 0 0.0019452161794193418 3.5292917856706514e-06 0 0.0019475304451467268 2.8370408853777624e-05 0 0.0019657906924327377 8.8108008493138041e-06 0 0.0019764393461594314 1.0322017955740709e-05 0 0.0019657906924327377 8.8108008493138041e-06 0 0.0019767817423760508 -1.4882557003349881e-05 0 0.0019452161794193418 3.5292917856706514e-06 0 0.0019657906924327377 8.8108008493138041e-06 0 0.0019767817423760508 -1.4882557003349881e-05 0 0.0020587535062999824 -7.0516877948358477e-05 0 0.0019767817423760508 -1.4882557003349881e-05 0 0.0020043939564019673 -7.5908667993185498e-05 0 0.0019452161794193418 3.5292917856706514e-06 0 0.0019458511734050407 -2.6858998212055341e-05 0 0.0019767817423760508 -1.4882557003349881e-05 0 0.0019458511734050407 -2.6858998212055341e-05 0 0.0019767817423760508 -1.4882557003349881e-05 0 0.0019560963538122044 -6.3828528270238602e-05 0 0.0019767817423760508 -1.4882557003349881e-05 0 0.0019560963538122044 -6.3828528270238602e-05 0 0.0020043939564019673 -7.5908667993185498e-05 0 0.0019560963538122044 -6.3828528270238602e-05 0 0.0020043939564019673 -7.5908667993185498e-05 0 0.0019880323138854847 -0.00011118046898632367 0 0.0020043939564019673 -7.5908667993185498e-05 0 0.0019880323138854847 -0.00011118046898632367 0 0.0020417492702523303 -0.00011551964892690886 0 0.0019880323138854847 -0.00011118046898632367 0 0.0020284393534812399 -0.00015597878782222312 0 0.0020417492702523303 -0.00011551964892690886 0 0.0019351908040906201 -0.00015842218849887712 0 0.0020284393534812399 -0.00015597878782222312 0 0.0020284422174545891 -0.00020184311709132055 0 0.0019351908040906201 -0.00015842218849887712 0 0.0019880323138854847 -0.00011118046898632367 0 0.0020284393534812399 -0.00015597878782222312 0 0.0020284393534812399 -0.00015597878782222312 0 0.0020667630052806441 -0.00015120898685361676 0 0.0020517234003268213 -0.00018238903296431943 0 0.0020284393534812399 -0.00015597878782222312 0 0.0020667630052806441 -0.00015120898685361676 0 0.0020417492702523303 -0.00011551964892690886 0 0.0020587535062999824 -7.0516877948358477e-05 0 0.0020043939564019673 -7.5908667993185498e-05 0 0.0020417492702523303 -0.00011551964892690886 0 0.0020587535062999824 -7.0516877948358477e-05 0 0.0020417492702523303 -0.00011551964892690886 0 0.0021030978781767969 -0.00011072029805939631 0 0.0020154967668685139 -4.3352743115054369e-05 0 0.002042137694209674 -6.756048023055668e-05 0 0.0020667630052806441 -0.00015120898685361676 0 0.0020417492702523303 -0.00011551964892690886 0 0.0021030978781767969 -0.00011072029805939631 0 0.0020667630052806441 -0.00015120898685361676 0 0.0021008691976290451 -0.00015777914297651616 0 0.0021030978781767969 -0.00011072029805939631 0 0.0020667630052806441 -0.00015120898685361676 0 0.0021008691976290451 -0.00015777914297651616 0 0.0020722523437589672 -0.00017371141645020177 0 0.0021374507633851142 -0.00013535423429162131 0 0.0021008691976290451 -0.00015777914297651616 0 0.002123335730144984 -0.00017730975768788065 0 0.0021374507633851142 -0.00013535423429162131 0 0.0021008691976290451 -0.00015777914297651616 0 0.0021030978781767969 -0.00011072029805939631 0 0.0020504721237156382 -7.6127425966476662e-05 0 0.002042137694209674 -6.756048023055668e-05 0 0.0019836369008447521 -3.0758691986604512e-05 0 0.0019791886701865484 -2.0665456768461179e-05 0 0.0019765655758100338 -2.2902318088209586e-05 0 0.0020923181751387487 -0.00019007405972934035 0 0.0020781862037955495 -0.00022631186681859803 0 0.0021203133548638254 -0.00022316606142901586 0 0.002123335730144984 -0.00017730975768788065 0 0.0020923181751387487 -0.00019007405972934035 0 0.0021203133548638254 -0.00022316606142901586 0 0.0021008691976290451 -0.00015777914297651616 0 0.002123335730144984 -0.00017730975768788065 0 0.0020923181751387487 -0.00019007405972934035 0 0.0021008691976290451 -0.00015777914297651616 0 0.0020722523437589672 -0.00017371141645020177 0 0.0020923181751387487 -0.00019007405972934035 0 0.0020722523437589672 -0.00017371141645020177 0 0.0020624917300924011 -0.00019163686140799519 0 0.0020923181751387487 -0.00019007405972934035 0 0.0020624917300924011 -0.00019163686140799519 0 0.0020923181751387487 -0.00019007405972934035 0 0.0020781862037955495 -0.00022631186681859803 0 0.0020624333620604686 -0.00019328135086748359 0 0.0020642951588085586 -0.00019549335336823976 0 0.0020624917300924011 -0.00019163686140799519 0 0.0020612824175551677 -0.00017761874253559279 0 0.0020490464200433418 -0.00017395411909427113 0 0.0020624917300924011 -0.00019163686140799519 0 0.0020543235571332703 -0.00018938566299727251 0 0.0020612824175551677 -0.00017761874253559279 0 0.0020543235571332703 -0.00018938566299727251 0 0.002073990114287879 -0.00017441513293162025 0 0.0020612824175551677 -0.00017761874253559279 0 0.0020624917300924011 -0.00019163686140799519 0 0.0020517234003268213 -0.00018238903296431943 0 0.0020543235571332703 -0.00018938566299727251 0 0.0020722523437589672 -0.00017371141645020177 0 0.0020624917300924011 -0.00019163686140799519 0 0.0020517234003268213 -0.00018238903296431943 0 0.0020667630052806441 -0.00015120898685361676 0 0.0020722523437589672 -0.00017371141645020177 0 0.0020517234003268213 -0.00018238903296431943 0 0.0020284422174545891 -0.00020184311709132055 0 0.0020543235571332703 -0.00018938566299727251 0 0.0020717732484514836 -0.00018193237085478939 0 0.0020284393534812399 -0.00015597878782222312 0 0.0020517234003268213 -0.00018238903296431943 0 0.0020284422174545891 -0.00020184311709132055 0 0.0020517234003268213 -0.00018238903296431943 0 0.0020284422174545891 -0.00020184311709132055 0 0.0020543235571332703 -0.00018938566299727251 0 0.0020543235571332703 -0.00018938566299727251 0 0.002073990114287879 -0.00017441513293162025 0 0.0020717732484514836 -0.00018193237085478939 0 0.002073990114287879 -0.00017441513293162025 0 0.0020712171007710475 -0.00015965236386488886 0 0.0021110458958045479 -0.00015524799547956419 0 0.0020914748267198426 -0.00013694560160604303 0 0.0020712171007710475 -0.00015965236386488886 0 0.0021110458958045479 -0.00015524799547956419 0 0.0020914748267198426 -0.00013694560160604303 0 0.0020606260218097206 -0.00014582831399201108 0 0.0020712171007710475 -0.00015965236386488886 0 0.0022283401402275185 -0.00011727710111421704 0 0.0023245382499605814 -9.7423225621286999e-05 0 0.0020606260218097206 -0.00014582831399201108 0 0.0020712171007710475 -0.00015965236386488886 0 0.0020548437338040355 -0.00016108921671438751 0 0.0020712171007710475 -0.00015965236386488886 0 0.0020612824175551677 -0.00017761874253559279 0 0.0020548437338040355 -0.00016108921671438751 0 0.002073990114287879 -0.00017441513293162025 0 0.0020712171007710475 -0.00015965236386488886 0 0.0020612824175551677 -0.00017761874253559279 0 0.0020612824175551677 -0.00017761874253559279 0 0.0020490464200433418 -0.00017395411909427113 0 0.0020548437338040355 -0.00016108921671438751 0 0.0020490464200433418 -0.00017395411909427113 0 0.0020548437338040355 -0.00016108921671438751 0 0.002043891958707706 -0.00015588937656671207 0 0.0020642951588085586 -0.00019549335336823976 0 0.002172412387211416 -0.00018845523855638089 0 0.0023245382499605814 -9.7423225621286999e-05 0 0.0024314519328209193 -0.00020340307121060391 0 0.0025852757681552956 -5.8327403874472703e-05 0 0.0028120652152417011 -4.3339094065277973e-05 0 0.0027078862599965283 -0.00018067237443515445 0 0.0020606260218097206 -0.00014582831399201108 0 0.0020548437338040355 -0.00016108921671438751 0 0.0020458105526364755 -0.00015370409943251881 0 0.0020606260218097206 -0.00014582831399201108 0 0.0020458105526364755 -0.00015370409943251881 0 0.0020430272509199751 -0.00015062950202712999 0 0.0020458105526364755 -0.00015370409943251881 0 0.0020447720430746617 -0.00015523551569092853 0 0.0020430272509199751 -0.00015062950202712999 0 0.002172412387211416 -0.00018845523855638089 0 0.0024314519328209193 -0.00020340307121060391 0 0.0020548437338040355 -0.00016108921671438751 0 0.0020458105526364755 -0.00015370409943251881 0 0.002043891958707706 -0.00015588937656671207 0 0.0021581951332130056 -0.00019328562768405725 0 0.002172412387211416 -0.00018845523855638089 0 0.0023052947932745817 -0.00021958114277836435 0 0.0023139119101828632 -0.00021920758511589949 0 0.0023095173112741714 -0.00022240344415072112 0 0.0024840783002005634 -0.0002252510848137429 0 0.0025666613058969497 -0.000220948548867114 0 0.0025261732135840507 -0.00019770232992066575 0 0.0023144339582599309 -0.0002213771504822132 0 0.0023139119101828632 -0.00021920758511589949 0 0.0023095173112741714 -0.00022240344415072112 0 0.0023964279075265917 -0.00022397877043895707 0 0.0024314519328209193 -0.00020340307121060391 0 0.002172412387211416 -0.00018845523855638089 0 0.0022142489087871487 -0.00023115459079572686 0 0.0023144339582599309 -0.0002213771504822132 0 0.0023095173112741714 -0.00022240344415072112 0 0.0023088872294716226 -0.00022754438519877751 0 0.0020781862037955495 -0.00022631186681859803 0 0.0020913754035906669 -0.00025724128189323148 0 0.0021203133548638254 -0.00022316606142901586 0 0.00089853835710060727 -0.00013658102136210101 0 0.0015421038533243781 -0.00023669085238883173 0 0.0018015284022230317 0.00020489440800831608 0 0.0020274959530384596 0.00027890236832292065 0 0.0018947561656587459 5.4438125549580616e-05 0 0.00018600580010151853 -0.0004447180282519723 0 0.0001822521229752779 -0.00045043516507814533 0 0.0001869288654094846 -0.00044948964619058798 0 0.00018600580010151853 -0.0004447180282519723 0 0.0001942436306087956 -0.00043664114296141304 0 0.0001866640898169496 -0.00044635178171192842 0 0.00089853835710060727 -0.00013658102136210101 0 0.0009930099730499917 -6.9681127499934302e-05 0 0.00018600580010151853 -0.0004447180282519723 0 0.0001822521229752779 -0.00045043516507814533 0 0.0001866640898169496 -0.00044635178171192842 0 0.0001822521229752779 -0.00045043516507814533 0 0.00017752124128735886 -0.00045508967028275909 0 0.0001866640898169496 -0.00044635178171192842 0 0.0001822521229752779 -0.00045043516507814533 0 0.00017752124128735886 -0.00045508967028275909 0 0.00017920189446549647 -0.00045620590369393376 0 0.00017962568750168551 -0.00046106532569295923 0 0.00017920189446549647 -0.00045620590369393376 0 0.0001869288654094846 -0.00044948964619058798 0 0.00092376760050644625 -0.00032858053924325094 0 0.0015421038533243781 -0.00023669085238883173 0 0.0001822521229752779 -0.00045043516507814533 0 0.00017920189446549647 -0.00045620590369393376 0 0.0001869288654094846 -0.00044948964619058798 0 0.0018131548878436113 -0.00014962745090415781 0 0.0019201495486588082 -0.00024996439601151263 0 0.0018308310984938138 -0.00028176803515638985 0 0.0020849100028384119 -0.00020023344769631588 0 0.0015421038533243781 -0.00023669085238883173 0 0.002001109785834392 -0.00021598083502378924 0 0.0020849100028384119 -0.00020023344769631588 0 0.0020284422174545891 -0.00020184311709132055 0 0.0020964935234715969 -0.00019985577643452432 0 0.0020717732484514836 -0.00018193237085478939 0 0.0019351908040906201 -0.00015842218849887712 0 0.0020284422174545891 -0.00020184311709132055 0 0.0019201495486588082 -0.00024996439601151263 0 0.002073990114287879 -0.00017441513293162025 0 0.0020717732484514836 -0.00018193237085478939 0 0.0021007802641094201 -0.00016396879305885959 0 0.0020964935234715969 -0.00019985577643452432 0 0.0020717732484514836 -0.00018193237085478939 0 0.0021007802641094201 -0.00016396879305885959 0 0.0020964935234715969 -0.00019985577643452432 0 0.0021007802641094201 -0.00016396879305885959 0 0.0021288175697666799 -0.00018703333833749129 0 0.0021007802641094201 -0.00016396879305885959 0 0.0021288175697666799 -0.00018703333833749129 0 0.0021226928197398999 -0.00013175077507113098 0 0.0015421038533243781 -0.00023669085238883173 0 0.0021685548736583289 -2.8397135099509233e-05 0 0.0021007802641094201 -0.00016396879305885959 0 0.0021226928197398999 -0.00013175077507113098 0 0.0021110458958045479 -0.00015524799547956419 0 0.002073990114287879 -0.00017441513293162025 0 0.0021007802641094201 -0.00016396879305885959 0 0.0021110458958045479 -0.00015524799547956419 0 0.0022283401402275185 -0.00011727710111421704 0 0.0021600229717914335 -0.00013966373680585116 0 0.0020914748267198426 -0.00013694560160604303 0 0.0021110458958045479 -0.00015524799547956419 0 0.0021515001699183418 -0.00014927956659351973 0 0.0021226928197398999 -0.00013175077507113098 0 0.0021110458958045479 -0.00015524799547956419 0 0.0021515001699183418 -0.00014927956659351973 0 0.0020768849903642565 -3.6596663145809214e-05 0 0.0020085902084350398 -0.00017104015572861356 0 0.00211015886296782 -0.00025780520114260328 0 0.0021226928197398999 -0.00013175077507113098 0 0.0021515001699183418 -0.00014927956659351973 0 0.00211015886296782 -0.00025780520114260328 0 0.0021685548736583289 -2.8397135099509233e-05 0 0.0020943938800818875 -0.00027430432800946237 0 0.0020085902084350398 -0.00017104015572861356 0 0.0018157065984194037 -9.8081703121678324e-05 0 0.0017514815054039165 -0.00021533399505580683 0 0.0019430834573097853 -6.5320792807591879e-05 0 0.0018947561656587459 5.4438125549580616e-05 0 0.0018157065984194037 -9.8081703121678324e-05 0 0.0020085902084350398 -0.00017104015572861356 0 0.0019430834573097853 -6.5320792807591879e-05 0 0.0018157065984194037 -9.8081703121678324e-05 0 0.0020768849903642565 -3.6596663145809214e-05 0 0.0020085902084350398 -0.00017104015572861356 0 0.0019430834573097853 -6.5320792807591879e-05 0 0.0020274959530384596 0.00027890236832292065 0 0.0020768849903642565 -3.6596663145809214e-05 0 0.0018947561656587459 5.4438125549580616e-05 0 0.0020768849903642565 -3.6596663145809214e-05 0 0.0019430834573097853 -6.5320792807591879e-05 0 0.0018947561656587459 5.4438125549580616e-05 0 0.0018015284022230317 0.00020489440800831608 0 0.0016970336439659872 4.8052458185185207e-05 0 0.0015683904112545122 0.00012871821901122807 0 0.0018947561656587459 5.4438125549580616e-05 0 0.0016970336439659872 4.8052458185185207e-05 0 0.0018157065984194037 -9.8081703121678324e-05 0 0.0018015284022230317 0.00020489440800831608 0 0.0018947561656587459 5.4438125549580616e-05 0 0.0016970336439659872 4.8052458185185207e-05 0 0.0016970336439659872 4.8052458185185207e-05 0 0.0016863108549440755 -7.7335560737427347e-05 0 0.0018157065984194037 -9.8081703121678324e-05 0 0.0016863108549440755 -7.7335560737427347e-05 0 0.0018157065984194037 -9.8081703121678324e-05 0 0.0017514815054039165 -0.00021533399505580683 0 0.0016863108549440755 -7.7335560737427347e-05 0 0.0016214662880914671 -0.00017167684246555188 0 0.0017514815054039165 -0.00021533399505580683 0 0.0016214662880914671 -0.00017167684246555188 0 0.0015485329521431844 -3.1291102949540652e-05 0 0.0015086954776568089 -0.00021489620620524259 0 0.0016863108549440755 -7.7335560737427347e-05 0 0.0016214662880914671 -0.00017167684246555188 0 0.0015485329521431844 -3.1291102949540652e-05 0 0.001331769469459114 -9.5233715715877231e-05 0 0.0015485329521431844 -3.1291102949540652e-05 0 0.0015086954776568089 -0.00021489620620524259 0 0.001331769469459114 -9.5233715715877231e-05 0 0.0015086954776568089 -0.00021489620620524259 0 0.0013458639608133892 -0.00026475336194042284 0 0.001331769469459114 -9.5233715715877231e-05 0 0.0013782191629193932 6.910161407249381e-05 0 0.0011886846777309442 2.3716809670255226e-06 0 0.001331769469459114 -9.5233715715877231e-05 0 0.0013782191629193932 6.910161407249381e-05 0 0.0015485329521431844 -3.1291102949540652e-05 0 0.00078638117089013457 -0.00018577209284390854 0 0.00074165090813650269 -0.00020131590020392917 0 0.00077915268409273013 -0.00013766536673151051 0 0.0011508632569897134 -3.412552173912009e-05 0 0.0009930099730499917 -6.9681127499934302e-05 0 0.0013782191629193932 6.910161407249381e-05 0 0.0015665867814294813 0.00013459089100083192 0 0.0015485329521431844 -3.1291102949540652e-05 0 0.0016901034693403956 -6.4787017586729709e-05 0 0.0009930099730499917 -6.9681127499934302e-05 0 0.0016970336439659872 4.8052458185185207e-05 0 0.0015665867814294813 0.00013459089100083192 0 0.0015485329521431844 -3.1291102949540652e-05 0 0.0016970336439659872 4.8052458185185207e-05 0 0.0016863108549440755 -7.7335560737427347e-05 0 0.0015485329521431844 -3.1291102949540652e-05 0 0.00099213958990786557 -0.00016628706342913915 0 0.0010436434287042875 -3.1980744901185651e-05 0 0.00084741944408221574 -0.00016800026555400242 0 0.0010167833880740454 -0.00014893943639278216 0 0.0010656443538416046 -0.00019348934627776691 0 0.00099213958990786557 -0.00016628706342913915 0 0.001136191909917155 -9.897324503711739e-05 0 0.0010497474884512902 -0.00024414076093999163 0 0.00062984445512277731 -0.00021107722637556207 0 0.0010167833880740454 -0.00014893943639278216 0 0.00099213958990786557 -0.00016628706342913915 0 0.0010436434287042875 -3.1980744901185651e-05 0 0.001136191909917155 -9.897324503711739e-05 0 0.0010167833880740454 -0.00014893943639278216 0 0.0013674009847773161 -0.00026628438938244847 0 0.001331769469459114 -9.5233715715877231e-05 0 0.0011198117585770695 -0.00011076807191527993 0 0.0013458639608133892 -0.00026475336194042284 0 0.001331769469459114 -9.5233715715877231e-05 0 0.0011198117585770695 -0.00011076807191527993 0 0.0011886846777309442 2.3716809670255226e-06 0 0.0010167833880740454 -0.00014893943639278216 0 0.00075572580082976964 -0.00018666836121376424 0 0.00079714256354076704 -0.00018351716019036568 0 0.00080953129362131893 -0.00019183360570806726 0 0.00081895915359876963 -0.00017616196473180715 0 0.00029348331676794589 -0.00031135308531824737 0 0.00031368526399630389 -0.00032432336048190952 0 0.00029962980678013471 -0.00034601753324120413 0 0.00075572580082976964 -0.00018666836121376424 0 0.00034936902449662021 -0.0003354467346199534 0 0.0011508632569897134 -3.412552173912009e-05 0 0.00075572580082976964 -0.00018666836121376424 0 0.00062984445512277731 -0.00021107722637556207 0 0.00036620874176858051 -0.00032168485884533608 0 0.00031368526399630389 -0.00032432336048190952 0 0.00031910040629159401 -0.00034269622311098035 0 0.00034755709938257012 -0.0003255269004641893 0 0.00031757529787186379 -0.00030308322649884274 0 0.00031368526399630389 -0.00032432336048190952 0 0.00034755709938257012 -0.0003255269004641893 0 0.00031757529787186379 -0.00030308322649884274 0 0.00029348331676794589 -0.00031135308531824737 0 0.00031368526399630389 -0.00032432336048190952 0 0.00062984445512277731 -0.00021107722637556207 0 0.00075572580082976964 -0.00018666836121376424 0 0.00031522452805773146 -0.00036266615016792111 0 0.00029962980678013471 -0.00034601753324120413 0 0.00029882072437320518 -0.0003828091683559665 0 0.00031910040629159401 -0.00034269622311098035 0 0.00031522452805773146 -0.00036266615016792111 0 0.00034163008701600361 -0.00035609478768794644 0 0.00031368526399630389 -0.00032432336048190952 0 0.00031910040629159401 -0.00034269622311098035 0 0.00029962980678013471 -0.00034601753324120413 0 0.00031910040629159401 -0.00034269622311098035 0 0.00031522452805773146 -0.00036266615016792111 0 0.00029962980678013471 -0.00034601753324120413 0 0.00029348331676794589 -0.00031135308531824737 0 0.00029962980678013471 -0.00034601753324120413 0 0.00026507680474127573 -0.00035576651851576091 0 0.00029962980678013471 -0.00034601753324120413 0 0.00029882072437320518 -0.0003828091683559665 0 0.00026507680474127573 -0.00035576651851576091 0 0.00027607547745961576 -0.00039408763405966805 0 0.00034936902449662021 -0.0003354467346199534 0 0.00028520559969054903 -0.00040844951398938363 0 0.00022959478015608094 -0.00037303557876133624 0 0.000241583330604251 -0.00041548310474947333 0 0.00028520559969054903 -0.00040844951398938363 0 0.000241583330604251 -0.00041548310474947333 0 0.00023349184543297022 -0.00045198013782845405 0 0.00029882072437320518 -0.0003828091683559665 0 0.00033455268499187703 -0.00041963213855739171 0 0.00033110571690183439 -0.00038231661176546929 0 0.00031522452805773146 -0.00036266615016792111 0 0.00029882072437320518 -0.0003828091683559665 0 0.00033110571690183439 -0.00038231661176546929 0 0.00031522452805773146 -0.00036266615016792111 0 0.00033110571690183439 -0.00038231661176546929 0 0.00034163008701600361 -0.00035609478768794644 0 0.0001942436306087956 -0.00043664114296141304 0 0.0001866640898169496 -0.00044635178171192842 0 0.00020173658459320584 -0.00044233060091540115 0 0.00078638117089013457 -0.00018577209284390854 0 0.00083225914103460382 -0.00016980744271345377 0 0.00077915268409273013 -0.00013766536673151051 0 0.0009930099730499917 -6.9681127499934302e-05 0 0.00034936902449662021 -0.0003354467346199534 0 0.00022959478015608094 -0.00037303557876133624 0 0.000241583330604251 -0.00041548310474947333 0 0.00018821179733862482 -0.00045307360662466648 0 0.00034936902449662021 -0.0003354467346199534 0 0.00014370856058922672 -0.00048833017749425143 0 0.00020173658459320584 -0.00044233060091540115 0 0.00018322609566272946 -0.00045091278044116285 0 0.00018821179733862482 -0.00045307360662466648 0 0.0001866640898169496 -0.00044635178171192842 0 0.00020173658459320584 -0.00044233060091540115 0 0.00018322609566272946 -0.00045091278044116285 0 0.00017752124128735886 -0.00045508967028275909 0 0.0001866640898169496 -0.00044635178171192842 0 0.00018322609566272946 -0.00045091278044116285 0 0.00017752124128735886 -0.00045508967028275909 0 0.00018322609566272946 -0.00045091278044116285 0 0.00016677620166885251 -0.00046299000872527222 0 0.00016677620166885251 -0.00046299000872527222 0 0.00018821179733862482 -0.00045307360662466648 0 0.00023349184543297022 -0.00045198013782845405 0 0.00016677620166885251 -0.00046299000872527222 0 0.00014328526143017492 -0.00045736546457842732 0 0.00012937385792814447 -0.00045317531069607287 0 0.00018322609566272946 -0.00045091278044116285 0 0.00016677620166885251 -0.00046299000872527222 0 0.00018821179733862482 -0.00045307360662466648 0 0.00016669624544213811 -0.00046088637281376351 0 0.00018263209805284201 -0.0004511609954142593 0 0.00016677620166885251 -0.00046299000872527222 0 0.00014328526143017492 -0.00045736546457842732 0 0.00015623193136101807 -0.00046142784936049517 0 0.00015623193136101807 -0.00046142784936049517 0 0.00013741888489337826 -0.00046059411119836371 0 0.00014463070715388328 -0.00046354774924975764 0 0.00013741888489337826 -0.00046059411119836371 0 0.00014463070715388328 -0.00046354774924975764 0 0.00011932603455253367 -0.00046585797669538236 0 0.00014328526143017492 -0.00045736546457842732 0 0.00015623193136101807 -0.00046142784936049517 0 0.00013741888489337826 -0.00046059411119836371 0 0.00012975043716452722 -0.00045479870696317644 0 0.00013398469554661731 -0.00046108739234045499 0 0.00011932603455253367 -0.00046585797669538236 0 0.00013741888489337826 -0.00046059411119836371 0 0.00012975043716452722 -0.00045479870696317644 0 0.00011932603455253367 -0.00046585797669538236 0 0.00014328526143017492 -0.00045736546457842732 0 0.00013741888489337826 -0.00046059411119836371 0 0.00012975043716452722 -0.00045479870696317644 0 0.00012975043716452722 -0.00045479870696317644 0 0.00012937385792814447 -0.00045317531069607287 0 0.00013808631808830756 -0.00044595210186473697 0 0.000241583330604251 -0.00041548310474947333 0 0.00018821179733862482 -0.00045307360662466648 0 0.00023349184543297022 -0.00045198013782845405 0 0.00014328526143017492 -0.00045736546457842732 0 0.00012975043716452722 -0.00045479870696317644 0 0.00012937385792814447 -0.00045317531069607287 0 0.00028520559969054903 -0.00040844951398938363 0 0.00023349184543297022 -0.00045198013782845405 0 0.00029715521569584835 -0.00043867795005146269 0 0.00018263209805284201 -0.0004511609954142593 0 0.00022863645387465953 -0.00042822437822372924 0 0.00012937385792814447 -0.00045317531069607287 0 0.00015732958989759027 -0.00041746823841886933 0 0.00013808631808830756 -0.00044595210186473697 0 0.00028520559969054903 -0.00040844951398938363 0 0.00029715521569584835 -0.00043867795005146269 0 0.00033455268499187703 -0.00041963213855739171 0 0.00027607547745961576 -0.00039408763405966805 0 0.00033913942610127039 -0.00042176245712180835 0 0.00015732958989759027 -0.00041746823841886933 0 0.00015784134241680339 -0.00044793887967337602 0 0.00019589992700538435 -0.00043218975343682501 0 0.00015784134241680339 -0.00044793887967337602 0 0.00019145870381934965 -0.00045574734840142685 0 0.00019589992700538435 -0.00043218975343682501 0 0.00015732958989759027 -0.00041746823841886933 0 0.00015784134241680339 -0.00044793887967337602 0 0.00013808631808830756 -0.00044595210186473697 0 0.00015784134241680339 -0.00044793887967337602 0 0.00019145870381934965 -0.00045574734840142685 0 0.00015287662588870862 -0.00047371323321901339 0 0.00012975043716452722 -0.00045479870696317644 0 0.00013808631808830756 -0.00044595210186473697 0 0.00013398469554661731 -0.00046108739234045499 0 0.00015784134241680339 -0.00044793887967337602 0 0.00013808631808830756 -0.00044595210186473697 0 0.00013398469554661731 -0.00046108739234045499 0 0.00015784134241680339 -0.00044793887967337602 0 0.00013398469554661731 -0.00046108739234045499 0 0.00015287662588870862 -0.00047371323321901339 0 0.00013398469554661731 -0.00046108739234045499 0 0.00012529722906335104 -0.00049181884357644328 0 0.00015287662588870862 -0.00047371323321901339 0 0.00013398469554661731 -0.00046108739234045499 0 0.00012529722906335104 -0.00049181884357644328 0 0.00011932603455253367 -0.00046585797669538236 0 0.00019145870381934965 -0.00045574734840142685 0 0.00015287662588870862 -0.00047371323321901339 0 0.00022044866662833463 -0.00048320068732128754 0 0.00015287662588870862 -0.00047371323321901339 0 0.00017315632984761826 -0.00050271665345843553 0 0.00022044866662833463 -0.00048320068732128754 0 0.00012529722906335104 -0.00049181884357644328 0 0.00015287662588870862 -0.00047371323321901339 0 0.00017315632984761826 -0.00050271665345843553 0 0.00014218141871322917 -0.00054076545967394281 0 0.00012529722906335104 -0.00049181884357644328 0 0.00017315632984761826 -0.00050271665345843553 0 0.0001000160884968702 -0.00053886235504891115 0 0.00014218141871322917 -0.00054076545967394281 0 0.00012529722906335104 -0.00049181884357644328 0 0.0001000160884968702 -0.00053886235504891115 0 0.00012529722906335104 -0.00049181884357644328 0 0.00010374179470951954 -0.00047456356989245306 0 8.2249853117137445e-05 -0.00054068384663409077 0 0.0001000160884968702 -0.00053886235504891115 0 0.00010374179470951954 -0.00047456356989245306 0 7.0905466871120363e-05 -0.00048783555364951073 0 0.00011254999505283377 -0.00046577199730423661 0 0.00013671496846364946 -0.00039971489923596571 0 0.0001561792458956532 -0.00044462377711950796 0 0.00010374179470951954 -0.00047456356989245306 0 0.0001561792458956532 -0.00044462377711950796 0 0.00010374179470951954 -0.00047456356989245306 0 0.00014463070715388328 -0.00046354774924975764 0 0.00010374179470951954 -0.00047456356989245306 0 0.00014463070715388328 -0.00046354774924975764 0 0.00011932603455253367 -0.00046585797669538236 0 0.00012529722906335104 -0.00049181884357644328 0 0.00010374179470951954 -0.00047456356989245306 0 0.00011932603455253367 -0.00046585797669538236 0 0.00034533389475289859 -0.00051777465195010656 0 0.00030568984976247175 -0.0004803731902198488 0 0.00038859328730426969 -0.00047029812252943914 0 0.00034533389475289859 -0.00051777465195010656 0 0.00040555671588886973 -0.00052198722218693 0 0.00038859328730426969 -0.00047029812252943914 0 0.00040555671588886973 -0.00052198722218693 0 0.00038859328730426969 -0.00047029812252943914 0 0.00043121454382549133 -0.00048388897654115721 0 0.00034533389475289859 -0.00051777465195010656 0 0.00040555671588886973 -0.00052198722218693 0 0.00038013682557412235 -0.0005570423701827305 0 0.00040555671588886973 -0.00052198722218693 0 0.00038013682557412235 -0.0005570423701827305 0 0.00042535383953648846 -0.00056722551815740867 0 0.00032775427650160414 -0.00055912181526734635 0 0.00034533389475289859 -0.00051777465195010656 0 0.00038013682557412235 -0.0005570423701827305 0 0.00032775427650160414 -0.00055912181526734635 0 0.00034533389475289859 -0.00051777465195010656 0 0.00025205934002317775 -0.00052721392752399501 0 0.00017315632984761826 -0.00050271665345843553 0 0.00025205934002317775 -0.00052721392752399501 0 0.00022044866662833463 -0.00048320068732128754 0 0.00014218141871322917 -0.00054076545967394281 0 0.00017315632984761826 -0.00050271665345843553 0 0.00025205934002317775 -0.00052721392752399501 0 0.00034533389475289859 -0.00051777465195010656 0 0.00025205934002317775 -0.00052721392752399501 0 0.00030568984976247175 -0.0004803731902198488 0 0.00022044866662833463 -0.00048320068732128754 0 0.00030568984976247175 -0.0004803731902198488 0 0.0002473890073684768 -0.00045043436468587481 0 0.00025205934002317775 -0.00052721392752399501 0 0.00022044866662833463 -0.00048320068732128754 0 0.00030568984976247175 -0.0004803731902198488 0 0.00030568984976247175 -0.0004803731902198488 0 0.0002473890073684768 -0.00045043436468587481 0 0.00037572600870086322 -0.00041936843851329673 0 0.0002473890073684768 -0.00045043436468587481 0 0.00024342721026639026 -0.00039462922058005023 0 0.00037572600870086322 -0.00041936843851329673 0 0.00019145870381934965 -0.00045574734840142685 0 0.00022044866662833463 -0.00048320068732128754 0 0.0002473890073684768 -0.00045043436468587481 0 0.00019145870381934965 -0.00045574734840142685 0 0.0002473890073684768 -0.00045043436468587481 0 0.00019589992700538435 -0.00043218975343682501 0 0.0002473890073684768 -0.00045043436468587481 0 0.00019589992700538435 -0.00043218975343682501 0 0.00024342721026639026 -0.00039462922058005023 0 0.00022863645387465953 -0.00042822437822372924 0 0.00029970638636217745 -0.00041122363855735446 0 0.00029715521569584835 -0.00043867795005146269 0 0.00035482699555975251 -0.00042080470764096833 0 0.00033455268499187703 -0.00041963213855739171 0 0.00015732958989759027 -0.00041746823841886933 0 0.00019589992700538435 -0.00043218975343682501 0 0.00024342721026639026 -0.00039462922058005023 0 0.00035482699555975251 -0.00042080470764096833 0 0.00035220408500553235 -0.00040242559251870444 0 0.00033455268499187703 -0.00041963213855739171 0 0.00029970638636217745 -0.00041122363855735446 0 0.00036946080312891581 -0.0004169896152499972 0 0.00035482699555975251 -0.00042080470764096833 0 0.00037045107296504616 -0.00040768223003221184 0 0.00037572600870086322 -0.00041936843851329673 0 0.00035482699555975251 -0.00042080470764096833 0 0.00035220408500553235 -0.00040242559251870444 0 0.00037045107296504616 -0.00040768223003221184 0 0.00037045107296504616 -0.00040768223003221184 0 0.00037572600870086322 -0.00041936843851329673 0 0.00043939318871537373 -0.00037210359687088744 0 0.00037572600870086322 -0.00041936843851329673 0 0.00044527438562505322 -0.00042193207776571387 0 0.00043939318871537373 -0.00037210359687088744 0 0.00030568984976247175 -0.0004803731902198488 0 0.00037572600870086322 -0.00041936843851329673 0 0.00038859328730426969 -0.00047029812252943914 0 0.00037572600870086322 -0.00041936843851329673 0 0.00038859328730426969 -0.00047029812252943914 0 0.00044527438562505322 -0.00042193207776571387 0 0.00038859328730426969 -0.00047029812252943914 0 0.00043121454382549133 -0.00048388897654115721 0 0.00044527438562505322 -0.00042193207776571387 0 0.00044527438562505322 -0.00042193207776571387 0 0.00043939318871537373 -0.00037210359687088744 0 0.00048269275116990124 -0.00036244744835020262 0 0.00037045107296504616 -0.00040768223003221184 0 0.00043939318871537373 -0.00037210359687088744 0 0.00038663666705251711 -0.00037594097564333268 0 0.00043939318871537373 -0.00037210359687088744 0 0.00038663666705251711 -0.00037594097564333268 0 0.00038197852513583558 -0.00034517567766830643 0 0.0004401596988659712 -0.00036876934389229682 0 0.00043294937358106747 -0.00035291564640100957 0 0.00043939318871537373 -0.00037210359687088744 0 0.0004708764533467389 -0.00034998283116290178 0 0.00048715391601878745 -0.00033906476708732072 0 0.00043939318871537373 -0.00037210359687088744 0 0.00048269275116990124 -0.00036244744835020262 0 0.00048715391601878745 -0.00033906476708732072 0 0.00048269275116990124 -0.00036244744835020262 0 0.00048715391601878745 -0.00033906476708732072 0 0.00051800713545393476 -0.0003251530819664131 0 0.00035220408500553235 -0.00040242559251870444 0 0.00033455268499187703 -0.00041963213855739171 0 0.00033110571690183439 -0.00038231661176546929 0 0.00035220408500553235 -0.00040242559251870444 0 0.00033110571690183439 -0.00038231661176546929 0 0.0003615434089706626 -0.00037874365147040384 0 0.00033110571690183439 -0.00038231661176546929 0 0.0003615434089706626 -0.00037874365147040384 0 0.00034163008701600361 -0.00035609478768794644 0 0.00035220408500553235 -0.00040242559251870444 0 0.00037045107296504616 -0.00040768223003221184 0 0.0003615434089706626 -0.00037874365147040384 0 0.00037045107296504616 -0.00040768223003221184 0 0.0003615434089706626 -0.00037874365147040384 0 0.00038663666705251711 -0.00037594097564333268 0 0.0003615434089706626 -0.00037874365147040384 0 0.00038663666705251711 -0.00037594097564333268 0 0.00038197852513583558 -0.00034517567766830643 0 0.0003615434089706626 -0.00037874365147040384 0 0.00038197852513583558 -0.00034517567766830643 0 0.00034163008701600361 -0.00035609478768794644 0 0.00043294937358106747 -0.00035291564640100957 0 0.00036620874176858051 -0.00032168485884533608 0 0.00031910040629159401 -0.00034269622311098035 0 0.00034163008701600361 -0.00035609478768794644 0 0.00034755709938257012 -0.0003255269004641893 0 0.00038197852513583558 -0.00034517567766830643 0 0.00034163008701600361 -0.00035609478768794644 0 0.00034755709938257012 -0.0003255269004641893 0 0.00042561327087413029 -0.00030882473738171778 0 0.00045373197106439634 -0.00032993636240686105 0 0.00045251144935133447 -0.00031240884079276334 0 0.00045373197106439634 -0.00032993636240686105 0 0.00045251144935133447 -0.00031240884079276334 0 0.00046997129565184986 -0.00031804382765707347 0 0.0004708764533467389 -0.00034998283116290178 0 0.00046997129565184986 -0.00031804382765707347 0 0.00049907413140939754 -0.00031830994881878739 0 0.0004708764533467389 -0.00034998283116290178 0 0.00045373197106439634 -0.00032993636240686105 0 0.00046997129565184986 -0.00031804382765707347 0 0.00062857662578992676 -0.00021129497978745793 0 0.00054198455024397096 -0.00026435093334515361 0 0.00046997129565184986 -0.00031804382765707347 0 0.00046192411669693673 -0.00029236097913112337 0 0.00049907413140939754 -0.00031830994881878739 0 0.00046192411669693673 -0.00029236097913112337 0 0.00049907413140939754 -0.00031830994881878739 0 0.0005480838646165706 -0.00026985560468695117 0 0.0010436434287042875 -3.1980744901185651e-05 0 0.00073987105095197898 -0.00014201389253178044 0 0.00084741944408221574 -0.00016800026555400242 0 0.00062984445512277731 -0.00021107722637556207 0 0.00062857662578992676 -0.00021129497978745793 0 0.00042561327087413029 -0.00030882473738171778 0 0.00045251144935133447 -0.00031240884079276334 0 0.00046192411669693673 -0.00029236097913112337 0 0.00045251144935133447 -0.00031240884079276334 0 0.00046997129565184986 -0.00031804382765707347 0 0.00046192411669693673 -0.00029236097913112337 0 0.00073987105095197898 -0.00014201389253178044 0 0.00084741944408221574 -0.00016800026555400242 0 0.00067178778457213054 -0.0002563326241507799 0 0.00048715391601878745 -0.00033906476708732072 0 0.00053008551456865409 -0.00030156189143063574 0 0.00051800713545393476 -0.0003251530819664131 0 0.00048715391601878745 -0.00033906476708732072 0 0.00049907413140939754 -0.00031830994881878739 0 0.00053008551456865409 -0.00030156189143063574 0 0.0004708764533467389 -0.00034998283116290178 0 0.00048715391601878745 -0.00033906476708732072 0 0.00049907413140939754 -0.00031830994881878739 0 0.00049907413140939754 -0.00031830994881878739 0 0.00053008551456865409 -0.00030156189143063574 0 0.0005480838646165706 -0.00026985560468695117 0 0.00053008551456865409 -0.00030156189143063574 0 0.00054408479384135508 -0.00030261646742443051 0 0.00051800713545393476 -0.0003251530819664131 0 0.00053008551456865409 -0.00030156189143063574 0 0.00056063451066648367 -0.00029690309270917822 0 0.00054408479384135508 -0.00030261646742443051 0 0.00053008551456865409 -0.00030156189143063574 0 0.00056063451066648367 -0.00029690309270917822 0 0.0005480838646165706 -0.00026985560468695117 0 0.00056063451066648367 -0.00029690309270917822 0 0.0005480838646165706 -0.00026985560468695117 0 0.00061581729483152774 -0.00031569564439007771 0 0.00056063451066648367 -0.00029690309270917822 0 0.00060727926395097421 -0.00032873959807355507 0 0.00061581729483152774 -0.00031569564439007771 0 0.00056063451066648367 -0.00029690309270917822 0 0.0005768919708421217 -0.00031445885990855868 0 0.00060727926395097421 -0.00032873959807355507 0 0.00056063451066648367 -0.00029690309270917822 0 0.0005768919708421217 -0.00031445885990855868 0 0.00055858133685501225 -0.00030220178364959936 0 0.0005768919708421217 -0.00031445885990855868 0 0.00061103598460101043 -0.00033524607603830335 0 0.00060727926395097421 -0.00032873959807355507 0 0.0005768919708421217 -0.00031445885990855868 0 0.00061103598460101043 -0.00033524607603830335 0 0.00059428937999483715 -0.00033418911495575963 0 0.00060727926395097421 -0.00032873959807355507 0 0.00062780918780109293 -0.00034330300303722069 0 0.00064912640948270835 -0.00035209312980664752 0 0.00061103598460101043 -0.00033524607603830335 0 0.00060727926395097421 -0.00032873959807355507 0 0.00062780918780109293 -0.00034330300303722069 0 0.00063662354347407955 -0.00034502890739240578 0 0.00062743919198242565 -0.00036594092475396214 0 0.00070613205804048197 -0.0003698014968821222 0 0.00061103598460101043 -0.00033524607603830335 0 0.00062780918780109293 -0.00034330300303722069 0 0.00063662354347407955 -0.00034502890739240578 0 0.00062780918780109293 -0.00034330300303722069 0 0.00063662354347407955 -0.00034502890739240578 0 0.00063959901530580743 -0.00034922456162704709 0 0.0002973855890414043 -0.00012440795040949705 0 0.0022246806821760207 -0.00022111172110887155 0 0.00063662354347407955 -0.00034502890739240578 0 0.00063959901530580743 -0.00034922456162704709 0 0.00064436040141895566 -0.00035071173915868838 0 0.00063662354347407955 -0.00034502890739240578 0 0.00061238728818375197 -0.00034720130980093463 0 0.00062743919198242565 -0.00036594092475396214 0 0.00061238728818375197 -0.00034720130980093463 0 0.00059428937999483715 -0.00033418911495575963 0 0.00060128338461101815 -0.0003565415282570691 0 0.00061103598460101043 -0.00033524607603830335 0 0.00061238728818375197 -0.00034720130980093463 0 0.00059428937999483715 -0.00033418911495575963 0 0.00061103598460101043 -0.00033524607603830335 0 0.00063662354347407955 -0.00034502890739240578 0 0.00061238728818375197 -0.00034720130980093463 0 0.0016041477066444313 -0.0005751957223009425 0 0.0022246806821760207 -0.00022111172110887155 0 0.00098378578463962675 -0.00079517505497720276 0 0.00080356915070057134 -0.0006305748738409104 0 0.00076230480410254919 -0.00082454295007477519 0 0.00063959901530580743 -0.00034922456162704709 0 0.00064912640948270835 -0.00035209312980664752 0 0.00064436040141895566 -0.00035071173915868838 0 0.00055702395398694263 -0.00061688234884383221 0 0.0022246806821760207 -0.00022111172110887155 0 0.00062780918780109293 -0.00034330300303722069 0 0.00063959901530580743 -0.00034922456162704709 0 0.00064912640948270835 -0.00035209312980664752 0 0.00098378578463962675 -0.00079517505497720276 0 0.00080356915070057134 -0.0006305748738409104 0 0.00099004046032446493 -0.00063460270239309687 0 0.00080356915070057134 -0.0006305748738409104 0 0.00095819933271201513 -0.00049138697530563054 0 0.00099004046032446493 -0.00063460270239309687 0 0.00095819933271201513 -0.00049138697530563054 0 0.00083762478169464394 -0.00041568740501580007 0 0.00095370719457344734 -0.00031812893201683392 0 0.00080356915070057134 -0.0006305748738409104 0 0.00095819933271201513 -0.00049138697530563054 0 0.00083762478169464394 -0.00041568740501580007 0 0.00060727926395097421 -0.00032873959807355507 0 0.00064912640948270835 -0.00035209312980664752 0 0.00061581729483152774 -0.00031569564439007771 0 0.00055702395398694263 -0.00061688234884383221 0 0.00079612843665268147 -0.00032519089289829485 0 0.00064912640948270835 -0.00035209312980664752 0 0.00070185277007629753 -0.00032349970761094053 0 0.00061581729483152774 -0.00031569564439007771 0 0.00073987105095197898 -0.00014201389253178044 0 0.0005480838646165706 -0.00026985560468695117 0 0.00067178778457213054 -0.0002563326241507799 0 0.00070185277007629753 -0.00032349970761094053 0 0.00061581729483152774 -0.00031569564439007771 0 0.00067178778457213054 -0.0002563326241507799 0 0.0005480838646165706 -0.00026985560468695117 0 0.00061581729483152774 -0.00031569564439007771 0 0.00067178778457213054 -0.0002563326241507799 0 0.00083582585631749608 -0.00018788228112242561 0 0.00079612843665268147 -0.00032519089289829485 0 0.00084741944408221574 -0.00016800026555400242 0 0.00083762478169464394 -0.00041568740501580007 0 0.00095370719457344734 -0.00031812893201683392 0 0.00084741944408221574 -0.00016800026555400242 0 0.00070185277007629753 -0.00032349970761094053 0 0.00067178778457213054 -0.0002563326241507799 0 0.00099213958990786557 -0.00016628706342913915 0 0.00084741944408221574 -0.00016800026555400242 0 0.00095370719457344734 -0.00031812893201683392 0 0.00099213958990786557 -0.00016628706342913915 0 0.00095370719457344734 -0.00031812893201683392 0 0.0010497474884512902 -0.00024414076093999163 0 0.001132247864711897 -0.00011082383163929887 0 0.0010497474884512902 -0.00024414076093999163 0 0.0011902423917648298 -0.00036735747012512732 0 0.00095370719457344734 -0.00031812893201683392 0 0.0010497474884512902 -0.00024414076093999163 0 0.0010504353666016611 -0.00039237392406684508 0 0.0010497474884512902 -0.00024414076093999163 0 0.0011902423917648298 -0.00036735747012512732 0 0.0010504353666016611 -0.00039237392406684508 0 0.001132247864711897 -0.00011082383163929887 0 0.0011902423917648298 -0.00036735747012512732 0 0.0013493256603646711 -0.00026073500644773406 0 0.0011902423917648298 -0.00036735747012512732 0 0.0013806450528681968 -0.00044169877488887331 0 0.0012661426719310462 -0.0005730873124307936 0 0.0011902423917648298 -0.00036735747012512732 0 0.0011036596414491368 -0.00052866447646252024 0 0.0012661426719310462 -0.0005730873124307936 0 0.00095819933271201513 -0.00049138697530563054 0 0.00095370719457344734 -0.00031812893201683392 0 0.0010504353666016611 -0.00039237392406684508 0 0.00095819933271201513 -0.00049138697530563054 0 0.0011036596414491368 -0.00052866447646252024 0 0.0010504353666016611 -0.00039237392406684508 0 0.0011902423917648298 -0.00036735747012512732 0 0.0011036596414491368 -0.00052866447646252024 0 0.0010504353666016611 -0.00039237392406684508 0 0.0016352872051491941 -0.00029036158675817134 0 0.0015086954776568089 -0.00021489620620524259 0 0.0015659643846347945 -0.00041347503402860449 0 0.0016352872051491941 -0.00029036158675817134 0 0.0015659643846347945 -0.00041347503402860449 0 0.0017315203182488618 -0.00040065145980374458 0 0.0016214662880914671 -0.00017167684246555188 0 0.0016352872051491941 -0.00029036158675817134 0 0.0015086954776568089 -0.00021489620620524259 0 0.0013493256603646711 -0.00026073500644773406 0 0.0013806450528681968 -0.00044169877488887331 0 0.0015659643846347945 -0.00041347503402860449 0 0.0015086954776568089 -0.00021489620620524259 0 0.0013458639608133892 -0.00026475336194042284 0 0.0015659643846347945 -0.00041347503402860449 0 0.0013674009847773161 -0.00026628438938244847 0 0.0015445929138988789 -0.00040096276455641838 0 0.0011902423917648298 -0.00036735747012512732 0 0.0013493256603646711 -0.00026073500644773406 0 0.0013806450528681968 -0.00044169877488887331 0 0.0013806450528681968 -0.00044169877488887331 0 0.0014770853391012208 -0.0005921538218302203 0 0.0012661426719310462 -0.0005730873124307936 0 0.0013806450528681968 -0.00044169877488887331 0 0.0015659643846347945 -0.00041347503402860449 0 0.0014770853391012208 -0.0005921538218302203 0 0.0015659643846347945 -0.00041347503402860449 0 0.0014770853391012208 -0.0005921538218302203 0 0.0017315203182488618 -0.00040065145980374458 0 0.0019299050552841516 -0.00039495021151506521 0 0.001948831303776267 -0.00031676482930240309 0 0.001955525029833885 -0.00038369384835840696 0 0.0015208477653882195 -0.00056609642468305704 0 0.0018842659889921364 -0.00032953566582114198 0 0.0019299050552841516 -0.00039495021151506521 0 0.0019382375148300536 -0.00040443140970555872 0 0.001955525029833885 -0.00038369384835840696 0 0.0019299050552841516 -0.00039495021151506521 0 0.0019382375148300536 -0.00040443140970555872 0 0.0019502937799848797 -0.0003989839662838381 0 0.0014770853391012208 -0.0005921538218302203 0 0.0012661426719310462 -0.0005730873124307936 0 0.0012466722046491721 -0.00077026088462337091 0 0.0015208477653882195 -0.00056609642468305704 0 0.002525955850645118 -0.00040095050786509982 0 0.0041540181549330583 -0.00010850697138592143 0 0.0043357167929745279 -0.00018610848689877039 0 0.0042738104461727397 -2.8195993019470472e-05 0 0.0031409436519962836 -0.00029305187820313137 0 0.002525955850645118 -0.00040095050786509982 0 0.0041540181549330583 -0.00010850697138592143 0 0.0040654416328212654 -0.00022760274826098302 0 0.0043357167929745279 -0.00018610848689877039 0 0.0041540181549330583 -0.00010850697138592143 0 0.0040654416328212654 -0.00022760274826098302 0 0.0039751129884315305 -0.00011227762280208927 0 0.00095819933271201513 -0.00049138697530563054 0 0.0011036596414491368 -0.00052866447646252024 0 0.00099004046032446493 -0.00063460270239309687 0 0.0011036596414491368 -0.00052866447646252024 0 0.0011162689667095634 -0.0006644442302824881 0 0.00099004046032446493 -0.00063460270239309687 0 0.0011036596414491368 -0.00052866447646252024 0 0.0011162689667095634 -0.0006644442302824881 0 0.0012661426719310462 -0.0005730873124307936 0 0.0011162689667095634 -0.0006644442302824881 0 0.0012661426719310462 -0.0005730873124307936 0 0.0012466722046491721 -0.00077026088462337091 0 0.0043357167929745279 -0.00018610848689877039 0 0.0044747694239867866 -6.5815115291370722e-05 0 0.0042738104461727397 -2.8195993019470472e-05 0 0.002525955850645118 -0.00040095050786509982 0 0.0036692866628090606 -9.9981651004412545e-05 0 0.00098378578463962675 -0.00079517505497720276 0 0.0011162689667095634 -0.0006644442302824881 0 0.0012466722046491721 -0.00077026088462337091 0 0.0026792085529721778 -0.00022194134151933435 0 0.0027819931744883283 -0.00021242550043368717 0 0.0027343036816456453 -0.00025086685398861694 0 0.00098378578463962675 -0.00079517505497720276 0 0.0011162689667095634 -0.0006644442302824881 0 0.00099004046032446493 -0.00063460270239309687 0 0.0016041477066444313 -0.0005751957223009425 0 0.002525955850645118 -0.00040095050786509982 0 0.0036692866628090606 -9.9981651004412545e-05 0 0.0040078375477012361 2.9818580377813552e-05 0 0.0044747694239867866 -6.5815115291370722e-05 0 0.0044666522613142287 0.00011963363482149057 0 0.0045996384292327046 4.6233909963726958e-05 0 0.0026792085529721778 -0.00022194134151933435 0 0.0027343036816456453 -0.00025086685398861694 0 0.0026857487745678729 -0.0002974558217905884 0 0.0044747694239867866 -6.5815115291370722e-05 0 0.0043582061079398566 8.0149504172914973e-05 0 0.0042738104461727397 -2.8195993019470472e-05 0 0.0044747694239867866 -6.5815115291370722e-05 0 0.0043582061079398566 8.0149504172914973e-05 0 0.0044666522613142287 0.00011963363482149057 0 0.0043582061079398566 8.0149504172914973e-05 0 0.0043404996574427385 0.00020912704697851765 0 0.0044666522613142287 0.00011963363482149057 0 0.0043347020973100898 0.00022227900325636908 0 0.0045015295746191186 0.00014577125092414333 0 0.0043404996574427385 0.00020912704697851765 0 0.004451170513253928 0.0002377950590227343 0 0.0044495859196285355 0.00026022876738878478 0 0.004463396348624072 0.00026943387388568514 0 0.004451170513253928 0.0002377950590227343 0 0.0044495859196285355 0.00026022876738878478 0 0.004463396348624072 0.00026943387388568514 0 0.0044701050643631392 0.00027649923825282332 0 0.0044495859196285355 0.00026022876738878478 0 0.0045015295746191186 0.00014577125092414333 0 0.0040078375477012361 2.9818580377813552e-05 0 0.004463396348624072 0.00026943387388568514 0 0.004451170513253928 0.0002377950590227343 0 0.0044615089003032776 0.00028940148895953438 0 0.0041540181549330583 -0.00010850697138592143 0 0.0039751129884315305 -0.00011227762280208927 0 0.0040826155190981954 8.1436098707173546e-06 0 0.0040826155190981954 8.1436098707173546e-06 0 0.0040117128186582512 0.00010332224456456212 0 0.0039231907224700473 5.5713155582813422e-06 0 0.0039751129884315305 -0.00011227762280208927 0 0.0040826155190981954 8.1436098707173546e-06 0 0.0039231907224700473 5.5713155582813422e-06 0 0.0040826155190981954 8.1436098707173546e-06 0 0.0042738104461727397 -2.8195993019470472e-05 0 0.0041886336968222342 0.00012481472362716402 0 0.0041540181549330583 -0.00010850697138592143 0 0.0040826155190981954 8.1436098707173546e-06 0 0.0042738104461727397 -2.8195993019470472e-05 0 0.0043582061079398566 8.0149504172914973e-05 0 0.0042738104461727397 -2.8195993019470472e-05 0 0.0041886336968222342 0.00012481472362716402 0 0.004215038434513858 0.00022976329080961073 0 0.0041886336968222342 0.00012481472362716402 0 0.0040280763938121914 0.00026101594873015387 0 0.0043582061079398566 8.0149504172914973e-05 0 0.0043404996574427385 0.00020912704697851765 0 0.0041886336968222342 0.00012481472362716402 0 0.0043404996574427385 0.00020912704697851765 0 0.004215038434513858 0.00022976329080961073 0 0.0041886336968222342 0.00012481472362716402 0 0.0041886336968222342 0.00012481472362716402 0 0.0040117128186582512 0.00010332224456456212 0 0.0040280763938121914 0.00026101594873015387 0 0.0040826155190981954 8.1436098707173546e-06 0 0.0041886336968222342 0.00012481472362716402 0 0.0040117128186582512 0.00010332224456456212 0 0.0047892608886293429 0.00037360445650405839 0 0.0047515959764739303 0.0002726330559494928 0 0.0048176129211418726 0.00031440405395482911 0 0.0047892608886293429 0.00037360445650405839 0 0.0046754974128340298 0.00035778742899914289 0 0.0047515959764739303 0.0002726330559494928 0 0.004215038434513858 0.00022976329080961073 0 0.0040280763938121914 0.00026101594873015387 0 0.0042958603213473379 0.00032591094008552413 0 0.0044598328464676576 0.00033888956117821987 0 0.0044704642619028514 0.00033196226847623386 0 0.0043404996574427385 0.00020912704697851765 0 0.004215038434513858 0.00022976329080961073 0 0.0042958603213473379 0.00032591094008552413 0 0.0046754974128340298 0.00035778742899914289 0 0.0047515959764739303 0.0002726330559494928 0 0.0046375027725097636 0.0002505179244067964 0 0.0047515959764739303 0.0002726330559494928 0 0.0048176129211418726 0.00031440405395482911 0 0.0048451795569033063 0.00026427516438513144 0 0.0047515959764739303 0.0002726330559494928 0 0.0048451795569033063 0.00026427516438513144 0 0.0048179046551449466 0.00021819934526941462 0 0.0044701050643631392 0.00027649923825282332 0 0.0045033325161739687 0.0003095434363103944 0 0.0044677539586939459 0.0002742803883663758 0 0.0044701050643631392 0.00027649923825282332 0 0.0044495859196285355 0.00026022876738878478 0 0.0045033325161739687 0.0003095434363103944 0 0.0044704642619028514 0.00033196226847623386 0 0.0045024279688793923 0.00031789106771530976 0 0.0042958603213473379 0.00032591094008552413 0 0.0044495859196285355 0.00026022876738878478 0 0.0045033325161739687 0.0003095434363103944 0 0.0043404996574427385 0.00020912704697851765 0 0.0042958603213473379 0.00032591094008552413 0 0.0044495859196285355 0.00026022876738878478 0 0.0046754974128340298 0.00035778742899914289 0 0.0046375027725097636 0.0002505179244067964 0 0.0045033325161739687 0.0003095434363103944 0 0.0046375027725097636 0.0002505179244067964 0 0.0045033325161739687 0.0003095434363103944 0 0.0045169724802032549 0.0002410346944411023 0 0.0045033325161739687 0.0003095434363103944 0 0.0044677539586939459 0.0002742803883663758 0 0.0045169724802032549 0.0002410346944411023 0 0.0044521075392869773 0.00023533386663449738 0 0.0044677539586939459 0.0002742803883663758 0 0.0045169724802032549 0.0002410346944411023 0 0.0044521075392869773 0.00023533386663449738 0 0.0044332756111195772 0.00025931726978759489 0 0.0044677539586939459 0.0002742803883663758 0 0.0044701050643631392 0.00027649923825282332 0 0.0044677539586939459 0.0002742803883663758 0 0.0044358167156791353 0.00026859080311529879 0 0.0044332756111195772 0.00025931726978759489 0 0.0044677539586939459 0.0002742803883663758 0 0.0044358167156791353 0.00026859080311529879 0 0.0044701050643631392 0.00027649923825282332 0 0.0044358167156791353 0.00026859080311529879 0 0.0044455790165342608 0.00027628693774315861 0 0.0043991943612879574 0.00026169918755745319 0 0.0044046634611677113 0.00025027887693454591 0 0.0043921094046905258 0.00027307043440590555 0 0.004380406130561525 0.00022460124293591772 0 0.0042106450127487993 0.00017558962027225744 0 0.0043991943612879574 0.00026169918755745319 0 0.0043433349868513714 0.00026211873696641897 0 0.0043630821474953847 0.00026835678828934404 0 0.0044358167156791353 0.00026859080311529879 0 0.0043991943612879574 0.00026169918755745319 0 0.0044033418634529574 0.00027402481070170725 0 0.0044332756111195772 0.00025931726978759489 0 0.0043991943612879574 0.00026169918755745319 0 0.0044046634611677113 0.00025027887693454591 0 0.0044332756111195772 0.00025931726978759489 0 0.0044358167156791353 0.00026859080311529879 0 0.0043991943612879574 0.00026169918755745319 0 0.0044521075392869773 0.00023533386663449738 0 0.0044046634611677113 0.00025027887693454591 0 0.0043935287804664942 0.00019589687012521888 0 0.0044521075392869773 0.00023533386663449738 0 0.0044332756111195772 0.00025931726978759489 0 0.0044046634611677113 0.00025027887693454591 0 0.0044046634611677113 0.00025027887693454591 0 0.0043684400939167489 0.00023891600518592018 0 0.0043935287804664942 0.00019589687012521888 0 0.0047371892026295643 0.00024452407027896199 0 0.0047503372659804758 0.00026777278375987666 0 0.0047613912178754237 0.00024546249254362974 0 0.0047371892026295643 0.00024452407027896199 0 0.004759060522660126 0.00022533762423854881 0 0.0047613912178754237 0.00024546249254362974 0 0.0044106873613084458 0.00014210727020113015 0 0.0042567378048628526 0.00011584298683071239 0 0.0039467256337772753 -0.00020377243624241466 0 0.0037741119006995377 3.9991891692047259e-06 0 0.003924372832270439 0.0001067350124957914 0 0.0037741119006995377 3.9991891692047259e-06 0 0.003924372832270439 0.0001067350124957914 0 0.0035960296091975636 0.00021459039154545639 0 0.0039467256337772753 -0.00020377243624241466 0 0.003924372832270439 0.0001067350124957914 0 0.0041380281924300452 0.00014743323659092449 0 0.0044046634611677113 0.00025027887693454591 0 0.0043684400939167489 0.00023891600518592018 0 0.0043921094046905258 0.00027307043440590555 0 0.0044106873613084458 0.00014210727020113015 0 0.0042106450127487993 0.00017558962027225744 0 0.0042106450127487993 0.00017558962027225744 0 0.0039915868026106525 0.00024802265566371731 0 0.003924372832270439 0.0001067350124957914 0 0.0041380281924300452 0.00014743323659092449 0 0.0039135289288170384 0.00030952896396485769 0 0.0041957176945490232 2.5251259308896762e-05 0 0.0041203232451276339 0.00027739516644542 0 0.00380093838066167 0.00027565696530436893 0 0.0041203232451276339 0.00027739516644542 0 0.00380093838066167 0.00027565696530436893 0 0.0040237607586691322 0.00040039730389473374 0 0.0041203232451276339 0.00027739516644542 0 0.0042473067713890986 0.00038808294178695256 0 0.0043161891790022599 0.00027080596109895237 0 0.0041957176945490232 2.5251259308896762e-05 0 0.0041203232451276339 0.00027739516644542 0 0.0043161891790022599 0.00027080596109895237 0 0.0039135289288170384 0.00030952896396485769 0 0.003681665901974723 0.00047417647241884307 0 0.0035960296091975636 0.00021459039154545639 0 0.003924372832270439 0.0001067350124957914 0 0.0039135289288170384 0.00030952896396485769 0 0.0035960296091975636 0.00021459039154545639 0 0.00061238728818375197 -0.00034720130980093463 0 0.00062743919198242565 -0.00036594092475396214 0 0.00060128338461101815 -0.0003565415282570691 0 0.0022376250261427698 0.00014025009327162138 0 0.0024111711430000481 0.00018845918575881472 0 0.0039915868026106525 0.00024802265566371731 0 0.0024111711430000481 0.00018845918575881472 0 0.00380093838066167 0.00027565696530436893 0 0.0038563877096730293 0.00062896358310318896 0 0.0033865164271242314 0.00055667400082797327 0 0.0022376250261427698 0.00014025009327162138 0 0.0022246806821760207 -0.00022111172110887155 0 0.0038563877096730293 0.00062896358310318896 0 0.004103331700228573 0.00052167628568627086 0 0.0043210106749257135 0.00067775670449116219 0 0.0041203232451276339 0.00027739516644542 0 0.0040237607586691322 0.00040039730389473374 0 0.0042473067713890986 0.00038808294178695256 0 0.0040237607586691322 0.00040039730389473374 0 0.004103331700228573 0.00052167628568627086 0 0.0042473067713890986 0.00038808294178695256 0 0.00380093838066167 0.00027565696530436893 0 0.0040237607586691322 0.00040039730389473374 0 0.0038563877096730293 0.00062896358310318896 0 0.0040237607586691322 0.00040039730389473374 0 0.0038563877096730293 0.00062896358310318896 0 0.004103331700228573 0.00052167628568627086 0 0.0022246806821760207 -0.00022111172110887155 0 0.0039899476294318476 0.00082293394582237374 0 0.004103331700228573 0.00052167628568627086 0 0.0043210106749257135 0.00067775670449116219 0 0.0042473067713890986 0.00038808294178695256 0 0.0043279478917721105 0.0003605057187774165 0 0.0042473067713890986 0.00038808294178695256 0 0.0043161891790022599 0.00027080596109895237 0 0.0042940756360268532 0.0004723772654796733 0 0.0043279478917721105 0.0003605057187774165 0 0.0042473067713890986 0.00038808294178695256 0 0.0042940756360268532 0.0004723772654796733 0 0.0043279478917721105 0.0003605057187774165 0 0.0043927765533531369 0.00034511631653385481 0 0.0042940756360268532 0.0004723772654796733 0 0.0044931168705872309 0.00032899886316826879 0 0.0043927765533531369 0.00034511631653385481 0 0.0026792085529721778 -0.00022194134151933435 0 0.0025610868413346003 -0.00024050998269541695 0 0.0026857487745678729 -0.0002974558217905884 0 0.0022246806821760207 -0.00022111172110887155 0 0.0040078375477012361 2.9818580377813552e-05 0 0.0044931168705872309 0.00032899886316826879 0 0.0043927765533531369 0.00034511631653385481 0 0.0044584554879273861 0.00030018026779798912 0 0.0040078375477012361 2.9818580377813552e-05 0 0.0042912451514947872 0.00024300955956710668 0 0.0044145168306324442 0.00029733221625518003 0 0.0044584554879273861 0.00030018026779798912 0 0.0044455790165342608 0.00027628693774315861 0 0.0043927765533531369 0.00034511631653385481 0 0.0044145168306324442 0.00029733221625518003 0 0.0044584554879273861 0.00030018026779798912 0 0.0043927765533531369 0.00034511631653385481 0 0.0044145168306324442 0.00029733221625518003 0 0.0043728652173441558 0.00029546819489517634 0 0.004463396348624072 0.00026943387388568514 0 0.0044584554879273861 0.00030018026779798912 0 0.0044455790165342608 0.00027628693774315861 0 0.004463396348624072 0.00026943387388568514 0 0.0044615089003032776 0.00028940148895953438 0 0.0044584554879273861 0.00030018026779798912 0 0.004463396348624072 0.00026943387388568514 0 0.0044701050643631392 0.00027649923825282332 0 0.0044455790165342608 0.00027628693774315861 0 0.0044358167156791353 0.00026859080311529879 0 0.0044455790165342608 0.00027628693774315861 0 0.0044033418634529574 0.00027402481070170725 0 0.0044145168306324442 0.00029733221625518003 0 0.0044455790165342608 0.00027628693774315861 0 0.0044033418634529574 0.00027402481070170725 0 0.0043991943612879574 0.00026169918755745319 0 0.0044033418634529574 0.00027402481070170725 0 0.0043630821474953847 0.00026835678828934404 0 0.0044033418634529574 0.00027402481070170725 0 0.0043630821474953847 0.00026835678828934404 0 0.0043728652173441558 0.00029546819489517634 0 0.0042106450127487993 0.00017558962027225744 0 0.0042923585681384317 0.00025009046708797091 0 0.0043433349868513714 0.00026211873696641897 0 0.0043630821474953847 0.00026835678828934404 0 0.0043161891790022599 0.00027080596109895237 0 0.0043279478917721105 0.0003605057187774165 0 0.0043161891790022599 0.00027080596109895237 0 0.0043728652173441558 0.00029546819489517634 0 0.0043630821474953847 0.00026835678828934404 0 0.0043161891790022599 0.00027080596109895237 0 0.0043728652173441558 0.00029546819489517634 0 0.0043279478917721105 0.0003605057187774165 0 0.0043927765533531369 0.00034511631653385481 0 0.0043728652173441558 0.00029546819489517634 0 0.0044145168306324442 0.00029733221625518003 0 0.0044033418634529574 0.00027402481070170725 0 0.0043728652173441558 0.00029546819489517634 0 0.0030848753431906087 -0.00010341427092948799 0 0.0030984568493329558 -0.000178961361840408 0 0.0031483841033636733 -5.4251481544705762e-05 0 0.0030573658314342819 -0.00023011454592867367 0 0.0031179784890888284 -6.307425681804975e-05 0 0.003040204110373573 -6.9050224572040825e-05 0 0.0030848753431906087 -0.00010341427092948799 0 0.0031483841033636733 -5.4251481544705762e-05 0 0.0030505929989179058 -0.0001497733620631794 0 0.0030848753431906087 -0.00010341427092948799 0 0.0030984568493329558 -0.000178961361840408 0 0.0030505929989179058 -0.0001497733620631794 0 0.0030848753431906087 -0.00010341427092948799 0 0.0030454355474782637 -0.00010917727569008922 0 0.003040204110373573 -6.9050224572040825e-05 0 0.0030848753431906087 -0.00010341427092948799 0 0.0030454355474782637 -0.00010917727569008922 0 0.0031814823931702657 -0.00017332242755779058 0 0.0029852810078036434 -0.00025397080081915411 0 0.0030857719294785529 -7.3214262773087382e-05 0 0.0031814823931702657 -0.00017332242755779058 0 0.0032626586773836421 -5.789589627761384e-05 0 0.0030857719294785529 -7.3214262773087382e-05 0 0.0031814823931702657 -0.00017332242755779058 0 0.0029852810078036434 -0.00025397080081915411 0 0.003185337785067991 -0.00034728456825268059 0 0.0029852810078036434 -0.00025397080081915411 0 0.0029378152753886822 -0.00037418326551642584 0 0.003185337785067991 -0.00034728456825268059 0 0.0030573658314342819 -0.00023011454592867367 0 0.0027663869323366476 -0.00023199067817967031 0 0.003018469923357114 -0.00020902626689392278 0 0.0030984568493329558 -0.000178961361840408 0 0.0030520258873509214 -0.00029961620379609876 0 0.0029852810078036434 -0.00025397080081915411 0 0.0029378152753886822 -0.00037418326551642584 0 0.0029204831728466244 -0.00039229162063026058 0 0.003018469923357114 -0.00020902626689392278 0 0.0030505929989179058 -0.0001497733620631794 0 0.0030984568493329558 -0.000178961361840408 0 0.0029378152753886822 -0.00037418326551642584 0 0.0029204831728466244 -0.00039229162063026058 0 0.0028355274066507578 -0.00031814868460854583 0 0.0029204831728466244 -0.00039229162063026058 0 0.0028355274066507578 -0.00031814868460854583 0 0.002883249864654578 -0.00021150814493965748 0 0.0027663869323366476 -0.00023199067817967031 0 0.002709969861151889 -0.00019729808400699854 0 0.0025065997842771016 -0.00017551671821090925 0 0.0025288625479890727 -0.00012147169476104216 0 0.0025467058570893776 -0.00016972917018045488 0 0.0028355274066507578 -0.00031814868460854583 0 0.002883249864654578 -0.00021150814493965748 0 0.0027078862599965283 -0.00018067237443515445 0 0.0024314519328209193 -0.00020340307121060391 0 0.002709969861151889 -0.00019729808400699854 0 0.0025666613058969497 -0.000220948548867114 0 0.0025467058570893776 -0.00016972917018045488 0 0.0025261732135840507 -0.00019770232992066575 0 0.0025065997842771016 -0.00017551671821090925 0 0.0025467058570893776 -0.00016972917018045488 0 0.0025261732135840507 -0.00019770232992066575 0 0.0028120652152417011 -4.3339094065277973e-05 0 0.002883249864654578 -0.00021150814493965748 0 0.0027078862599965283 -0.00018067237443515445 0 0.0028355274066507578 -0.00031814868460854583 0 0.0027078862599965283 -0.00018067237443515445 0 0.0026664015003207472 -0.00030643913148014381 0 0.0029378152753886822 -0.00037418326551642584 0 0.0028355274066507578 -0.00031814868460854583 0 0.0026221354863238278 -0.00046071745263032003 0 0.0028355274066507578 -0.00031814868460854583 0 0.0026664015003207472 -0.00030643913148014381 0 0.0026221354863238278 -0.00046071745263032003 0 0.002935113205532545 -0.00038000892996790681 0 0.0029034721791706109 -0.00039942649949018216 0 0.0025029344786070694 -0.00026772616592791283 0 0.0023363775447358885 -0.00047633069676114381 0 0.0026221354863238278 -0.00046071745263032003 0 0.0026664015003207472 -0.00030643913148014381 0 0.0025029344786070694 -0.00026772616592791283 0 0.0026221354863238278 -0.00046071745263032003 0 0.0027078862599965283 -0.00018067237443515445 0 0.0026664015003207472 -0.00030643913148014381 0 0.0025029344786070694 -0.00026772616592791283 0 0.0023614561567055557 -8.9493619042224862e-05 0 0.0025852757681552956 -5.8327403874472703e-05 0 0.0025029344786070694 -0.00026772616592791283 0 0.0025852757681552956 -5.8327403874472703e-05 0 0.0027078862599965283 -0.00018067237443515445 0 0.0025029344786070694 -0.00026772616592791283 0 0.0023614561567055557 -8.9493619042224862e-05 0 0.0025029344786070694 -0.00026772616592791283 0 0.0022670231436134236 -0.00026794202077156477 0 0.0025029344786070694 -0.00026772616592791283 0 0.0023363775447358885 -0.00047633069676114381 0 0.0022670231436134236 -0.00026794202077156477 0 0.0033877002065838026 -0.00030378720509163912 0 0.003185337785067991 -0.00034728456825268059 0 0.0033439359384863799 -0.00015054042522693426 0 0.002863150475196456 -0.00038983301607996843 0 0.0029034721791706109 -0.00039942649949018216 0 0.0031814823931702657 -0.00017332242755779058 0 0.003185337785067991 -0.00034728456825268059 0 0.0033439359384863799 -0.00015054042522693426 0 0.0031814823931702657 -0.00017332242755779058 0 0.0033439359384863799 -0.00015054042522693426 0 0.0032626586773836421 -5.789589627761384e-05 0 0.0033877002065838026 -0.00030378720509163912 0 0.0033439359384863799 -0.00015054042522693426 0 0.0035191520587490332 -0.00010573628393140233 0 0.0035191520587490332 -0.00010573628393140233 0 0.0035817188511600285 -0.00027596001082598665 0 0.0036942732459831766 -0.00012911126917785197 0 0.002863150475196456 -0.00038983301607996843 0 0.0028644598763399331 -0.00036417371591483666 0 0.0033877002065838026 -0.00030378720509163912 0 0.0035191520587490332 -0.00010573628393140233 0 0.0035817188511600285 -0.00027596001082598665 0 0.0023363775447358885 -0.00047633069676114381 0 0.0021251721972608672 -0.00045439353433674253 0 0.0021804213734841539 -0.0003642133064401119 0 0.0021804213734841539 -0.0003642133064401119 0 0.0022670231436134236 -0.00026794202077156477 0 0.00211015886296782 -0.00025780520114260328 0 0.0023363775447358885 -0.00047633069676114381 0 0.0021804213734841539 -0.0003642133064401119 0 0.0022670231436134236 -0.00026794202077156477 0 0.0023614561567055557 -8.9493619042224862e-05 0 0.0021515001699183418 -0.00014927956659351973 0 0.0022670231436134236 -0.00026794202077156477 0 0.0021515001699183418 -0.00014927956659351973 0 0.0022670231436134236 -0.00026794202077156477 0 0.00211015886296782 -0.00025780520114260328 0 0.0021804213734841539 -0.0003642133064401119 0 0.00211015886296782 -0.00025780520114260328 0 0.0020261670354896604 -0.00035625997784108739 0 0.0021251721972608672 -0.00045439353433674253 0 0.0021804213734841539 -0.0003642133064401119 0 0.0020261670354896604 -0.00035625997784108739 0 0.0020261670354896604 -0.00035625997784108739 0 0.0020176219760228015 -0.00027610709559079937 0 0.001948831303776267 -0.00031676482930240309 0 0.00211015886296782 -0.00025780520114260328 0 0.0020261670354896604 -0.00035625997784108739 0 0.0020176219760228015 -0.00027610709559079937 0 0.0019888464983014937 -0.0001923132326118815 0 0.0018842659889921364 -0.00032953566582114198 0 0.0020085902084350398 -0.00017104015572861356 0 0.0020176219760228015 -0.00027610709559079937 0 0.001948831303776267 -0.00031676482930240309 0 0.0020085902084350398 -0.00017104015572861356 0 0.00211015886296782 -0.00025780520114260328 0 0.0020176219760228015 -0.00027610709559079937 0 0.0016352872051491941 -0.00029036158675817134 0 0.0017514815054039165 -0.00021533399505580683 0 0.0017315203182488618 -0.00040065145980374458 0 0.0020085902084350398 -0.00017104015572861356 0 0.0017514815054039165 -0.00021533399505580683 0 0.0017315203182488618 -0.00040065145980374458 0 0.0016214662880914671 -0.00017167684246555188 0 0.0016352872051491941 -0.00029036158675817134 0 0.0017514815054039165 -0.00021533399505580683 0 0.0020261670354896604 -0.00035625997784108739 0 0.001948831303776267 -0.00031676482930240309 0 0.001955525029833885 -0.00038369384835840696 0 0.0020261670354896604 -0.00035625997784108739 0 0.0019925827892897851 -0.00042688770845160704 0 0.001955525029833885 -0.00038369384835840696 0 0.0019382375148300536 -0.00040443140970555872 0 0.0019925827892897851 -0.00042688770845160704 0 0.001955525029833885 -0.00038369384835840696 0 0.0021251721972608672 -0.00045439353433674253 0 0.0020261670354896604 -0.00035625997784108739 0 0.0019925827892897851 -0.00042688770845160704 0 0.0028644598763399331 -0.00036417371591483666 0 0.0028728067074242137 -0.0003461455934221213 0 0.0038061997005007088 -0.00025541285631832669 0 0.0036942732459831766 -0.00012911126917785197 0 0.0038391990472720597 -9.9256790918077491e-05 0 0.0035817188511600285 -0.00027596001082598665 0 0.0038061997005007088 -0.00025541285631832669 0 0.0036942732459831766 -0.00012911126917785197 0 0.0039751129884315305 -0.00011227762280208927 0 0.0038061997005007088 -0.00025541285631832669 0 0.0038391990472720597 -9.9256790918077491e-05 0 0.0040654416328212654 -0.00022760274826098302 0 0.0039751129884315305 -0.00011227762280208927 0 0.0038061997005007088 -0.00025541285631832669 0 0.0031409436519962836 -0.00029305187820313137 0 0.0028728067074242137 -0.0003461455934221213 0 0.0039231907224700473 5.5713155582813422e-06 0 0.0038078031598780373 -1.3127316278980548e-06 0 0.0038469693432456459 0.00010394658235059155 0 0.0039751129884315305 -0.00011227762280208927 0 0.0038391990472720597 -9.9256790918077491e-05 0 0.0039231907224700473 5.5713155582813422e-06 0 0.0038391990472720597 -9.9256790918077491e-05 0 0.0039231907224700473 5.5713155582813422e-06 0 0.0038078031598780373 -1.3127316278980548e-06 0 0.0036942732459831766 -0.00012911126917785197 0 0.0037042818934246617 1.3483113811472099e-05 0 0.0038078031598780373 -1.3127316278980548e-06 0 0.0036942732459831766 -0.00012911126917785197 0 0.0038391990472720597 -9.9256790918077491e-05 0 0.0038078031598780373 -1.3127316278980548e-06 0 0.0037042818934246617 1.3483113811472099e-05 0 0.0038078031598780373 -1.3127316278980548e-06 0 0.0038469693432456459 0.00010394658235059155 0 0.0037042818934246617 1.3483113811472099e-05 0 0.0037872014241928558 0.00015790577677017291 0 0.0038469693432456459 0.00010394658235059155 0 0.0037537242285937984 7.510884674470037e-05 0 0.003636832680345771 0.00019095651846539976 0 0.0035531114557931912 2.513590576060709e-05 0 0.0041020959707972907 0.00014805765942543661 0 0.003491467093828607 3.7740119369088813e-05 0 0.0037042818934246617 1.3483113811472099e-05 0 0.0037872014241928558 0.00015790577677017291 0 0.0035758759186165041 7.6655187997588312e-05 0 0.0044598328464676576 0.00033888956117821987 0 0.0041020959707972907 0.00014805765942543661 0 0.0040117128186582512 0.00010332224456456212 0 0.0039231907224700473 5.5713155582813422e-06 0 0.0038469693432456459 0.00010394658235059155 0 0.0040117128186582512 0.00010332224456456212 0 0.0040280763938121914 0.00026101594873015387 0 0.0038469693432456459 0.00010394658235059155 0 0.0040280763938121914 0.00026101594873015387 0 0.0037762397454281639 0.00017841212810579732 0 0.0038469693432456459 0.00010394658235059155 0 0.0041020959707972907 0.00014805765942543661 0 0.0038854076982026034 0.0001974240863710824 0 0.0047892608886293429 0.00037360445650405839 0 0.0048737905561133076 0.00032512070628319478 0 0.0048176129211418726 0.00031440405395482911 0 0.0047892608886293429 0.00037360445650405839 0 0.0048811197431586828 0.00039179165656219557 0 0.0048737905561133076 0.00032512070628319478 0 0.0048737905561133076 0.00032512070628319478 0 0.0048451795569033063 0.00026427516438513144 0 0.0049105759758707821 0.00026700545454775936 0 0.0048737905561133076 0.00032512070628319478 0 0.0048176129211418726 0.00031440405395482911 0 0.0048451795569033063 0.00026427516438513144 0 0.0048737905561133076 0.00032512070628319478 0 0.0049105759758707821 0.00026700545454775936 0 0.004940198666109852 0.00032963655604491634 0 0.0049105759758707821 0.00026700545454775936 0 0.004940198666109852 0.00032963655604491634 0 0.0049528019801785709 0.00024187158441480415 0 0.0048451795569033063 0.00026427516438513144 0 0.0049105759758707821 0.00026700545454775936 0 0.0048874475376556523 0.000221176841435638 0 0.0048811197431586828 0.00039179165656219557 0 0.0048737905561133076 0.00032512070628319478 0 0.004940198666109852 0.00032963655604491634 0 0.0041020959707972907 0.00014805765942543661 0 0.0043332785639640364 0.00024773478933778605 0 0.0035322793122112084 0.00015867595354847235 0 0.003636832680345771 0.00019095651846539976 0 0.0035250491916130242 0.00030737468806116763 0 0.0035322793122112084 0.00015867595354847235 0 0.003636832680345771 0.00019095651846539976 0 0.0035531114557931912 2.513590576060709e-05 0 0.004940198666109852 0.00032963655604491634 0 0.0049929618205836425 0.00026907208184443382 0 0.0049528019801785709 0.00024187158441480415 0 0.0043332785639640364 0.00024773478933778605 0 0.0040328025051131616 0.00024086914907353894 0 0.0033938046738410622 0.00017781972710447441 0 0.0034322724407583648 0.0001829752445346702 0 0.0033876700687454448 0.00021586025458262376 0 0.0033938046738410622 0.00017781972710447441 0 0.0034322724407583648 0.0001829752445346702 0 0.0034131000922775468 0.00011568144170774076 0 0.0035322793122112084 0.00015867595354847235 0 0.0035250491916130242 0.00030737468806116763 0 0.0034131000922775468 0.00011568144170774076 0 0.0040328025051131616 0.00024086914907353894 0 0.0032512840632386549 8.0629323895082877e-05 0 0.0035322793122112084 0.00015867595354847235 0 0.0034131000922775468 0.00011568144170774076 0 0.0035531114557931912 2.513590576060709e-05 0 0.0034131000922775468 0.00011568144170774076 0 0.0035531114557931912 2.513590576060709e-05 0 0.0033899682612118262 1.5946157967890161e-06 0 0.003491467093828607 3.7740119369088813e-05 0 0.0034326604171912027 1.2066135797614703e-05 0 0.0035191520587490332 -0.00010573628393140233 0 0.0037042818934246617 1.3483113811472099e-05 0 0.0035758759186165041 7.6655187997588312e-05 0 0.0035191520587490332 -0.00010573628393140233 0 0.0036942732459831766 -0.00012911126917785197 0 0.0037042818934246617 1.3483113811472099e-05 0 0.0035191520587490332 -0.00010573628393140233 0 0.0035758759186165041 7.6655187997588312e-05 0 0.0033899682612118262 1.5946157967890161e-06 0 0.0033439359384863799 -0.00015054042522693426 0 0.0033899682612118262 1.5946157967890161e-06 0 0.0032626586773836421 -5.789589627761384e-05 0 0.0033439359384863799 -0.00015054042522693426 0 0.0035191520587490332 -0.00010573628393140233 0 0.0033899682612118262 1.5946157967890161e-06 0 0.0033899682612118262 1.5946157967890161e-06 0 0.0032626586773836421 -5.789589627761384e-05 0 0.0032970841039455722 2.8485180178753959e-05 0 0.0032626586773836421 -5.789589627761384e-05 0 0.0032970841039455722 2.8485180178753959e-05 0 0.003229053431457159 2.141184692915271e-05 0 0.0032970841039455722 2.8485180178753959e-05 0 0.003229053431457159 2.141184692915271e-05 0 0.0032706644543027512 8.0820132735461771e-05 0 0.003229053431457159 2.141184692915271e-05 0 0.0032706644543027512 8.0820132735461771e-05 0 0.0032350322129478192 6.8438783825063162e-05 0 0.0032706644543027512 8.0820132735461771e-05 0 0.0032622945597626254 0.00012476598717114693 0 0.0032372939373126624 9.760058951827564e-05 0 0.0032706644543027512 8.0820132735461771e-05 0 0.0032372939373126624 9.760058951827564e-05 0 0.0032350322129478192 6.8438783825063162e-05 0 0.0032970841039455722 2.8485180178753959e-05 0 0.0032706644543027512 8.0820132735461771e-05 0 0.0033320573734563672 8.5723064590573564e-05 0 0.0032706644543027512 8.0820132735461771e-05 0 0.0033320573734563672 8.5723064590573564e-05 0 0.0032974387349223792 0.00011978029136330551 0 0.0034131000922775468 0.00011568144170774076 0 0.0033899682612118262 1.5946157967890161e-06 0 0.0033320573734563672 8.5723064590573564e-05 0 0.0033899682612118262 1.5946157967890161e-06 0 0.0032970841039455722 2.8485180178753959e-05 0 0.0033320573734563672 8.5723064590573564e-05 0 0.0034131000922775468 0.00011568144170774076 0 0.0033343582008586977 0.00013758160215546474 0 0.0033614225558272945 0.00016695292315743783 0 0.0034131000922775468 0.00011568144170774076 0 0.0033320573734563672 8.5723064590573564e-05 0 0.0033343582008586977 0.00013758160215546474 0 0.0033938046738410622 0.00017781972710447441 0 0.0034131000922775468 0.00011568144170774076 0 0.0033614225558272945 0.00016695292315743783 0 0.0033343582008586977 0.00013758160215546474 0 0.0033614225558272945 0.00016695292315743783 0 0.0033193140453296921 0.00016744321575474537 0 0.0033614225558272945 0.00016695292315743783 0 0.0033366936528821966 0.00018785633985524255 0 0.0033193140453296921 0.00016744321575474537 0 0.0033614225558272945 0.00016695292315743783 0 0.0033666506653359028 0.00019194682386216357 0 0.0033366936528821966 0.00018785633985524255 0 0.0033938046738410622 0.00017781972710447441 0 0.0033614225558272945 0.00016695292315743783 0 0.0033666506653359028 0.00019194682386216357 0 0.0033065772063700532 0.00018489940248180418 0 0.0033366936528821966 0.00018785633985524255 0 0.0033193140453296921 0.00016744321575474537 0 0.0033065772063700532 0.00018489940248180418 0 0.0033193140453296921 0.00016744321575474537 0 0.0032851484144380784 0.00016746379107516983 0 0.0033193140453296921 0.00016744321575474537 0 0.0032897480627812207 0.00014918649123755467 0 0.0032851484144380784 0.00016746379107516983 0 0.0032897480627812207 0.00014918649123755467 0 0.0032622945597626254 0.00012476598717114693 0 0.0032609565627509619 0.0001447626241024651 0 0.0033343582008586977 0.00013758160215546474 0 0.0033193140453296921 0.00016744321575474537 0 0.0032897480627812207 0.00014918649123755467 0 0.0033343582008586977 0.00013758160215546474 0 0.0032897480627812207 0.00014918649123755467 0 0.0032974387349223792 0.00011978029136330551 0 0.0033320573734563672 8.5723064590573564e-05 0 0.0033343582008586977 0.00013758160215546474 0 0.0032974387349223792 0.00011978029136330551 0 0.0032706644543027512 8.0820132735461771e-05 0 0.0032974387349223792 0.00011978029136330551 0 0.0032622945597626254 0.00012476598717114693 0 0.0032897480627812207 0.00014918649123755467 0 0.0032974387349223792 0.00011978029136330551 0 0.0032622945597626254 0.00012476598717114693 0 0.0032622945597626254 0.00012476598717114693 0 0.0032317482428693535 0.0001305704006986953 0 0.0032372939373126624 9.760058951827564e-05 0 0.0032622945597626254 0.00012476598717114693 0 0.0032317482428693535 0.0001305704006986953 0 0.0032609565627509619 0.0001447626241024651 0 0.0032317482428693535 0.0001305704006986953 0 0.0032515483104002241 0.00014549311883594042 0 0.0032609565627509619 0.0001447626241024651 0 0.0032317482428693535 0.0001305704006986953 0 0.0032515483104002241 0.00014549311883594042 0 0.0032504972503064871 0.00014416120790358922 0 0.0032515483104002241 0.00014549311883594042 0 0.0032609565627509619 0.0001447626241024651 0 0.0032656896668315049 0.00016244613338331487 0 0.0032515483104002241 0.00014549311883594042 0 0.0032656896668315049 0.00016244613338331487 0 0.0032552105104455193 0.00015510235503852414 0 0.0032897480627812207 0.00014918649123755467 0 0.0032609565627509619 0.0001447626241024651 0 0.0032851484144380784 0.00016746379107516983 0 0.0032851484144380784 0.00016746379107516983 0 0.0032656896668315049 0.00016244613338331487 0 0.0032843259344515464 0.00018243073964627928 0 0.0032609565627509619 0.0001447626241024651 0 0.0032851484144380784 0.00016746379107516983 0 0.0032656896668315049 0.00016244613338331487 0 0.0032656896668315049 0.00016244613338331487 0 0.0032713924737753624 0.00018155642816972028 0 0.0032843259344515464 0.00018243073964627928 0 0.0032656896668315049 0.00016244613338331487 0 0.0032713924737753624 0.00018155642816972028 0 0.0032613041001495337 0.00016819699191517563 0 0.0033065772063700532 0.00018489940248180418 0 0.0032851484144380784 0.00016746379107516983 0 0.0032843259344515464 0.00018243073964627928 0 0.0032550555724169543 0.00018038952943134331 0 0.0032622157281013255 0.00017988893461745023 0 0.003255069276395078 0.00016607819386736517 0 0.0032622157281013255 0.00017988893461745023 0 0.0032613041001495337 0.00016819699191517563 0 0.003255069276395078 0.00016607819386736517 0 0.0032713924737753624 0.00018155642816972028 0 0.0032622157281013255 0.00017988893461745023 0 0.0032613041001495337 0.00016819699191517563 0 0.0032656896668315049 0.00016244613338331487 0 0.0032613041001495337 0.00016819699191517563 0 0.0032552105104455193 0.00015510235503852414 0 0.0032613041001495337 0.00016819699191517563 0 0.003255069276395078 0.00016607819386736517 0 0.0032552105104455193 0.00015510235503852414 0 0.003255069276395078 0.00016607819386736517 0 0.0032523097092383804 0.00015420804197942837 0 0.0032552105104455193 0.00015510235503852414 0 0.0032515483104002241 0.00014549311883594042 0 0.0032552105104455193 0.00015510235503852414 0 0.0032504972503064871 0.00014416120790358922 0 0.0032523097092383804 0.00015420804197942837 0 0.0032552105104455193 0.00015510235503852414 0 0.0032504972503064871 0.00014416120790358922 0 0.0032523097092383804 0.00015420804197942837 0 0.0032504972503064871 0.00014416120790358922 0 0.0032517311106904272 0.00014963897708946758 0 0.003094870075717814 9.5808002081593783e-05 0 0.0031658476278828892 0.00010663882384249317 0 0.0031109397538191127 5.4310430680856552e-05 0 0.0031832991363161126 0.0001229818047581253 0 0.0031709714524914183 9.3859252175310836e-05 0 0.0032501259186944521 0.00014803263743246251 0 0.0032517311106904272 0.00014963897708946758 0 0.0032494232126071025 0.00015152556382737588 0 0.0032504972503064871 0.00014416120790358922 0 0.0032517311106904272 0.00014963897708946758 0 0.0032494232126071025 0.00015152556382737588 0 0.0032317482428693535 0.0001305704006986953 0 0.0031091319701706905 5.7807354226476002e-05 0 0.0031861861953568164 6.5589541098785527e-05 0 0.0032231573851486508 0.00013110805365274203 0 0.0031709714524914183 9.3859252175310836e-05 0 0.0032317482428693535 0.0001305704006986953 0 0.0032504972503064871 0.00014416120790358922 0 0.0032494232126071025 0.00015152556382737588 0 0.0031997230275843357 7.3031714628373119e-05 0 0.0031861861953568164 6.5589541098785527e-05 0 0.0031483841033636733 -5.4251481544705762e-05 0 0.0032317482428693535 0.0001305704006986953 0 0.0031997230275843357 7.3031714628373119e-05 0 0.0031861861953568164 6.5589541098785527e-05 0 0.0032317482428693535 0.0001305704006986953 0 0.0032372939373126624 9.760058951827564e-05 0 0.0031997230275843357 7.3031714628373119e-05 0 0.0032372939373126624 9.760058951827564e-05 0 0.0031997230275843357 7.3031714628373119e-05 0 0.0032350322129478192 6.8438783825063162e-05 0 0.003229053431457159 2.141184692915271e-05 0 0.0031997230275843357 7.3031714628373119e-05 0 0.0032350322129478192 6.8438783825063162e-05 0 0.0031709714524914183 9.3859252175310836e-05 0 0.0031608732878102043 7.6108215255499986e-05 0 0.0032626586773836421 -5.789589627761384e-05 0 0.003229053431457159 2.141184692915271e-05 0 0.0030857719294785529 -7.3214262773087382e-05 0 0.0031870170132496864 6.0748018145568315e-05 0 0.0031179784890888284 -6.307425681804975e-05 0 0.003229053431457159 2.141184692915271e-05 0 0.0031997230275843357 7.3031714628373119e-05 0 0.0030857719294785529 -7.3214262773087382e-05 0 0.0031251505059134107 5.8397933359356258e-05 0 0.0031861861953568164 6.5589541098785527e-05 0 0.0031483841033636733 -5.4251481544705762e-05 0 0.0031251505059134107 5.8397933359356258e-05 0 0.0031483841033636733 -5.4251481544705762e-05 0 0.0030457977118527159 -1.2837457365105374e-05 0 0.003040204110373573 -6.9050224572040825e-05 0 0.0031483841033636733 -5.4251481544705762e-05 0 0.0030457977118527159 -1.2837457365105374e-05 0 0.0031709714524914183 9.3859252175310836e-05 0 0.0030805681497369864 2.3495770631243099e-05 0 0.0049598192998580991 5.2639173202451468e-05 0 0.0048534999887358829 9.1218957775058489e-05 0 0.0049682049447415813 5.1776144784129042e-05 0 0.0049781992653018569 4.0294419646216476e-05 0 0.0049842153525858374 4.8132524771995443e-05 0 0.0049838981986380466 2.7916468223071875e-05 0 0.0049682049447415813 5.1776144784129042e-05 0 0.0049781992653018569 4.0294419646216476e-05 0 0.0049781992653018569 4.0294419646216476e-05 0 0.0049842153525858374 4.8132524771995443e-05 0 0.0049845602915042841 3.9530711734419403e-05 0 0.0049837540239737067 4.4591186420809711e-05 0 0.0049842153525858374 4.8132524771995443e-05 0 0.0049845602915042841 3.9530711734419403e-05 0 0.0049837540239737067 4.4591186420809711e-05 0 0.0049842153525858374 4.8132524771995443e-05 0 0.0049811646856275545 5.4599369924293932e-05 0 0.0047250829923499681 0.0001290758094431163 0 0.0048795718818817613 0.00024195394745391154 0 0.0046526917192628112 0.00029592955580185789 0 0.0049682049447415813 5.1776144784129042e-05 0 0.0047250829923499681 0.0001290758094431163 0 0.0048795718818817613 0.00024195394745391154 0 0.0032603252770612352 0.00020626956816044266 0 0.0032786505152765967 0.00022403878730206067 0 0.0032711619222448177 0.00020760748385760817 0 0.0032786505152765967 0.00022403878730206067 0 0.0032711619222448177 0.00020760748385760817 0 0.0032846594880564287 0.00021389338471462452 0 0.0032711619222448177 0.00020760748385760817 0 0.0032722053130592264 0.00019560670823908616 0 0.0032622489705929755 0.0001922993797598371 0 0.0032711619222448177 0.00020760748385760817 0 0.0032722053130592264 0.00019560670823908616 0 0.0032846594880564287 0.00021389338471462452 0 0.0032713924737753624 0.00018155642816972028 0 0.0032622157281013255 0.00017988893461745023 0 0.0032722053130592264 0.00019560670823908616 0 0.0032550555724169543 0.00018038952943134331 0 0.0032622157281013255 0.00017988893461745023 0 0.0032622489705929755 0.0001922993797598371 0 0.0032622157281013255 0.00017988893461745023 0 0.0032722053130592264 0.00019560670823908616 0 0.0032622489705929755 0.0001922993797598371 0 0.0032843259344515464 0.00018243073964627928 0 0.0032861115345541804 0.00020086383628906457 0 0.00330247108881828 0.00020179344491916355 0 0.0033065772063700532 0.00018489940248180418 0 0.0032843259344515464 0.00018243073964627928 0 0.00330247108881828 0.00020179344491916355 0 0.0032713924737753624 0.00018155642816972028 0 0.0032722053130592264 0.00019560670823908616 0 0.0032861115345541804 0.00020086383628906457 0 0.0032713924737753624 0.00018155642816972028 0 0.0032843259344515464 0.00018243073964627928 0 0.0032861115345541804 0.00020086383628906457 0 0.0032722053130592264 0.00019560670823908616 0 0.0032861115345541804 0.00020086383628906457 0 0.0032846594880564287 0.00021389338471462452 0 0.0032861115345541804 0.00020086383628906457 0 0.003298679188144553 0.00021558632031789995 0 0.00330247108881828 0.00020179344491916355 0 0.003298679188144553 0.00021558632031789995 0 0.0032846594880564287 0.00021389338471462452 0 0.003303676483751284 0.00023250620815952057 0 0.0032786505152765967 0.00022403878730206067 0 0.0032846594880564287 0.00021389338471462452 0 0.003303676483751284 0.00023250620815952057 0 0.0040156583258718365 0.00025548495213337886 0 0.0039581157546654828 0.0002616691691767881 0 0.003298679188144553 0.00021558632031789995 0 0.003303676483751284 0.00023250620815952057 0 0.0033186459256069967 0.00022029743819748385 0 0.0032861115345541804 0.00020086383628906457 0 0.003298679188144553 0.00021558632031789995 0 0.0032846594880564287 0.00021389338471462452 0 0.0039581157546654828 0.0002616691691767881 0 0.004076575592129596 0.00033643239550204524 0 0.003303676483751284 0.00023250620815952057 0 0.0033186459256069967 0.00022029743819748385 0 0.003348101374289435 0.00023914164785789207 0 0.0046526917192628112 0.00029592955580185789 0 0.0044925924785947889 0.00027646490180969352 0 0.0044285260252543372 0.00033999500247284539 0 0.0044925924785947889 0.00027646490180969352 0 0.0044515543604904456 0.00031535664015624695 0 0.004481178270856462 0.00023349492478362362 0 0.0043775070775234843 0.00020493252816421563 0 0.004076575592129596 0.00033643239550204524 0 0.0033186459256069967 0.00022029743819748385 0 0.003340952795755059 0.00022016031747995837 0 0.003348101374289435 0.00023914164785789207 0 0.0033186459256069967 0.00022029743819748385 0 0.00330247108881828 0.00020179344491916355 0 0.0033236453106868079 0.00020395170842495879 0 0.003298679188144553 0.00021558632031789995 0 0.0033186459256069967 0.00022029743819748385 0 0.00330247108881828 0.00020179344491916355 0 0.0033236453106868079 0.00020395170842495879 0 0.0033486110943707894 0.00020551768277401469 0 0.003340952795755059 0.00022016031747995837 0 0.0033186459256069967 0.00022029743819748385 0 0.0033236453106868079 0.00020395170842495879 0 0.003340952795755059 0.00022016031747995837 0 0.0033065772063700532 0.00018489940248180418 0 0.0033366936528821966 0.00018785633985524255 0 0.0033236453106868079 0.00020395170842495879 0 0.0033366936528821966 0.00018785633985524255 0 0.0033236453106868079 0.00020395170842495879 0 0.0033486110943707894 0.00020551768277401469 0 0.0033065772063700532 0.00018489940248180418 0 0.00330247108881828 0.00020179344491916355 0 0.0033236453106868079 0.00020395170842495879 0 0.0033938046738410622 0.00017781972710447441 0 0.0033666506653359028 0.00019194682386216357 0 0.0033876700687454448 0.00021586025458262376 0 0.0033486110943707894 0.00020551768277401469 0 0.003340952795755059 0.00022016031747995837 0 0.0033876700687454448 0.00021586025458262376 0 0.0033666506653359028 0.00019194682386216357 0 0.0033486110943707894 0.00020551768277401469 0 0.0033876700687454448 0.00021586025458262376 0 0.0033666506653359028 0.00019194682386216357 0 0.0033366936528821966 0.00018785633985524255 0 0.0033486110943707894 0.00020551768277401469 0 0.0042402435256385842 0.00034631117854688873 0 0.0042971208062648229 0.00033442300285596344 0 0.0042910780938952573 0.00030062932798984233 0 0.0044515543604904456 0.00031535664015624695 0 0.0044072399869890377 0.00029828499837405645 0 0.0043524316484064556 0.00032304306784332337 0 0.004076575592129596 0.00033643239550204524 0 0.0043720479796399243 0.00031740471533482021 0 0.003340952795755059 0.00022016031747995837 0 0.003348101374289435 0.00023914164785789207 0 0.0033876700687454448 0.00021586025458262376 0 0.0047377153148048506 0.00014948658494331357 0 0.0046181084605668842 0.0002010135722929374 0 0.0044072399869890377 0.00029828499837405645 0 0.004481178270856462 0.00023349492478362362 0 0.0043469641145197852 0.00030955640742295144 0 0.004076575592129596 0.00033643239550204524 0 0.0037926723745617943 0.00028110003374313692 0 0.0044515543604904456 0.00031535664015624695 0 0.0044072399869890377 0.00029828499837405645 0 0.004481178270856462 0.00023349492478362362 0 0.0049676910832589039 7.602344025281634e-05 0 0.0049620865713916338 8.1656071291211967e-05 0 0.0049574022887095854 9.2291049786486417e-05 0 0.0049676910832589039 7.602344025281634e-05 0 0.0049638947705992389 7.4279431476076871e-05 0 0.0049620865713916338 8.1656071291211967e-05 0 0.0049676910832589039 7.602344025281634e-05 0 0.0049782681068606368 6.8228843475825722e-05 0 0.0049574022887095854 9.2291049786486417e-05 0 0.0049676910832589039 7.602344025281634e-05 0 0.0049699087076676279 6.9606412805779195e-05 0 0.0049638947705992389 7.4279431476076871e-05 0 0.0049638947705992389 7.4279431476076871e-05 0 0.0049695115678683316 6.2472850596939544e-05 0 0.004963086136793405 6.4130177296251842e-05 0 0.0049699087076676279 6.9606412805779195e-05 0 0.0049638947705992389 7.4279431476076871e-05 0 0.0049695115678683316 6.2472850596939544e-05 0 0.0049695115678683316 6.2472850596939544e-05 0 0.0049744060232280495 6.432828524935922e-05 0 0.0049754925280250679 5.5360276723080382e-05 0 0.0049744060232280495 6.432828524935922e-05 0 0.004977391303419028 6.0523281204091645e-05 0 0.0049754925280250679 5.5360276723080382e-05 0 0.0049699087076676279 6.9606412805779195e-05 0 0.0049695115678683316 6.2472850596939544e-05 0 0.0049744060232280495 6.432828524935922e-05 0 0.0049744060232280495 6.432828524935922e-05 0 0.004972773654541119 6.9554112928451819e-05 0 0.0049782681068606368 6.8228843475825722e-05 0 0.0049676910832589039 7.602344025281634e-05 0 0.004972773654541119 6.9554112928451819e-05 0 0.0049782681068606368 6.8228843475825722e-05 0 0.0049676910832589039 7.602344025281634e-05 0 0.0049699087076676279 6.9606412805779195e-05 0 0.004972773654541119 6.9554112928451819e-05 0 0.0049699087076676279 6.9606412805779195e-05 0 0.0049744060232280495 6.432828524935922e-05 0 0.004972773654541119 6.9554112928451819e-05 0 0.0047250829923499681 0.0001290758094431163 0 0.0046526917192628112 0.00029592955580185789 0 0.004481178270856462 0.00023349492478362362 0 0.0049842153525858374 4.8132524771995443e-05 0 0.0049782681068606368 6.8228843475825722e-05 0 0.0049811646856275545 5.4599369924293932e-05 0 0.0046526917192628112 0.00029592955580185789 0 0.0044925924785947889 0.00027646490180969352 0 0.004481178270856462 0.00023349492478362362 0 0.0048534999887358829 9.1218957775058489e-05 0 0.0047377153148048506 0.00014948658494331357 0 0.0049782681068606368 6.8228843475825722e-05 0 0.0049811646856275545 5.4599369924293932e-05 0 0.004977391303419028 6.0523281204091645e-05 0 0.0049811646856275545 5.4599369924293932e-05 0 0.004977391303419028 6.0523281204091645e-05 0 0.0049754925280250679 5.5360276723080382e-05 0 0.0049744060232280495 6.432828524935922e-05 0 0.0049782681068606368 6.8228843475825722e-05 0 0.004977391303419028 6.0523281204091645e-05 0 0.0049811646856275545 5.4599369924293932e-05 0 0.0049799157325783579 4.501775119151892e-05 0 0.0049754925280250679 5.5360276723080382e-05 0 0.0049837540239737067 4.4591186420809711e-05 0 0.0049811646856275545 5.4599369924293932e-05 0 0.0049799157325783579 4.501775119151892e-05 0 0.0049685292141796655 5.5738846386828517e-05 0 0.0049754925280250679 5.5360276723080382e-05 0 0.0049711666075154832 4.4732340953253448e-05 0 0.0049799157325783579 4.501775119151892e-05 0 0.0049754925280250679 5.5360276723080382e-05 0 0.0049711666075154832 4.4732340953253448e-05 0 0.0049685292141796655 5.5738846386828517e-05 0 0.0049620270719023018 5.3026577575899864e-05 0 0.0049711666075154832 4.4732340953253448e-05 0 0.0049695115678683316 6.2472850596939544e-05 0 0.0049685292141796655 5.5738846386828517e-05 0 0.004963086136793405 6.4130177296251842e-05 0 0.0049695115678683316 6.2472850596939544e-05 0 0.0049685292141796655 5.5738846386828517e-05 0 0.0049754925280250679 5.5360276723080382e-05 0 0.0049520394292480972 5.6989120086425266e-05 0 0.0049620270719023018 5.3026577575899864e-05 0 0.0049543198091872047 6.786152037613203e-05 0 0.0049685292141796655 5.5738846386828517e-05 0 0.0049620270719023018 5.3026577575899864e-05 0 0.004963086136793405 6.4130177296251842e-05 0 0.0049620270719023018 5.3026577575899864e-05 0 0.0049543198091872047 6.786152037613203e-05 0 0.004963086136793405 6.4130177296251842e-05 0 0.0049620270719023018 5.3026577575899864e-05 0 0.0049583794687947406 4.2340389057665307e-05 0 0.0049711666075154832 4.4732340953253448e-05 0 0.0049520394292480972 5.6989120086425266e-05 0 0.0049620270719023018 5.3026577575899864e-05 0 0.0049583794687947406 4.2340389057665307e-05 0 0.0049520394292480972 5.6989120086425266e-05 0 0.0049392811316456365 4.9413174109409943e-05 0 0.0049583794687947406 4.2340389057665307e-05 0 0.0049520394292480972 5.6989120086425266e-05 0 0.0049392811316456365 4.9413174109409943e-05 0 0.0049434528757942671 7.7678558058448692e-05 0 0.0049434528757942671 7.7678558058448692e-05 0 0.0049412776782934049 9.288466068995053e-05 0 0.0049153939361735524 9.0457306533103403e-05 0 0.0049392811316456365 4.9413174109409943e-05 0 0.0049434528757942671 7.7678558058448692e-05 0 0.0049153939361735524 9.0457306533103403e-05 0 0.0049434528757942671 7.7678558058448692e-05 0 0.0049509486909462752 8.5361154239237577e-05 0 0.0049412776782934049 9.288466068995053e-05 0 0.0049434528757942671 7.7678558058448692e-05 0 0.0049509486909462752 8.5361154239237577e-05 0 0.0049516186404760763 7.666825861616618e-05 0 0.0049509486909462752 8.5361154239237577e-05 0 0.0049516186404760763 7.666825861616618e-05 0 0.0049575872733890755 7.5703544605180306e-05 0 0.0049434528757942671 7.7678558058448692e-05 0 0.0049516186404760763 7.666825861616618e-05 0 0.0049543198091872047 6.786152037613203e-05 0 0.0049520394292480972 5.6989120086425266e-05 0 0.0049434528757942671 7.7678558058448692e-05 0 0.0049543198091872047 6.786152037613203e-05 0 0.0049516186404760763 7.666825861616618e-05 0 0.0049543198091872047 6.786152037613203e-05 0 0.0049575872733890755 7.5703544605180306e-05 0 0.0049543198091872047 6.786152037613203e-05 0 0.004963086136793405 6.4130177296251842e-05 0 0.0049575872733890755 7.5703544605180306e-05 0 0.0049638947705992389 7.4279431476076871e-05 0 0.004963086136793405 6.4130177296251842e-05 0 0.0049575872733890755 7.5703544605180306e-05 0 0.0049638947705992389 7.4279431476076871e-05 0 0.0049575872733890755 7.5703544605180306e-05 0 0.0049584761635560245 8.1749852849022136e-05 0 0.0049509486909462752 8.5361154239237577e-05 0 0.0049575872733890755 7.5703544605180306e-05 0 0.0049584761635560245 8.1749852849022136e-05 0 0.0049638947705992389 7.4279431476076871e-05 0 0.0049584761635560245 8.1749852849022136e-05 0 0.0049620865713916338 8.1656071291211967e-05 0 0.0042971208062648229 0.00033442300285596344 0 0.0043170562529610546 0.00030863159340161416 0 0.0043433234278534233 0.00031672341372591999 0 0.0044072399869890377 0.00029828499837405645 0 0.0043469641145197852 0.00030955640742295144 0 0.0043524316484064556 0.00032304306784332337 0 0.0049584761635560245 8.1749852849022136e-05 0 0.0049620865713916338 8.1656071291211967e-05 0 0.0049574022887095854 9.2291049786486417e-05 0 0.0043720479796399243 0.00031740471533482021 0 0.0043263138927397589 0.00032323936726569503 0 0.0043469641145197852 0.00030955640742295144 0 0.0043524316484064556 0.00032304306784332337 0 0.0043433234278534233 0.00031672341372591999 0 0.0049509486909462752 8.5361154239237577e-05 0 0.0049584761635560245 8.1749852849022136e-05 0 0.0049574022887095854 9.2291049786486417e-05 0 0.0049509486909462752 8.5361154239237577e-05 0 0.0049574022887095854 9.2291049786486417e-05 0 0.0049412776782934049 9.288466068995053e-05 0 0.0043298562677514911 0.00027261353384447747 0 0.0043170562529610546 0.00030863159340161416 0 0.0043433234278534233 0.00031672341372591999 0 0.0043298562677514911 0.00027261353384447747 0 0.0042910780938952573 0.00030062932798984233 0 0.0043170562529610546 0.00030863159340161416 0 0.0042971208062648229 0.00033442300285596344 0 0.0042910780938952573 0.00030062932798984233 0 0.0043170562529610546 0.00030863159340161416 0 0.0040328025051131616 0.00024086914907353894 0 0.0037926723745617943 0.00028110003374313692 0 0.0049929618205836425 0.00026907208184443382 0 0.0049528019801785709 0.00024187158441480415 0 0.0049544375626694214 0.00018836673048183179 0 0.0043298562677514911 0.00027261353384447747 0 0.0043433234278534233 0.00031672341372591999 0 0.004346093613012662 0.00031827633639801804 0 0.0040328025051131616 0.00024086914907353894 0 0.0048298599918118112 0.00026334179323684041 0 0.0049528019801785709 0.00024187158441480415 0 0.0049544375626694214 0.00018836673048183179 0 0.0049335658302289316 0.00019701221910589249 0 0.0048298599918118112 0.00026334179323684041 0 0.0049288186890102236 0.00021307976414641414 0 0.0049574022887095854 9.2291049786486417e-05 0 0.0049315837692911046 0.00010832211274943346 0 0.0049412776782934049 9.288466068995053e-05 0 0.0043469641145197852 0.00030955640742295144 0 0.0043433234278534233 0.00031672341372591999 0 0.004346093613012662 0.00031827633639801804 0 0.0046181084605668842 0.0002010135722929374 0 0.0048298599918118112 0.00026334179323684041 0 0.0049315837692911046 0.00010832211274943346 0 0.0049412776782934049 9.288466068995053e-05 0 0.0049153939361735524 9.0457306533103403e-05 0 0.0049609100733870636 0.00018523927267550435 0 0.0049034961087226596 0.00015458086440493899 0 0.0049153939361735524 9.0457306533103403e-05 0 0.0049034961087226596 0.00015458086440493899 0 0.004859014573848108 0.00012126376234255771 0 0.0049153939361735524 9.0457306533103403e-05 0 0.0048298599918118112 0.00026334179323684041 0 0.0049373625155547966 6.0017148304352737e-05 0 0.0049609100733870636 0.00018523927267550435 0 0.0049034961087226596 0.00015458086440493899 0 0.0049335658302289316 0.00019701221910589249 0 0.0049034961087226596 0.00015458086440493899 0 0.0049335658302289316 0.00019701221910589249 0 0.0048874475376556523 0.000221176841435638 0 0.0049335658302289316 0.00019701221910589249 0 0.0048874475376556523 0.000221176841435638 0 0.0049213380487196897 0.00023176216425542211 0 0.0049105759758707821 0.00026700545454775936 0 0.0048874475376556523 0.000221176841435638 0 0.0049213380487196897 0.00023176216425542211 0 0.0049528019801785709 0.00024187158441480415 0 0.0049335658302289316 0.00019701221910589249 0 0.0049213380487196897 0.00023176216425542211 0 0.0049105759758707821 0.00026700545454775936 0 0.0049528019801785709 0.00024187158441480415 0 0.0049213380487196897 0.00023176216425542211 0 0.0048451795569033063 0.00026427516438513144 0 0.0048874475376556523 0.000221176841435638 0 0.0048179046551449466 0.00021819934526941462 0 0.0048874475376556523 0.000221176841435638 0 0.004858692095442976 0.0001773005495053143 0 0.0048179046551449466 0.00021819934526941462 0 0.004858692095442976 0.0001773005495053143 0 0.004859014573848108 0.00012126376234255771 0 0.0047844307264640227 0.00017264288707083761 0 0.0049034961087226596 0.00015458086440493899 0 0.0048874475376556523 0.000221176841435638 0 0.004858692095442976 0.0001773005495053143 0 0.0049034961087226596 0.00015458086440493899 0 0.004858692095442976 0.0001773005495053143 0 0.004859014573848108 0.00012126376234255771 0 0.004859014573848108 0.00012126376234255771 0 0.0048656822501442426 6.7968058115912267e-05 0 0.004814741672328403 9.9630413582291088e-05 0 0.004859014573848108 0.00012126376234255771 0 0.0049153939361735524 9.0457306533103403e-05 0 0.0048656822501442426 6.7968058115912267e-05 0 0.0049392811316456365 4.9413174109409943e-05 0 0.0049153939361735524 9.0457306533103403e-05 0 0.0049092836795665918 4.1819781524311426e-05 0 0.0049153939361735524 9.0457306533103403e-05 0 0.0048656822501442426 6.7968058115912267e-05 0 0.0049092836795665918 4.1819781524311426e-05 0 0.0048656822501442426 6.7968058115912267e-05 0 0.0049092836795665918 4.1819781524311426e-05 0 0.0048713823432355186 3.1221504550635333e-05 0 0.0049092836795665918 4.1819781524311426e-05 0 0.0049127015636822244 2.0091166248506577e-05 0 0.0048713823432355186 3.1221504550635333e-05 0 0.0049092836795665918 4.1819781524311426e-05 0 0.0049335700865300982 2.3351788306274472e-05 0 0.0049127015636822244 2.0091166248506577e-05 0 0.0049392811316456365 4.9413174109409943e-05 0 0.0049092836795665918 4.1819781524311426e-05 0 0.0049335700865300982 2.3351788306274472e-05 0 0.0049335700865300982 2.3351788306274472e-05 0 0.0049127015636822244 2.0091166248506577e-05 0 0.0049430401546528254 4.940926925087411e-06 0 0.0049335700865300982 2.3351788306274472e-05 0 0.0049430401546528254 4.940926925087411e-06 0 0.0049451843556526679 1.5234763465298997e-05 0 0.0049127015636822244 2.0091166248506577e-05 0 0.0049430401546528254 4.940926925087411e-06 0 0.004889368709186423 7.839685473636302e-06 0 0.0049430401546528254 4.940926925087411e-06 0 0.0049999975504083482 -6.6789164017958567e-09 0 0.004946195878128128 -6.7286333096609769e-06 0 0.0049999975504083482 -6.6789164017958567e-09 0 0.004946195878128128 -6.7286333096609769e-06 0 0.0049998133603631426 -4.854801408616081e-08 0 0.0049430401546528254 4.940926925087411e-06 0 0.0049999975504083482 -6.6789164017958567e-09 0 0.0049936384151258763 5.3210098546564013e-06 0 0.0049471824710814061 6.5097746253445549e-06 0 0.0049683789365224584 5.1579588487616954e-06 0 0.0049430401546528254 4.940926925087411e-06 0 0.0049448674932203712 7.9196610815650713e-06 0 0.0049451843556526679 1.5234763465298997e-05 0 0.0049448674932203712 7.9196610815650713e-06 0 0.0049604316716268335 1.220942061911303e-05 0 0.0049451843556526679 1.5234763465298997e-05 0 0.0049448674932203712 7.9196610815650713e-06 0 0.0049646973597011852 5.5999103501786628e-07 0 0.0049604316716268335 1.220942061911303e-05 0 0.0049604316716268335 1.220942061911303e-05 0 0.0049600016111341089 1.9872835094145777e-05 0 0.0049451843556526679 1.5234763465298997e-05 0 0.0049683789365224584 5.1579588487616954e-06 0 0.0049823138354387342 2.0300583087421023e-06 0 0.0049999975504083482 -6.6789164017958567e-09 0 0.0049936384151258763 5.3210098546564013e-06 0 0.0049999975088639553 3.2537224550712327e-09 0 0.0049936384151258763 5.3210098546564013e-06 0 0.0049999975088639553 3.2537224550712327e-09 0 0.005000355924193841 1.5299508230796999e-06 0 0.0049823138354387342 2.0300583087421023e-06 0 0.0049999924080122923 6.0734544411296527e-11 0 0.0049999975088639553 3.2537224550712327e-09 0 0.005000355924193841 1.5299508230796999e-06 0 0.0050000026198178549 -9.5997861779614878e-10 0 0.0049646973597011852 5.5999103501786628e-07 0 0.0049604316716268335 1.220942061911303e-05 0 0.0049782015208062321 1.1830941933968129e-05 0 0.0049604316716268335 1.220942061911303e-05 0 0.0049711251802936505 2.026697471349573e-05 0 0.0049600016111341089 1.9872835094145777e-05 0 0.0049604316716268335 1.220942061911303e-05 0 0.0049711251802936505 2.026697471349573e-05 0 0.0049782015208062321 1.1830941933968129e-05 0 0.0049600016111341089 1.9872835094145777e-05 0 0.0049512526444496861 2.8116154493648645e-05 0 0.0049697106416915745 2.9287849172058573e-05 0 0.0049711251802936505 2.026697471349573e-05 0 0.0049600016111341089 1.9872835094145777e-05 0 0.0049697106416915745 2.9287849172058573e-05 0 0.0049335700865300982 2.3351788306274472e-05 0 0.0049451843556526679 1.5234763465298997e-05 0 0.0049512526444496861 2.8116154493648645e-05 0 0.0049600016111341089 1.9872835094145777e-05 0 0.0049451843556526679 1.5234763465298997e-05 0 0.0049512526444496861 2.8116154493648645e-05 0 0.0049392811316456365 4.9413174109409943e-05 0 0.0049335700865300982 2.3351788306274472e-05 0 0.0049512526444496861 2.8116154493648645e-05 0 0.0049392811316456365 4.9413174109409943e-05 0 0.0049512526444496861 2.8116154493648645e-05 0 0.0049583794687947406 4.2340389057665307e-05 0 0.0049512526444496861 2.8116154493648645e-05 0 0.0049583794687947406 4.2340389057665307e-05 0 0.0049697106416915745 2.9287849172058573e-05 0 0.0049583794687947406 4.2340389057665307e-05 0 0.0049711666075154832 4.4732340953253448e-05 0 0.0049697106416915745 2.9287849172058573e-05 0 0.0049778685882373858 3.4765764498732599e-05 0 0.0049711666075154832 4.4732340953253448e-05 0 0.0049697106416915745 2.9287849172058573e-05 0 0.0049799157325783579 4.501775119151892e-05 0 0.0049778685882373858 3.4765764498732599e-05 0 0.0049711666075154832 4.4732340953253448e-05 0 0.0049837540239737067 4.4591186420809711e-05 0 0.0049799157325783579 4.501775119151892e-05 0 0.0049854520160253777 3.3347658105500872e-05 0 0.0049799157325783579 4.501775119151892e-05 0 0.0049778685882373858 3.4765764498732599e-05 0 0.0049854520160253777 3.3347658105500872e-05 0 0.0049778685882373858 3.4765764498732599e-05 0 0.0049854520160253777 3.3347658105500872e-05 0 0.0049806977521640924 2.1613246002983353e-05 0 0.0049854520160253777 3.3347658105500872e-05 0 0.0049806977521640924 2.1613246002983353e-05 0 0.0049899615090324371 2.1430192431117993e-05 0 0.0049778685882373858 3.4765764498732599e-05 0 0.0049806977521640924 2.1613246002983353e-05 0 0.0049697106416915745 2.9287849172058573e-05 0 0.0049711251802936505 2.026697471349573e-05 0 0.0049806977521640924 2.1613246002983353e-05 0 0.0049697106416915745 2.9287849172058573e-05 0 0.0049806977521640924 2.1613246002983353e-05 0 0.0049782015208062321 1.1830941933968129e-05 0 0.0049930370928386149 9.1107652131409149e-06 0 0.0049711251802936505 2.026697471349573e-05 0 0.0049806977521640924 2.1613246002983353e-05 0 0.0049782015208062321 1.1830941933968129e-05 0 0.0049782015208062321 1.1830941933968129e-05 0 0.0049999238864039588 -1.4516261260582307e-08 0 0.0049930370928386149 9.1107652131409149e-06 0 0.0049646973597011852 5.5999103501786628e-07 0 0.0049782015208062321 1.1830941933968129e-05 0 0.0049999238864039588 -1.4516261260582307e-08 0 0.0049999238864039588 -1.4516261260582307e-08 0 0.0049930370928386149 9.1107652131409149e-06 0 0.0050000300633058995 1.9860793100544503e-08 0 0.0049806977521640924 2.1613246002983353e-05 0 0.0049930370928386149 9.1107652131409149e-06 0 0.0049899615090324371 2.1430192431117993e-05 0 0.0049899615090324371 2.1430192431117993e-05 0 0.0049980419931951224 1.6997372226168674e-05 0 0.0049908360671881416 2.743961449616598e-05 0 0.0049930370928386149 9.1107652131409149e-06 0 0.0049899615090324371 2.1430192431117993e-05 0 0.0049980419931951224 1.6997372226168674e-05 0 0.0049920998181734169 -3.0459354335921989e-06 0 0.0049992874048579803 1.3873832266360564e-07 0 0.0049999965058813494 4.9572922276639304e-09 0 0.0049930370928386149 9.1107652131409149e-06 0 0.0049980419931951224 1.6997372226168674e-05 0 0.0050000300633058995 1.9860793100544503e-08 0 0.0049960186219486207 8.4954170158422197e-06 0 0.0049999962118161606 -6.9339386256520128e-10 0 0.0049920998181734169 -3.0459354335921989e-06 0 0.0049992874048579803 1.3873832266360564e-07 0 0.004982410097016915 -2.1640684490914774e-06 0 0.0050000000182268099 -1.7094820983468808e-09 0 0.0049992874048579803 1.3873832266360564e-07 0 0.0049999831301765002 -5.2424048929786268e-08 0 0.0049992874048579803 1.3873832266360564e-07 0 0.0049999831301765002 -5.2424048929786268e-08 0 0.0050007792644644706 -8.9086347058707288e-07 0 0.0049978662605897348 3.9652045684244419e-08 0 0.0049912280138542115 -2.4806335747192416e-06 0 0.0050000000182268099 -1.7094820983468808e-09 0 0.0049992874048579803 1.3873832266360564e-07 0 0.0049999965058813494 4.9572922276639304e-09 0 0.0049991764723220488 9.3133958218076175e-08 0 0.0049999831301765002 -5.2424048929786268e-08 0 0.0050007792644644706 -8.9086347058707288e-07 0 0.0049920998181734169 -3.0459354335921989e-06 0 0.004982410097016915 -2.1640684490914774e-06 0 0.0049803163164603799 -2.2430371870816858e-05 0 0.0049898638871228524 3.2570458050018997e-05 0 0.0049908360671881416 2.743961449616598e-05 0 0.0049845602915042841 3.9530711734419403e-05 0 0.0049960186219486207 8.4954170158422197e-06 0 0.004976585781326006 -5.1212156073044395e-06 0 0.0049591171815188554 -1.9859848707284566e-05 0 0.004982410097016915 -2.1640684490914774e-06 0 0.0049803163164603799 -2.2430371870816858e-05 0 0.0049980419931951224 1.6997372226168674e-05 0 0.0049898638871228524 3.2570458050018997e-05 0 0.0049908360671881416 2.743961449616598e-05 0 0.0049854520160253777 3.3347658105500872e-05 0 0.0049899615090324371 2.1430192431117993e-05 0 0.0049908360671881416 2.743961449616598e-05 0 0.0049854520160253777 3.3347658105500872e-05 0 0.0049908360671881416 2.743961449616598e-05 0 0.0049845602915042841 3.9530711734419403e-05 0 0.0049837540239737067 4.4591186420809711e-05 0 0.0049854520160253777 3.3347658105500872e-05 0 0.0049845602915042841 3.9530711734419403e-05 0 0.0050373022863068459 2.2767331473344877e-05 0 0.004976585781326006 -5.1212156073044395e-06 0 0.0049838981986380466 2.7916468223071875e-05 0 0.0049781992653018569 4.0294419646216476e-05 0 0.0049898638871228524 3.2570458050018997e-05 0 0.0049781992653018569 4.0294419646216476e-05 0 0.0049898638871228524 3.2570458050018997e-05 0 0.0049845602915042841 3.9530711734419403e-05 0 0.004792476537041044 0.00027394983849053271 0 0.0047817799965477739 0.00028083275643656054 0 0.0047916945724742963 0.00028794822382612371 0 0.0048043558679707081 0.00027613511561416467 0 0.004792476537041044 0.00027394983849053271 0 0.0047916945724742963 0.00028794822382612371 0 0.004647717291493653 0.00016772069175978707 0 0.004620786888285983 0.00020389658662373986 0 0.0045183264920100625 4.0140166511603827e-05 0 0.0044467923964973625 0.00012716796767306922 0 0.0045360643778792455 0.00011985783176742885 0 0.0048043558679707081 0.00027613511561416467 0 0.004792476537041044 0.00027394983849053271 0 0.004799681710360707 0.0002639647035409166 0 0.0048043558679707081 0.00027613511561416467 0 0.0048157561874251995 0.00026190134240407491 0 0.004799681710360707 0.0002639647035409166 0 0.004792476537041044 0.00027394983849053271 0 0.0047843040128888225 0.00027153769247446392 0 0.0047919686150507419 0.00026137770973199597 0 0.0047843040128888225 0.00027153769247446392 0 0.0047729986889326458 0.00027965800051920405 0 0.0047817799965477739 0.00028083275643656054 0 0.0047843040128888225 0.00027153769247446392 0 0.0047729986889326458 0.00027965800051920405 0 0.0047850722115188602 0.00026116946237344976 0 0.004792476537041044 0.00027394983849053271 0 0.0047843040128888225 0.00027153769247446392 0 0.0047817799965477739 0.00028083275643656054 0 0.0047729986889326458 0.00027965800051920405 0 0.0047727715863469843 0.00028669757174609761 0 0.0047817799965477739 0.00028083275643656054 0 0.0047727715863469843 0.00028669757174609761 0 0.0047817799965477739 0.00028083275643656054 0 0.00477728421081641 0.00028934839205015729 0 0.0047817799965477739 0.00028083275643656054 0 0.00477728421081641 0.00028934839205015729 0 0.0047916945724742963 0.00028794822382612371 0 0.00477728421081641 0.00028934839205015729 0 0.0047718495737391377 0.00029552924948225072 0 0.0047811168284543834 0.00029546833467974942 0 0.00477728421081641 0.00028934839205015729 0 0.0047811168284543834 0.00029546833467974942 0 0.0047916945724742963 0.00028794822382612371 0 0.00477728421081641 0.00028934839205015729 0 0.0047718495737391377 0.00029552924948225072 0 0.0047695210814616687 0.00028858136863455679 0 0.0047727715863469843 0.00028669757174609761 0 0.00477728421081641 0.00028934839205015729 0 0.0047695210814616687 0.00028858136863455679 0 0.0047882731273332212 0.00032485317324143644 0 0.0047591743083026054 0.00027254650981078997 0 0.0044106873613084458 0.00014210727020113015 0 0.0047882731273332212 0.00032485317324143644 0 0.0047729286898281096 0.00030034544164649968 0 0.0047718495737391377 0.00029552924948225072 0 0.0047811168284543834 0.00029546833467974942 0 0.0044106873613084458 0.00014210727020113015 0 0.0046018791285840372 0.00025663798495731649 0 0.0044521075392869773 0.00023533386663449738 0 0.0043935287804664942 0.00019589687012521888 0 0.0044966956531137855 0.00018037417179394657 0 0.0046018791285840372 0.00025663798495731649 0 0.004620786888285983 0.00020389658662373986 0 0.0043935287804664942 0.00019589687012521888 0 0.0044467923964973625 0.00012716796767306922 0 0.0044966956531137855 0.00018037417179394657 0 0.0044467923964973625 0.00012716796767306922 0 0.0044966956531137855 0.00018037417179394657 0 0.0045360643778792455 0.00011985783176742885 0 0.0044521075392869773 0.00023533386663449738 0 0.0044966956531137855 0.00018037417179394657 0 0.0045169724802032549 0.0002410346944411023 0 0.0044966956531137855 0.00018037417179394657 0 0.0045169724802032549 0.0002410346944411023 0 0.0046032541791521837 0.00016752090693227962 0 0.0046375027725097636 0.0002505179244067964 0 0.0045169724802032549 0.0002410346944411023 0 0.0046032541791521837 0.00016752090693227962 0 0.0046375027725097636 0.0002505179244067964 0 0.0046032541791521837 0.00016752090693227962 0 0.004698133689119843 0.00019073353039394223 0 0.0046032541791521837 0.00016752090693227962 0 0.004698133689119843 0.00019073353039394223 0 0.0047324725690781125 0.00011038193844501503 0 0.0044966956531137855 0.00018037417179394657 0 0.0046032541791521837 0.00016752090693227962 0 0.0045360643778792455 0.00011985783176742885 0 0.0046032541791521837 0.00016752090693227962 0 0.0046275641599438288 7.6747919590561226e-05 0 0.0045360643778792455 0.00011985783176742885 0 0.004858692095442976 0.0001773005495053143 0 0.0048179046551449466 0.00021819934526941462 0 0.0047844307264640227 0.00017264288707083761 0 0.0047515959764739303 0.0002726330559494928 0 0.0048179046551449466 0.00021819934526941462 0 0.0047844307264640227 0.00017264288707083761 0 0.0047515959764739303 0.0002726330559494928 0 0.0046375027725097636 0.0002505179244067964 0 0.004698133689119843 0.00019073353039394223 0 0.0047515959764739303 0.0002726330559494928 0 0.004698133689119843 0.00019073353039394223 0 0.0047844307264640227 0.00017264288707083761 0 0.004698133689119843 0.00019073353039394223 0 0.0047844307264640227 0.00017264288707083761 0 0.0047324725690781125 0.00011038193844501503 0 0.0047844307264640227 0.00017264288707083761 0 0.004814741672328403 9.9630413582291088e-05 0 0.0047324725690781125 0.00011038193844501503 0 0.004859014573848108 0.00012126376234255771 0 0.0047844307264640227 0.00017264288707083761 0 0.004814741672328403 9.9630413582291088e-05 0 0.004814741672328403 9.9630413582291088e-05 0 0.0047324725690781125 0.00011038193844501503 0 0.0048152698986234799 4.8358060417631788e-05 0 0.0048152698986234799 4.8358060417631788e-05 0 0.0047508097983555656 3.1653768340968909e-05 0 0.00481974858936857 2.3438014326241113e-05 0 0.0047324725690781125 0.00011038193844501503 0 0.0048152698986234799 4.8358060417631788e-05 0 0.0047508097983555656 3.1653768340968909e-05 0 0.0048656822501442426 6.7968058115912267e-05 0 0.0048152698986234799 4.8358060417631788e-05 0 0.0048713823432355186 3.1221504550635333e-05 0 0.0048656822501442426 6.7968058115912267e-05 0 0.004814741672328403 9.9630413582291088e-05 0 0.0048152698986234799 4.8358060417631788e-05 0 0.0045183264920100625 4.0140166511603827e-05 0 0.0046275641599438288 7.6747919590561226e-05 0 0.0045360643778792455 0.00011985783176742885 0 0.0047324725690781125 0.00011038193844501503 0 0.0046275641599438288 7.6747919590561226e-05 0 0.0047508097983555656 3.1653768340968909e-05 0 0.0046032541791521837 0.00016752090693227962 0 0.0047324725690781125 0.00011038193844501503 0 0.0046275641599438288 7.6747919590561226e-05 0 0.0046275641599438288 7.6747919590561226e-05 0 0.0047508097983555656 3.1653768340968909e-05 0 0.0046088571480770966 -6.4283509802546187e-05 0 0.0047010106321535069 -6.4810361146685968e-06 0 0.0048038098111927155 7.3478402818734793e-05 0 0.004647717291493653 0.00016772069175978707 0 0.0048038098111927155 7.3478402818734793e-05 0 0.0045183264920100625 4.0140166511603827e-05 0 0.0046275641599438288 7.6747919590561226e-05 0 0.0046088571480770966 -6.4283509802546187e-05 0 0.0049972030425962542 5.0973937517457333e-06 0 0.0049982346649100253 2.5505634500607581e-06 0 0.004996910000866688 4.1532104332748642e-06 0 0.0048038098111927155 7.3478402818734793e-05 0 0.004919632747049825 0.00014118107067398854 0 0.0047740176692541072 2.6217739998133191e-05 0 0.0047832744871874932 2.3976678884021084e-05 0 0.0048003346671991048 5.2485372264371384e-06 0 0.0047508097983555656 3.1653768340968909e-05 0 0.0047740176692541072 2.6217739998133191e-05 0 0.0047832744871874932 2.3976678884021084e-05 0 0.0048038098111927155 7.3478402818734793e-05 0 0.0049163000520451011 -9.1238682976454888e-06 0 0.0049992588082737053 2.4147922808309966e-06 0 0.0049982346649100253 2.5505634500607581e-06 0 0.0049992724949817586 8.1819407219252227e-07 0 0.0049972030425962542 5.0973937517457333e-06 0 0.0049992588082737053 2.4147922808309966e-06 0 0.0049982346649100253 2.5505634500607581e-06 0 0.0048713823432355186 3.1221504550635333e-05 0 0.00481974858936857 2.3438014326241113e-05 0 0.004889368709186423 7.839685473636302e-06 0 0.0048152698986234799 4.8358060417631788e-05 0 0.0048713823432355186 3.1221504550635333e-05 0 0.00481974858936857 2.3438014326241113e-05 0 0.0047832744871874932 2.3976678884021084e-05 0 0.0048003346671991048 5.2485372264371384e-06 0 0.00481974858936857 2.3438014326241113e-05 0 0.0047508097983555656 3.1653768340968909e-05 0 0.0047832744871874932 2.3976678884021084e-05 0 0.00481974858936857 2.3438014326241113e-05 0 0.0048003346671991048 5.2485372264371384e-06 0 0.004889368709186423 7.839685473636302e-06 0 0.0048850448590836929 -1.8582185626648465e-05 0 0.0048003346671991048 5.2485372264371384e-06 0 0.00481974858936857 2.3438014326241113e-05 0 0.004889368709186423 7.839685473636302e-06 0 0.0049127015636822244 2.0091166248506577e-05 0 0.0048713823432355186 3.1221504550635333e-05 0 0.004889368709186423 7.839685473636302e-06 0 0.004889368709186423 7.839685473636302e-06 0 0.004946195878128128 -6.7286333096609769e-06 0 0.0048850448590836929 -1.8582185626648465e-05 0 0.0049430401546528254 4.940926925087411e-06 0 0.004889368709186423 7.839685473636302e-06 0 0.004946195878128128 -6.7286333096609769e-06 0 0.0049163000520451011 -9.1238682976454888e-06 0 0.0049378355689156835 2.8515245224154411e-08 0 0.0049999862196057751 7.6446176378950633e-07 0 0.0050000005260639208 1.940142211431301e-10 0 0.004999999544597033 4.7589250605819922e-10 0 0.004946195878128128 -6.7286333096609769e-06 0 0.0048850448590836929 -1.8582185626648465e-05 0 0.0049998133603631426 -4.854801408616081e-08 0 0.0049378355689156835 2.8515245224154411e-08 0 0.0049999728874700715 2.5177914197652888e-12 0 0.0049982346649100253 2.5505634500607581e-06 0 0.0049992724949817586 8.1819407219252227e-07 0 0.0049978799993721382 1.4501912148419175e-06 0 0.0049992724949817586 8.1819407219252227e-07 0 0.0049991749795441458 7.3114874988869966e-07 0 0.0049978799993721382 1.4501912148419175e-06 0 0.0049992588082737053 2.4147922808309966e-06 0 0.0049999862196057751 7.6446176378950633e-07 0 0.0049992724949817586 8.1819407219252227e-07 0 0.0049999862196057751 7.6446176378950633e-07 0 0.0049992724949817586 8.1819407219252227e-07 0 0.004999999544597033 4.7589250605819922e-10 0 0.0049992724949817586 8.1819407219252227e-07 0 0.004999999544597033 4.7589250605819922e-10 0 0.0049999981384678538 4.0202524568670034e-10 0 0.0049992724949817586 8.1819407219252227e-07 0 0.0049999981384678538 4.0202524568670034e-10 0 0.0049991749795441458 7.3114874988869966e-07 0 0.0049999981384678538 4.0202524568670034e-10 0 0.0049991749795441458 7.3114874988869966e-07 0 0.0049999995554893739 1.5862164727316636e-09 0 0.0049991749795441458 7.3114874988869966e-07 0 0.0049999995554893739 1.5862164727316636e-09 0 0.0049991592382824081 1.0568400838699162e-06 0 0.0049991592382824081 1.0568400838699162e-06 0 0.0049986315304997126 7.7712838457294588e-07 0 0.0049997340837099015 1.1642934214463633e-06 0 0.0049999995554893739 1.5862164727316636e-09 0 0.0049991592382824081 1.0568400838699162e-06 0 0.0049997340837099015 1.1642934214463633e-06 0 0.0049991749795441458 7.3114874988869966e-07 0 0.0049991592382824081 1.0568400838699162e-06 0 0.0049978799993721382 1.4501912148419175e-06 0 0.0049982346649100253 2.5505634500607581e-06 0 0.0049978799993721382 1.4501912148419175e-06 0 0.004996910000866688 4.1532104332748642e-06 0 0.0049991592382824081 1.0568400838699162e-06 0 0.0049978799993721382 1.4501912148419175e-06 0 0.0049986315304997126 7.7712838457294588e-07 0 0.0049978799993721382 1.4501912148419175e-06 0 0.0049950304945928651 3.1415375078264548e-06 0 0.004996910000866688 4.1532104332748642e-06 0 0.0049290980798703289 5.6264654745995148e-05 0 0.004919632747049825 0.00014118107067398854 0 0.0050174021402689568 -1.2147999179419354e-05 0 0.0049290980798703289 5.6264654745995148e-05 0 0.0050013218724423254 5.994505986019128e-06 0 0.0050011261177827166 6.3756610547795551e-06 0 0.0050010952098290566 6.5956107344285692e-06 0 0.0049290980798703289 5.6264654745995148e-05 0 0.0049324579119335828 0.00015765404062872837 0 0.0049290980798703289 5.6264654745995148e-05 0 0.0050092841772450278 1.7116306766950218e-06 0 0.0050013218724423254 5.994505986019128e-06 0 0.0050011261177827166 6.3756610547795551e-06 0 0.0050017127478186544 4.9371456817848486e-06 0 0.0047971770407294672 0.00025024894285629213 0 0.0047919686150507419 0.00026137770973199597 0 0.004785799837777955 0.00025945897056162825 0 0.0047971770407294672 0.00025024894285629213 0 0.0047919686150507419 0.00026137770973199597 0 0.004799681710360707 0.0002639647035409166 0 0.004792476537041044 0.00027394983849053271 0 0.0047919686150507419 0.00026137770973199597 0 0.004799681710360707 0.0002639647035409166 0 0.0047871131337432612 0.0002104235958578685 0 0.0049324579119335828 0.00015765404062872837 0 0.0048157561874251995 0.00026190134240407491 0 0.004799681710360707 0.0002639647035409166 0 0.0048062502922826111 0.00025646322731524997 0 0.0047971770407294672 0.00025024894285629213 0 0.004799681710360707 0.0002639647035409166 0 0.0048062502922826111 0.00025646322731524997 0 0.005089068364714803 9.9749110662865573e-05 0 0.0050856143632513401 6.8146370893880083e-05 0 0.0051150931719412219 7.716661678309717e-05 0 0.0050681402678291656 2.5185503435106828e-05 0 0.0049324579119335828 0.00015765404062872837 0 0.0049347187005389708 0.00019112984034593816 0 0.0049324579119335828 0.00015765404062872837 0 0.0047843040128888225 0.00027153769247446392 0 0.0047919686150507419 0.00026137770973199597 0 0.0047850722115188602 0.00026116946237344976 0 0.0050013218724423254 5.994505986019128e-06 0 0.0050010952098290566 6.5956107344285692e-06 0 0.0050012537528742462 5.6551828879162355e-06 0 0.0050013218724423254 5.994505986019128e-06 0 0.0050012537528742462 5.6551828879162355e-06 0 0.0050017127478186544 4.9371456817848486e-06 0 0.0050012132920411899 5.7693277628867669e-06 0 0.0050012537528742462 5.6551828879162355e-06 0 0.0050007966012429357 4.4684845094110474e-06 0 0.0050012132920411899 5.7693277628867669e-06 0 0.0050010952098290566 6.5956107344285692e-06 0 0.0050012537528742462 5.6551828879162355e-06 0 0.0050012537528742462 5.6551828879162355e-06 0 0.005000728688943492 2.1595348751860468e-06 0 0.0050007966012429357 4.4684845094110474e-06 0 0.0050012537528742462 5.6551828879162355e-06 0 0.005000728688943492 2.1595348751860468e-06 0 0.0050017127478186544 4.9371456817848486e-06 0 0.0049979509542856819 1.5479382688422704e-06 0 0.0050092841772450278 1.7116306766950218e-06 0 0.0049999995554893739 1.5862164727316636e-09 0 0.005000728688943492 2.1595348751860468e-06 0 0.0049997340837099015 1.1642934214463633e-06 0 0.0049999995554893739 1.5862164727316636e-09 0 0.005000728688943492 2.1595348751860468e-06 0 0.0050000018381649927 2.0939862825879198e-09 0 0.005000728688943492 2.1595348751860468e-06 0 0.0050000018381649927 2.0939862825879198e-09 0 0.0050005669958556199 2.2928675130974773e-06 0 0.0050000018381649927 2.0939862825879198e-09 0 0.0050005669958556199 2.2928675130974773e-06 0 0.0050000014046742286 2.8821948962567098e-09 0 0.0050000014046742286 2.8821948962567098e-09 0 0.0050006877311437594 4.2372189285150849e-06 0 0.0050011833078357631 6.1056413185544269e-06 0 0.0050005669958556199 2.2928675130974773e-06 0 0.0050000014046742286 2.8821948962567098e-09 0 0.0050006877311437594 4.2372189285150849e-06 0 0.0050006877311437594 4.2372189285150849e-06 0 0.0050011833078357631 6.1056413185544269e-06 0 0.0050011408752960009 6.5219339760086649e-06 0 0.0050005669958556199 2.2928675130974773e-06 0 0.0050006877311437594 4.2372189285150849e-06 0 0.0050007966012429357 4.4684845094110474e-06 0 0.005000728688943492 2.1595348751860468e-06 0 0.0050005669958556199 2.2928675130974773e-06 0 0.0050007966012429357 4.4684845094110474e-06 0 0.0050006877311437594 4.2372189285150849e-06 0 0.0050007966012429357 4.4684845094110474e-06 0 0.0050011408752960009 6.5219339760086649e-06 0 0.0050000042821081048 7.7407187171429982e-09 0 0.0050011833078357631 6.1056413185544269e-06 0 0.0049998056692126302 9.6416304119124235e-06 0 0.0050000014046742286 2.8821948962567098e-09 0 0.0050000042821081048 7.7407187171429982e-09 0 0.0050011833078357631 6.1056413185544269e-06 0 0.0050011833078357631 6.1056413185544269e-06 0 0.0049998056692126302 9.6416304119124235e-06 0 0.0050012080323028037 1.1745608557045495e-05 0 0.0049998056692126302 9.6416304119124235e-06 0 0.0050012080323028037 1.1745608557045495e-05 0 0.0049915888377292817 2.6386754741058626e-05 0 0.0050091486198875334 4.3672521729088898e-05 0 0.0049932021430002171 6.5319654518647982e-05 0 0.0049915888377292817 2.6386754741058626e-05 0 0.0050011833078357631 6.1056413185544269e-06 0 0.0050012080323028037 1.1745608557045495e-05 0 0.0050011408752960009 6.5219339760086649e-06 0 0.0050054599637573763 2.7589978902263695e-05 0 0.0050190465114435083 3.2025243553199167e-05 0 0.0050091486198875334 4.3672521729088898e-05 0 0.005023500369423551 6.8842739348882345e-05 0 0.0050479735669017988 5.5273728469276008e-05 0 0.005023500369423551 6.8842739348882345e-05 0 0.0050507417270136881 9.1773301560184691e-05 0 0.0050093066618440013 9.6614188095714778e-05 0 0.0050091486198875334 4.3672521729088898e-05 0 0.005023500369423551 6.8842739348882345e-05 0 0.0049932021430002171 6.5319654518647982e-05 0 0.005023500369423551 6.8842739348882345e-05 0 0.0049932021430002171 6.5319654518647982e-05 0 0.0050093066618440013 9.6614188095714778e-05 0 0.0050681402678291656 2.5185503435106828e-05 0 0.0050190465114435083 3.2025243553199167e-05 0 0.0050012132920411899 5.7693277628867669e-06 0 0.0050007966012429357 4.4684845094110474e-06 0 0.0050011408752960009 6.5219339760086649e-06 0 0.005023500369423551 6.8842739348882345e-05 0 0.0050479735669017988 5.5273728469276008e-05 0 0.0050507417270136881 9.1773301560184691e-05 0 0.0050856143632513401 6.8146370893880083e-05 0 0.0050479735669017988 5.5273728469276008e-05 0 0.0050507417270136881 9.1773301560184691e-05 0 0.005089068364714803 9.9749110662865573e-05 0 0.0050856143632513401 6.8146370893880083e-05 0 0.0050507417270136881 9.1773301560184691e-05 0 0.005089068364714803 9.9749110662865573e-05 0 0.005058765054335535 0.00013251735344160749 0 0.0050507417270136881 9.1773301560184691e-05 0 0.0047727715863469843 0.00028669757174609761 0 0.0047815074669519848 0.00029746851473049093 0 0.0047695210814616687 0.00028858136863455679 0 0.0047729986889326458 0.00027965800051920405 0 0.0047727715863469843 0.00028669757174609761 0 0.0047815074669519848 0.00029746851473049093 0 0.0049347187005389708 0.00019112984034593816 0 0.0049204835587915068 0.00021506708137593669 0 0.005058765054335535 0.00013251735344160749 0 0.0050507417270136881 9.1773301560184691e-05 0 0.0050241120334819749 0.00012957739498137302 0 0.0050507417270136881 9.1773301560184691e-05 0 0.0050093066618440013 9.6614188095714778e-05 0 0.0050241120334819749 0.00012957739498137302 0 0.0049932021430002171 6.5319654518647982e-05 0 0.0050093066618440013 9.6614188095714778e-05 0 0.0049762798459127766 9.0758851380174504e-05 0 0.0050093066618440013 9.6614188095714778e-05 0 0.0049766078666877147 0.00013543380227576374 0 0.0049762798459127766 9.0758851380174504e-05 0 0.0050093066618440013 9.6614188095714778e-05 0 0.0049766078666877147 0.00013543380227576374 0 0.0050241120334819749 0.00012957739498137302 0 0.0049766078666877147 0.00013543380227576374 0 0.0050241120334819749 0.00012957739498137302 0 0.0050137841568098605 0.00018450371857278123 0 0.005058765054335535 0.00013251735344160749 0 0.0050241120334819749 0.00012957739498137302 0 0.0050137841568098605 0.00018450371857278123 0 0.0049204835587915068 0.00021506708137593669 0 0.004919595285653256 0.00024008345904302488 0 0.0050137841568098605 0.00018450371857278123 0 0.0049116387172619064 0.0002523441747937635 0 0.0049115078935149338 0.00019105892874509063 0 0.0049766078666877147 0.00013543380227576374 0 0.0050137841568098605 0.00018450371857278123 0 0.0049115078935149338 0.00019105892874509063 0 0.004919595285653256 0.00024008345904302488 0 0.0049126220381050375 0.00025134198409457003 0 0.0048259778914148312 0.00029846816647316883 0 0.0048478878031141016 0.00026164178096685755 0 0.0049116387172619064 0.0002523441747937635 0 0.0048478878031141016 0.00026164178096685755 0 0.0049116387172619064 0.0002523441747937635 0 0.004880116758634063 0.00025231627803714982 0 0.0048259778914148312 0.00029846816647316883 0 0.004809360594543126 0.00026202923597506739 0 0.0047867028924306531 0.00028258463897067981 0 0.0048259778914148312 0.00029846816647316883 0 0.0048478878031141016 0.00026164178096685755 0 0.004809360594543126 0.00026202923597506739 0 0.0047701448683020592 0.00026763588754342093 0 0.0047867028924306531 0.00028258463897067981 0 0.004780103350340412 0.00025125257704551021 0 0.004809360594543126 0.00026202923597506739 0 0.0047867028924306531 0.00028258463897067981 0 0.004780103350340412 0.00025125257704551021 0 0.0047503372659804758 0.00026777278375987666 0 0.0047701448683020592 0.00026763588754342093 0 0.0047695210814616687 0.00028858136863455679 0 0.0047701448683020592 0.00026763588754342093 0 0.004780103350340412 0.00025125257704551021 0 0.0047613912178754237 0.00024546249254362974 0 0.0047503372659804758 0.00026777278375987666 0 0.0047701448683020592 0.00026763588754342093 0 0.0047613912178754237 0.00024546249254362974 0 0.0047701448683020592 0.00026763588754342093 0 0.0047695210814616687 0.00028858136863455679 0 0.0047867028924306531 0.00028258463897067981 0 0.0047815074669519848 0.00029746851473049093 0 0.0047695210814616687 0.00028858136863455679 0 0.0047867028924306531 0.00028258463897067981 0 0.0047815074669519848 0.00029746851473049093 0 0.0048259778914148312 0.00029846816647316883 0 0.0047867028924306531 0.00028258463897067981 0 0.0049303594640223705 0.00019045701572441523 0 0.0049609860000479527 0.00016401914122343841 0 0.0049510499999383221 0.00014571350430625965 0 0.0049100989299301302 0.00020668214543157512 0 0.0049510499999383221 0.00014571350430625965 0 0.0049331690567976112 0.00014662249766481477 0 0.0048697423389417339 0.00018569896151336912 0 0.0049303594640223705 0.00019045701572441523 0 0.0049510499999383221 0.00014571350430625965 0 0.0048894070773225556 0.0001961884205310625 0 0.0049469369077318314 0.00015002433959566543 0 0.0049100989299301302 0.00020668214543157512 0 0.0049331690567976112 0.00014662249766481477 0 0.0048905615278480733 0.0001660473361005264 0 0.0048697423389417339 0.00018569896151336912 0 0.0049040008634747816 0.00021584639104350466 0 0.0048731429177540694 0.00024772115853930555 0 0.0048697423389417339 0.00018569896151336912 0 0.0049040008634747816 0.00021584639104350466 0 0.0049303594640223705 0.00019045701572441523 0 0.0049040008634747816 0.00021584639104350466 0 0.0049303594640223705 0.00019045701572441523 0 0.0049283476961220997 0.00022004064071891582 0 0.0049560669782456705 0.00021158854485386864 0 0.0049505475829847174 0.00020088519589668785 0 0.0049823113055530244 0.00017289951044123828 0 0.0049283476961220997 0.00022004064071891582 0 0.0049505475829847174 0.00020088519589668785 0 0.0049418761725370372 0.00023157480829941629 0 0.0049560669782456705 0.00021158854485386864 0 0.0049505475829847174 0.00020088519589668785 0 0.0049418761725370372 0.00023157480829941629 0 0.0049303594640223705 0.00019045701572441523 0 0.0049283476961220997 0.00022004064071891582 0 0.0049505475829847174 0.00020088519589668785 0 0.0049468338565533685 0.00018303841278315602 0 0.0049268467656393309 0.00024378228234604528 0 0.0049560669782456705 0.00021158854485386864 0 0.0049823113055530244 0.00017289951044123828 0 0.0049540018404364951 0.000234718912391857 0 0.0049116387172619064 0.0002523441747937635 0 0.0049115078935149338 0.00019105892874509063 0 0.0049008972499665019 0.00026371731398126206 0 0.0049823113055530244 0.00017289951044123828 0 0.0049609860000479527 0.00016401914122343841 0 0.0049871481205330179 0.00011189744785521181 0 0.0049303594640223705 0.00019045701572441523 0 0.0049505475829847174 0.00020088519589668785 0 0.0049609860000479527 0.00016401914122343841 0 0.0049505475829847174 0.00020088519589668785 0 0.0049823113055530244 0.00017289951044123828 0 0.0049609860000479527 0.00016401914122343841 0 0.0049871481205330179 0.00011189744785521181 0 0.0049535704437992118 0.00012081707466534797 0 0.0049510499999383221 0.00014571350430625965 0 0.0049609860000479527 0.00016401914122343841 0 0.0049871481205330179 0.00011189744785521181 0 0.0049510499999383221 0.00014571350430625965 0 0.0049468338565533685 0.00018303841278315602 0 0.0049636934103209898 0.00011345490062297731 0 0.0049766078666877147 0.00013543380227576374 0 0.0049115078935149338 0.00019105892874509063 0 0.0049397550637145368 0.00011141422022248607 0 0.0049762798459127766 9.0758851380174504e-05 0 0.0049397550637145368 0.00011141422022248607 0 0.0049776315961855971 6.1668746211521698e-05 0 0.0049766078666877147 0.00013543380227576374 0 0.0049762798459127766 9.0758851380174504e-05 0 0.0049397550637145368 0.00011141422022248607 0 0.0049871481205330179 0.00011189744785521181 0 0.0049602772600035386 8.9805051913075033e-05 0 0.0049776315961855971 6.1668746211521698e-05 0 0.0049871481205330179 0.00011189744785521181 0 0.0049602772600035386 8.9805051913075033e-05 0 0.0049535704437992118 0.00012081707466534797 0 0.0049636934103209898 0.00011345490062297731 0 0.004974318008220114 6.7408698020371906e-05 0 0.0049602772600035386 8.9805051913075033e-05 0 0.0049535704437992118 0.00012081707466534797 0 0.0049404858707131028 0.00011201244221321706 0 0.0049535704437992118 0.00012081707466534797 0 0.0049331690567976112 0.00014662249766481477 0 0.0049404858707131028 0.00011201244221321706 0 0.0049535704437992118 0.00012081707466534797 0 0.0049510499999383221 0.00014571350430625965 0 0.0049331690567976112 0.00014662249766481477 0 0.0049331690567976112 0.00014662249766481477 0 0.0049404858707131028 0.00011201244221321706 0 0.0049249887293545073 0.00011756303625957291 0 0.0049332945147592391 0.00014516487222265563 0 0.0048950063015407016 0.00012551734484299789 0 0.0049331690567976112 0.00014662249766481477 0 0.0048641566476141452 0.00012912843547615506 0 0.0048905615278480733 0.0001660473361005264 0 0.0049442400299570203 8.4697532608735184e-05 0 0.0049404858707131028 0.00011201244221321706 0 0.0049249887293545073 0.00011756303625957291 0 0.0049602772600035386 8.9805051913075033e-05 0 0.0049442400299570203 8.4697532608735184e-05 0 0.0049404858707131028 0.00011201244221321706 0 0.0049442400299570203 8.4697532608735184e-05 0 0.0049686246670976103 5.4065431747599801e-05 0 0.0049572301433536822 4.3191923815487955e-05 0 0.0049602772600035386 8.9805051913075033e-05 0 0.0049442400299570203 8.4697532608735184e-05 0 0.0049686246670976103 5.4065431747599801e-05 0 0.0049602772600035386 8.9805051913075033e-05 0 0.0049686246670976103 5.4065431747599801e-05 0 0.0049776315961855971 6.1668746211521698e-05 0 0.0049686246670976103 5.4065431747599801e-05 0 0.0049805255746667096 3.9696047202159974e-05 0 0.0049845880550303222 1.8124332527593675e-05 0 0.0049686246670976103 5.4065431747599801e-05 0 0.0049572301433536822 4.3191923815487955e-05 0 0.0049845880550303222 1.8124332527593675e-05 0 0.0049932021430002171 6.5319654518647982e-05 0 0.0049762798459127766 9.0758851380174504e-05 0 0.0049776315961855971 6.1668746211521698e-05 0 0.0049686246670976103 5.4065431747599801e-05 0 0.0049776315961855971 6.1668746211521698e-05 0 0.0049805255746667096 3.9696047202159974e-05 0 0.0049805255746667096 3.9696047202159974e-05 0 0.0049915888377292817 2.6386754741058626e-05 0 0.0049845880550303222 1.8124332527593675e-05 0 0.0049776315961855971 6.1668746211521698e-05 0 0.0049805255746667096 3.9696047202159974e-05 0 0.0049915888377292817 2.6386754741058626e-05 0 0.0050054599637573763 2.7589978902263695e-05 0 0.0049902429888976467 2.5898635633955333e-05 0 0.0049932021430002171 6.5319654518647982e-05 0 0.0049776315961855971 6.1668746211521698e-05 0 0.0049915888377292817 2.6386754741058626e-05 0 0.0049998056692126302 9.6416304119124235e-06 0 0.0049915888377292817 2.6386754741058626e-05 0 0.0049999896904929985 4.0767409357188119e-09 0 0.0049915888377292817 2.6386754741058626e-05 0 0.0049999896904929985 4.0767409357188119e-09 0 0.0049845880550303222 1.8124332527593675e-05 0 0.0050000042821081048 7.7407187171429982e-09 0 0.0049998056692126302 9.6416304119124235e-06 0 0.0049999896904929985 4.0767409357188119e-09 0 0.0049572301433536822 4.3191923815487955e-05 0 0.0049845880550303222 1.8124332527593675e-05 0 0.0049721861620361778 2.6769753294614853e-06 0 0.0049999896904929985 4.0767409357188119e-09 0 0.0049845880550303222 1.8124332527593675e-05 0 0.0049999799457511093 1.0672023008360839e-08 0 0.0049845880550303222 1.8124332527593675e-05 0 0.0049999799457511093 1.0672023008360839e-08 0 0.0049721861620361778 2.6769753294614853e-06 0 0.0049999799457511093 1.0672023008360839e-08 0 0.0049721861620361778 2.6769753294614853e-06 0 0.0049999234514687086 -2.7689697082594935e-08 0 0.0049721861620361778 2.6769753294614853e-06 0 0.0049505226876123834 -2.4800018232424739e-05 0 0.004920114834198192 3.6283802865980612e-05 0 0.0049721861620361778 2.6769753294614853e-06 0 0.0049505226876123834 -2.4800018232424739e-05 0 0.0049999234514687086 -2.7689697082594935e-08 0 0.0049505226876123834 -2.4800018232424739e-05 0 0.0049999234514687086 -2.7689697082594935e-08 0 0.0049999599897065112 9.4479682341583765e-09 0 0.0049505226876123834 -2.4800018232424739e-05 0 0.0049999599897065112 9.4479682341583765e-09 0 0.0050001562768563768 -1.4147500803600636e-05 0 0.0049999599897065112 9.4479682341583765e-09 0 0.0050001562768563768 -1.4147500803600636e-05 0 0.0050000371098925279 -1.9613711408375902e-08 0 0.0049505226876123834 -2.4800018232424739e-05 0 0.0047680327710635916 -7.6066002614306707e-05 0 0.0048290694232161584 1.5031021516193184e-05 0 0.0049509706286533393 -2.8032995208669196e-05 0 0.0048633480250931923 -4.6991829933130233e-05 0 0.0049505226876123834 -2.4800018232424739e-05 0 0.0048290694232161584 1.5031021516193184e-05 0 0.004920114834198192 3.6283802865980612e-05 0 0.0047680327710635916 -7.6066002614306707e-05 0 0.0048290694232161584 1.5031021516193184e-05 0 0.0046835306243692186 1.6028511530202266e-05 0 0.0048290694232161584 1.5031021516193184e-05 0 0.0047567422331131134 8.1143710900418074e-05 0 0.0046835306243692186 1.6028511530202266e-05 0 0.0048290694232161584 1.5031021516193184e-05 0 0.004920114834198192 3.6283802865980612e-05 0 0.0048784719659036918 0.00011446253040248887 0 0.0048290694232161584 1.5031021516193184e-05 0 0.0047567422331131134 8.1143710900418074e-05 0 0.0048784719659036918 0.00011446253040248887 0 0.0049267626754123661 8.0555145305194611e-05 0 0.004920114834198192 3.6283802865980612e-05 0 0.0048784719659036918 0.00011446253040248887 0 0.0049442400299570203 8.4697532608735184e-05 0 0.0049572301433536822 4.3191923815487955e-05 0 0.0049267626754123661 8.0555145305194611e-05 0 0.0049572301433536822 4.3191923815487955e-05 0 0.0049267626754123661 8.0555145305194611e-05 0 0.004920114834198192 3.6283802865980612e-05 0 0.0049572301433536822 4.3191923815487955e-05 0 0.0049721861620361778 2.6769753294614853e-06 0 0.004920114834198192 3.6283802865980612e-05 0 0.0049959203629677523 2.0898072684254295e-06 0 0.0049999924500711453 -5.3491494525838669e-10 0 0.0049999873894328393 6.9341709338217668e-09 0 0.0049959203629677523 2.0898072684254295e-06 0 0.0049950664643783806 3.7801039852041209e-06 0 0.0049890765995597051 7.2125268486480522e-06 0 0.0049959203629677523 2.0898072684254295e-06 0 0.0049999924500711453 -5.3491494525838669e-10 0 0.0049950664643783806 3.7801039852041209e-06 0 0.0049999924500711453 -5.3491494525838669e-10 0 0.0049950664643783806 3.7801039852041209e-06 0 0.0049993369901281453 2.4233331618364591e-06 0 0.0050329732027786234 2.7704723764490259e-06 0 0.0049007466864990096 -5.9233663142714642e-06 0 0.0049007466864990096 -5.9233663142714642e-06 0 0.0050000754448291992 -4.3552615596888811e-08 0 0.0049999924500711453 -5.3491494525838669e-10 0 0.0049993369901281453 2.4233331618364591e-06 0 0.0050000044587011575 1.6918513469071228e-09 0 0.0050001562768563768 -1.4147500803600636e-05 0 0.0050056728077702726 -1.1307041022449074e-05 0 0.0050000371098925279 -1.9613711408375902e-08 0 0.0048633480250931923 -4.6991829933130233e-05 0 0.0049007466864990096 -5.9233663142714642e-06 0 0.0047680327710635916 -7.6066002614306707e-05 0 0.0046293833738314935 -7.5764516397656314e-05 0 0.0046835306243692186 1.6028511530202266e-05 0 0.0047567422331131134 8.1143710900418074e-05 0 0.0046835306243692186 1.6028511530202266e-05 0 0.0046186028155528643 9.3957572931263245e-05 0 0.0046835306243692186 1.6028511530202266e-05 0 0.0045698141767324943 1.5809720028082954e-05 0 0.0046186028155528643 9.3957572931263245e-05 0 0.0046293833738314935 -7.5764516397656314e-05 0 0.0046835306243692186 1.6028511530202266e-05 0 0.0045698141767324943 1.5809720028082954e-05 0 0.0049007466864990096 -5.9233663142714642e-06 0 0.004769074329761514 9.7788023729389801e-06 0 0.0049950664643783806 3.7801039852041209e-06 0 0.0049953878333824373 1.1444463940006989e-05 0 0.0049827139089647964 1.3710914448463128e-05 0 0.0049950664643783806 3.7801039852041209e-06 0 0.0049986276831788107 3.9991677875576974e-06 0 0.0049953878333824373 1.1444463940006989e-05 0 0.0049953878333824373 1.1444463940006989e-05 0 0.0049693263358968672 3.1569932688045092e-05 0 0.0049770998189866914 3.9461658013264685e-05 0 0.004769074329761514 9.7788023729389801e-06 0 0.0047537450368213144 7.8982287612424271e-05 0 0.0045698141767324943 1.5809720028082954e-05 0 0.0045032897913995689 9.0651444595760296e-05 0 0.0046186028155528643 9.3957572931263245e-05 0 0.0049953878333824373 1.1444463940006989e-05 0 0.0049827139089647964 1.3710914448463128e-05 0 0.0049693263358968672 3.1569932688045092e-05 0 0.0049696835118768438 3.1072513013225051e-05 0 0.0049464376635507097 8.8914937293110296e-06 0 0.0049827139089647964 1.3710914448463128e-05 0 0.0049693263358968672 3.1569932688045092e-05 0 0.0049841927769932251 1.0009554392430275e-05 0 0.0049827139089647964 1.3710914448463128e-05 0 0.0049890765995597051 7.2125268486480522e-06 0 0.0049841927769932251 1.0009554392430275e-05 0 0.0049950664643783806 3.7801039852041209e-06 0 0.0049827139089647964 1.3710914448463128e-05 0 0.0049890765995597051 7.2125268486480522e-06 0 0.0045032897913995689 9.0651444595760296e-05 0 0.0044717782986994194 0.00016078112130721067 0 0.0044415207178098463 0.00015656023773514622 0 0.0047537450368213144 7.8982287612424271e-05 0 0.0045734360206072851 4.2960300590217527e-05 0 0.0049693263358968672 3.1569932688045092e-05 0 0.0049770998189866914 3.9461658013264685e-05 0 0.004936291510029998 0.00010329675512510618 0 0.0045032897913995689 9.0651444595760296e-05 0 0.0045404353776596316 0.00014866585479763811 0 0.0046186028155528643 9.3957572931263245e-05 0 0.0045032897913995689 9.0651444595760296e-05 0 0.0045404353776596316 0.00014866585479763811 0 0.0044717782986994194 0.00016078112130721067 0 0.0046080794800362141 0.00016935706576173975 0 0.0046186028155528643 9.3957572931263245e-05 0 0.0046810934964864439 0.00014830067454386599 0 0.0045404353776596316 0.00014866585479763811 0 0.0046080794800362141 0.00016935706576173975 0 0.0046186028155528643 9.3957572931263245e-05 0 0.0047567422331131134 8.1143710900418074e-05 0 0.0046186028155528643 9.3957572931263245e-05 0 0.0046810934964864439 0.00014830067454386599 0 0.0046080794800362141 0.00016935706576173975 0 0.0046810934964864439 0.00014830067454386599 0 0.0046482190080244772 0.00020735508085579048 0 0.0046810934964864439 0.00014830067454386599 0 0.0046482190080244772 0.00020735508085579048 0 0.0047005738408033692 0.0002057594879692267 0 0.0046482190080244772 0.00020735508085579048 0 0.004660065613145253 0.00024953924786180737 0 0.0047005738408033692 0.0002057594879692267 0 0.004660065613145253 0.00024953924786180737 0 0.004699637917246733 0.00028027609790165606 0 0.0046284643566661451 0.00030279857032994984 0 0.004660065613145253 0.00024953924786180737 0 0.0046027813344453545 0.0002422159848922313 0 0.0046284643566661451 0.00030279857032994984 0 0.0046482190080244772 0.00020735508085579048 0 0.004660065613145253 0.00024953924786180737 0 0.0046027813344453545 0.0002422159848922313 0 0.0046027813344453545 0.0002422159848922313 0 0.0045775455824886334 0.00029125201230712969 0 0.0046284643566661451 0.00030279857032994984 0 0.0046027813344453545 0.0002422159848922313 0 0.0045446783090531493 0.0002023922233686843 0 0.0045334152234058761 0.00026503248587858656 0 0.0046027813344453545 0.0002422159848922313 0 0.0045775455824886334 0.00029125201230712969 0 0.0045334152234058761 0.00026503248587858656 0 0.0046080794800362141 0.00016935706576173975 0 0.0046482190080244772 0.00020735508085579048 0 0.0046027813344453545 0.0002422159848922313 0 0.0046080794800362141 0.00016935706576173975 0 0.0046027813344453545 0.0002422159848922313 0 0.0045446783090531493 0.0002023922233686843 0 0.0045404353776596316 0.00014866585479763811 0 0.0046080794800362141 0.00016935706576173975 0 0.0045446783090531493 0.0002023922233686843 0 0.0045404353776596316 0.00014866585479763811 0 0.00449593781976791 0.00019229770753358168 0 0.0045446783090531493 0.0002023922233686843 0 0.0045404353776596316 0.00014866585479763811 0 0.00449593781976791 0.00019229770753358168 0 0.0044717782986994194 0.00016078112130721067 0 0.00449593781976791 0.00019229770753358168 0 0.0045446783090531493 0.0002023922233686843 0 0.0044659518297344601 0.00023364359327082213 0 0.0045446783090531493 0.0002023922233686843 0 0.0045334152234058761 0.00026503248587858656 0 0.0044659518297344601 0.00023364359327082213 0 0.0045775455824886334 0.00029125201230712969 0 0.0045334152234058761 0.00026503248587858656 0 0.0045226935154548467 0.00031609272761239256 0 0.0045334152234058761 0.00026503248587858656 0 0.0044624770208489886 0.00029615715483646219 0 0.0045226935154548467 0.00031609272761239256 0 0.0045334152234058761 0.00026503248587858656 0 0.0044624770208489886 0.00029615715483646219 0 0.0044659518297344601 0.00023364359327082213 0 0.0044624770208489886 0.00029615715483646219 0 0.0044659518297344601 0.00023364359327082213 0 0.0043963093718957982 0.00025737702160241266 0 0.0044659518297344601 0.00023364359327082213 0 0.0043963093718957982 0.00025737702160241266 0 0.0044177675579703812 0.00019870228617839656 0 0.0044624770208489886 0.00029615715483646219 0 0.0043934379699126797 0.00031258263410926564 0 0.0043963093718957982 0.00025737702160241266 0 0.0043934379699126797 0.00031258263410926564 0 0.0043963093718957982 0.00025737702160241266 0 0.0043165948391498798 0.00029939489511614291 0 0.0043963093718957982 0.00025737702160241266 0 0.0044177675579703812 0.00019870228617839656 0 0.0043080205571270841 0.00022456607169458057 0 0.0044177675579703812 0.00019870228617839656 0 0.0043845939451286732 0.00013609519631244631 0 0.0043080205571270841 0.00022456607169458057 0 0.00449593781976791 0.00019229770753358168 0 0.0044659518297344601 0.00023364359327082213 0 0.0044177675579703812 0.00019870228617839656 0 0.00449593781976791 0.00019229770753358168 0 0.0044177675579703812 0.00019870228617839656 0 0.0044717782986994194 0.00016078112130721067 0 0.0044177675579703812 0.00019870228617839656 0 0.0044717782986994194 0.00016078112130721067 0 0.0043845939451286732 0.00013609519631244631 0 0.0044365342376509152 0.00011668272226693852 0 0.0045734360206072851 4.2960300590217527e-05 0 0.0048641566476141452 0.00012912843547615506 0 0.0047945630393647102 0.00010563235006930215 0 0.0047965476876378459 0.00018695206077700677 0 0.0048641566476141452 0.00012912843547615506 0 0.0048552959984956082 0.00018564794272085396 0 0.0048905615278480733 0.0001660473361005264 0 0.0049442400299570203 8.4697532608735184e-05 0 0.0049267626754123661 8.0555145305194611e-05 0 0.0049249887293545073 0.00011756303625957291 0 0.0048950063015407016 0.00012551734484299789 0 0.0048339812417841814 0.00010827836089221751 0 0.0049267626754123661 8.0555145305194611e-05 0 0.0049249887293545073 0.00011756303625957291 0 0.0048784719659036918 0.00011446253040248887 0 0.0047608220707387738 8.1796277079666666e-05 0 0.0048339812417841814 0.00010827836089221751 0 0.0047567422331131134 8.1143710900418074e-05 0 0.0047945630393647102 0.00010563235006930215 0 0.0047484766924449362 0.00015050836477957977 0 0.0047567422331131134 8.1143710900418074e-05 0 0.0046810934964864439 0.00014830067454386599 0 0.0047484766924449362 0.00015050836477957977 0 0.0046810934964864439 0.00014830067454386599 0 0.0047484766924449362 0.00015050836477957977 0 0.0047005738408033692 0.0002057594879692267 0 0.0047945630393647102 0.00010563235006930215 0 0.0047484766924449362 0.00015050836477957977 0 0.0047965476876378459 0.00018695206077700677 0 0.0047484766924449362 0.00015050836477957977 0 0.004744095710854484 0.00022640403351508763 0 0.0047965476876378459 0.00018695206077700677 0 0.0047484766924449362 0.00015050836477957977 0 0.0047005738408033692 0.0002057594879692267 0 0.004744095710854484 0.00022640403351508763 0 0.004660065613145253 0.00024953924786180737 0 0.0047005738408033692 0.0002057594879692267 0 0.004699637917246733 0.00028027609790165606 0 0.0047005738408033692 0.0002057594879692267 0 0.004699637917246733 0.00028027609790165606 0 0.004744095710854484 0.00022640403351508763 0 0.0047681119291733496 0.00027183591260954956 0 0.004744095710854484 0.00022640403351508763 0 0.0047965476876378459 0.00018695206077700677 0 0.004699637917246733 0.00028027609790165606 0 0.0047681119291733496 0.00027183591260954956 0 0.004744095710854484 0.00022640403351508763 0 0.0047681119291733496 0.00027183591260954956 0 0.0047965476876378459 0.00018695206077700677 0 0.0048304631661742039 0.00027305504091653239 0 0.0047965476876378459 0.00018695206077700677 0 0.0048552959984956082 0.00018564794272085396 0 0.0048304631661742039 0.00027305504091653239 0 0.0048641566476141452 0.00012912843547615506 0 0.0047965476876378459 0.00018695206077700677 0 0.0048552959984956082 0.00018564794272085396 0 0.0049100989299301302 0.00020668214543157512 0 0.0048552959984956082 0.00018564794272085396 0 0.0048905615278480733 0.0001660473361005264 0 0.0048894070773225556 0.0001961884205310625 0 0.0048163978884020985 0.00025567457778698075 0 0.0049100989299301302 0.00020668214543157512 0 0.0048552959984956082 0.00018564794272085396 0 0.0048304631661742039 0.00027305504091653239 0 0.0048697423389417339 0.00018569896151336912 0 0.0048021849031890723 0.00023654584357823367 0 0.0048731429177540694 0.00024772115853930555 0 0.0048280185203973657 0.00027751925462411563 0 0.0048021849031890723 0.00023654584357823367 0 0.0048731429177540694 0.00024772115853930555 0 0.0048280185203973657 0.00027751925462411563 0 0.0048731429177540694 0.00024772115853930555 0 0.0048585867668482245 0.0002827110929295898 0 0.0034679108369234189 0.00017464962706013534 0 0.0034731365602886492 0.00020754118156113486 0 0.0036718655334556432 0.00016092043846950433 0 0.0048280185203973657 0.00027751925462411563 0 0.0048166223056006251 0.00031676778228602369 0 0.0048585867668482245 0.0002827110929295898 0 0.0048280185203973657 0.00027751925462411563 0 0.0048166223056006251 0.00031676778228602369 0 0.0047850629647993677 0.00030000379261432749 0 0.0034679108369234189 0.00017464962706013534 0 0.0033721066584790102 0.00018982818445202861 0 0.0033724564279345999 0.00019520992626453622 0 0.0041168613817323058 0.00024536396528563968 0 0.0041727701131016879 0.00026648174654741259 0 0.0048166223056006251 0.00031676778228602369 0 0.0047850629647993677 0.00030000379261432749 0 0.0047432843834278402 0.00034715546961822981 0 0.0034679108369234189 0.00017464962706013534 0 0.0033724564279345999 0.00019520992626453622 0 0.0034731365602886492 0.00020754118156113486 0 0.0048280185203973657 0.00027751925462411563 0 0.0047850629647993677 0.00030000379261432749 0 0.0048021849031890723 0.00023654584357823367 0 0.0048163978884020985 0.00025567457778698075 0 0.004745345655664486 0.00031562326174826007 0 0.0047850629647993677 0.00030000379261432749 0 0.0048021849031890723 0.00023654584357823367 0 0.0047403531566721641 0.00032167810223404257 0 0.0047681119291733496 0.00027183591260954956 0 0.0048304631661742039 0.00027305504091653239 0 0.0047403531566721641 0.00032167810223404257 0 0.0047681119291733496 0.00027183591260954956 0 0.004728023365470191 0.00030253523978935096 0 0.0047403531566721641 0.00032167810223404257 0 0.004699637917246733 0.00028027609790165606 0 0.0047681119291733496 0.00027183591260954956 0 0.004728023365470191 0.00030253523978935096 0 0.004699637917246733 0.00028027609790165606 0 0.004704505263392644 0.0003319678791388969 0 0.0046606216228451004 0.00033296983698742123 0 0.004699637917246733 0.00028027609790165606 0 0.004728023365470191 0.00030253523978935096 0 0.004704505263392644 0.0003319678791388969 0 0.004728023365470191 0.00030253523978935096 0 0.004704505263392644 0.0003319678791388969 0 0.0047403531566721641 0.00032167810223404257 0 0.0025764241672261903 0.00028904682960708924 0 0.0034921182464572875 0.00033388934930229664 0 0.0021016449483933332 0.00040852854315741945 0 0.002135883688012593 0.00039490751329930769 0 0.0022001833349248488 0.00043301227467676184 0 0.0041727701131016879 0.00026648174654741259 0 0.0034921182464572875 0.00033388934930229664 0 0.004704505263392644 0.0003319678791388969 0 0.0047432843834278402 0.00034715546961822981 0 0.0046561700433842687 0.00038431707057166354 0 0.0033721066584790102 0.00018982818445202861 0 0.0033724564279345999 0.00019520992626453622 0 0.0033547551798792687 0.00020788360412028173 0 0.0047850629647993677 0.00030000379261432749 0 0.0047403531566721641 0.00032167810223404257 0 0.0047432843834278402 0.00034715546961822981 0 0.004704505263392644 0.0003319678791388969 0 0.0047403531566721641 0.00032167810223404257 0 0.0047432843834278402 0.00034715546961822981 0 0.0021016449483933332 0.00040852854315741945 0 0.0020850440108880811 0.00037853037818817871 0 0.0020609280007847946 0.00037088041339351839 0 0.0021016449483933332 0.00040852854315741945 0 0.0020850440108880811 0.00037853037818817871 0 0.002108563557293365 0.00038625411331935666 0 0.0021016449483933332 0.00040852854315741945 0 0.002108563557293365 0.00038625411331935666 0 0.002135883688012593 0.00039490751329930769 0 0.002108563557293365 0.00038625411331935666 0 0.0021116212214736816 0.00036401200373234628 0 0.002135883688012593 0.00039490751329930769 0 0.0020850440108880811 0.00037853037818817871 0 0.002108563557293365 0.00038625411331935666 0 0.0021116212214736816 0.00036401200373234628 0 0.0020850440108880811 0.00037853037818817871 0 0.0021116212214736816 0.00036401200373234628 0 0.0020581497250852492 0.0003536469535359029 0 0.0021116212214736816 0.00036401200373234628 0 0.0021618679203429915 0.00038136742624105316 0 0.0021725345289755711 0.00033867871318875097 0 0.002135883688012593 0.00039490751329930769 0 0.0021618679203429915 0.00038136742624105316 0 0.0022001833349248488 0.00043301227467676184 0 0.0021116212214736816 0.00036401200373234628 0 0.002135883688012593 0.00039490751329930769 0 0.0021618679203429915 0.00038136742624105316 0 0.0019584789058647947 0.00032969373586780928 0 0.0019711632951627056 0.00031871937739443631 0 0.0019598740647667058 0.00032429032374442144 0 0.0020663867237261805 0.00033565714195311555 0 0.0020335017119348753 0.0003208884887305587 0 0.0021116212214736816 0.00036401200373234628 0 0.0021725345289755711 0.00033867871318875097 0 0.0020960115924928769 0.00031968659519512432 0 0.0021116212214736816 0.00036401200373234628 0 0.0020960115924928769 0.00031968659519512432 0 0.0020581497250852492 0.0003536469535359029 0 0.0020335017119348753 0.0003208884887305587 0 0.0020140777786692918 0.00031959853242135791 0 0.0020960115924928769 0.00031968659519512432 0 0.0020119408480215651 0.00032032753837149894 0 0.0020581497250852492 0.0003536469535359029 0 0.0020119408480215651 0.00032032753837149894 0 0.002024538118379183 0.0003413177105965645 0 0.0020581497250852492 0.0003536469535359029 0 0.0020119408480215651 0.00032032753837149894 0 0.0020107167941020398 0.00033028041310175497 0 0.0020155994334031895 0.00032742284619145351 0 0.0020119408480215651 0.00032032753837149894 0 0.002024538118379183 0.0003413177105965645 0 0.0020155994334031895 0.00032742284619145351 0 0.002024538118379183 0.0003413177105965645 0 0.0020198479132910478 0.00033399511788084632 0 0.0020155994334031895 0.00032742284619145351 0 0.002024538118379183 0.0003413177105965645 0 0.0020211449931776385 0.00035636979806091557 0 0.002041094524096967 0.00035694650955674301 0 0.002024538118379183 0.0003413177105965645 0 0.0020211449931776385 0.00035636979806091557 0 0.0020198479132910478 0.00033399511788084632 0 0.0025764241672261903 0.00028904682960708924 0 0.0027871201494124817 0.00028670501565821247 0 0.0020211449931776385 0.00035636979806091557 0 0.0020609280007847946 0.00037088041339351839 0 0.002041094524096967 0.00035694650955674301 0 0.0021016449483933332 0.00040852854315741945 0 0.0020211449931776385 0.00035636979806091557 0 0.0020609280007847946 0.00037088041339351839 0 0.0020850440108880811 0.00037853037818817871 0 0.0020609280007847946 0.00037088041339351839 0 0.0020581497250852492 0.0003536469535359029 0 0.0020609280007847946 0.00037088041339351839 0 0.0020581497250852492 0.0003536469535359029 0 0.002041094524096967 0.00035694650955674301 0 0.002024538118379183 0.0003413177105965645 0 0.0020581497250852492 0.0003536469535359029 0 0.002041094524096967 0.00035694650955674301 0 0.0023616851569802765 0.00049595333744450185 0 0.0023704247293473597 0.0004230916740662148 0 0.0024377106029118416 0.0004436796092154964 0 0.0023616851569802765 0.00049595333744450185 0 0.0023189779972358363 0.0004520678826060366 0 0.0023704247293473597 0.0004230916740662148 0 0.0043930811328628328 0.00044937054404150476 0 0.0043560534673198056 0.00042633536523623038 0 0.0044063773803984579 0.0004474469265170566 0 0.0043560534673198056 0.00042633536523623038 0 0.0044038109952131395 0.00037162446365105427 0 0.004322892296754261 0.00036836177456263223 0 0.0043930811328628328 0.00044937054404150476 0 0.0043560534673198056 0.00042633536523623038 0 0.0044038109952131395 0.00037162446365105427 0 0.0043934379699126797 0.00031258263410926564 0 0.0044038109952131395 0.00037162446365105427 0 0.004322892296754261 0.00036836177456263223 0 0.0044624770208489886 0.00029615715483646219 0 0.0043934379699126797 0.00031258263410926564 0 0.0044038109952131395 0.00037162446365105427 0 0.0044624770208489886 0.00029615715483646219 0 0.0044038109952131395 0.00037162446365105427 0 0.0044684896493888517 0.00035174193156023952 0 0.0044362147398497144 0.00038702491224599118 0 0.0044038109952131395 0.00037162446365105427 0 0.0044684896493888517 0.00035174193156023952 0 0.0043930811328628328 0.00044937054404150476 0 0.0044362147398497144 0.00038702491224599118 0 0.0044651806700052223 0.00038515450005091785 0 0.0043930811328628328 0.00044937054404150476 0 0.0044362147398497144 0.00038702491224599118 0 0.0044038109952131395 0.00037162446365105427 0 0.0043930811328628328 0.00044937054404150476 0 0.0044651806700052223 0.00038515450005091785 0 0.0044997314182002139 0.00039284673154998213 0 0.0044651806700052223 0.00038515450005091785 0 0.0044684896493888517 0.00035174193156023952 0 0.0045174284496594698 0.00035901136644358398 0 0.0044362147398497144 0.00038702491224599118 0 0.0044651806700052223 0.00038515450005091785 0 0.0044684896493888517 0.00035174193156023952 0 0.0044624770208489886 0.00029615715483646219 0 0.0044684896493888517 0.00035174193156023952 0 0.0045226935154548467 0.00031609272761239256 0 0.0044684896493888517 0.00035174193156023952 0 0.0045226935154548467 0.00031609272761239256 0 0.0045174284496594698 0.00035901136644358398 0 0.0045226935154548467 0.00031609272761239256 0 0.0045174284496594698 0.00035901136644358398 0 0.0045643735677458946 0.00033862883259864546 0 0.0044651806700052223 0.00038515450005091785 0 0.0045174284496594698 0.00035901136644358398 0 0.0044997314182002139 0.00039284673154998213 0 0.0045174284496594698 0.00035901136644358398 0 0.0044997314182002139 0.00039284673154998213 0 0.0045500365825194879 0.00037814124827292985 0 0.0044997314182002139 0.00039284673154998213 0 0.0045039993958229168 0.00040699085006878623 0 0.0045500365825194879 0.00037814124827292985 0 0.0043930811328628328 0.00044937054404150476 0 0.0045039993958229168 0.00040699085006878623 0 0.0045654086445732784 0.00041470381749284245 0 0.0045039993958229168 0.00040699085006878623 0 0.0045654086445732784 0.00041470381749284245 0 0.0045500365825194879 0.00037814124827292985 0 0.0043252435343214581 0.00043264371407471041 0 0.0045294625024389383 0.00043006839581369663 0 0.0023616851569802765 0.00049595333744450185 0 0.0023189779972358363 0.0004520678826060366 0 0.0022585475214977621 0.00045217547681900927 0 0.0023189779972358363 0.0004520678826060366 0 0.0022585475214977621 0.00045217547681900927 0 0.0022987388979867967 0.00042493365644056044 0 0.003399243267569233 0.00047283158181737265 0 0.0031276099762129182 0.00042153571870207849 0 0.0043930811328628328 0.00044937054404150476 0 0.0042075643237225787 0.00038245181880670095 0 0.0041797880107527245 0.00041114566241382222 0 0.0043930811328628328 0.00044937054404150476 0 0.0044063773803984579 0.0004474469265170566 0 0.0042075643237225787 0.00038245181880670095 0 0.0043930811328628328 0.00044937054404150476 0 0.0044997314182002139 0.00039284673154998213 0 0.0045039993958229168 0.00040699085006878623 0 0.0031276099762129182 0.00042153571870207849 0 0.0034921182464572875 0.00033388934930229664 0 0.0045654086445732784 0.00041470381749284245 0 0.0046065151414905756 0.00036282980595016214 0 0.0046561700433842687 0.00038431707057166354 0 0.0042075643237225787 0.00038245181880670095 0 0.0041797880107527245 0.00041114566241382222 0 0.0038285914844655923 0.00032937368947233089 0 0.0045294625024389383 0.00043006839581369663 0 0.0034921182464572875 0.00033388934930229664 0 0.0022585475214977621 0.00045217547681900927 0 0.0022001833349248488 0.00043301227467676184 0 0.0022284575886698339 0.00042142055544830252 0 0.0022585475214977621 0.00045217547681900927 0 0.0022284575886698339 0.00042142055544830252 0 0.0022463635728808122 0.00041847580429073251 0 0.0022585475214977621 0.00045217547681900927 0 0.0022463635728808122 0.00041847580429073251 0 0.0022637479738635675 0.00041990509057099942 0 0.0045654086445732784 0.00041470381749284245 0 0.0045500365825194879 0.00037814124827292985 0 0.0046065151414905756 0.00036282980595016214 0 0.0045174284496594698 0.00035901136644358398 0 0.0045500365825194879 0.00037814124827292985 0 0.0045643735677458946 0.00033862883259864546 0 0.0045500365825194879 0.00037814124827292985 0 0.0045643735677458946 0.00033862883259864546 0 0.0046065151414905756 0.00036282980595016214 0 0.0045775455824886334 0.00029125201230712969 0 0.0045226935154548467 0.00031609272761239256 0 0.0045643735677458946 0.00033862883259864546 0 0.0045775455824886334 0.00029125201230712969 0 0.0045643735677458946 0.00033862883259864546 0 0.0046284643566661451 0.00030279857032994984 0 0.0045643735677458946 0.00033862883259864546 0 0.0046065151414905756 0.00036282980595016214 0 0.0046284643566661451 0.00030279857032994984 0 0.004699637917246733 0.00028027609790165606 0 0.0046284643566661451 0.00030279857032994984 0 0.0046606216228451004 0.00033296983698742123 0 0.0046065151414905756 0.00036282980595016214 0 0.0046284643566661451 0.00030279857032994984 0 0.0046606216228451004 0.00033296983698742123 0 0.004704505263392644 0.0003319678791388969 0 0.0046606216228451004 0.00033296983698742123 0 0.0046561700433842687 0.00038431707057166354 0 0.0046065151414905756 0.00036282980595016214 0 0.0046606216228451004 0.00033296983698742123 0 0.0046561700433842687 0.00038431707057166354 0 0.0021618679203429915 0.00038136742624105316 0 0.0022001833349248488 0.00043301227467676184 0 0.0022034492917757413 0.00038123657473789776 0 0.0022001833349248488 0.00043301227467676184 0 0.0022034492917757413 0.00038123657473789776 0 0.0022284575886698339 0.00042142055544830252 0 0.0022034492917757413 0.00038123657473789776 0 0.0022304427301686612 0.00038876115836760023 0 0.0022284575886698339 0.00042142055544830252 0 0.0021618679203429915 0.00038136742624105316 0 0.0021725345289755711 0.00033867871318875097 0 0.0022034492917757413 0.00038123657473789776 0 0.0021725345289755711 0.00033867871318875097 0 0.0022034492917757413 0.00038123657473789776 0 0.0022342138333389188 0.00036033361695000818 0 0.0019584789058647947 0.00032969373586780928 0 0.0020404091503503324 0.00036525667968302048 0 0.0019928858067778726 0.00030632174740632278 0 0.0020663867237261805 0.00033565714195311555 0 0.0021416948020694963 0.00035896200842555815 0 0.0020404091503503324 0.00036525667968302048 0 0.002213209527231742 0.00026795713538333419 0 0.0020888997648188146 0.00026793932810324832 0 0.0020404091503503324 0.00036525667968302048 0 0.0020888997648188146 0.00026793932810324832 0 0.0019928858067778726 0.00030632174740632278 0 0.0022342138333389188 0.00036033361695000818 0 0.0022497577718401615 0.00039853321873807742 0 0.0022707170137043391 0.0003992213270510412 0 0.0022497577718401615 0.00039853321873807742 0 0.0022304427301686612 0.00038876115836760023 0 0.0022463635728808122 0.00041847580429073251 0 0.0022034492917757413 0.00038123657473789776 0 0.0022342138333389188 0.00036033361695000818 0 0.0022304427301686612 0.00038876115836760023 0 0.0022342138333389188 0.00036033361695000818 0 0.0022497577718401615 0.00039853321873807742 0 0.0022304427301686612 0.00038876115836760023 0 0.0022304427301686612 0.00038876115836760023 0 0.0022284575886698339 0.00042142055544830252 0 0.0022463635728808122 0.00041847580429073251 0 0.0022497577718401615 0.00039853321873807742 0 0.0022463635728808122 0.00041847580429073251 0 0.0022637479738635675 0.00041990509057099942 0 0.0022987388979867967 0.00042493365644056044 0 0.0022707170137043391 0.0003992213270510412 0 0.0022731045279709827 0.00036245629236769341 0 0.0022637479738635675 0.00041990509057099942 0 0.0022987388979867967 0.00042493365644056044 0 0.0022707170137043391 0.0003992213270510412 0 0.0022497577718401615 0.00039853321873807742 0 0.0022637479738635675 0.00041990509057099942 0 0.0022707170137043391 0.0003992213270510412 0 0.0022585475214977621 0.00045217547681900927 0 0.0022637479738635675 0.00041990509057099942 0 0.0022987388979867967 0.00042493365644056044 0 0.0022342138333389188 0.00036033361695000818 0 0.0022707170137043391 0.0003992213270510412 0 0.0022731045279709827 0.00036245629236769341 0 0.0021416948020694963 0.00035896200842555815 0 0.0022606124280473506 0.00036453873837851851 0 0.0020404091503503324 0.00036525667968302048 0 0.0022731045279709827 0.00036245629236769341 0 0.002213209527231742 0.00026795713538333419 0 0.0022731045279709827 0.00036245629236769341 0 0.0023380331383360221 0.00023841218844677058 0 0.002213209527231742 0.00026795713538333419 0 0.0022731045279709827 0.00036245629236769341 0 0.0023380331383360221 0.00023841218844677058 0 0.0024194653439776012 0.00035084113430464614 0 0.0022987388979867967 0.00042493365644056044 0 0.0022731045279709827 0.00036245629236769341 0 0.0023704247293473597 0.0004230916740662148 0 0.0022731045279709827 0.00036245629236769341 0 0.0023704247293473597 0.0004230916740662148 0 0.0024194653439776012 0.00035084113430464614 0 0.0023189779972358363 0.0004520678826060366 0 0.0022987388979867967 0.00042493365644056044 0 0.0023704247293473597 0.0004230916740662148 0 0.0023542828429231025 7.0940229653591359e-05 0 0.0023380331383360221 0.00023841218844677058 0 0.0022519320031792094 0.00015398601648733634 0 0.0023542828429231025 7.0940229653591359e-05 0 0.0022519320031792094 0.00015398601648733634 0 0.0022296685907004323 4.75963529121916e-05 0 0.002213209527231742 0.00026795713538333419 0 0.0021667553933374948 0.00019246220908688026 0 0.0022519320031792094 0.00015398601648733634 0 0.0023380331383360221 0.00023841218844677058 0 0.002213209527231742 0.00026795713538333419 0 0.0022519320031792094 0.00015398601648733634 0 0.002213209527231742 0.00026795713538333419 0 0.0021667553933374948 0.00019246220908688026 0 0.0020888997648188146 0.00026793932810324832 0 0.0021667553933374948 0.00019246220908688026 0 0.0022519320031792094 0.00015398601648733634 0 0.0021432640968036998 9.2335365966451428e-05 0 0.0022519320031792094 0.00015398601648733634 0 0.0021432640968036998 9.2335365966451428e-05 0 0.0022296685907004323 4.75963529121916e-05 0 0.0021432640968036998 9.2335365966451428e-05 0 0.0020124305276969846 8.5750317888345866e-05 0 0.0020686258916337691 8.7103913278733512e-06 0 0.0021667553933374948 0.00019246220908688026 0 0.0021432640968036998 9.2335365966451428e-05 0 0.002038554659543548 0.0001869191874948602 0 0.0021432640968036998 9.2335365966451428e-05 0 0.0020124305276969846 8.5750317888345866e-05 0 0.002038554659543548 0.0001869191874948602 0 0.0021667553933374948 0.00019246220908688026 0 0.0020888997648188146 0.00026793932810324832 0 0.002038554659543548 0.0001869191874948602 0 0.0020888997648188146 0.00026793932810324832 0 0.002038554659543548 0.0001869191874948602 0 0.0019928858067778726 0.00030632174740632278 0 0.0019928858067778726 0.00030632174740632278 0 0.0019546679232472887 0.00033173639453704362 0 0.0019598740647667058 0.00032429032374442144 0 0.0019849519596396117 0.00030485530570266466 0 0.0019115110183452731 0.00022586037012615128 0 0.0019584789058647947 0.00032969373586780928 0 0.0019928858067778726 0.00030632174740632278 0 0.0019598740647667058 0.00032429032374442144 0 0.002038554659543548 0.0001869191874948602 0 0.0019928858067778726 0.00030632174740632278 0 0.0018609024768333647 0.00011639710158506877 0 0.0020124305276969846 8.5750317888345866e-05 0 0.0018609024768333647 0.00011639710158506877 0 0.001941610542212193 1.7492298016667461e-07 0 0.0020124305276969846 8.5750317888345866e-05 0 0.002038554659543548 0.0001869191874948602 0 0.0018609024768333647 0.00011639710158506877 0 0.001941610542212193 1.7492298016667461e-07 0 0.0018999049024308568 -0.00012323455211570394 0 0.0017498855109430497 -5.2574825570101433e-05 0 0.001941610542212193 1.7492298016667461e-07 0 0.0018999049024308568 -0.00012323455211570394 0 0.0020160036465634175 -8.5747123964433666e-05 0 0.0018999049024308568 -0.00012323455211570394 0 0.0019768319774019303 -0.0001697091340595299 0 0.0019036596885367038 -0.00022048045336979605 0 0.0018999049024308568 -0.00012323455211570394 0 0.0020160036465634175 -8.5747123964433666e-05 0 0.0019768319774019303 -0.0001697091340595299 0 0.0020160036465634175 -8.5747123964433666e-05 0 0.0019768319774019303 -0.0001697091340595299 0 0.0020870843602120697 -0.00016976411047448466 0 0.0020160036465634175 -8.5747123964433666e-05 0 0.0020870843602120697 -0.00016976411047448466 0 0.0021089741596177166 -6.2892341746857355e-05 0 0.0020160036465634175 -8.5747123964433666e-05 0 0.0020686258916337691 8.7103913278733512e-06 0 0.0021089741596177166 -6.2892341746857355e-05 0 0.001941610542212193 1.7492298016667461e-07 0 0.0020160036465634175 -8.5747123964433666e-05 0 0.0020686258916337691 8.7103913278733512e-06 0 0.0020124305276969846 8.5750317888345866e-05 0 0.001941610542212193 1.7492298016667461e-07 0 0.0020686258916337691 8.7103913278733512e-06 0 0.0021432640968036998 9.2335365966451428e-05 0 0.0020686258916337691 8.7103913278733512e-06 0 0.0021603059493443227 -1.2482043811778133e-05 0 0.0021432640968036998 9.2335365966451428e-05 0 0.0021603059493443227 -1.2482043811778133e-05 0 0.0022296685907004323 4.75963529121916e-05 0 0.0021603059493443227 -1.2482043811778133e-05 0 0.0022296685907004323 4.75963529121916e-05 0 0.0022111740734877586 -7.9152227609657972e-05 0 0.002160751332122901 -4.1765529872964229e-05 0 0.0021513093326168279 -6.2544748483761545e-05 0 0.0020686258916337691 8.7103913278733512e-06 0 0.0021603059493443227 -1.2482043811778133e-05 0 0.0021089741596177166 -6.2892341746857355e-05 0 0.0021603059493443227 -1.2482043811778133e-05 0 0.00219707686123109 -7.0499127647682331e-05 0 0.0021089741596177166 -6.2892341746857355e-05 0 0.0020309974450101547 -0.00019871509377629394 0 0.0021513093326168279 -6.2544748483761545e-05 0 0.0020870843602120697 -0.00016976411047448466 0 0.00219707686123109 -7.0499127647682331e-05 0 0.0021089741596177166 -6.2892341746857355e-05 0 0.0020392161495274364 -0.00016043202035188086 0 0.0020367492285800659 -0.00021602419348879236 0 0.0020955899209042345 -0.00023874698750173695 0 0.0019917488431410056 -0.00021449511131182172 0 0.0020392161495274364 -0.00016043202035188086 0 0.0020367492285800659 -0.00021602419348879236 0 0.0021513093326168279 -6.2544748483761545e-05 0 0.0023085210934159369 -0.00027245833144727094 0 0.0022455472467346809 -4.1173598091219976e-05 0 0.0023713103380008263 -4.7589971879748549e-05 0 0.0023354304759184655 -0.00016786720670968408 0 0.0023564401140007928 7.7201479981126088e-05 0 0.0022455472467346809 -4.1173598091219976e-05 0 0.0023713103380008263 -4.7589971879748549e-05 0 0.0023689287038995773 8.0449872670276132e-05 0 0.0021513093326168279 -6.2544748483761545e-05 0 0.0023542828429231025 7.0940229653591359e-05 0 0.0022296685907004323 4.75963529121916e-05 0 0.0022111740734877586 -7.9152227609657972e-05 0 0.001993550764648321 0.00034107372853289997 0 0.0019662404892831333 0.00033972619435040371 0 0.0019776046828676643 0.00035841050212116174 0 0.001993550764648321 0.00034107372853289997 0 0.0019776046828676643 0.00035841050212116174 0 0.0019939170385890499 0.00035797251381596376 0 0.001993550764648321 0.00034107372853289997 0 0.0019939170385890499 0.00035797251381596376 0 0.0020096079019127585 0.00034297662472772018 0 0.001993550764648321 0.00034107372853289997 0 0.0020107167941020398 0.00033028041310175497 0 0.0020096079019127585 0.00034297662472772018 0 0.0020119408480215651 0.00032032753837149894 0 0.001993550764648321 0.00034107372853289997 0 0.0020107167941020398 0.00033028041310175497 0 0.0019711632951627056 0.00031871937739443631 0 0.0020119408480215651 0.00032032753837149894 0 0.001993550764648321 0.00034107372853289997 0 0.0019711632951627056 0.00031871937739443631 0 0.0019598740647667058 0.00032429032374442144 0 0.0019662404892831333 0.00033972619435040371 0 0.0019711632951627056 0.00031871937739443631 0 0.001993550764648321 0.00034107372853289997 0 0.0019662404892831333 0.00033972619435040371 0 0.0019546679232472887 0.00033173639453704362 0 0.0019598740647667058 0.00032429032374442144 0 0.0019662404892831333 0.00033972619435040371 0 0.0019546679232472887 0.00033173639453704362 0 0.0019662404892831333 0.00033972619435040371 0 0.0019512806040703412 0.00036345168778687827 0 0.0019662404892831333 0.00033972619435040371 0 0.0019632707036312991 0.0003696550686591002 0 0.0019776046828676643 0.00035841050212116174 0 0.0019662404892831333 0.00033972619435040371 0 0.0019632707036312991 0.0003696550686591002 0 0.0019512806040703412 0.00036345168778687827 0 0.0018609024768333647 0.00011639710158506877 0 0.001941610542212193 1.7492298016667461e-07 0 0.0017498855109430497 -5.2574825570101433e-05 0 0.0019115110183452731 0.00022586037012615128 0 0.0018503372973320182 0.00015542906340022046 0 0.0018999049024308568 -0.00012323455211570394 0 0.0017498855109430497 -5.2574825570101433e-05 0 0.0018072362451205237 -0.00023140482988091886 0 0.0017498855109430497 -5.2574825570101433e-05 0 0.0016480451498897559 -0.00020210601898286318 0 0.0018072362451205237 -0.00023140482988091886 0 0.0018503372973320182 0.00015542906340022046 0 0.0018020697664589119 9.7111188426776487e-05 0 0.0019632707036312991 0.0003696550686591002 0 0.0019512806040703412 0.00036345168778687827 0 0.0019528768803913591 0.0003938518739387995 0 0.0019632707036312991 0.0003696550686591002 0 0.0019702975522450103 0.00037915592871877652 0 0.0019528768803913591 0.0003938518739387995 0 0.0019632707036312991 0.0003696550686591002 0 0.0019776046828676643 0.00035841050212116174 0 0.0019702975522450103 0.00037915592871877652 0 0.0019776046828676643 0.00035841050212116174 0 0.0019939170385890499 0.00035797251381596376 0 0.0019702975522450103 0.00037915592871877652 0 0.0019939170385890499 0.00035797251381596376 0 0.0019702975522450103 0.00037915592871877652 0 0.0019962965021092052 0.00037380634481829113 0 0.0019702975522450103 0.00037915592871877652 0 0.0019707833411072278 0.00039086816461759218 0 0.0019532002421255414 0.00040603907543795717 0 0.0019702975522450103 0.00037915592871877652 0 0.0019707833411072278 0.00039086816461759218 0 0.0019962965021092052 0.00037380634481829113 0 0.0019707833411072278 0.00039086816461759218 0 0.0020049925787696075 0.0003877381656488211 0 0.0019962965021092052 0.00037380634481829113 0 0.0020049925787696075 0.0003877381656488211 0 0.0020214407753907974 0.00037357396675389377 0 0.0020384191115999217 0.00038232042014085241 0 0.0020049925787696075 0.0003877381656488211 0 0.0020214407753907974 0.00037357396675389377 0 0.0019962965021092052 0.00037380634481829113 0 0.0020214407753907974 0.00037357396675389377 0 0.0020191234346625844 0.00035621310183363194 0 0.0020403945468801541 0.00036229995967011714 0 0.0020214407753907974 0.00037357396675389377 0 0.0019962965021092052 0.00037380634481829113 0 0.0020191234346625844 0.00035621310183363194 0 0.0019939170385890499 0.00035797251381596376 0 0.0019962965021092052 0.00037380634481829113 0 0.0020191234346625844 0.00035621310183363194 0 0.0019939170385890499 0.00035797251381596376 0 0.0020096079019127585 0.00034297662472772018 0 0.0020191234346625844 0.00035621310183363194 0 0.0020096079019127585 0.00034297662472772018 0 0.0020191234346625844 0.00035621310183363194 0 0.002031605029561818 0.00033693163517752592 0 0.0020191234346625844 0.00035621310183363194 0 0.002031605029561818 0.00033693163517752592 0 0.0020424347482637878 0.00034667137135717976 0 0.0020191234346625844 0.00035621310183363194 0 0.0020424347482637878 0.00034667137135717976 0 0.0020403945468801541 0.00036229995967011714 0 0.002031605029561818 0.00033693163517752592 0 0.0020207291697279593 0.00032998238028905734 0 0.0020419976810563409 0.00032274243370210808 0 0.0020096079019127585 0.00034297662472772018 0 0.002031605029561818 0.00033693163517752592 0 0.0020207291697279593 0.00032998238028905734 0 0.0020107167941020398 0.00033028041310175497 0 0.0020096079019127585 0.00034297662472772018 0 0.0020207291697279593 0.00032998238028905734 0 0.0020824582754717814 0.00034397023984756686 0 0.0020611532592606182 0.00032793373768424938 0 0.0020961308163666456 0.00031122829742107283 0 0.0020824582754717814 0.00034397023984756686 0 0.00211848087536154 0.00033849232115848975 0 0.0020961308163666456 0.00031122829742107283 0 0.0020824582754717814 0.00034397023984756686 0 0.0020917998473007644 0.00035899652115675072 0 0.00211848087536154 0.00033849232115848975 0 0.002031605029561818 0.00033693163517752592 0 0.0020611532592606182 0.00032793373768424938 0 0.0020419976810563409 0.00032274243370210808 0 0.002031605029561818 0.00033693163517752592 0 0.0020611532592606182 0.00032793373768424938 0 0.0020424347482637878 0.00034667137135717976 0 0.0020611532592606182 0.00032793373768424938 0 0.0020596810634658288 0.0003453924500239591 0 0.0020424347482637878 0.00034667137135717976 0 0.0020824582754717814 0.00034397023984756686 0 0.0020611532592606182 0.00032793373768424938 0 0.0020596810634658288 0.0003453924500239591 0 0.0020596810634658288 0.0003453924500239591 0 0.0020403945468801541 0.00036229995967011714 0 0.0020642284972985769 0.00036783424272648354 0 0.0020596810634658288 0.0003453924500239591 0 0.0020424347482637878 0.00034667137135717976 0 0.0020403945468801541 0.00036229995967011714 0 0.0020824582754717814 0.00034397023984756686 0 0.0020917998473007644 0.00035899652115675072 0 0.0020642284972985769 0.00036783424272648354 0 0.0020824582754717814 0.00034397023984756686 0 0.0020596810634658288 0.0003453924500239591 0 0.0020642284972985769 0.00036783424272648354 0 0.0020917998473007644 0.00035899652115675072 0 0.0020813988568278699 0.00037080954114783064 0 0.0020933663401205829 0.00037021099526643523 0 0.0020917998473007644 0.00035899652115675072 0 0.0020813988568278699 0.00037080954114783064 0 0.0020642284972985769 0.00036783424272648354 0 0.0020642284972985769 0.00036783424272648354 0 0.0020384191115999217 0.00038232042014085241 0 0.0020626814149331449 0.00038780357415739447 0 0.0020813988568278699 0.00037080954114783064 0 0.0020626814149331449 0.00038780357415739447 0 0.0021008078301623899 0.0003753369504064831 0 0.0020813988568278699 0.00037080954114783064 0 0.0020642284972985769 0.00036783424272648354 0 0.0020626814149331449 0.00038780357415739447 0 0.0013319028591820999 2.6968742105297054e-05 0 0.0014575938613762536 0.00020669723364789979 0 0.0020214407753907974 0.00037357396675389377 0 0.0020403945468801541 0.00036229995967011714 0 0.0020384191115999217 0.00038232042014085241 0 0.0020403945468801541 0.00036229995967011714 0 0.0020642284972985769 0.00036783424272648354 0 0.0020384191115999217 0.00038232042014085241 0 0.0020384191115999217 0.00038232042014085241 0 0.0020626814149331449 0.00038780357415739447 0 0.0020336044825751813 0.000401193858278427 0 0.0020049925787696075 0.0003877381656488211 0 0.0020384191115999217 0.00038232042014085241 0 0.0020336044825751813 0.000401193858278427 0 0.0013319028591820999 2.6968742105297054e-05 0 0.0013413275919667168 4.7506702616303269e-05 0 0.00060916256170694691 -0.00029122321325639709 0 0.00057475245508387118 -0.00029993190849507195 0 0.00057858849934910807 -0.00031278953565486113 0 0.00057475245508387118 -0.00029993190849507195 0 0.00055799906547393009 -0.00030359787012703484 0 0.00057858849934910807 -0.00031278953565486113 0 0.00057475245508387118 -0.00029993190849507195 0 0.00056965354494978792 -0.00029900965316798512 0 0.00055799906547393009 -0.00030359787012703484 0 0.00057475245508387118 -0.00029993190849507195 0 0.00056965354494978792 -0.00029900965316798512 0 0.00058523710389689863 -0.00028978828584590752 0 0.00060916256170694691 -0.00029122321325639709 0 0.00057475245508387118 -0.00029993190849507195 0 0.00058523710389689863 -0.00028978828584590752 0 0.0020813988568278699 0.00037080954114783064 0 0.0021008078301623899 0.0003753369504064831 0 0.0020933663401205829 0.00037021099526643523 0 0.00056063451066648367 -0.00029690309270917822 0 0.00054408479384135508 -0.00030261646742443051 0 0.00055858133685501225 -0.00030220178364959936 0 0.00054408479384135508 -0.00030261646742443051 0 0.00055799906547393009 -0.00030359787012703484 0 0.00055858133685501225 -0.00030220178364959936 0 0.00056965354494978792 -0.00029900965316798512 0 0.00055799906547393009 -0.00030359787012703484 0 0.00056623982660824784 -0.00030426991234030771 0 0.00055799906547393009 -0.00030359787012703484 0 0.00056623982660824784 -0.00030426991234030771 0 0.00055858133685501225 -0.00030220178364959936 0 0.0005768919708421217 -0.00031445885990855868 0 0.00056623982660824784 -0.00030426991234030771 0 0.00055858133685501225 -0.00030220178364959936 0 0.0005768919708421217 -0.00031445885990855868 0 0.00059428937999483715 -0.00033418911495575963 0 0.00057788166915796323 -0.00031934857681087083 0 0.0005768919708421217 -0.00031445885990855868 0 0.00056623982660824784 -0.00030426991234030771 0 0.00057788166915796323 -0.00031934857681087083 0 0.00056623982660824784 -0.00030426991234030771 0 0.00057788166915796323 -0.00031934857681087083 0 0.00057449475435054768 -0.00032895710970648169 0 0.00056623982660824784 -0.00030426991234030771 0 0.00057449475435054768 -0.00032895710970648169 0 0.00056924685517801318 -0.00030445901022165743 0 0.0012031216832459814 -7.6316093854190904e-05 0 0.0011555430437644736 1.4609170755874081e-05 0 0.0020602537385604296 0.0001532604959005537 0 0.0017950273448541938 0.00021926509589627308 0 0.0020402331083874451 -7.2077284499665005e-05 0 0.0018674928444862412 0.00032504870775097657 0 0.0031967411859742823 0.00026856616056879234 0 0.0012031216832459814 -7.6316093854190904e-05 0 0.0024111711430000481 0.00018845918575881472 0 0.00059428937999483715 -0.00033418911495575963 0 0.00057449475435054768 -0.00032895710970648169 0 0.00060128338461101815 -0.0003565415282570691 0 0.00059428937999483715 -0.00033418911495575963 0 0.00057788166915796323 -0.00031934857681087083 0 0.00057449475435054768 -0.00032895710970648169 0 0.0014575938613762536 0.00020669723364789979 0 0.0018674928444862412 0.00032504870775097657 0 0.0020917998473007644 0.00035899652115675072 0 0.0021008078301623899 0.0003753369504064831 0 0.00211848087536154 0.00033849232115848975 0 0.0014575938613762536 0.00020669723364789979 0 0.0011555430437644736 1.4609170755874081e-05 0 0.0021008078301623899 0.0003753369504064831 0 0.0021605897497902599 0.00034515907908580235 0 0.00211848087536154 0.00033849232115848975 0 0.0020917998473007644 0.00035899652115675072 0 0.0021008078301623899 0.0003753369504064831 0 0.0020933663401205829 0.00037021099526643523 0 0.0015574302061040469 0.00050052280290391934 0 0.0018054979031287127 0.00032919685276434598 0 0.0017950273448541938 0.00021926509589627308 0 0.00056965354494978792 -0.00029900965316798512 0 0.00056623982660824784 -0.00030426991234030771 0 0.00056924685517801318 -0.00030445901022165743 0 0.00056965354494978792 -0.00029900965316798512 0 0.00058523710389689863 -0.00028978828584590752 0 0.00056924685517801318 -0.00030445901022165743 0 0.0020602537385604296 0.0001532604959005537 0 0.0018054979031287127 0.00032919685276434598 0 0.0017950273448541938 0.00021926509589627308 0 0.0021605897497902599 0.00034515907908580235 0 0.00211848087536154 0.00033849232115848975 0 0.002138434052992235 0.00028407658132719214 0 0.00211848087536154 0.00033849232115848975 0 0.002138434052992235 0.00028407658132719214 0 0.0020961308163666456 0.00031122829742107283 0 0.0033434127640927986 0.00033645020002280444 0 0.0031967411859742823 0.00026856616056879234 0 0.0021605897497902599 0.00034515907908580235 0 0.002138434052992235 0.00028407658132719214 0 0.0022253459642363953 0.00028980750814841007 0 0.0044193542376214897 0.0003654506362622836 0 0.0047488911099373646 0.00037289067146112603 0 0.004737636992442942 0.00020405413810778685 0 0.0046174201475794787 0.00017944359504839841 0 0.0047318675785934941 0.00019884036817490445 0 0.0044193542376214897 0.0003654506362622836 0 0.0043701892317112839 0.00015958039026357993 0 0.004737636992442942 0.00020405413810778685 0 0.0044193542376214897 0.0003654506362622836 0 0.0043701892317112839 0.00015958039026357993 0 0.004019886973418694 0.00031014978760406499 0 0.0020602537385604296 0.0001532604959005537 0 0.0023141696411810107 -2.6798179664335265e-05 0 0.0020402331083874451 -7.2077284499665005e-05 0 0.003681665901974723 0.00047417647241884307 0 0.0034162317955267921 0.00043040825862151696 0 0.0035960296091975636 0.00021459039154545639 0 0.0024111711430000481 0.00018845918575881472 0 0.0031967411859742823 0.00026856616056879234 0 0.0031967411859742823 0.00026856616056879234 0 0.0042718647351123809 0.00018679925572185569 0 0.0047488911099373646 0.00037289067146112603 0 0.004737636992442942 0.00020405413810778685 0 0.004788062768233986 0.00023052755300003662 0 0.0042567378048628526 0.00011584298683071239 0 0.0042718647351123809 0.00018679925572185569 0 0.004759060522660126 0.00022533762423854881 0 0.004788062768233986 0.00023052755300003662 0 0.0047696994165052917 0.00022352520005681036 0 0.004737636992442942 0.00020405413810778685 0 0.0047696994165052917 0.00022352520005681036 0 0.0047854808650104061 0.00023478614313941627 0 0.004737636992442942 0.00020405413810778685 0 0.004788062768233986 0.00023052755300003662 0 0.0047696994165052917 0.00022352520005681036 0 0.0047696994165052917 0.00022352520005681036 0 0.0047854808650104061 0.00023478614313941627 0 0.004780103350340412 0.00025125257704551021 0 0.004809360594543126 0.00026202923597506739 0 0.0047854808650104061 0.00023478614313941627 0 0.004780103350340412 0.00025125257704551021 0 0.004759060522660126 0.00022533762423854881 0 0.0047696994165052917 0.00022352520005681036 0 0.0047613912178754237 0.00024546249254362974 0 0.0047696994165052917 0.00022352520005681036 0 0.004780103350340412 0.00025125257704551021 0 0.0047613912178754237 0.00024546249254362974 0 0.0048548048523640976 0.0002258922829666606 0 0.0048153296611546468 0.00022409816151488975 0 0.004842614361359944 0.00024416714966132391 0 0.0048548048523640976 0.0002258922829666606 0 0.0048778641784413893 0.00024246187682228255 0 0.0048995867667164759 0.00022004535508896085 0 0.0048646378078688515 0.00019007212264394961 0 0.0048548048523640976 0.0002258922829666606 0 0.0048995867667164759 0.00022004535508896085 0 0.0048646378078688515 0.00019007212264394961 0 0.0048548048523640976 0.0002258922829666606 0 0.0048153296611546468 0.00022409816151488975 0 0.004737636992442942 0.00020405413810778685 0 0.0047854808650104061 0.00023478614313941627 0 0.0048153296611546468 0.00022409816151488975 0 0.0048646378078688515 0.00019007212264394961 0 0.004737636992442942 0.00020405413810778685 0 0.0048153296611546468 0.00022409816151488975 0 0.0047854808650104061 0.00023478614313941627 0 0.0048153296611546468 0.00022409816151488975 0 0.004842614361359944 0.00024416714966132391 0 0.004809360594543126 0.00026202923597506739 0 0.0047854808650104061 0.00023478614313941627 0 0.004842614361359944 0.00024416714966132391 0 0.0048478878031141016 0.00026164178096685755 0 0.004809360594543126 0.00026202923597506739 0 0.004842614361359944 0.00024416714966132391 0 0.0048478878031141016 0.00026164178096685755 0 0.004842614361359944 0.00024416714966132391 0 0.004880116758634063 0.00025231627803714982 0 0.0048548048523640976 0.0002258922829666606 0 0.004842614361359944 0.00024416714966132391 0 0.0048778641784413893 0.00024246187682228255 0 0.004842614361359944 0.00024416714966132391 0 0.0048778641784413893 0.00024246187682228255 0 0.004880116758634063 0.00025231627803714982 0 0.0049540018404364951 0.000234718912391857 0 0.0049366409708322106 0.00023522399501919072 0 0.0048995867667164759 0.00022004535508896085 0 0.0049116387172619064 0.0002523441747937635 0 0.004880116758634063 0.00025231627803714982 0 0.0049008972499665019 0.00026371731398126206 0 0.0049268467656393309 0.00024378228234604528 0 0.0049037737633730923 0.00021946054541289965 0 0.0048778641784413893 0.00024246187682228255 0 0.004880116758634063 0.00025231627803714982 0 0.0049008972499665019 0.00026371731398126206 0 0.0048778641784413893 0.00024246187682228255 0 0.0049008972499665019 0.00026371731398126206 0 0.0048995867667164759 0.00022004535508896085 0 0.0049540018404364951 0.000234718912391857 0 0.0049366409708322106 0.00023522399501919072 0 0.0049418761725370372 0.00023157480829941629 0 0.0049560669782456705 0.00021158854485386864 0 0.0049540018404364951 0.000234718912391857 0 0.0049418761725370372 0.00023157480829941629 0 0.0048646378078688515 0.00019007212264394961 0 0.0048995867667164759 0.00022004535508896085 0 0.004935809081744705 0.00023502286284367464 0 0.0049366409708322106 0.00023522399501919072 0 0.0049290467211612725 0.00023472999590924663 0 0.0048995867667164759 0.00022004535508896085 0 0.0049290467211612725 0.00023472999590924663 0 0.0048995867667164759 0.00022004535508896085 0 0.004935809081744705 0.00023502286284367464 0 0.0049321073595191816 0.00024121045133576382 0 0.0049186314759906572 0.00025559169998423382 0 0.004935809081744705 0.00023502286284367464 0 0.0049290467211612725 0.00023472999590924663 0 0.0049321073595191816 0.00024121045133576382 0 0.004935809081744705 0.00023502286284367464 0 0.0049290467211612725 0.00023472999590924663 0 0.0049321073595191816 0.00024121045133576382 0 0.0049351168807835032 0.00023788931431710809 0 0.0049321073595191816 0.00024121045133576382 0 0.0049351168807835032 0.00023788931431710809 0 0.0049299569817669864 0.00024215940595877119 0 0.0049366409708322106 0.00023522399501919072 0 0.0049290467211612725 0.00023472999590924663 0 0.0049351168807835032 0.00023788931431710809 0 0.0049321073595191816 0.00024121045133576382 0 0.0049299569817669864 0.00024215940595877119 0 0.0049186314759906572 0.00025559169998423382 0 0.0049299569817669864 0.00024215940595877119 0 0.0049418761725370372 0.00023157480829941629 0 0.0049265135720982954 0.00023752977840601499 0 0.0049366409708322106 0.00023522399501919072 0 0.0049351168807835032 0.00023788931431710809 0 0.0049418761725370372 0.00023157480829941629 0 0.0049351168807835032 0.00023788931431710809 0 0.0049299569817669864 0.00024215940595877119 0 0.0049418761725370372 0.00023157480829941629 0 0.0049283476961220997 0.00022004064071891582 0 0.0049418761725370372 0.00023157480829941629 0 0.0049265135720982954 0.00023752977840601499 0 0.0049283476961220997 0.00022004064071891582 0 0.004908105133955361 0.00023788788140363546 0 0.0049265135720982954 0.00023752977840601499 0 0.0049040008634747816 0.00021584639104350466 0 0.0049283476961220997 0.00022004064071891582 0 0.004908105133955361 0.00023788788140363546 0 0.004908105133955361 0.00023788788140363546 0 0.0048983331801582186 0.00025635254106582788 0 0.0049156340880312684 0.00024994480662378756 0 0.0049299569817669864 0.00024215940595877119 0 0.0049156340880312684 0.00024994480662378756 0 0.0049265135720982954 0.00023752977840601499 0 0.004908105133955361 0.00023788788140363546 0 0.0049156340880312684 0.00024994480662378756 0 0.0049265135720982954 0.00023752977840601499 0 0.0049040008634747816 0.00021584639104350466 0 0.004908105133955361 0.00023788788140363546 0 0.0048731429177540694 0.00024772115853930555 0 0.004908105133955361 0.00023788788140363546 0 0.0048983331801582186 0.00025635254106582788 0 0.0048731429177540694 0.00024772115853930555 0 0.0048983331801582186 0.00025635254106582788 0 0.0048731429177540694 0.00024772115853930555 0 0.0048843381228586905 0.00027256114213862687 0 0.0041168613817323058 0.00024536396528563968 0 0.0042889308871118699 0.00022318862763315295 0 0.0048166223056006251 0.00031676778228602369 0 0.0048585867668482245 0.0002827110929295898 0 0.004894120358072301 0.0002870108058449372 0 0.0048731429177540694 0.00024772115853930555 0 0.0048585867668482245 0.0002827110929295898 0 0.0048843381228586905 0.00027256114213862687 0 0.0048843381228586905 0.00027256114213862687 0 0.004894120358072301 0.0002870108058449372 0 0.0049038414773121533 0.00026458908088893067 0 0.0048585867668482245 0.0002827110929295898 0 0.0048843381228586905 0.00027256114213862687 0 0.004894120358072301 0.0002870108058449372 0 0.004894120358072301 0.0002870108058449372 0 0.0049186314759906572 0.00025559169998423382 0 0.004935809081744705 0.00023502286284367464 0 0.0042889308871118699 0.00022318862763315295 0 0.0044573085968203918 0.00019383185569542231 0 0.0049299569817669864 0.00024215940595877119 0 0.0049156340880312684 0.00024994480662378756 0 0.0049186314759906572 0.00025559169998423382 0 0.0049156340880312684 0.00024994480662378756 0 0.0049038414773121533 0.00026458908088893067 0 0.0049186314759906572 0.00025559169998423382 0 0.0048983331801582186 0.00025635254106582788 0 0.0049156340880312684 0.00024994480662378756 0 0.0049038414773121533 0.00026458908088893067 0 0.0048983331801582186 0.00025635254106582788 0 0.0048843381228586905 0.00027256114213862687 0 0.0049038414773121533 0.00026458908088893067 0 0.004894120358072301 0.0002870108058449372 0 0.0049038414773121533 0.00026458908088893067 0 0.0049186314759906572 0.00025559169998423382 0 0.0020287870632542068 0.00031247627080322631 0 0.002044126713832888 0.00031250479395980932 0 0.0020743711414847564 0.0002926366633262245 0 0.0036718655334556432 0.00016092043846950433 0 0.0036886836425368691 0.00024908174254990265 0 0.0039861254256844938 0.00015177596795802161 0 0.0020211449931776385 0.00035636979806091557 0 0.0020287870632542068 0.00031247627080322631 0 0.0020198479132910478 0.00033399511788084632 0 0.0020287870632542068 0.00031247627080322631 0 0.0020198479132910478 0.00033399511788084632 0 0.0020220358845202688 0.00032446277170079102 0 0.0027871201494124817 0.00028670501565821247 0 0.0028567368085869634 0.000281488910799034 0 0.0034731365602886492 0.00020754118156113486 0 0.0036718655334556432 0.00016092043846950433 0 0.0036886836425368691 0.00024908174254990265 0 0.0020287870632542068 0.00031247627080322631 0 0.0020220358845202688 0.00032446277170079102 0 0.0020275308299950684 0.00032241863001907753 0 0.0020207291697279593 0.00032998238028905734 0 0.0020155994334031895 0.00032742284619145351 0 0.0020275308299950684 0.00032241863001907753 0 0.0020155994334031895 0.00032742284619145351 0 0.0020220358845202688 0.00032446277170079102 0 0.0020275308299950684 0.00032241863001907753 0 0.0020198479132910478 0.00033399511788084632 0 0.0020155994334031895 0.00032742284619145351 0 0.0020220358845202688 0.00032446277170079102 0 0.0020107167941020398 0.00033028041310175497 0 0.0020207291697279593 0.00032998238028905734 0 0.0020155994334031895 0.00032742284619145351 0 0.0020207291697279593 0.00032998238028905734 0 0.0020275308299950684 0.00032241863001907753 0 0.0020419976810563409 0.00032274243370210808 0 0.002044126713832888 0.00031250479395980932 0 0.0020275308299950684 0.00032241863001907753 0 0.0020419976810563409 0.00032274243370210808 0 0.0020287870632542068 0.00031247627080322631 0 0.002044126713832888 0.00031250479395980932 0 0.0020275308299950684 0.00032241863001907753 0 0.002044126713832888 0.00031250479395980932 0 0.002058678262839678 0.000313401104226562 0 0.0020743711414847564 0.0002926366633262245 0 0.0020611532592606182 0.00032793373768424938 0 0.0020419976810563409 0.00032274243370210808 0 0.002058678262839678 0.000313401104226562 0 0.002044126713832888 0.00031250479395980932 0 0.0020419976810563409 0.00032274243370210808 0 0.002058678262839678 0.000313401104226562 0 0.002058678262839678 0.000313401104226562 0 0.0020723722749473109 0.00031155746646372026 0 0.0020743711414847564 0.0002926366633262245 0 0.0020611532592606182 0.00032793373768424938 0 0.002058678262839678 0.000313401104226562 0 0.0020723722749473109 0.00031155746646372026 0 0.0020611532592606182 0.00032793373768424938 0 0.0020723722749473109 0.00031155746646372026 0 0.0020961308163666456 0.00031122829742107283 0 0.002138434052992235 0.00028407658132719214 0 0.0020961308163666456 0.00031122829742107283 0 0.0020743711414847564 0.0002926366633262245 0 0.0020723722749473109 0.00031155746646372026 0 0.0020961308163666456 0.00031122829742107283 0 0.0020743711414847564 0.0002926366633262245 0 0.0033434127640927986 0.00033645020002280444 0 0.0030358138102246396 0.00029891939010090728 0 0.0046174201475794787 0.00017944359504839841 0 0.0044573085968203918 0.00019383185569542231 0 0.0043701892317112839 0.00015958039026357993 0 0.0039861254256844938 0.00015177596795802161 0 0.004019886973418694 0.00031014978760406499 0 0.0036886836425368691 0.00024908174254990265 0 0.0039861254256844938 0.00015177596795802161 0 0.004019886973418694 0.00031014978760406499 0 0.0028567368085869634 0.000281488910799034 0 0.0030358138102246396 0.00029891939010090728 0 0.0037683054996508905 -1.4878625568799924e-05 0 0.0037339313041694095 2.6368025863279023e-05 0 0.0038146709482343921 9.3821253868522689e-05 0 0.003981211873392892 2.0275788237403947e-07 0 0.0037683054996508905 -1.4878625568799924e-05 0 0.0038146709482343921 9.3821253868522689e-05 0 0.003981211873392892 2.0275788237403947e-07 0 0.0037683054996508905 -1.4878625568799924e-05 0 0.0037108539796747849 -1.3034295561528064e-07 0 0.003816548547984445 -1.7397306740559635e-05 0 0.0034042803107012707 5.0914952021274423e-05 0 0.0037683054996508905 -1.4878625568799924e-05 0 0.0037339313041694095 2.6368025863279023e-05 0 0.0036792185040400178 -2.9435218790678708e-05 0 0.0037214683985697331 4.3493395760508043e-05 0 0.0037339313041694095 2.6368025863279023e-05 0 0.0037228286766759198 2.7867581766383032e-05 0 0.0037339313041694095 2.6368025863279023e-05 0 0.0037228286766759198 2.7867581766383032e-05 0 0.0037298905103597393 2.4611753805686601e-05 0 0.0037214683985697331 4.3493395760508043e-05 0 0.0037061215873718488 3.4573087885783011e-05 0 0.0037228286766759198 2.7867581766383032e-05 0 0.0037214683985697331 4.3493395760508043e-05 0 0.0037255773713539826 5.8716832231790364e-05 0 0.0037131103253614352 6.4746511049781669e-05 0 0.0037214683985697331 4.3493395760508043e-05 0 0.0037255773713539826 5.8716832231790364e-05 0 0.0037339313041694095 2.6368025863279023e-05 0 0.0037255773713539826 5.8716832231790364e-05 0 0.0037339313041694095 2.6368025863279023e-05 0 0.0037508959433585416 7.6204049534974014e-05 0 0.0037255773713539826 5.8716832231790364e-05 0 0.0037256746246835198 7.3688773370174829e-05 0 0.0037131103253614352 6.4746511049781669e-05 0 0.0037255773713539826 5.8716832231790364e-05 0 0.0037508959433585416 7.6204049534974014e-05 0 0.0037256746246835198 7.3688773370174829e-05 0 0.0048865327043264616 9.3512162106902346e-05 0 0.0047224401993295768 9.971158389094736e-05 0 0.0048633707724867227 3.5512835464840018e-05 0 0.0042926411034253827 8.3659266465536275e-05 0 0.0042802298706173343 0.00010742743120968725 0 0.0048865327043264616 9.3512162106902346e-05 0 0.0047224401993295768 9.971158389094736e-05 0 0.0047005532300467955 0.0001258157576093822 0 0.0037508959433585416 7.6204049534974014e-05 0 0.0037256746246835198 7.3688773370174829e-05 0 0.0037666967559183491 0.00010870056855689992 0 0.0044419994204453282 2.7281469130674373e-05 0 0.0042802298706173343 0.00010742743120968725 0 0.0046859871520568306 0.00013808634022810805 0 0.0043451168190133047 3.8344367297657391e-07 0 0.0045940623163126726 -3.258687777050248e-06 0 0.0042802298706173343 0.00010742743120968725 0 0.0039749850627109062 4.2236364519298786e-05 0 0.0041477576904721076 2.6872895010942142e-05 0 0.0042180338349869593 -1.5064045525608609e-05 0 0.0042391045239744355 -1.2458535998355653e-05 0 0.0047224401993295768 9.971158389094736e-05 0 0.0046859871520568306 0.00013808634022810805 0 0.0045940623163126726 -3.258687777050248e-06 0 0.0037339313041694095 2.6368025863279023e-05 0 0.0037508959433585416 7.6204049534974014e-05 0 0.0038146709482343921 9.3821253868522689e-05 0 0.0037508959433585416 7.6204049534974014e-05 0 0.0037666967559183491 0.00010870056855689992 0 0.0038146709482343921 9.3821253868522689e-05 0 0.0039818351235737801 -4.6870268839238697e-08 0 0.0039749850627109062 4.2236364519298786e-05 0 0.0039819511954474161 1.0264006118841902e-07 0 0.0042180338349869593 -1.5064045525608609e-05 0 0.0041631003599253103 -1.0186449339486653e-07 0 0.0042180338349869593 -1.5064045525608609e-05 0 0.0041631003599253103 -1.0186449339486653e-07 0 0.0042391045239744355 -1.2458535998355653e-05 0 0.0041631003599253103 -1.0186449339486653e-07 0 0.0043440353942480149 1.0351973697727738e-07 0 0.0042391045239744355 -1.2458535998355653e-05 0 0.0042802298706173343 0.00010742743120968725 0 0.0043446108011951428 2.8976824954218136e-08 0 0.0041477576904721076 2.6872895010942142e-05 0 0.0043440353942480149 1.0351973697727738e-07 0 0.0042391045239744355 -1.2458535998355653e-05 0 0.0043451168190133047 3.8344367297657391e-07 0 0.0045940623163126726 -3.258687777050248e-06 0 0.0045944496555051359 -3.5187642719190824e-07 0 0.0049994034369236703 -1.9808213536541695e-07 0 0.0049388402648168558 -1.1364580408368343e-05 0 0.0050000139496032322 3.1369913141510199e-08 0 0.0047224401993295768 9.971158389094736e-05 0 0.0045940623163126726 -3.258687777050248e-06 0 0.0047496504378016988 9.4156461604819616e-06 0 0.0045940623163126726 -3.258687777050248e-06 0 0.0046455857392445491 -6.4390260191954135e-05 0 0.0047496504378016988 9.4156461604819616e-06 0 0.0045940623163126726 -3.258687777050248e-06 0 0.0046455857392445491 -6.4390260191954135e-05 0 0.0045944496555051359 -3.5187642719190824e-07 0 0.0047620029353345897 -2.886836027554136e-05 0 0.004595172208170367 -1.4749228961449556e-08 0 0.0048740433060265632 -2.8822302196666257e-06 0 0.0045961263509278543 2.9497750193614785e-07 0 0.0049994034369236703 -1.9808213536541695e-07 0 0.0048740433060265632 -2.8822302196666257e-06 0 0.0049994034369236703 -1.9808213536541695e-07 0 0.0049388402648168558 -1.1364580408368343e-05 0 0.0048740433060265632 -2.8822302196666257e-06 0 0.0049388402648168558 -1.1364580408368343e-05 0 0.0049019450746774626 -1.8140908533881952e-05 0 0.0049019450746774626 -1.8140908533881952e-05 0 0.0048633707724867227 3.5512835464840018e-05 0 0.004925656043865875 5.1332061717767858e-06 0 0.0049388402648168558 -1.1364580408368343e-05 0 0.0049019450746774626 -1.8140908533881952e-05 0 0.004925656043865875 5.1332061717767858e-06 0 0.0046455857392445491 -6.4390260191954135e-05 0 0.0049019450746774626 -1.8140908533881952e-05 0 0.0047496504378016988 9.4156461604819616e-06 0 0.0047620029353345897 -2.886836027554136e-05 0 0.0048892198417390051 -2.2314218537834063e-05 0 0.0047224401993295768 9.971158389094736e-05 0 0.0047496504378016988 9.4156461604819616e-06 0 0.0048633707724867227 3.5512835464840018e-05 0 0.0048865327043264616 9.3512162106902346e-05 0 0.0048633707724867227 3.5512835464840018e-05 0 0.0049291577372330394 3.3841463805482359e-05 0 0.0049019450746774626 -1.8140908533881952e-05 0 0.0047496504378016988 9.4156461604819616e-06 0 0.0048633707724867227 3.5512835464840018e-05 0 0.0048633707724867227 3.5512835464840018e-05 0 0.0049291577372330394 3.3841463805482359e-05 0 0.004925656043865875 5.1332061717767858e-06 0 0.0049291577372330394 3.3841463805482359e-05 0 0.0049370118648514628 1.9889572968639384e-05 0 0.004925656043865875 5.1332061717767858e-06 0 0.0049291577372330394 3.3841463805482359e-05 0 0.0049370118648514628 1.9889572968639384e-05 0 0.0049288726364009709 2.4041055647948335e-05 0 0.0049291577372330394 3.3841463805482359e-05 0 0.0049288726364009709 2.4041055647948335e-05 0 0.0049307939193169153 3.297364664859645e-05 0 0.0049486213325089876 1.1954868237308132e-05 0 0.0049609974985490553 4.0475912380250448e-06 0 0.0049534947393246945 -1.2286561266296731e-06 0 0.0049370118648514628 1.9889572968639384e-05 0 0.0049486213325089876 1.1954868237308132e-05 0 0.0049288726364009709 2.4041055647948335e-05 0 0.0049388402648168558 -1.1364580408368343e-05 0 0.0049486213325089876 1.1954868237308132e-05 0 0.004925656043865875 5.1332061717767858e-06 0 0.0049370118648514628 1.9889572968639384e-05 0 0.0049486213325089876 1.1954868237308132e-05 0 0.004925656043865875 5.1332061717767858e-06 0 0.0049388402648168558 -1.1364580408368343e-05 0 0.0049486213325089876 1.1954868237308132e-05 0 0.0049609974985490553 4.0475912380250448e-06 0 0.0049388402648168558 -1.1364580408368343e-05 0 0.0049609974985490553 4.0475912380250448e-06 0 0.0050000139496032322 3.1369913141510199e-08 0 0.0049609974985490553 4.0475912380250448e-06 0 0.0050000139496032322 3.1369913141510199e-08 0 0.0049952692840286661 6.8408058167935976e-06 0 0.0049625073181690004 4.9685613805635516e-06 0 0.0049731694618378184 6.8827494907268541e-06 0 0.0049609974985490553 4.0475912380250448e-06 0 0.0049535516428871589 8.0455390693062393e-06 0 0.0049534947393246945 -1.2286561266296731e-06 0 0.0050000139496032322 3.1369913141510199e-08 0 0.0049952692840286661 6.8408058167935976e-06 0 0.004999626300624201 2.3805297821074886e-06 0 0.0049731694618378184 6.8827494907268541e-06 0 0.0049599026917266122 7.6782666940621048e-06 0 0.0049535516428871589 8.0455390693062393e-06 0 0.0049534947393246945 -1.2286561266296731e-06 0 0.0049209698295543929 1.2822530885609318e-05 0 0.0049109319868801639 4.3907984670492379e-05 0 0.0048867391925062568 3.1850625578297004e-05 0 0.0048607929327542272 4.6465394418694296e-05 0 0.0049109319868801639 4.3907984670492379e-05 0 0.0048867391925062568 3.1850625578297004e-05 0 0.0049072450522403433 2.7303164244747037e-05 0 0.004930385967004524 2.0254040605152182e-05 0 0.0048855144014771862 1.8900551241557072e-05 0 0.0049459576623684057 1.3707051523199833e-05 0 0.004930385967004524 2.0254040605152182e-05 0 0.0049486213325089876 1.1954868237308132e-05 0 0.0049109319868801639 4.3907984670492379e-05 0 0.0049288726364009709 2.4041055647948335e-05 0 0.0049109319868801639 4.3907984670492379e-05 0 0.0049288726364009709 2.4041055647948335e-05 0 0.0049072450522403433 2.7303164244747037e-05 0 0.0049288726364009709 2.4041055647948335e-05 0 0.0049072450522403433 2.7303164244747037e-05 0 0.0049133845770159912 1.8814612555557269e-05 0 0.0048867391925062568 3.1850625578297004e-05 0 0.0049072450522403433 2.7303164244747037e-05 0 0.0048887902994390105 1.8768371706331609e-05 0 0.0049072450522403433 2.7303164244747037e-05 0 0.0048887902994390105 1.8768371706331609e-05 0 0.0049133845770159912 1.8814612555557269e-05 0 0.0048887902994390105 1.8768371706331609e-05 0 0.0048954347242175858 -3.7804690222567748e-06 0 0.0049133845770159912 1.8814612555557269e-05 0 0.0048887902994390105 1.8768371706331609e-05 0 0.0048954347242175858 -3.7804690222567748e-06 0 0.0048671244922644302 8.4264257769245447e-06 0 0.0037898195545733931 4.0574312316968079e-05 0 0.0037912868589084995 8.9071505075458048e-05 0 0.0038434594636911294 4.3420155776585419e-05 0 0.0037898195545733931 4.0574312316968079e-05 0 0.0037406105634980053 5.0586663265681012e-05 0 0.0037564319185946445 6.9711408952263137e-05 0 0.0049288726364009709 2.4041055647948335e-05 0 0.0049133845770159912 1.8814612555557269e-05 0 0.0049307939193169153 3.297364664859645e-05 0 0.0043325506624644376 1.8882423887671583e-05 0 0.0043383427696506768 4.3294919775459019e-05 0 0.0048954347242175858 -3.7804690222567748e-06 0 0.0049133845770159912 1.8814612555557269e-05 0 0.0049307939193169153 3.297364664859645e-05 0 0.0037256746246835198 7.3688773370174829e-05 0 0.0037406105634980053 5.0586663265681012e-05 0 0.0037131103253614352 6.4746511049781669e-05 0 0.0048865327043264616 9.3512162106902346e-05 0 0.0049291577372330394 3.3841463805482359e-05 0 0.0049307939193169153 3.297364664859645e-05 0 0.0042926411034253827 8.3659266465536275e-05 0 0.0043383427696506768 4.3294919775459019e-05 0 0.0037406105634980053 5.0586663265681012e-05 0 0.0037131103253614352 6.4746511049781669e-05 0 0.0037564319185946445 6.9711408952263137e-05 0 0.0037131103253614352 6.4746511049781669e-05 0 0.0037427672238864083 0.00010404176727584463 0 0.0037564319185946445 6.9711408952263137e-05 0 0.0037131103253614352 6.4746511049781669e-05 0 0.0036740044772225365 4.7852108499936698e-05 0 0.0037061215873718488 3.4573087885783011e-05 0 0.0037214683985697331 4.3493395760508043e-05 0 0.0037131103253614352 6.4746511049781669e-05 0 0.0037061215873718488 3.4573087885783011e-05 0 0.003714121527604254 6.8016630741336162e-05 0 0.0037025874096962771 7.4101203125439321e-05 0 0.0037427672238864083 0.00010404176727584463 0 0.0037912868589084995 8.9071505075458048e-05 0 0.0037752793495528861 0.00013478643663087571 0 0.0037912868589084995 8.9071505075458048e-05 0 0.0038057885753642468 0.00012869530690840303 0 0.0037752793495528861 0.00013478643663087571 0 0.0037898195545733931 4.0574312316968079e-05 0 0.0037912868589084995 8.9071505075458048e-05 0 0.0037564319185946445 6.9711408952263137e-05 0 0.0037427672238864083 0.00010404176727584463 0 0.0037912868589084995 8.9071505075458048e-05 0 0.0037564319185946445 6.9711408952263137e-05 0 0.0038321379786793825 9.4290132517753451e-05 0 0.0038665762488170742 8.9111306292432763e-05 0 0.0038434594636911294 4.3420155776585419e-05 0 0.0037912868589084995 8.9071505075458048e-05 0 0.0038321379786793825 9.4290132517753451e-05 0 0.0038434594636911294 4.3420155776585419e-05 0 0.0037912868589084995 8.9071505075458048e-05 0 0.0038321379786793825 9.4290132517753451e-05 0 0.0038057885753642468 0.00012869530690840303 0 0.0038321379786793825 9.4290132517753451e-05 0 0.0038350401061127072 0.00012692231539710968 0 0.0038057885753642468 0.00012869530690840303 0 0.0034320045122047216 7.0085305416223986e-05 0 0.0034351914939383136 0.00022827703042129253 0 0.0038321379786793825 9.4290132517753451e-05 0 0.0038665762488170742 8.9111306292432763e-05 0 0.0038350401061127072 0.00012692231539710968 0 0.003186567211126506 0.00027309317406612655 0 0.0031397321460646765 3.89780171028938e-05 0 0.0030113638071396719 0.00033267520598106201 0 0.003186567211126506 0.00027309317406612655 0 0.0034521104845584051 0.00019863349191738574 0 0.0031397321460646765 3.89780171028938e-05 0 0.0034521104845584051 0.00019863349191738574 0 0.003497181016261662 -5.8958823018116949e-05 0 0.0031397321460646765 3.89780171028938e-05 0 0.003497181016261662 -5.8958823018116949e-05 0 0.0031397321460646765 3.89780171028938e-05 0 0.0033416017186779436 -0.00025824620819930541 0 0.0034320045122047216 7.0085305416223986e-05 0 0.0041825237742891107 8.5583741808277511e-06 0 0.0041825237742891107 8.5583741808277511e-06 0 0.0043861601521842531 1.9229450151616356e-05 0 0.0038665762488170742 8.9111306292432763e-05 0 0.003900026065468856 4.7897284359515521e-05 0 0.0038434594636911294 4.3420155776585419e-05 0 0.0048150594913106319 -9.9642863453055057e-06 0 0.0048263626011957831 3.2711515453578185e-06 0 0.0048479708650669895 -1.1993241796430492e-05 0 0.0047589484944992391 7.2193671363796863e-05 0 0.0047830363743205963 4.5055562758331181e-05 0 0.0048158597605960892 7.8161796128214513e-05 0 0.0041825237742891107 8.5583741808277511e-06 0 0.0042267427177803754 -8.4185093501392062e-05 0 0.003497181016261662 -5.8958823018116949e-05 0 0.0033416017186779436 -0.00025824620819930541 0 0.0037088590841747753 -0.00021983252606086107 0 0.0041825237742891107 8.5583741808277511e-06 0 0.00481285942762764 -2.6838741995261019e-05 0 0.00481285942762764 -2.6838741995261019e-05 0 0.004798274906850415 3.1666628720680483e-05 0 0.0048150594913106319 -9.9642863453055057e-06 0 0.0048124257673181044 5.1502081228478578e-06 0 0.0048263626011957831 3.2711515453578185e-06 0 0.0048124257673181044 5.1502081228478578e-06 0 0.0048263626011957831 3.2711515453578185e-06 0 0.0048215760507741854 1.7470948728616092e-05 0 0.0048263626011957831 3.2711515453578185e-06 0 0.0048414408354959569 1.2682292654351221e-05 0 0.0048215760507741854 1.7470948728616092e-05 0 0.0048263626011957831 3.2711515453578185e-06 0 0.0048479708650669895 -1.1993241796430492e-05 0 0.0048414408354959569 1.2682292654351221e-05 0 0.0048479708650669895 -1.1993241796430492e-05 0 0.0048671244922644302 8.4264257769245447e-06 0 0.0048414408354959569 1.2682292654351221e-05 0 0.0043325506624644376 1.8882423887671583e-05 0 0.0043861601521842531 1.9229450151616356e-05 0 0.0048954347242175858 -3.7804690222567748e-06 0 0.0048479708650669895 -1.1993241796430492e-05 0 0.0048671244922644302 8.4264257769245447e-06 0 0.0048887902994390105 1.8768371706331609e-05 0 0.0048671244922644302 8.4264257769245447e-06 0 0.0048639544371147734 2.4964403678999797e-05 0 0.0050000139496032322 3.1369913141510199e-08 0 0.004999626300624201 2.3805297821074886e-06 0 0.0049999958218613543 -6.6312950061081247e-09 0 0.0048671244922644302 8.4264257769245447e-06 0 0.0048639544371147734 2.4964403678999797e-05 0 0.0048414408354959569 1.2682292654351221e-05 0 0.0048867391925062568 3.1850625578297004e-05 0 0.0048887902994390105 1.8768371706331609e-05 0 0.0048639544371147734 2.4964403678999797e-05 0 0.0048639544371147734 2.4964403678999797e-05 0 0.004839821846274771 2.5604512589662282e-05 0 0.0048414408354959569 1.2682292654351221e-05 0 0.0048855144014771862 1.8900551241557072e-05 0 0.0048423769401213339 1.0448036990068002e-05 0 0.004839821846274771 2.5604512589662282e-05 0 0.0048607929327542272 4.6465394418694296e-05 0 0.0048218680774312966 2.9198038711033606e-05 0 0.0048639544371147734 2.4964403678999797e-05 0 0.004839821846274771 2.5604512589662282e-05 0 0.0048607929327542272 4.6465394418694296e-05 0 0.0048867391925062568 3.1850625578297004e-05 0 0.0048639544371147734 2.4964403678999797e-05 0 0.0048607929327542272 4.6465394418694296e-05 0 0.0049534947393246945 -1.2286561266296731e-06 0 0.0049096908167959256 -8.0431399428103178e-06 0 0.0049209698295543929 1.2822530885609318e-05 0 0.004999626300624201 2.3805297821074886e-06 0 0.0049995451114107897 1.2361573413662345e-06 0 0.0049999958218613543 -6.6312950061081247e-09 0 0.0049096908167959256 -8.0431399428103178e-06 0 0.0049209698295543929 1.2822530885609318e-05 0 0.0048781499744579241 1.4497545981583573e-05 0 0.0049096908167959256 -8.0431399428103178e-06 0 0.0048781499744579241 1.4497545981583573e-05 0 0.0048590746569697656 -7.7597337855966886e-06 0 0.0049599026917266122 7.6782666940621048e-06 0 0.0049398420344739227 7.4692587054186641e-06 0 0.0049999958218613543 -6.6312950061081247e-09 0 0.0049992652272752985 3.9384308427744189e-07 0 0.0049983086016764664 9.6474827515964088e-07 0 0.0049995451114107897 1.2361573413662345e-06 0 0.0049999958218613543 -6.6312950061081247e-09 0 0.0049992652272752985 3.9384308427744189e-07 0 0.0049398420344739227 7.4692587054186641e-06 0 0.0049182055521623785 5.0564738196082372e-06 0 0.0048781499744579241 1.4497545981583573e-05 0 0.004842477650851172 9.2415997777046544e-06 0 0.0048590746569697656 -7.7597337855966886e-06 0 0.004842477650851172 9.2415997777046544e-06 0 0.0048590746569697656 -7.7597337855966886e-06 0 0.0048287867375083147 8.285386743107606e-07 0 0.0048423769401213339 1.0448036990068002e-05 0 0.0048307490005988756 2.4109856600480619e-06 0 0.0048185323370571638 1.6045260188169302e-05 0 0.0048218680774312966 2.9198038711033606e-05 0 0.0048215760507741854 1.7470948728616092e-05 0 0.0048185323370571638 1.6045260188169302e-05 0 0.0048218680774312966 2.9198038711033606e-05 0 0.0048287867375083147 8.285386743107606e-07 0 0.004839821846274771 2.5604512589662282e-05 0 0.0048218680774312966 2.9198038711033606e-05 0 0.0048215760507741854 1.7470948728616092e-05 0 0.004839821846274771 2.5604512589662282e-05 0 0.0048414408354959569 1.2682292654351221e-05 0 0.0048215760507741854 1.7470948728616092e-05 0 0.0048185323370571638 1.6045260188169302e-05 0 0.0048215760507741854 1.7470948728616092e-05 0 0.0048116474234904689 1.984113772535433e-05 0 0.0048124257673181044 5.1502081228478578e-06 0 0.0048215760507741854 1.7470948728616092e-05 0 0.0048116474234904689 1.984113772535433e-05 0 0.0048185323370571638 1.6045260188169302e-05 0 0.0048116474234904689 1.984113772535433e-05 0 0.0048329966379858785 1.035642233382571e-05 0 0.0048116474234904689 1.984113772535433e-05 0 0.0048329966379858785 1.035642233382571e-05 0 0.0048284599115521291 3.9749255695747882e-05 0 0.0048329966379858785 1.035642233382571e-05 0 0.0048613542180106321 2.3285137534844504e-05 0 0.0048284599115521291 3.9749255695747882e-05 0 0.0048329966379858785 1.035642233382571e-05 0 0.0048395607995740933 -3.5124466516435366e-06 0 0.0048591443327616387 -9.7028922199195836e-06 0 0.0048329966379858785 1.035642233382571e-05 0 0.0048591443327616387 -9.7028922199195836e-06 0 0.0048613542180106321 2.3285137534844504e-05 0 0.0048185323370571638 1.6045260188169302e-05 0 0.0048329966379858785 1.035642233382571e-05 0 0.0048287867375083147 8.285386743107606e-07 0 0.0048329966379858785 1.035642233382571e-05 0 0.0048287867375083147 8.285386743107606e-07 0 0.0048395607995740933 -3.5124466516435366e-06 0 0.004842477650851172 9.2415997777046544e-06 0 0.0048287867375083147 8.285386743107606e-07 0 0.0048333049996443422 -1.5662048595876269e-06 0 0.0049182055521623785 5.0564738196082372e-06 0 0.004933525933445951 -5.7080134570617337e-06 0 0.0049992652272752985 3.9384308427744189e-07 0 0.0049981730779475831 9.0816846277351238e-07 0 0.0049983086016764664 9.6474827515964088e-07 0 0.004842477650851172 9.2415997777046544e-06 0 0.0048335504033746148 -4.3064077564252281e-06 0 0.0048333049996443422 -1.5662048595876269e-06 0 0.0049999958218613543 -6.6312950061081247e-09 0 0.0049983086016764664 9.6474827515964088e-07 0 0.0049999873894328393 6.9341709338217668e-09 0 0.004933525933445951 -5.7080134570617337e-06 0 0.0049425326457511066 -4.7293271138321732e-07 0 0.0048335504033746148 -4.3064077564252281e-06 0 0.0048333049996443422 -1.5662048595876269e-06 0 0.0048395607995740933 -3.5124466516435366e-06 0 0.0048287867375083147 8.285386743107606e-07 0 0.0048333049996443422 -1.5662048595876269e-06 0 0.0048395607995740933 -3.5124466516435366e-06 0 0.004933525933445951 -5.7080134570617337e-06 0 0.0049247194985066788 -2.0188427625735925e-06 0 0.0049977459639359983 1.2987847684629083e-06 0 0.0049963424520762592 2.2135116963036487e-06 0 0.0049933888942646082 3.6788028282810463e-06 0 0.0048335504033746148 -4.3064077564252281e-06 0 0.0048395607995740933 -3.5124466516435366e-06 0 0.0048591443327616387 -9.7028922199195836e-06 0 0.004998297213255367 8.6962498459735972e-07 0 0.0049977459639359983 1.2987847684629083e-06 0 0.0049933888942646082 3.6788028282810463e-06 0 0.0049981435862942424 9.5358726048110457e-07 0 0.0049977459639359983 1.2987847684629083e-06 0 0.0049983086016764664 9.6474827515964088e-07 0 0.004933525933445951 -5.7080134570617337e-06 0 0.0049769363884013202 -6.026794296773049e-06 0 0.0049977459639359983 1.2987847684629083e-06 0 0.0049983086016764664 9.6474827515964088e-07 0 0.0049999873894328393 6.9341709338217668e-09 0 0.0049959203629677523 2.0898072684254295e-06 0 0.0049999873894328393 6.9341709338217668e-09 0 0.0049933436050526589 3.7770820002313943e-06 0 0.0049977459639359983 1.2987847684629083e-06 0 0.0049999873894328393 6.9341709338217668e-09 0 0.0049963424520762592 2.2135116963036487e-06 0 0.0049999873894328393 6.9341709338217668e-09 0 0.0049963424520762592 2.2135116963036487e-06 0 0.0049933436050526589 3.7770820002313943e-06 0 0.0049963424520762592 2.2135116963036487e-06 0 0.0049933436050526589 3.7770820002313943e-06 0 0.0049933888942646082 3.6788028282810463e-06 0 0.0049959203629677523 2.0898072684254295e-06 0 0.0049890765995597051 7.2125268486480522e-06 0 0.0049933436050526589 3.7770820002313943e-06 0 0.0049890765995597051 7.2125268486480522e-06 0 0.0049933436050526589 3.7770820002313943e-06 0 0.0049841927769932251 1.0009554392430275e-05 0 0.0049933436050526589 3.7770820002313943e-06 0 0.0049933888942646082 3.6788028282810463e-06 0 0.0049841927769932251 1.0009554392430275e-05 0 0.0049247194985066788 -2.0188427625735925e-06 0 0.0049464376635507097 8.8914937293110296e-06 0 0.0048591443327616387 -9.7028922199195836e-06 0 0.0048613542180106321 2.3285137534844504e-05 0 0.0049044791853173775 2.5070632769426357e-06 0 0.0048613542180106321 2.3285137534844504e-05 0 0.0049044791853173775 2.5070632769426357e-06 0 0.0048975011335060502 4.9863219620855193e-05 0 0.0049693263358968672 3.1569932688045092e-05 0 0.0049044791853173775 2.5070632769426357e-06 0 0.0048975011335060502 4.9863219620855193e-05 0 0.0049693263358968672 3.1569932688045092e-05 0 0.004936291510029998 0.00010329675512510618 0 0.0048975011335060502 4.9863219620855193e-05 0 0.0045734360206072851 4.2960300590217527e-05 0 0.0045046819165332685 -4.8975359235939598e-05 0 0.004936291510029998 0.00010329675512510618 0 0.0048975011335060502 4.9863219620855193e-05 0 0.0048686988043760452 8.9589103294767649e-05 0 0.0048975011335060502 4.9863219620855193e-05 0 0.0048686988043760452 8.9589103294767649e-05 0 0.0048534036201071107 5.5520574026339269e-05 0 0.0048613542180106321 2.3285137534844504e-05 0 0.0048975011335060502 4.9863219620855193e-05 0 0.0048534036201071107 5.5520574026339269e-05 0 0.0048613542180106321 2.3285137534844504e-05 0 0.0048534036201071107 5.5520574026339269e-05 0 0.0048284599115521291 3.9749255695747882e-05 0 0.0048534036201071107 5.5520574026339269e-05 0 0.0048284599115521291 3.9749255695747882e-05 0 0.0048158597605960892 7.8161796128214513e-05 0 0.0047830363743205963 4.5055562758331181e-05 0 0.0048116474234904689 1.984113772535433e-05 0 0.0048284599115521291 3.9749255695747882e-05 0 0.0047830363743205963 4.5055562758331181e-05 0 0.0048284599115521291 3.9749255695747882e-05 0 0.0048158597605960892 7.8161796128214513e-05 0 0.0048686988043760452 8.9589103294767649e-05 0 0.0048534036201071107 5.5520574026339269e-05 0 0.0048158597605960892 7.8161796128214513e-05 0 0.0045046819165332685 -4.8975359235939598e-05 0 0.0042267427177803754 -8.4185093501392062e-05 0 0.0040762597728958684 -0.00017973125992053364 0 0.0037088590841747753 -0.00021983252606086107 0 0.0037834363391262035 8.2107032487529558e-05 0 0.0040762597728958684 -0.00017973125992053364 0 0.0037834363391262035 8.2107032487529558e-05 0 0.0040746842537426574 0.00010550658163749934 0 0.003497181016261662 -5.8958823018116949e-05 0 0.0037088590841747753 -0.00021983252606086107 0 0.0037834363391262035 8.2107032487529558e-05 0 0.0034521104845584051 0.00019863349191738574 0 0.0037834363391262035 8.2107032487529558e-05 0 0.0036637145543376632 0.00034332342745181465 0 0.0034521104845584051 0.00019863349191738574 0 0.003497181016261662 -5.8958823018116949e-05 0 0.0037834363391262035 8.2107032487529558e-05 0 0.0037834363391262035 8.2107032487529558e-05 0 0.0040746842537426574 0.00010550658163749934 0 0.0039541048919692736 0.00032529225946028852 0 0.0037834363391262035 8.2107032487529558e-05 0 0.0039541048919692736 0.00032529225946028852 0 0.0036637145543376632 0.00034332342745181465 0 0.0040746842537426574 0.00010550658163749934 0 0.004199245361706269 0.00031804507492723324 0 0.0039541048919692736 0.00032529225946028852 0 0.0040746842537426574 0.00010550658163749934 0 0.00432096731881114 8.9879694884392741e-05 0 0.004199245361706269 0.00031804507492723324 0 0.0043022784004834932 0.00016631010045828099 0 0.0042155533086833561 0.00030516513782240858 0 0.0043165948391498798 0.00029939489511614291 0 0.0043080205571270841 0.00022456607169458057 0 0.004199245361706269 0.00031804507492723324 0 0.0043963093718957982 0.00025737702160241266 0 0.0043165948391498798 0.00029939489511614291 0 0.0043080205571270841 0.00022456607169458057 0 0.0044424490905661104 -0.00013664121194791555 0 0.0040762597728958684 -0.00017973125992053364 0 0.00432096731881114 8.9879694884392741e-05 0 0.0045734360206072851 4.2960300590217527e-05 0 0.0043022784004834932 0.00016631010045828099 0 0.0040762597728958684 -0.00017973125992053364 0 0.0040746842537426574 0.00010550658163749934 0 0.00432096731881114 8.9879694884392741e-05 0 0.0025246510447675674 0.0005227449473727432 0 0.002697686415846882 0.0005278962379330651 0 0.0025337488509535964 0.00042194163447242897 0 0.0033381918876087048 0.00052188267312695271 0 0.0032591417490332513 0.00053559994048967951 0 0.0043560534673198056 0.00042633536523623038 0 0.0044063773803984579 0.0004474469265170566 0 0.0041687243912960723 0.00052955364398123389 0 0.0023616851569802765 0.00049595333744450185 0 0.0025246510447675674 0.0005227449473727432 0 0.0024377106029118416 0.0004436796092154964 0 0.003399243267569233 0.00047283158181737265 0 0.0033381918876087048 0.00052188267312695271 0 0.0025246510447675674 0.0005227449473727432 0 0.0025337488509535964 0.00042194163447242897 0 0.0024377106029118416 0.0004436796092154964 0 0.0041687243912960723 0.00052955364398123389 0 0.004322892296754261 0.00036836177456263223 0 0.004199245361706269 0.00031804507492723324 0 0.0043560534673198056 0.00042633536523623038 0 0.0041687243912960723 0.00052955364398123389 0 0.004322892296754261 0.00036836177456263223 0 0.0043934379699126797 0.00031258263410926564 0 0.0043165948391498798 0.00029939489511614291 0 0.004322892296754261 0.00036836177456263223 0 0.0043165948391498798 0.00029939489511614291 0 0.004322892296754261 0.00036836177456263223 0 0.004199245361706269 0.00031804507492723324 0 0.0041687243912960723 0.00052955364398123389 0 0.004199245361706269 0.00031804507492723324 0 0.0039541048919692736 0.00032529225946028852 0 0.0039541048919692736 0.00032529225946028852 0 0.0036637145543376632 0.00034332342745181465 0 0.0038202505641906017 0.0005457073486773989 0 0.0041687243912960723 0.00052955364398123389 0 0.0039541048919692736 0.00032529225946028852 0 0.0038202505641906017 0.0005457073486773989 0 0.0036637145543376632 0.00034332342745181465 0 0.0038202505641906017 0.0005457073486773989 0 0.0034577047867609795 0.00052723247578643953 0 0.0032591417490332513 0.00053559994048967951 0 0.0031639976685980068 0.00052031774652285467 0 0.002697686415846882 0.0005278962379330651 0 0.0027457361958582792 0.00041352320149734816 0 0.002873564181803864 0.00052269255255446426 0 0.002697686415846882 0.0005278962379330651 0 0.002628540426198461 0.00036861430871686085 0 0.0025337488509535964 0.00042194163447242897 0 0.002697686415846882 0.0005278962379330651 0 0.002628540426198461 0.00036861430871686085 0 0.0027457361958582792 0.00041352320149734816 0 0.0027457361958582792 0.00041352320149734816 0 0.0027462216607103082 0.00026349825069314656 0 0.0028630729070718212 0.00037155672647642686 0 0.002628540426198461 0.00036861430871686085 0 0.0027457361958582792 0.00041352320149734816 0 0.0027462216607103082 0.00026349825069314656 0 0.002628540426198461 0.00036861430871686085 0 0.0027462216607103082 0.00026349825069314656 0 0.0026018700043364575 0.00022865726933479237 0 0.002628540426198461 0.00036861430871686085 0 0.0025330503846559133 0.0003130903314592372 0 0.0026018700043364575 0.00022865726933479237 0 0.002628540426198461 0.00036861430871686085 0 0.0025330503846559133 0.0003130903314592372 0 0.0025337488509535964 0.00042194163447242897 0 0.0025337488509535964 0.00042194163447242897 0 0.0024377106029118416 0.0004436796092154964 0 0.0024194653439776012 0.00035084113430464614 0 0.0023704247293473597 0.0004230916740662148 0 0.0024377106029118416 0.0004436796092154964 0 0.0024194653439776012 0.00035084113430464614 0 0.0025330503846559133 0.0003130903314592372 0 0.0024194653439776012 0.00035084113430464614 0 0.0024734192711508623 0.00019640402300241994 0 0.0025330503846559133 0.0003130903314592372 0 0.0025337488509535964 0.00042194163447242897 0 0.0024194653439776012 0.00035084113430464614 0 0.0023542828429231025 7.0940229653591359e-05 0 0.0023380331383360221 0.00023841218844677058 0 0.0024734192711508623 0.00019640402300241994 0 0.0023380331383360221 0.00023841218844677058 0 0.0024194653439776012 0.00035084113430464614 0 0.0024734192711508623 0.00019640402300241994 0 0.0025330503846559133 0.0003130903314592372 0 0.0024734192711508623 0.00019640402300241994 0 0.0026018700043364575 0.00022865726933479237 0 0.0024734192711508623 0.00019640402300241994 0 0.0026018700043364575 0.00022865726933479237 0 0.0025361488886776972 8.9601154438737011e-05 0 0.0023689287038995773 8.0449872670276132e-05 0 0.0024610775686067276 0.00018583955164438876 0 0.0023564401140007928 7.7201479981126088e-05 0 0.0024734192711508623 0.00019640402300241994 0 0.0025361488886776972 8.9601154438737011e-05 0 0.0023564401140007928 7.7201479981126088e-05 0 0.0025361488886776972 8.9601154438737011e-05 0 0.0024977665370434013 -3.7880892022485313e-05 0 0.0023564401140007928 7.7201479981126088e-05 0 0.0023713103380008263 -4.7589971879748549e-05 0 0.0024977665370434013 -3.7880892022485313e-05 0 0.0025361488886776972 8.9601154438737011e-05 0 0.0024977665370434013 -3.7880892022485313e-05 0 0.0026267938403955263 -3.2974722753869916e-05 0 0.0024977665370434013 -3.7880892022485313e-05 0 0.0026267938403955263 -3.2974722753869916e-05 0 0.0025732910211750059 -0.00020046804487535385 0 0.0024977665370434013 -3.7880892022485313e-05 0 0.0024449732180056669 -0.00015106421769289538 0 0.0025732910211750059 -0.00020046804487535385 0 0.0023713103380008263 -4.7589971879748549e-05 0 0.0024977665370434013 -3.7880892022485313e-05 0 0.0024449732180056669 -0.00015106421769289538 0 0.0023713103380008263 -4.7589971879748549e-05 0 0.0024449732180056669 -0.00015106421769289538 0 0.0023354304759184655 -0.00016786720670968408 0 0.0027277367360538083 -0.00010410757695987594 0 0.0026267938403955263 -3.2974722753869916e-05 0 0.0025732910211750059 -0.00020046804487535385 0 0.0025361488886776972 8.9601154438737011e-05 0 0.0026267938403955263 -3.2974722753869916e-05 0 0.0026797367810383679 0.00011738662456216421 0 0.0026267938403955263 -3.2974722753869916e-05 0 0.0027510257742981033 2.0164455480243229e-05 0 0.0026797367810383679 0.00011738662456216421 0 0.0027277367360538083 -0.00010410757695987594 0 0.0027510257742981033 2.0164455480243229e-05 0 0.002876794580565781 -4.4962459485825499e-06 0 0.0027277367360538083 -0.00010410757695987594 0 0.0026267938403955263 -3.2974722753869916e-05 0 0.0027510257742981033 2.0164455480243229e-05 0 0.0027510257742981033 2.0164455480243229e-05 0 0.0026797367810383679 0.00011738662456216421 0 0.0028130263447610614 0.00012836212247389892 0 0.0026018700043364575 0.00022865726933479237 0 0.0025361488886776972 8.9601154438737011e-05 0 0.0026797367810383679 0.00011738662456216421 0 0.0027462216607103082 0.00026349825069314656 0 0.0026018700043364575 0.00022865726933479237 0 0.0026797367810383679 0.00011738662456216421 0 0.0027462216607103082 0.00026349825069314656 0 0.0026797367810383679 0.00011738662456216421 0 0.0028130263447610614 0.00012836212247389892 0 0.0027462216607103082 0.00026349825069314656 0 0.0029053670323673591 0.00024502381164498362 0 0.0028130263447610614 0.00012836212247389892 0 0.0029053670323673591 0.00024502381164498362 0 0.0029224360665034521 0.00013190994635224222 0 0.0028130263447610614 0.00012836212247389892 0 0.0029053670323673591 0.00024502381164498362 0 0.0029986311799621483 0.00018923599475819324 0 0.0030111926154348799 0.0002764295025560298 0 0.0029053670323673591 0.00024502381164498362 0 0.0029224360665034521 0.00013190994635224222 0 0.0029986311799621483 0.00018923599475819324 0 0.0029224360665034521 0.00013190994635224222 0 0.0030129292314878746 9.5601281397829377e-05 0 0.0029986311799621483 0.00018923599475819324 0 0.0029224360665034521 0.00013190994635224222 0 0.002876794580565781 -4.4962459485825499e-06 0 0.0030129292314878746 9.5601281397829377e-05 0 0.0029224360665034521 0.00013190994635224222 0 0.0028130263447610614 0.00012836212247389892 0 0.002876794580565781 -4.4962459485825499e-06 0 0.0027510257742981033 2.0164455480243229e-05 0 0.0028130263447610614 0.00012836212247389892 0 0.002876794580565781 -4.4962459485825499e-06 0 0.0015167528734084982 0.00035939157465042975 0 0.0017047887938469856 0.00029304501674314829 0 0.0016873331093110653 0.00045058951187138652 0 0.002202088865388582 0.00017811358787093849 0 0.002316028281390917 0.00027780299034103998 0 0.0015167528734084982 0.00035939157465042975 0 0.0015630712926333642 0.00021216879861022043 0 0.0017047887938469856 0.00029304501674314829 0 0.0020283613776596317 7.9736787039473765e-05 0 0.002202088865388582 0.00017811358787093849 0 0.001338337429844958 0.00026771531236056923 0 0.0015167528734084982 0.00035939157465042975 0 0.0015630712926333642 0.00021216879861022043 0 0.0018740602162430262 0.00024659553285334484 0 0.0017047887938469856 0.00029304501674314829 0 0.001842040768348346 0.00035264279213087258 0 0.0018740602162430262 0.00024659553285334484 0 0.0017047887938469856 0.00029304501674314829 0 0.0018034094050912979 0.00016128128713638727 0 0.0017570348789963882 0.00038138332189083869 0 0.0018127916690341189 0.00043618996781066572 0 0.0016873331093110653 0.00045058951187138652 0 0.0017047887938469856 0.00029304501674314829 0 0.0017570348789963882 0.00038138332189083869 0 0.001842040768348346 0.00035264279213087258 0 0.0017047887938469856 0.00029304501674314829 0 0.0017570348789963882 0.00038138332189083869 0 0.0016873331093110653 0.00045058951187138652 0 0.0017570348789963882 0.00038138332189083869 0 0.001842040768348346 0.00035264279213087258 0 0.0018127916690341189 0.00043618996781066572 0 0.001842040768348346 0.00035264279213087258 0 0.0018127916690341189 0.00043618996781066572 0 0.0019352900734220955 0.00042435152797375088 0 0.0018127916690341189 0.00043618996781066572 0 0.0016873331093110653 0.00045058951187138652 0 0.0018543058883771332 0.00054591098784111222 0 0.0018127916690341189 0.00043618996781066572 0 0.0018543058883771332 0.00054591098784111222 0 0.0019352900734220955 0.00042435152797375088 0 0.002316028281390917 0.00027780299034103998 0 0.0026789558109404821 0.0002665371175674212 0 0.0030129292314878746 9.5601281397829377e-05 0 0.0029986311799621483 0.00018923599475819324 0 0.0031236170676382695 0.00017648699890309707 0 0.0029986311799621483 0.00018923599475819324 0 0.0030752391771061683 0.0002449771101952884 0 0.0031327252421418767 0.00019081644831805478 0 0.0031942094147678068 0.00016399629754638634 0 0.0026789558109404821 0.0002665371175674212 0 0.0029986311799621483 0.00018923599475819324 0 0.0030752391771061683 0.0002449771101952884 0 0.0030111926154348799 0.0002764295025560298 0 0.0030752391771061683 0.0002449771101952884 0 0.0031327252421418767 0.00019081644831805478 0 0.0031317067632586119 0.00025966398488123688 0 0.0031327252421418767 0.00019081644831805478 0 0.0031317067632586119 0.00025966398488123688 0 0.0031984476387484271 0.00023372407427627866 0 0.0031317067632586119 0.00025966398488123688 0 0.0030916287598571246 0.00030864579442121352 0 0.0031678207683462295 0.00030368950963678969 0 0.0030752391771061683 0.0002449771101952884 0 0.0031317067632586119 0.00025966398488123688 0 0.0030916287598571246 0.00030864579442121352 0 0.0030916287598571246 0.00030864579442121352 0 0.0031154036079811122 0.00037903335164014699 0 0.0031678207683462295 0.00030368950963678969 0 0.0031154036079811122 0.00037903335164014699 0 0.0031296396957629581 0.00047389969549456961 0 0.0032037394426837236 0.00037168163751693996 0 0.0030916287598571246 0.00030864579442121352 0 0.0031154036079811122 0.00037903335164014699 0 0.0030599017493983319 0.0003760333897737608 0 0.0031154036079811122 0.00037903335164014699 0 0.0030599017493983319 0.0003760333897737608 0 0.0030727262136744093 0.00043726583965058614 0 0.0030599017493983319 0.0003760333897737608 0 0.0030727262136744093 0.00043726583965058614 0 0.0030537102771660937 0.00043038595731132725 0 0.0030599017493983319 0.0003760333897737608 0 0.0029904048063326832 0.00035614062985982729 0 0.0030537102771660937 0.00043038595731132725 0 0.0030916287598571246 0.00030864579442121352 0 0.0030599017493983319 0.0003760333897737608 0 0.0030111926154348799 0.0002764295025560298 0 0.0030752391771061683 0.0002449771101952884 0 0.0030916287598571246 0.00030864579442121352 0 0.0030111926154348799 0.0002764295025560298 0 0.0030599017493983319 0.0003760333897737608 0 0.0030111926154348799 0.0002764295025560298 0 0.0029904048063326832 0.00035614062985982729 0 0.0029053670323673591 0.00024502381164498362 0 0.0028630729070718212 0.00037155672647642686 0 0.0029904048063326832 0.00035614062985982729 0 0.0029053670323673591 0.00024502381164498362 0 0.0030111926154348799 0.0002764295025560298 0 0.0029904048063326832 0.00035614062985982729 0 0.0027462216607103082 0.00026349825069314656 0 0.0029053670323673591 0.00024502381164498362 0 0.0028630729070718212 0.00037155672647642686 0 0.0027457361958582792 0.00041352320149734816 0 0.0028630729070718212 0.00037155672647642686 0 0.002873564181803864 0.00052269255255446426 0 0.0028630729070718212 0.00037155672647642686 0 0.0029904048063326832 0.00035614062985982729 0 0.0029823803500496153 0.00043206041638099826 0 0.0029904048063326832 0.00035614062985982729 0 0.0029823803500496153 0.00043206041638099826 0 0.0030537102771660937 0.00043038595731132725 0 0.0029823803500496153 0.00043206041638099826 0 0.0030537102771660937 0.00043038595731132725 0 0.0030865850994316007 0.0004754254469652495 0 0.0031639976685980068 0.00052031774652285467 0 0.0030894995786769621 0.0004851732138632769 0 0.0029823803500496153 0.00043206041638099826 0 0.002873564181803864 0.00052269255255446426 0 0.0030865850994316007 0.0004754254469652495 0 0.0028630729070718212 0.00037155672647642686 0 0.0029823803500496153 0.00043206041638099826 0 0.002873564181803864 0.00052269255255446426 0 0.0034521104845584051 0.00019863349191738574 0 0.0036637145543376632 0.00034332342745181465 0 0.0034577047867609795 0.00052723247578643953 0 0.003186567211126506 0.00027309317406612655 0 0.0034521104845584051 0.00019863349191738574 0 0.0034577047867609795 0.00052723247578643953 0 0.003186567211126506 0.00027309317406612655 0 0.0034577047867609795 0.00052723247578643953 0 0.0030865850994316007 0.0004754254469652495 0 0.003186567211126506 0.00027309317406612655 0 0.0030113638071396719 0.00033267520598106201 0 0.0030865850994316007 0.0004754254469652495 0 0.0030113638071396719 0.00033267520598106201 0 0.0030865850994316007 0.0004754254469652495 0 0.0030550996472671001 0.00043957873812663846 0 0.0030113638071396719 0.00033267520598106201 0 0.0030349017633927301 0.00044675824555868488 0 0.0030550996472671001 0.00043957873812663846 0 0.0038350401061127072 0.00012692231539710968 0 0.0038057885753642468 0.00012869530690840303 0 0.0038064268303843658 0.00016333925408338294 0 0.0034351914939383136 0.00022827703042129253 0 0.0034335185485383445 0.00025606517741595208 0 0.0031154036079811122 0.00037903335164014699 0 0.0031296396957629581 0.00047389969549456961 0 0.0030727262136744093 0.00043726583965058614 0 0.0034335185485383445 0.00025606517741595208 0 0.0031366645700353938 0.0003230027518689199 0 0.0030349017633927301 0.00044675824555868488 0 0.0030727262136744093 0.00043726583965058614 0 0.0030550996472671001 0.00043957873812663846 0 0.0030727262136744093 0.00043726583965058614 0 0.0030537102771660937 0.00043038595731132725 0 0.0030550996472671001 0.00043957873812663846 0 0.0030537102771660937 0.00043038595731132725 0 0.0030865850994316007 0.0004754254469652495 0 0.0030550996472671001 0.00043957873812663846 0 0.0036611400660671732 1.142543683941419e-05 0 0.0036399843470980207 1.0930296787298719e-05 0 0.0036530363700153384 -5.4465717608266751e-06 0 0.0036611400660671732 1.142543683941419e-05 0 0.0036399843470980207 1.0930296787298719e-05 0 0.0036450245773507516 3.2678074104898529e-05 0 0.0036175904514564473 1.6856886708450638e-05 0 0.0036399843470980207 1.0930296787298719e-05 0 0.0036331178874320857 -6.3190933952906323e-06 0 0.0036175904514564473 1.6856886708450638e-05 0 0.0036399843470980207 1.0930296787298719e-05 0 0.0036450245773507516 3.2678074104898529e-05 0 0.0034335185485383445 0.00025606517741595208 0 0.0037489093629838486 7.5877961483425705e-05 0 0.0038057885753642468 0.00012869530690840303 0 0.0038064268303843658 0.00016333925408338294 0 0.0037752793495528861 0.00013478643663087571 0 0.0037025874096962771 7.4101203125439321e-05 0 0.0037489093629838486 7.5877961483425705e-05 0 0.0036611400660671732 1.142543683941419e-05 0 0.0036450245773507516 3.2678074104898529e-05 0 0.0036787726807177758 2.5519883299280213e-05 0 0.0036740044772225365 4.7852108499936698e-05 0 0.0036450245773507516 3.2678074104898529e-05 0 0.0036787726807177758 2.5519883299280213e-05 0 0.0036740044772225365 4.7852108499936698e-05 0 0.0036787726807177758 2.5519883299280213e-05 0 0.0037061215873718488 3.4573087885783011e-05 0 0.0036787726807177758 2.5519883299280213e-05 0 0.0037061215873718488 3.4573087885783011e-05 0 0.0037005099385361583 1.9888879955281269e-05 0 0.0036787726807177758 2.5519883299280213e-05 0 0.0037005099385361583 1.9888879955281269e-05 0 0.0036790023222701114 1.2198018455915257e-05 0 0.0037005099385361583 1.9888879955281269e-05 0 0.0036895754918047341 5.534159193461638e-06 0 0.0037173116606448835 1.140288711209075e-05 0 0.0037005099385361583 1.9888879955281269e-05 0 0.0036895754918047341 5.534159193461638e-06 0 0.0036790023222701114 1.2198018455915257e-05 0 0.0036611400660671732 1.142543683941419e-05 0 0.0036787726807177758 2.5519883299280213e-05 0 0.0036790023222701114 1.2198018455915257e-05 0 0.0036895754918047341 5.534159193461638e-06 0 0.0036790023222701114 1.2198018455915257e-05 0 0.0036717960899727751 -1.4944242440035521e-06 0 0.0036611400660671732 1.142543683941419e-05 0 0.0036790023222701114 1.2198018455915257e-05 0 0.0036717960899727751 -1.4944242440035521e-06 0 0.0036611400660671732 1.142543683941419e-05 0 0.0036717960899727751 -1.4944242440035521e-06 0 0.0036530363700153384 -5.4465717608266751e-06 0 0.0032401431746025946 9.8618191509506573e-05 0 0.0032379340509586878 0.00012807739148394407 0 0.0036717960899727751 -1.4944242440035521e-06 0 0.0036856265466373135 -7.6787349739908341e-06 0 0.0036656915559169436 -1.8075258850251362e-05 0 0.0036717960899727751 -1.4944242440035521e-06 0 0.0036656915559169436 -1.8075258850251362e-05 0 0.0036530363700153384 -5.4465717608266751e-06 0 0.0028462663339049862 9.6041770294427565e-05 0 0.0028534914025654594 8.423091958938775e-05 0 0.0028658243845348101 9.1520196341410176e-05 0 0.0036895754918047341 5.534159193461638e-06 0 0.0036862656764588618 -8.1275924594069991e-06 0 0.0037173116606448835 1.140288711209075e-05 0 0.0035508093728940874 -2.3543850285310664e-07 0 0.0032401431746025946 9.8618191509506573e-05 0 0.0036895754918047341 5.534159193461638e-06 0 0.0036717960899727751 -1.4944242440035521e-06 0 0.0036856265466373135 -7.6787349739908341e-06 0 0.0032401431746025946 9.8618191509506573e-05 0 0.002830374872871879 0.00016128835709562742 0 0.0028462663339049862 9.6041770294427565e-05 0 0.0028434983238032601 7.5850471913805777e-05 0 0.0028534914025654594 8.423091958938775e-05 0 0.0028434983238032601 7.5850471913805777e-05 0 0.0028534914025654594 8.423091958938775e-05 0 0.0028557496657613817 6.7330174001598294e-05 0 0.0028168086732275337 0.00027660479689951373 0 0.0028001810195400719 0.00026927242838431173 0 0.0028142797016567373 0.00026103379664534673 0 0.0028278370869997283 0.00026640898979802321 0 0.0028168086732275337 0.00027660479689951373 0 0.0028142797016567373 0.00026103379664534673 0 0.0028333244796669281 0.00028394488626975973 0 0.0028278370869997283 0.00026640898979802321 0 0.0028168086732275337 0.00027660479689951373 0 0.0036656915559169436 -1.8075258850251362e-05 0 0.0036460554208609212 -2.7671886404511436e-05 0 0.0036530363700153384 -5.4465717608266751e-06 0 0.0032379340509586878 0.00012807739148394407 0 0.0032763313979715649 0.00014721807594406856 0 0.0036399843470980207 1.0930296787298719e-05 0 0.0036530363700153384 -5.4465717608266751e-06 0 0.0036331178874320857 -6.3190933952906323e-06 0 0.0036460554208609212 -2.7671886404511436e-05 0 0.0036530363700153384 -5.4465717608266751e-06 0 0.0036331178874320857 -6.3190933952906323e-06 0 0.0034335185485383445 0.00025606517741595208 0 0.0034335404669126237 0.00017035824938196127 0 0.0031154036079811122 0.00037903335164014699 0 0.0032037394426837236 0.00037168163751693996 0 0.0031678207683462295 0.00030368950963678969 0 0.0032676619460206536 0.00027616317747270825 0 0.0031678207683462295 0.00030368950963678969 0 0.0031984476387484271 0.00023372407427627866 0 0.0032763313979715649 0.00014721807594406856 0 0.0034335404669126237 0.00017035824938196127 0 0.0032676619460206536 0.00027616317747270825 0 0.0032037394426837236 0.00037168163751693996 0 0.0031678207683462295 0.00030368950963678969 0 0.0031317067632586119 0.00025966398488123688 0 0.0031678207683462295 0.00030368950963678969 0 0.0031984476387484271 0.00023372407427627866 0 0.0027664352473532367 0.00025121837123380996 0 0.0027832517005920323 0.00026117669998026045 0 0.0027957014533793465 0.00025015542266223714 0 0.0026789558109404821 0.0002665371175674212 0 0.0023177227042001504 0.00041498605403442076 0 0.0032763313979715649 0.00014721807594406856 0 0.0030007955409035586 0.00025114247768566445 0 0.0026789558109404821 0.0002665371175674212 0 0.0030007955409035586 0.00025114247768566445 0 0.0027957014533793465 0.00025015542266223714 0 0.0028060073504859034 0.00025593207771144161 0 0.0028138344362057676 0.0002506362234434502 0 0.0028001810195400719 0.00026927242838431173 0 0.0027957014533793465 0.00025015542266223714 0 0.0028060073504859034 0.00025593207771144161 0 0.0028001810195400719 0.00026927242838431173 0 0.0027832517005920323 0.00026117669998026045 0 0.0027957014533793465 0.00025015542266223714 0 0.0028001810195400719 0.00026927242838431173 0 0.0028060073504859034 0.00025593207771144161 0 0.0028142797016567373 0.00026103379664534673 0 0.0020323238453888895 0.00052946955265132506 0 0.0019352900734220955 0.00042435152797375088 0 0.0020860410099123147 0.00039310742339104761 0 0.0018543058883771332 0.00054591098784111222 0 0.0020323238453888895 0.00052946955265132506 0 0.0019352900734220955 0.00042435152797375088 0 0.001842040768348346 0.00035264279213087258 0 0.0019352900734220955 0.00042435152797375088 0 0.0019874880498806109 0.00028424659230988347 0 0.0020860410099123147 0.00039310742339104761 0 0.0019874880498806109 0.00028424659230988347 0 0.0021111393655964894 0.00025650629447455025 0 0.0019352900734220955 0.00042435152797375088 0 0.0020860410099123147 0.00039310742339104761 0 0.0019874880498806109 0.00028424659230988347 0 0.0019874880498806109 0.00028424659230988347 0 0.0021111393655964894 0.00025650629447455025 0 0.002062479917212054 0.00014161922115883072 0 0.0018740602162430262 0.00024659553285334484 0 0.0019874880498806109 0.00028424659230988347 0 0.0019338285088649051 0.0001230255935954024 0 0.0018740602162430262 0.00024659553285334484 0 0.001842040768348346 0.00035264279213087258 0 0.0019874880498806109 0.00028424659230988347 0 0.0022812938241921874 0.00016665110006123114 0 0.0022158923612051783 0.00025424932715444059 0 0.0022007892589232677 0.00013552884098417915 0 0.0021894817431693143 0.0003225519087310293 0 0.0022090434821629341 0.0001332169991164105 0 0.0021111393655964894 0.00025650629447455025 0 0.0022007892589232677 0.00013552884098417915 0 0.002062479917212054 0.00014161922115883072 0 0.0021111393655964894 0.00025650629447455025 0 0.0022258565671424771 0.00033024369616718708 0 0.0022007892589232677 0.00013552884098417915 0 0.0020860410099123147 0.00039310742339104761 0 0.0021111393655964894 0.00025650629447455025 0 0.0022258565671424771 0.00033024369616718708 0 0.0020860410099123147 0.00039310742339104761 0 0.0022258565671424771 0.00033024369616718708 0 0.0022175001806786837 0.00051398908279801884 0 0.0022812938241921874 0.00016665110006123114 0 0.0022158923612051783 0.00025424932715444059 0 0.0023145518448199278 0.00027865246832008307 0 0.0022158923612051783 0.00025424932715444059 0 0.0022724366808269461 0.00032043717078080277 0 0.0023145518448199278 0.00027865246832008307 0 0.0022724366808269461 0.00032043717078080277 0 0.0022305017411568613 0.00038528298994936784 0 0.0023227394140706713 0.0003634201735335334 0 0.0025394689214178275 0.00029406286625679421 0 0.0025931869438738206 0.00020832687567911765 0 0.0022158923612051783 0.00025424932715444059 0 0.0022724366808269461 0.00032043717078080277 0 0.0022305017411568613 0.00038528298994936784 0 0.0021894817431693143 0.0003225519087310293 0 0.0025394689214178275 0.00029406286625679421 0 0.0022258565671424771 0.00033024369616718708 0 0.002241933059567137 0.00051192262614844879 0 0.0022175001806786837 0.00051398908279801884 0 0.0025394689214178275 0.00029406286625679421 0 0.0026054109318358848 0.00031393374774405078 0 0.0027957014533793465 0.00025015542266223714 0 0.0028199606475927614 0.00024982209663409593 0 0.0028138344362057676 0.0002506362234434502 0 0.0020323238453888895 0.00052946955265132506 0 0.0020860410099123147 0.00039310742339104761 0 0.0022175001806786837 0.00051398908279801884 0 0.0023177227042001504 0.00041498605403442076 0 0.0026054109318358848 0.00031393374774405078 0 0.0026054109318358848 0.00031393374774405078 0 0.0027782783978457116 0.00027101492658470055 0 0.0028278370869997283 0.00026640898979802321 0 0.0028199742631519137 0.00024923980114206469 0 0.0028142797016567373 0.00026103379664534673 0 0.0028060073504859034 0.00025593207771144161 0 0.0028138344362057676 0.0002506362234434502 0 0.0028142797016567373 0.00026103379664534673 0 0.0028199742631519137 0.00024923980114206469 0 0.0028138344362057676 0.0002506362234434502 0 0.0028142797016567373 0.00026103379664534673 0 0.0028278370869997283 0.00026640898979802321 0 0.0028227740652330543 0.00024899992078951806 0 0.0028199742631519137 0.00024923980114206469 0 0.0028434983238032601 7.5850471913805777e-05 0 0.002840203171477664 5.8284021629320147e-05 0 0.0028557496657613817 6.7330174001598294e-05 0 0.002840203171477664 5.8284021629320147e-05 0 0.0028557496657613817 6.7330174001598294e-05 0 0.0028571525982933953 5.3727955896363741e-05 0 0.002830374872871879 0.00016128835709562742 0 0.0025394689214178275 0.00029406286625679421 0 0.0028557496657613817 6.7330174001598294e-05 0 0.0028720882545800685 6.8950089201854842e-05 0 0.0028639824436767227 7.8685221986023364e-05 0 0.0028557496657613817 6.7330174001598294e-05 0 0.0028681953071780643 5.9427003202453038e-05 0 0.0028720882545800685 6.8950089201854842e-05 0 0.0028557496657613817 6.7330174001598294e-05 0 0.0028681953071780643 5.9427003202453038e-05 0 0.0028571525982933953 5.3727955896363741e-05 0 0.0028720882545800685 6.8950089201854842e-05 0 0.0028782331194254678 6.2184083611657636e-05 0 0.0028848526367029146 6.8516197148848522e-05 0 0.0028663048202624305 4.2439915476318225e-05 0 0.0028833136653636264 6.6969047087151454e-05 0 0.0028681953071780643 5.9427003202453038e-05 0 0.0028720882545800685 6.8950089201854842e-05 0 0.0028782331194254678 6.2184083611657636e-05 0 0.0026353426214956377 0.00014556603886119174 0 0.0027223606699016 5.8936059134899728e-05 0 0.0028726085410059011 2.3627587436939715e-05 0 0.002873621497059838 1.2676157483153976e-05 0 0.0028878533112082767 1.7288341893886142e-05 0 0.0028663048202624305 4.2439915476318225e-05 0 0.0026353426214956377 0.00014556603886119174 0 0.0028681953071780643 5.9427003202453038e-05 0 0.0028782331194254678 6.2184083611657636e-05 0 0.0028725386755166535 5.0702728925454105e-05 0 0.0026353426214956377 0.00014556603886119174 0 0.0025931869438738206 0.00020832687567911765 0 0.0024171051924756133 0.00034355333136770695 0 0.0023227394140706713 0.0003634201735335334 0 0.0023145518448199278 0.00027865246832008307 0 0.0028681953071780643 5.9427003202453038e-05 0 0.0028725386755166535 5.0702728925454105e-05 0 0.0028571525982933953 5.3727955896363741e-05 0 0.0022724366808269461 0.00032043717078080277 0 0.0023227394140706713 0.0003634201735335334 0 0.0023145518448199278 0.00027865246832008307 0 0.0024171051924756133 0.00034355333136770695 0 0.0023145518448199278 0.00027865246832008307 0 0.0023748073268008048 0.00021736887608507526 0 0.0026353426214956377 0.00014556603886119174 0 0.0023679508074635155 0.00014403522391608686 0 0.0024485313454219739 0.00012815144706474984 0 0.002467405841769302 5.6539210124875557e-05 0 0.0025419279812563043 0.00011504399273411399 0 0.0024485313454219739 0.00012815144706474984 0 0.002467405841769302 5.6539210124875557e-05 0 0.0024136943357588288 4.7943443395717317e-05 0 0.002467405841769302 5.6539210124875557e-05 0 0.0024136943357588288 4.7943443395717317e-05 0 0.0024013108253391948 4.0061464914667299e-05 0 0.002467405841769302 5.6539210124875557e-05 0 0.0024531167567294889 1.1765880657213415e-05 0 0.0024013108253391948 4.0061464914667299e-05 0 0.0022812938241921874 0.00016665110006123114 0 0.0023748073268008048 0.00021736887608507526 0 0.0023304358885867828 6.2657351545817582e-05 0 0.0023679508074635155 0.00014403522391608686 0 0.0023425301693032938 5.5987035385908536e-05 0 0.0024136943357588288 4.7943443395717317e-05 0 0.0023304358885867828 6.2657351545817582e-05 0 0.0024013108253391948 4.0061464914667299e-05 0 0.0022812938241921874 0.00016665110006123114 0 0.0023145518448199278 0.00027865246832008307 0 0.0023748073268008048 0.00021736887608507526 0 0.0026265841294822873 -2.4339222633113319e-08 0 0.0025629071429398263 7.1930074348476751e-06 0 0.0024812393141130165 -1.1806222979763561e-05 0 0.0025629071429398263 7.1930074348476751e-06 0 0.0024531167567294889 1.1765880657213415e-05 0 0.0024812393141130165 -1.1806222979763561e-05 0 0.002467405841769302 5.6539210124875557e-05 0 0.0025629071429398263 7.1930074348476751e-06 0 0.0024531167567294889 1.1765880657213415e-05 0 0.002467405841769302 5.6539210124875557e-05 0 0.0025629071429398263 7.1930074348476751e-06 0 0.0025419279812563043 0.00011504399273411399 0 0.0025629071429398263 7.1930074348476751e-06 0 0.0027660837661172685 2.9806255631390722e-05 0 0.0025419279812563043 0.00011504399273411399 0 0.0026265841294822873 -2.4339222633113319e-08 0 0.0025629071429398263 7.1930074348476751e-06 0 0.0027660837661172685 2.9806255631390722e-05 0 0.0026265841294822873 -2.4339222633113319e-08 0 0.0027660837661172685 2.9806255631390722e-05 0 0.002897622634410141 8.2527084958138638e-08 0 0.0027660837661172685 2.9806255631390722e-05 0 0.0028888501427480565 -5.0710864399729995e-06 0 0.002897622634410141 8.2527084958138638e-08 0 0.0028888501427480565 -5.0710864399729995e-06 0 0.002897622634410141 8.2527084958138638e-08 0 0.0029827554432223244 8.818761281281955e-06 0 0.0028888501427480565 -5.0710864399729995e-06 0 0.0028903761933636038 1.4964956383978571e-05 0 0.0028878533112082767 1.7288341893886142e-05 0 0.0027660837661172685 2.9806255631390722e-05 0 0.0028888501427480565 -5.0710864399729995e-06 0 0.0028903761933636038 1.4964956383978571e-05 0 0.002873621497059838 1.2676157483153976e-05 0 0.0028903761933636038 1.4964956383978571e-05 0 0.0028878533112082767 1.7288341893886142e-05 0 0.0027565782563439487 4.019638496632142e-05 0 0.0027223606699016 5.8936059134899728e-05 0 0.0028726085410059011 2.3627587436939715e-05 0 0.0028878533112082767 1.7288341893886142e-05 0 0.0028848526367029146 6.8516197148848522e-05 0 0.0028878533112082767 1.7288341893886142e-05 0 0.0029072084499562633 4.1919349444782717e-05 0 0.0028848526367029146 6.8516197148848522e-05 0 0.0028888501427480565 -5.0710864399729995e-06 0 0.0028878533112082767 1.7288341893886142e-05 0 0.0029072084499562633 4.1919349444782717e-05 0 0.002897622634410141 8.2527084958138638e-08 0 0.0029827554432223244 8.818761281281955e-06 0 0.0031687856128207619 3.9959642286263976e-08 0 0.0029072084499562633 4.1919349444782717e-05 0 0.0029827554432223244 8.818761281281955e-06 0 0.0029301724942916319 8.3302813254183475e-05 0 0.0030178554033729373 9.7133607031214233e-07 0 0.003109919353695981 2.82879858488365e-05 0 0.0028888501427480565 -5.0710864399729995e-06 0 0.0029072084499562633 4.1919349444782717e-05 0 0.0029827554432223244 8.818761281281955e-06 0 0.0029827554432223244 8.818761281281955e-06 0 0.0031687856128207619 3.9959642286263976e-08 0 0.0032888482943347675 9.3346261186973915e-06 0 0.0031687856128207619 3.9959642286263976e-08 0 0.0032888482943347675 9.3346261186973915e-06 0 0.0033713647591592736 1.656388231030351e-06 0 0.003109919353695981 2.82879858488365e-05 0 0.0032049192969034451 4.8947157208617154e-05 0 0.0032888482943347675 9.3346261186973915e-06 0 0.0033713647591592736 1.656388231030351e-06 0 0.0035128909091660882 1.0452929120129389e-06 0 0.0033713647591592736 1.656388231030351e-06 0 0.0035128909091660882 1.0452929120129389e-06 0 0.0034397483289279294 -4.6361132572449787e-09 0 0.0031687856128207619 3.9959642286263976e-08 0 0.0033713647591592736 1.656388231030351e-06 0 0.0034397483289279294 -4.6361132572449787e-09 0 0.0029301724942916319 8.3302813254183475e-05 0 0.0029144552746558135 0.00010952836212963617 0 0.0029028314899799523 9.1428872196002711e-05 0 0.0029144552746558135 0.00010952836212963617 0 0.0029028314899799523 9.1428872196002711e-05 0 0.0028966191581836177 0.00011219869991065977 0 0.0029028314899799523 9.1428872196002711e-05 0 0.0029055162673636992 7.1110866780164911e-05 0 0.0028848526367029146 6.8516197148848522e-05 0 0.0029301724942916319 8.3302813254183475e-05 0 0.0029028314899799523 9.1428872196002711e-05 0 0.0029055162673636992 7.1110866780164911e-05 0 0.0029072084499562633 4.1919349444782717e-05 0 0.0029301724942916319 8.3302813254183475e-05 0 0.0029055162673636992 7.1110866780164911e-05 0 0.0029072084499562633 4.1919349444782717e-05 0 0.0029055162673636992 7.1110866780164911e-05 0 0.0028848526367029146 6.8516197148848522e-05 0 0.0028848526367029146 6.8516197148848522e-05 0 0.0028753987096380414 8.0630511377032996e-05 0 0.0028841981175081201 9.5157437987624993e-05 0 0.0029028314899799523 9.1428872196002711e-05 0 0.0028848526367029146 6.8516197148848522e-05 0 0.0028841981175081201 9.5157437987624993e-05 0 0.0028720882545800685 6.8950089201854842e-05 0 0.0028848526367029146 6.8516197148848522e-05 0 0.0028753987096380414 8.0630511377032996e-05 0 0.0028534914025654594 8.423091958938775e-05 0 0.0028557496657613817 6.7330174001598294e-05 0 0.0028639824436767227 7.8685221986023364e-05 0 0.0028720882545800685 6.8950089201854842e-05 0 0.0028753987096380414 8.0630511377032996e-05 0 0.0028639824436767227 7.8685221986023364e-05 0 0.0028753987096380414 8.0630511377032996e-05 0 0.0028639824436767227 7.8685221986023364e-05 0 0.0028658243845348101 9.1520196341410176e-05 0 0.0028534914025654594 8.423091958938775e-05 0 0.0028639824436767227 7.8685221986023364e-05 0 0.0028658243845348101 9.1520196341410176e-05 0 0.0028658243845348101 9.1520196341410176e-05 0 0.0028841981175081201 9.5157437987624993e-05 0 0.0028740312443483419 0.00011587871030536863 0 0.0032401431746025946 9.8618191509506573e-05 0 0.0032831888492034804 5.743347322103212e-05 0 0.0028462663339049862 9.6041770294427565e-05 0 0.0028658243845348101 9.1520196341410176e-05 0 0.0028740312443483419 0.00011587871030536863 0 0.0028753987096380414 8.0630511377032996e-05 0 0.0028658243845348101 9.1520196341410176e-05 0 0.0028841981175081201 9.5157437987624993e-05 0 0.0028841981175081201 9.5157437987624993e-05 0 0.0028966191581836177 0.00011219869991065977 0 0.0028740312443483419 0.00011587871030536863 0 0.0029028314899799523 9.1428872196002711e-05 0 0.0028841981175081201 9.5157437987624993e-05 0 0.0028966191581836177 0.00011219869991065977 0 0.0032831888492034804 5.743347322103212e-05 0 0.0034042803107012707 5.0914952021274423e-05 0 0.0028966191581836177 0.00011219869991065977 0 0.0028740312443483419 0.00011587871030536863 0 0.0029092883648126292 0.00013674362623469061 0 0.0037061215873718488 3.4573087885783011e-05 0 0.0037005099385361583 1.9888879955281269e-05 0 0.0037228286766759198 2.7867581766383032e-05 0 0.0037005099385361583 1.9888879955281269e-05 0 0.0037173116606448835 1.140288711209075e-05 0 0.0037228286766759198 2.7867581766383032e-05 0 0.0037173116606448835 1.140288711209075e-05 0 0.0037228286766759198 2.7867581766383032e-05 0 0.0037298905103597393 2.4611753805686601e-05 0 0.0037339313041694095 2.6368025863279023e-05 0 0.0036792185040400178 -2.9435218790678708e-05 0 0.0036764731085207783 -3.0856328587204454e-05 0 0.0037683054996508905 -1.4878625568799924e-05 0 0.0036792185040400178 -2.9435218790678708e-05 0 0.003680645494242683 -1.650747621265528e-05 0 0.0034277009794393353 5.7358185973681322e-05 0 0.0034042803107012707 5.0914952021274423e-05 0 0.0036792185040400178 -2.9435218790678708e-05 0 0.0036268226630419361 -1.8004602810779611e-05 0 0.003680645494242683 -1.650747621265528e-05 0 0.0036792185040400178 -2.9435218790678708e-05 0 0.0036821477749664528 -2.4425177992659539e-05 0 0.0036268226630419361 -1.8004602810779611e-05 0 0.0037683054996508905 -1.4878625568799924e-05 0 0.003680645494242683 -1.650747621265528e-05 0 0.0037108539796747849 -1.3034295561528064e-07 0 0.003680645494242683 -1.650747621265528e-05 0 0.0037108539796747849 -1.3034295561528064e-07 0 0.0035864101694302779 -1.3730061689899815e-05 0 0.0036268226630419361 -1.8004602810779611e-05 0 0.003680645494242683 -1.650747621265528e-05 0 0.0035864101694302779 -1.3730061689899815e-05 0 0.0035128909091660882 1.0452929120129389e-06 0 0.0036268226630419361 -1.8004602810779611e-05 0 0.0035864101694302779 -1.3730061689899815e-05 0 0.0037108539796747849 -1.3034295561528064e-07 0 0.0035864101694302779 -1.3730061689899815e-05 0 0.0034397483289279294 -4.6361132572449787e-09 0 0.0035128909091660882 1.0452929120129389e-06 0 0.0035864101694302779 -1.3730061689899815e-05 0 0.0034397483289279294 -4.6361132572449787e-09 0 0.0035128909091660882 1.0452929120129389e-06 0 0.0036821477749664528 -2.4425177992659539e-05 0 0.0036268226630419361 -1.8004602810779611e-05 0 0.0029144552746558135 0.00010952836212963617 0 0.0028966191581836177 0.00011219869991065977 0 0.0029092883648126292 0.00013674362623469061 0 0.0032049192969034451 4.8947157208617154e-05 0 0.0034042803107012707 5.0914952021274423e-05 0 0.0019034923702855534 0.00023829299863985354 0 0.0018054115971904772 0.00015811820463483691 0 0.0019150228809718733 9.5179908368439473e-05 0 0.0019034923702855534 0.00023829299863985354 0 0.0019900044843139879 0.0001495061383671207 0 0.0019150228809718733 9.5179908368439473e-05 0 0.0016519951235673747 -8.1925260455982393e-07 0 0.0016164169214933919 7.200260590110802e-05 0 0.0013349625810497013 -6.4850958290664497e-06 0 0.0013084070252138748 -1.6347199578603139e-06 0 0.0014173238791348821 1.7110450596874453e-05 0 0.001504674490503818 -3.2207750288297856e-07 0 0.0016519951235673747 -8.1925260455982393e-07 0 0.0014173238791348821 1.7110450596874453e-05 0 0.0014246183212909378 -6.7201382410920846e-08 0 0.001632725224521725 1.3535450250723713e-07 0 0.0014173238791348821 1.7110450596874453e-05 0 0.0014246183212909378 -6.7201382410920846e-08 0 0.001371898923878945 -2.4523104512766868e-06 0 0.0013349625810497013 -6.4850958290664497e-06 0 0.0014173238791348821 1.7110450596874453e-05 0 0.001371898923878945 -2.4523104512766868e-06 0 0.0014246183212909378 -6.7201382410920846e-08 0 0.0013148948629332846 -1.4702094294138144e-05 0 0.0012169720977646128 -1.2963126212555065e-08 0 0.0013148948629332846 -1.4702094294138144e-05 0 0.0012998980602066585 -1.5650931155582421e-06 0 0.0012169720977646128 -1.2963126212555065e-08 0 0.0013349625810497013 -6.4850958290664497e-06 0 0.0013148948629332846 -1.4702094294138144e-05 0 0.0012998980602066585 -1.5650931155582421e-06 0 0.0013349625810497013 -6.4850958290664497e-06 0 0.001371898923878945 -2.4523104512766868e-06 0 0.0013148948629332846 -1.4702094294138144e-05 0 0.0014246183212909378 -6.7201382410920846e-08 0 0.001371898923878945 -2.4523104512766868e-06 0 0.0013148948629332846 -1.4702094294138144e-05 0 0.0013349625810497013 -6.4850958290664497e-06 0 0.0013239101946955348 -3.7101022936553231e-06 0 0.0012998980602066585 -1.5650931155582421e-06 0 0.0013239101946955348 -3.7101022936553231e-06 0 0.0012806290485993645 6.1650721325386839e-06 0 0.0012998980602066585 -1.5650931155582421e-06 0 0.0018422595048717383 -0.00011530587049988201 0 0.0017607389624447888 -0.00011558360763628726 0 0.0017603310514016151 -0.00020521774289973551 0 0.0016519951235673747 -8.1925260455982393e-07 0 0.0015045194945653673 -0.0001143396495364308 0 0.0016931688891557071 -0.00018417940429141483 0 0.0017607389624447888 -0.00011558360763628726 0 0.0017603310514016151 -0.00020521774289973551 0 0.0016931688891557071 -0.00018417940429141483 0 0.0016762726926360133 -0.00011450878649787305 0 0.0017607389624447888 -0.00011558360763628726 0 0.0021818007640656643 -0.00024813478966338655 0 0.0021556176044912941 -0.00015929330892592038 0 0.0021770180576215271 -0.0002495616554870811 0 0.0021556176044912941 -0.00015929330892592038 0 0.0021381366263276327 -0.00012022376112763492 0 0.0021770180576215271 -0.0002495616554870811 0 0.0021381366263276327 -0.00012022376112763492 0 0.0021045944265421081 -0.00021033056991256346 0 0.0021281019561503961 -0.00029179020398353405 0 0.002216165636089572 0.00021820994876856173 0 0.0021367746275329697 0.00016555406177215038 0 0.0021680581266320942 8.864311254793664e-05 0 0.0021839259625215227 -0.00013785761217910395 0 0.0020128221243156347 -0.00022605182649555074 0 0.002216165636089572 0.00021820994876856173 0 0.0021367746275329697 0.00016555406177215038 0 0.0020649368272700778 0.00022465556746667032 0 0.0019217295946426512 -0.00011260067035544917 0 0.0021765818165928315 -8.8280867377658066e-06 0 0.0019217295946426512 -0.00011260067035544917 0 0.0019578284691574607 6.6658313235494723e-05 0 0.0021367746275329697 0.00016555406177215038 0 0.0020760964507871718 0.00012066450338317674 0 0.0021680581266320942 8.864311254793664e-05 0 0.0016519951235673747 -8.1925260455982393e-07 0 0.0019578284691574607 6.6658313235494723e-05 0 0.0019034923702855534 0.00023829299863985354 0 0.0020649368272700778 0.00022465556746667032 0 0.0019900044843139879 0.0001495061383671207 0 0.0021367746275329697 0.00016555406177215038 0 0.0020649368272700778 0.00022465556746667032 0 0.0020760964507871718 0.00012066450338317674 0 0.0020649368272700778 0.00022465556746667032 0 0.0020760964507871718 0.00012066450338317674 0 0.0019900044843139879 0.0001495061383671207 0 0.0020760964507871718 0.00012066450338317674 0 0.0019900044843139879 0.0001495061383671207 0 0.0020079081022326712 5.3561907532770129e-05 0 0.0020760964507871718 0.00012066450338317674 0 0.0020079081022326712 5.3561907532770129e-05 0 0.0020731589657673596 3.4446202449486756e-05 0 0.0020079081022326712 5.3561907532770129e-05 0 0.0020218383438360223 -2.1268252847319109e-05 0 0.0019451874815699288 -2.0258550236492069e-05 0 0.0020079081022326712 5.3561907532770129e-05 0 0.0020731589657673596 3.4446202449486756e-05 0 0.0020218383438360223 -2.1268252847319109e-05 0 0.0021765818165928315 -8.8280867377658066e-06 0 0.0021140055836296654 -7.8969508832797751e-05 0 0.0021556176044912941 -0.00015929330892592038 0 0.0021381366263276327 -0.00012022376112763492 0 0.0021083118383913961 -6.1930822900709229e-05 0 0.0020731589657673596 3.4446202449486756e-05 0 0.0021680581266320942 8.864311254793664e-05 0 0.0021083118383913961 -6.1930822900709229e-05 0 0.0021381366263276327 -0.00012022376112763492 0 0.0021096038141688832 -0.00014491154067240364 0 0.0021045944265421081 -0.00021033056991256346 0 0.0020760964507871718 0.00012066450338317674 0 0.0020731589657673596 3.4446202449486756e-05 0 0.0021680581266320942 8.864311254793664e-05 0 0.0021381366263276327 -0.00012022376112763492 0 0.0021236424414032922 -9.9960190667398277e-05 0 0.0021096038141688832 -0.00014491154067240364 0 0.0021236424414032922 -9.9960190667398277e-05 0 0.0021083118383913961 -6.1930822900709229e-05 0 0.0021446131790486323 -9.5026794487217681e-05 0 0.0021381366263276327 -0.00012022376112763492 0 0.0021236424414032922 -9.9960190667398277e-05 0 0.0021083118383913961 -6.1930822900709229e-05 0 0.0020218383438360223 -2.1268252847319109e-05 0 0.0020228022868172399 -6.5144401908795088e-05 0 0.0019451874815699288 -2.0258550236492069e-05 0 0.0021083118383913961 -6.1930822900709229e-05 0 0.0020218383438360223 -2.1268252847319109e-05 0 0.0020228022868172399 -6.5144401908795088e-05 0 0.0020731589657673596 3.4446202449486756e-05 0 0.0021083118383913961 -6.1930822900709229e-05 0 0.0020218383438360223 -2.1268252847319109e-05 0 0.0019451874815699288 -2.0258550236492069e-05 0 0.0018629355346078955 -1.9608956591746031e-05 0 0.0019851621424485915 -5.8830801612663615e-05 0 0.0020228022868172399 -6.5144401908795088e-05 0 0.0019451874815699288 -2.0258550236492069e-05 0 0.0019851621424485915 -5.8830801612663615e-05 0 0.0019451874815699288 -2.0258550236492069e-05 0 0.0018433618211356974 2.6033150587980118e-05 0 0.0018629355346078955 -1.9608956591746031e-05 0 0.0019451874815699288 -2.0258550236492069e-05 0 0.0019150228809718733 9.5179908368439473e-05 0 0.0018433618211356974 2.6033150587980118e-05 0 0.0020079081022326712 5.3561907532770129e-05 0 0.0019451874815699288 -2.0258550236492069e-05 0 0.0019150228809718733 9.5179908368439473e-05 0 0.0019900044843139879 0.0001495061383671207 0 0.0020079081022326712 5.3561907532770129e-05 0 0.0019150228809718733 9.5179908368439473e-05 0 0.0016164169214933919 7.200260590110802e-05 0 0.0016328459746891705 1.5818599419544626e-08 0 0.0018054115971904772 0.00015811820463483691 0 0.0019150228809718733 9.5179908368439473e-05 0 0.0018433618211356974 2.6033150587980118e-05 0 0.0018054115971904772 0.00015811820463483691 0 0.001633298572624956 2.490669177941822e-07 0 0.0018433618211356974 2.6033150587980118e-05 0 0.001633298572624956 2.490669177941822e-07 0 0.0018433618211356974 2.6033150587980118e-05 0 0.0018629355346078955 -1.9608956591746031e-05 0 0.001633298572624956 2.490669177941822e-07 0 0.0018738122692532014 -1.503480087719922e-07 0 0.0018629355346078955 -1.9608956591746031e-05 0 0.0018738122692532014 -1.503480087719922e-07 0 0.0018629355346078955 -1.9608956591746031e-05 0 0.0019851621424485915 -5.8830801612663615e-05 0 0.0018738122692532014 -1.503480087719922e-07 0 0.0019851621424485915 -5.8830801612663615e-05 0 0.0021148255561012535 -1.1936796622519961e-07 0 0.0019851621424485915 -5.8830801612663615e-05 0 0.002046585887153082 -1.5271080842807065e-05 0 0.0020466862527707946 -8.964939390181028e-05 0 0.0019851621424485915 -5.8830801612663615e-05 0 0.0021148255561012535 -1.1936796622519961e-07 0 0.002046585887153082 -1.5271080842807065e-05 0 0.0021148255561012535 -1.1936796622519961e-07 0 0.002046585887153082 -1.5271080842807065e-05 0 0.0023552945535631285 1.6150672372438154e-07 0 0.0024445770767043237 3.8243063221291317e-06 0 0.0024812393141130165 -1.1806222979763561e-05 0 0.0023561253348950012 2.5154385492664804e-08 0 0.0022450477231060347 -1.555937454350623e-05 0 0.0023556306494502723 -1.4953284447669078e-08 0 0.0024445770767043237 3.8243063221291317e-06 0 0.0024531167567294889 1.1765880657213415e-05 0 0.0024812393141130165 -1.1806222979763561e-05 0 0.0026265841294822873 -2.4339222633113319e-08 0 0.0024812393141130165 -1.1806222979763561e-05 0 0.0023561253348950012 2.5154385492664804e-08 0 0.0023304358885867828 6.2657351545817582e-05 0 0.0024013108253391948 4.0061464914667299e-05 0 0.0023642143961363936 2.2550405787341035e-05 0 0.0024531167567294889 1.1765880657213415e-05 0 0.0024013108253391948 4.0061464914667299e-05 0 0.0023642143961363936 2.2550405787341035e-05 0 0.0024445770767043237 3.8243063221291317e-06 0 0.0024531167567294889 1.1765880657213415e-05 0 0.0023642143961363936 2.2550405787341035e-05 0 0.0023304358885867828 6.2657351545817582e-05 0 0.0023642143961363936 2.2550405787341035e-05 0 0.0022691416366298896 3.1415917478291342e-05 0 0.0023642143961363936 2.2550405787341035e-05 0 0.0022691416366298896 3.1415917478291342e-05 0 0.0022380807340037991 -2.3251517121945289e-05 0 0.0023304358885867828 6.2657351545817582e-05 0 0.0022691416366298896 3.1415917478291342e-05 0 0.0022583610036133071 7.3924302124740677e-05 0 0.0023642143961363936 2.2550405787341035e-05 0 0.0022380807340037991 -2.3251517121945289e-05 0 0.0023360326252030821 -6.2612741067317798e-05 0 0.0024445770767043237 3.8243063221291317e-06 0 0.0023642143961363936 2.2550405787341035e-05 0 0.0023360326252030821 -6.2612741067317798e-05 0 0.0022450477231060347 -1.555937454350623e-05 0 0.0021947575456234092 -6.8140639187189866e-05 0 0.0020228022868172399 -6.5144401908795088e-05 0 0.0019851621424485915 -5.8830801612663615e-05 0 0.0020466862527707946 -8.964939390181028e-05 0 0.0021083118383913961 -6.1930822900709229e-05 0 0.0020228022868172399 -6.5144401908795088e-05 0 0.0020466862527707946 -8.964939390181028e-05 0 0.0021083118383913961 -6.1930822900709229e-05 0 0.0020466862527707946 -8.964939390181028e-05 0 0.0021446131790486323 -9.5026794487217681e-05 0 0.0022380807340037991 -2.3251517121945289e-05 0 0.0023360326252030821 -6.2612741067317798e-05 0 0.0021446131790486323 -9.5026794487217681e-05 0 0.0021947575456234092 -6.8140639187189866e-05 0 0.0021536059405426141 -9.2365797801637945e-05 0 0.0022380807340037991 -2.3251517121945289e-05 0 0.0021237640722795189 -4.9123860677417049e-05 0 0.0021446131790486323 -9.5026794487217681e-05 0 0.0021237640722795189 -4.9123860677417049e-05 0 0.0020465493149517473 -6.5104855656955357e-05 0 0.0021446131790486323 -9.5026794487217681e-05 0 0.0021237640722795189 -4.9123860677417049e-05 0 0.0020465493149517473 -6.5104855656955357e-05 0 0.0020543407551457801 -3.5824417474094019e-05 0 0.0021237640722795189 -4.9123860677417049e-05 0 0.0020543407551457801 -3.5824417474094019e-05 0 0.0021455684591042373 1.9539106598930194e-05 0 0.0021075739112263415 -0.00014160505837469716 0 0.0021915699717814561 -2.3190737581043012e-05 0 0.0020944031832444733 -4.1663772531799176e-05 0 0.0020873868896730259 -9.0565239934908297e-05 0 0.002167943654592424 -4.5537630941263109e-06 0 0.0022380807340037991 -2.3251517121945289e-05 0 0.0021237640722795189 -4.9123860677417049e-05 0 0.0021455684591042373 1.9539106598930194e-05 0 0.0022691416366298896 3.1415917478291342e-05 0 0.0021455684591042373 1.9539106598930194e-05 0 0.0022583610036133071 7.3924302124740677e-05 0 0.0022691416366298896 3.1415917478291342e-05 0 0.0022380807340037991 -2.3251517121945289e-05 0 0.0021455684591042373 1.9539106598930194e-05 0 0.0021915699717814561 -2.3190737581043012e-05 0 0.0021909583356765233 5.8099182201517092e-05 0 0.0022583610036133071 7.3924302124740677e-05 0 0.002167943654592424 -4.5537630941263109e-06 0 0.002244900399869478 6.7627982904540956e-05 0 0.0021915699717814561 -2.3190737581043012e-05 0 0.0021110447725652829 4.7073451612152143e-05 0 0.0020944031832444733 -4.1663772531799176e-05 0 0.0021915699717814561 -2.3190737581043012e-05 0 0.0021110447725652829 4.7073451612152143e-05 0 0.0021909583356765233 5.8099182201517092e-05 0 0.0021110447725652829 4.7073451612152143e-05 0 0.0022007892589232677 0.00013552884098417915 0 0.002062479917212054 0.00014161922115883072 0 0.0021110447725652829 4.7073451612152143e-05 0 0.0021909583356765233 5.8099182201517092e-05 0 0.0022007892589232677 0.00013552884098417915 0 0.0022812938241921874 0.00016665110006123114 0 0.0022007892589232677 0.00013552884098417915 0 0.0022583610036133071 7.3924302124740677e-05 0 0.0022812938241921874 0.00016665110006123114 0 0.0023304358885867828 6.2657351545817582e-05 0 0.0022583610036133071 7.3924302124740677e-05 0 0.0021909583356765233 5.8099182201517092e-05 0 0.0022007892589232677 0.00013552884098417915 0 0.0022583610036133071 7.3924302124740677e-05 0 0.0019874880498806109 0.00028424659230988347 0 0.0019338285088649051 0.0001230255935954024 0 0.002062479917212054 0.00014161922115883072 0 0.0019338285088649051 0.0001230255935954024 0 0.002062479917212054 0.00014161922115883072 0 0.0020129920685996163 1.7753178484741646e-05 0 0.0021110447725652829 4.7073451612152143e-05 0 0.002062479917212054 0.00014161922115883072 0 0.0020129920685996163 1.7753178484741646e-05 0 0.0021110447725652829 4.7073451612152143e-05 0 0.0020129920685996163 1.7753178484741646e-05 0 0.0020944031832444733 -4.1663772531799176e-05 0 0.0019338285088649051 0.0001230255935954024 0 0.0020129920685996163 1.7753178484741646e-05 0 0.0019206201610016613 -4.0043121093550974e-05 0 0.0019338285088649051 0.0001230255935954024 0 0.0019206201610016613 -4.0043121093550974e-05 0 0.0018196780738879532 6.0020351373609946e-06 0 0.0019206201610016613 -4.0043121093550974e-05 0 0.0019791176339672254 -0.00012749286239223631 0 0.0018346276270015214 -0.00013703908324048109 0 0.0020129920685996163 1.7753178484741646e-05 0 0.0019206201610016613 -4.0043121093550974e-05 0 0.0019791176339672254 -0.00012749286239223631 0 0.0020129920685996163 1.7753178484741646e-05 0 0.0019791176339672254 -0.00012749286239223631 0 0.0020944031832444733 -4.1663772531799176e-05 0 0.0021075739112263415 -0.00014160505837469716 0 0.0019791176339672254 -0.00012749286239223631 0 0.0020944031832444733 -4.1663772531799176e-05 0 0.0021075739112263415 -0.00014160505837469716 0 0.0019791176339672254 -0.00012749286239223631 0 0.0020200704564681173 -0.0002597247685631668 0 0.0020873868896730259 -9.0565239934908297e-05 0 0.0019496644256318354 -0.00013330672908632942 0 0.0020465493149517473 -6.5104855656955357e-05 0 0.0020543407551457801 -3.5824417474094019e-05 0 0.0020182020565845402 -6.9988423374120682e-05 0 0.0019791176339672254 -0.00012749286239223631 0 0.0019294348677136662 -0.00021459897882505972 0 0.0020200704564681173 -0.0002597247685631668 0 0.0019791176339672254 -0.00012749286239223631 0 0.0019294348677136662 -0.00021459897882505972 0 0.0018346276270015214 -0.00013703908324048109 0 0.0019294348677136662 -0.00021459897882505972 0 0.0019114049848065742 -0.00027651250178559942 0 0.0020200704564681173 -0.0002597247685631668 0 0.0017718715876215438 -0.00023506241055147272 0 0.0017793739256404327 -0.00030125749246801177 0 0.0018590456778282635 -0.00017346268227588863 0 0.0017793739256404327 -0.00030125749246801177 0 0.0018857529321498364 -0.00015870326381494759 0 0.0018590456778282635 -0.00017346268227588863 0 0.0019294348677136662 -0.00021459897882505972 0 0.0019114049848065742 -0.00027651250178559942 0 0.0018467302662725134 -0.00027730963663328542 0 0.0017832455222839938 -0.00017458945528073412 0 0.0017718715876215438 -0.00023506241055147272 0 0.0018590456778282635 -0.00017346268227588863 0 0.0017677102009893292 -0.00024384498433053657 0 0.0019496644256318354 -0.00013330672908632942 0 0.0017832455222839938 -0.00017458945528073412 0 0.0017718715876215438 -0.00023506241055147272 0 0.0017229679311689988 -0.00017576451271835542 0 0.0018336797954971059 -0.00020436022591741092 0 0.0019496644256318354 -0.00013330672908632942 0 0.0018336797954971059 -0.00020436022591741092 0 0.0018341238890354329 -0.00018287498559886828 0 0.0017842236510136524 -0.00017496443895959421 0 0.0018857529321498364 -0.00015870326381494759 0 0.0018590456778282635 -0.00017346268227588863 0 0.0017549406412400753 -0.00018882925051221877 0 0.00189996878080365 -0.00018993632761859334 0 0.0017717544660383556 -0.00029852870912378823 0 0.0017549406412400753 -0.00018882925051221877 0 0.00189996878080365 -0.00018993632761859334 0 0.0019017816156352871 -4.789733478363415e-05 0 0.0017718715876215438 -0.00023506241055147272 0 0.0017793739256404327 -0.00030125749246801177 0 0.0017352123699044461 -0.00033621690050473108 0 0.00189996878080365 -0.00018993632761859334 0 0.0019713401846531641 -0.00011006554924393032 0 0.0020246835012162141 -0.00014047065954171569 0 0.0020384184262111915 -6.2188268388555258e-05 0 0.0019496644256318354 -0.00013330672908632942 0 0.0020465493149517473 -6.5104855656955357e-05 0 0.0019713401846531641 -0.00011006554924393032 0 0.0019017816156352871 -4.789733478363415e-05 0 0.00189996878080365 -0.00018993632761859334 0 0.0019713401846531641 -0.00011006554924393032 0 0.0019017816156352871 -4.789733478363415e-05 0 0.0020465493149517473 -6.5104855656955357e-05 0 0.0019713401846531641 -0.00011006554924393032 0 0.0020246835012162141 -0.00014047065954171569 0 0.0020465493149517473 -6.5104855656955357e-05 0 0.0020939765862172258 -0.00012027802131435726 0 0.0020246835012162141 -0.00014047065954171569 0 0.0020465493149517473 -6.5104855656955357e-05 0 0.0021446131790486323 -9.5026794487217681e-05 0 0.0020939765862172258 -0.00012027802131435726 0 0.0021236424414032922 -9.9960190667398277e-05 0 0.0021446131790486323 -9.5026794487217681e-05 0 0.0020939765862172258 -0.00012027802131435726 0 0.0021236424414032922 -9.9960190667398277e-05 0 0.0020939765862172258 -0.00012027802131435726 0 0.0021096038141688832 -0.00014491154067240364 0 0.0020939765862172258 -0.00012027802131435726 0 0.0021096038141688832 -0.00014491154067240364 0 0.0020686895464981348 -0.00018513722943345329 0 0.0021096038141688832 -0.00014491154067240364 0 0.0020686895464981348 -0.00018513722943345329 0 0.0021045944265421081 -0.00021033056991256346 0 0.00189996878080365 -0.00018993632761859334 0 0.0020246835012162141 -0.00014047065954171569 0 0.0019840155608862454 -0.00023077213797468527 0 0.0020939765862172258 -0.00012027802131435726 0 0.0020686895464981348 -0.00018513722943345329 0 0.0020246835012162141 -0.00014047065954171569 0 0.0020686895464981348 -0.00018513722943345329 0 0.0020246835012162141 -0.00014047065954171569 0 0.0019840155608862454 -0.00023077213797468527 0 0.0019840155608862454 -0.00023077213797468527 0 0.0020127169611039225 -0.00031695005999049682 0 0.0018477456216316377 -0.00034497302575543532 0 0.0020686895464981348 -0.00018513722943345329 0 0.0019840155608862454 -0.00023077213797468527 0 0.0020127169611039225 -0.00031695005999049682 0 0.001997235240079949 -0.00033896396109838823 0 0.0020128221243156347 -0.00022605182649555074 0 0.0020686895464981348 -0.00018513722943345329 0 0.0020127169611039225 -0.00031695005999049682 0 0.0021045944265421081 -0.00021033056991256346 0 0.0020127169611039225 -0.00031695005999049682 0 0.0021045944265421081 -0.00021033056991256346 0 0.0021281019561503961 -0.00029179020398353405 0 0.0019217295946426512 -0.00011260067035544917 0 0.0020128221243156347 -0.00022605182649555074 0 0.0017098281599289035 -0.00011796986512831338 0 0.0016993845899105928 -0.00011771848290929187 0 0.0016427525204030279 -0.00021383005255692475 0 0.0019217295946426512 -0.00011260067035544917 0 0.001606741782586049 -0.00023726272750206341 0 0.0020128221243156347 -0.00022605182649555074 0 0.001818881838314331 -0.00036389742639047378 0 0.0019531756371582347 -0.00035161403073150045 0 0.0020874529892236605 -0.00035208246522874624 0 0.0020241601600661627 -0.00049520779410865893 0 0.0017098281599289035 -0.00011796986512831338 0 0.0016427525204030279 -0.00021383005255692475 0 0.0016486899625055096 -0.00023196535298657754 0 0.0016931688891557071 -0.00018417940429141483 0 0.0016762726926360133 -0.00011450878649787305 0 0.0016311026989034227 -0.00022334911781709293 0 0.0019531756371582347 -0.00035161403073150045 0 0.0018987621136490268 -0.00044198324632581371 0 0.0020241601600661627 -0.00049520779410865893 0 0.0019531756371582347 -0.00035161403073150045 0 0.0018987621136490268 -0.00044198324632581371 0 0.0018477456216316377 -0.00034497302575543532 0 0.0018987621136490268 -0.00044198324632581371 0 0.0018477456216316377 -0.00034497302575543532 0 0.0018020191232078293 -0.0004801794252740064 0 0.00169123780300343 -0.00041657005798151337 0 0.0017949818071815438 -0.00047718464114038104 0 0.0017350112779034948 -0.00041175180982348412 0 0.0018477456216316377 -0.00034497302575543532 0 0.0018020191232078293 -0.0004801794252740064 0 0.0017350112779034948 -0.00041175180982348412 0 0.0017717544660383556 -0.00029852870912378823 0 0.0018477456216316377 -0.00034497302575543532 0 0.00189996878080365 -0.00018993632761859334 0 0.0019840155608862454 -0.00023077213797468527 0 0.0018477456216316377 -0.00034497302575543532 0 0.00189996878080365 -0.00018993632761859334 0 0.0017717544660383556 -0.00029852870912378823 0 0.0018477456216316377 -0.00034497302575543532 0 0.001997235240079949 -0.00033896396109838823 0 0.0018508249623230134 -0.00034127519638794767 0 0.0016484537361127983 -0.00035704669300772187 0 0.0016751899479450624 -0.00044087818688590103 0 0.0015418113584144118 -0.00035562808178269886 0 0.0015991797141402513 -0.0003794629234338937 0 0.0014591561870789323 -0.00035551185296051508 0 0.0014920367855431819 -0.00040925504290100824 0 0.0014093422052181871 -0.0004401569199928242 0 0.0013682415840736875 -0.00034186791174073379 0 0.001508886908575759 -0.00038616148308816441 0 0.0014920367855431819 -0.00040925504290100824 0 0.0013682415840736875 -0.00034186791174073379 0 0.0017677102009893292 -0.00024384498433053657 0 0.0015991797141402513 -0.0003794629234338937 0 0.0017350112779034948 -0.00041175180982348412 0 0.0017717544660383556 -0.00029852870912378823 0 0.001630574084402312 -0.00034526736103300109 0 0.0017793739256404327 -0.00030125749246801177 0 0.0016751899479450624 -0.00044087818688590103 0 0.0017352123699044461 -0.00033621690050473108 0 0.0017549406412400753 -0.00018882925051221877 0 0.0017717544660383556 -0.00029852870912378823 0 0.001630574084402312 -0.00034526736103300109 0 0.0016484537361127983 -0.00035704669300772187 0 0.0016751899479450624 -0.00044087818688590103 0 0.0017352123699044461 -0.00033621690050473108 0 0.0015194180702116169 -0.00037074202962088189 0 0.0014920367855431819 -0.00040925504290100824 0 0.0015579185203596386 -0.00045846377160530975 0 0.0016502006318934528 -0.00041982669115872063 0 0.0015579185203596386 -0.00045846377160530975 0 0.001632353037978965 -0.00055185980377759464 0 0.0015991797141402513 -0.0003794629234338937 0 0.0015546530704865921 -0.00041000260962128842 0 0.00169123780300343 -0.00041657005798151337 0 0.0015991797141402513 -0.0003794629234338937 0 0.0016502006318934528 -0.00041982669115872063 0 0.0015194180702116169 -0.00037074202962088189 0 0.0015579185203596386 -0.00045846377160530975 0 0.0014920367855431819 -0.00040925504290100824 0 0.0015579185203596386 -0.00045846377160530975 0 0.0014821298800119156 -0.00045375919284658899 0 0.0015579185203596386 -0.00045846377160530975 0 0.0014821298800119156 -0.00045375919284658899 0 0.0014755658412789225 -0.00050887023856143279 0 0.0014821298800119156 -0.00045375919284658899 0 0.0014093422052181871 -0.0004401569199928242 0 0.0014755658412789225 -0.00050887023856143279 0 0.0014093422052181871 -0.0004401569199928242 0 0.0013651313787337068 -0.00051886845629116102 0 0.0014755658412789225 -0.00050887023856143279 0 0.0014920367855431819 -0.00040925504290100824 0 0.0014821298800119156 -0.00045375919284658899 0 0.0014093422052181871 -0.0004401569199928242 0 0.0012921401400333655 -0.00042970275211017027 0 0.0012792599590950731 -0.00052200999288860991 0 0.0013651313787337068 -0.00051886845629116102 0 0.0014093422052181871 -0.0004401569199928242 0 0.0012921401400333655 -0.00042970275211017027 0 0.0013651313787337068 -0.00051886845629116102 0 0.0012921401400333655 -0.00042970275211017027 0 0.0011631732501859353 -0.00050923762098471998 0 0.0012792599590950731 -0.00052200999288860991 0 0.0012921401400333655 -0.00042970275211017027 0 0.0011786691213343946 -0.00042592176538103747 0 0.0011631732501859353 -0.00050923762098471998 0 0.0012921401400333655 -0.00042970275211017027 0 0.0012547772483097578 -0.00030947104810180961 0 0.0011786691213343946 -0.00042592176538103747 0 0.0014093422052181871 -0.0004401569199928242 0 0.0012921401400333655 -0.00042970275211017027 0 0.0013682415840736875 -0.00034186791174073379 0 0.0012921401400333655 -0.00042970275211017027 0 0.0013682415840736875 -0.00034186791174073379 0 0.0012547772483097578 -0.00030947104810180961 0 0.0015418113584144118 -0.00035562808178269886 0 0.0014905143608350635 -0.00027455594327666652 0 0.0015657902426653081 -0.00028356314621601084 0 0.0014905143608350635 -0.00027455594327666652 0 0.0013855552708845593 -0.00024260289582696195 0 0.0015156626747245693 -0.00025098826067155005 0 0.0014591561870789323 -0.00035551185296051508 0 0.0013259418124148021 -0.00028571811907342117 0 0.0015418113584144118 -0.00035562808178269886 0 0.0014905143608350635 -0.00027455594327666652 0 0.0014089247337303061 -0.0002730181412727611 0 0.0015156626747245693 -0.00025098826067155005 0 0.0015655649557024774 -0.00025093232203209119 0 0.0015657902426653081 -0.00028356314621601084 0 0.0014905143608350635 -0.00027455594327666652 0 0.0015156626747245693 -0.00025098826067155005 0 0.0015657902426653081 -0.00028356314621601084 0 0.0014905143608350635 -0.00027455594327666652 0 0.0014089247337303061 -0.0002730181412727611 0 0.0013855552708845593 -0.00024260289582696195 0 0.0014259113017029822 -0.00018410669186975272 0 0.0013855552708845593 -0.00024260289582696195 0 0.0015659965657450359 -0.00021787322313615822 0 0.0014259113017029822 -0.00018410669186975272 0 0.0013855552708845593 -0.00024260289582696195 0 0.001272092673976244 -0.00018850155639346734 0 0.0014259113017029822 -0.00018410669186975272 0 0.0015659965657450359 -0.00021787322313615822 0 0.0015865022234041431 -0.00018305296600577432 0 0.0013980439184122177 -0.00024218846928523335 0 0.0015509106651506155 -0.00021216547317909855 0 0.0013855552708845593 -0.00024260289582696195 0 0.0015156626747245693 -0.00025098826067155005 0 0.0015536616367573797 -0.00021501765320135489 0 0.0014603714553961054 -0.0002325287235303649 0 0.0016277028462511791 -0.00023155740762460699 0 0.0015156626747245693 -0.00025098826067155005 0 0.0015536616367573797 -0.00021501765320135489 0 0.0015655649557024774 -0.00025093232203209119 0 0.0015536616367573797 -0.00021501765320135489 0 0.001609840552353316 -0.00024951155849321256 0 0.0017213163682512109 -0.00018049287549949658 0 0.0015659965657450359 -0.00021787322313615822 0 0.0015865022234041431 -0.00018305296600577432 0 0.0017503420851859778 -0.00018266438590001211 0 0.0015509106651506155 -0.00021216547317909855 0 0.0017704069518507802 -0.00021898034385203969 0 0.0016627195428017055 -0.00027805988294969826 0 0.0018364083414615124 -0.00027389754366949863 0 0.0017462195051491714 -0.000198280080758465 0 0.0016277028462511791 -0.00023155740762460699 0 0.0017704069518507802 -0.00021898034385203969 0 0.0015536616367573797 -0.00021501765320135489 0 0.001609840552353316 -0.00024951155849321256 0 0.0015655649557024774 -0.00025093232203209119 0 0.001609840552353316 -0.00024951155849321256 0 0.0015657902426653081 -0.00028356314621601084 0 0.0016162212344473746 -0.00030355654279430908 0 0.0016484537361127983 -0.00035704669300772187 0 0.0015418113584144118 -0.00035562808178269886 0 0.0016162212344473746 -0.00030355654279430908 0 0.001609840552353316 -0.00024951155849321256 0 0.0015655649557024774 -0.00025093232203209119 0 0.0015657902426653081 -0.00028356314621601084 0 0.001609840552353316 -0.00024951155849321256 0 0.0016505630936171432 -0.00026789810493390751 0 0.0016162212344473746 -0.00030355654279430908 0 0.0016505630936171432 -0.00026789810493390751 0 0.0016162212344473746 -0.00030355654279430908 0 0.0016815519846771125 -0.00030743106034443013 0 0.0016484537361127983 -0.00035704669300772187 0 0.0016162212344473746 -0.00030355654279430908 0 0.0016815519846771125 -0.00030743106034443013 0 0.0015418113584144118 -0.00035562808178269886 0 0.0015657902426653081 -0.00028356314621601084 0 0.0016162212344473746 -0.00030355654279430908 0 0.0017236471582496194 -0.00030967144960401024 0 0.0017704069518507802 -0.00021898034385203969 0 0.0017352123699044461 -0.00033621690050473108 0 0.0016815519846771125 -0.00030743106034443013 0 0.0017213163682512109 -0.00018049287549949658 0 0.0016484537361127983 -0.00035704669300772187 0 0.0017352123699044461 -0.00033621690050473108 0 0.0016815519846771125 -0.00030743106034443013 0 0.001609840552353316 -0.00024951155849321256 0 0.0016505630936171432 -0.00026789810493390751 0 0.0017213163682512109 -0.00018049287549949658 0 0.0016505630936171432 -0.00026789810493390751 0 0.0016815519846771125 -0.00030743106034443013 0 0.0017213163682512109 -0.00018049287549949658 0 0.0017718715876215438 -0.00023506241055147272 0 0.0017352123699044461 -0.00033621690050473108 0 0.0017229679311689988 -0.00017576451271835542 0 0.0018336797954971059 -0.00020436022591741092 0 0.0017704069518507802 -0.00021898034385203969 0 0.0019294348677136662 -0.00021459897882505972 0 0.0018467302662725134 -0.00027730963663328542 0 0.0018346276270015214 -0.00013703908324048109 0 0.0017704069518507802 -0.00021898034385203969 0 0.0018335552899048707 -0.00014291560191766428 0 0.0018364083414615124 -0.00027389754366949863 0 0.0017462195051491714 -0.000198280080758465 0 0.0018238329058571257 -0.00012421869501212345 0 0.0017462195051491714 -0.000198280080758465 0 0.0016503755460211195 -8.624752101586236e-05 0 0.0018238329058571257 -0.00012421869501212345 0 0.0016627195428017055 -0.00027805988294969826 0 0.0017462195051491714 -0.000198280080758465 0 0.0016503755460211195 -8.624752101586236e-05 0 0.0016503755460211195 -8.624752101586236e-05 0 0.0018238329058571257 -0.00012421869501212345 0 0.0018113754359237227 2.3566998334886142e-05 0 0.0018335552899048707 -0.00014291560191766428 0 0.0018151289440969977 2.0139005756911263e-05 0 0.0019206201610016613 -4.0043121093550974e-05 0 0.0018346276270015214 -0.00013703908324048109 0 0.0018196780738879532 6.0020351373609946e-06 0 0.0016503755460211195 -8.624752101586236e-05 0 0.0017043282585379098 9.7243580345391986e-05 0 0.0015852558088469304 7.6777334590601414e-05 0 0.0016503755460211195 -8.624752101586236e-05 0 0.0018113754359237227 2.3566998334886142e-05 0 0.0017043282585379098 9.7243580345391986e-05 0 0.0015630712926333642 0.00021216879861022043 0 0.0017047887938469856 0.00029304501674314829 0 0.0017043282585379098 9.7243580345391986e-05 0 0.0017047887938469856 0.00029304501674314829 0 0.0017043282585379098 9.7243580345391986e-05 0 0.0018034094050912979 0.00016128128713638727 0 0.0018151289440969977 2.0139005756911263e-05 0 0.0018044883068735716 0.00014779714633686596 0 0.0019338285088649051 0.0001230255935954024 0 0.0018196780738879532 6.0020351373609946e-06 0 0.0018034094050912979 0.00016128128713638727 0 0.0018113754359237227 2.3566998334886142e-05 0 0.0017043282585379098 9.7243580345391986e-05 0 0.0018034094050912979 0.00016128128713638727 0 0.0018740602162430262 0.00024659553285334484 0 0.0019338285088649051 0.0001230255935954024 0 0.0018034094050912979 0.00016128128713638727 0 0.001338337429844958 0.00026771531236056923 0 0.0015630712926333642 0.00021216879861022043 0 0.0014443588920274822 0.00010197135004546114 0 0.0015630712926333642 0.00021216879861022043 0 0.0017043282585379098 9.7243580345391986e-05 0 0.0015852558088469304 7.6777334590601414e-05 0 0.0015630712926333642 0.00021216879861022043 0 0.0015852558088469304 7.6777334590601414e-05 0 0.0014443588920274822 0.00010197135004546114 0 0.0016503755460211195 -8.624752101586236e-05 0 0.0015852558088469304 7.6777334590601414e-05 0 0.0015123394357470005 -1.4013339657076958e-05 0 0.0014443588920274822 0.00010197135004546114 0 0.0015123394357470005 -1.4013339657076958e-05 0 0.0013742666024228237 -2.7797080272639757e-05 0 0.0015852558088469304 7.6777334590601414e-05 0 0.0014443588920274822 0.00010197135004546114 0 0.0015123394357470005 -1.4013339657076958e-05 0 0.0015123394357470005 -1.4013339657076958e-05 0 0.0015029941522526171 -0.00013596759942736855 0 0.0013742666024228237 -2.7797080272639757e-05 0 0.0015029941522526171 -0.00013596759942736855 0 0.0013411096358690725 -0.00016993580745604513 0 0.0013742666024228237 -2.7797080272639757e-05 0 0.0016503755460211195 -8.624752101586236e-05 0 0.0015123394357470005 -1.4013339657076958e-05 0 0.0015029941522526171 -0.00013596759942736855 0 0.0016627195428017055 -0.00027805988294969826 0 0.0016503755460211195 -8.624752101586236e-05 0 0.0015029941522526171 -0.00013596759942736855 0 0.0014827066973174049 -0.00028306451526949333 0 0.0016627195428017055 -0.00027805988294969826 0 0.0015029941522526171 -0.00013596759942736855 0 0.0014827066973174049 -0.00028306451526949333 0 0.0015029941522526171 -0.00013596759942736855 0 0.0013411096358690725 -0.00016993580745604513 0 0.0013411096358690725 -0.00016993580745604513 0 0.0011810692625192046 -0.00021617373021781927 0 0.0012909782728351539 -0.00028753659801230376 0 0.0014827066973174049 -0.00028306451526949333 0 0.0013411096358690725 -0.00016993580745604513 0 0.0012909782728351539 -0.00028753659801230376 0 0.0013411096358690725 -0.00016993580745604513 0 0.0011810692625192046 -0.00021617373021781927 0 0.0012011462397999528 -7.3558953349505963e-05 0 0.0011810692625192046 -0.00021617373021781927 0 0.0012011462397999528 -7.3558953349505963e-05 0 0.001071229452608684 -0.00017396575103565057 0 0.0013411096358690725 -0.00016993580745604513 0 0.0012011462397999528 -7.3558953349505963e-05 0 0.0013742666024228237 -2.7797080272639757e-05 0 0.0012011462397999528 -7.3558953349505963e-05 0 0.0013742666024228237 -2.7797080272639757e-05 0 0.001275586209428401 7.90828344635395e-05 0 0.0014443588920274822 0.00010197135004546114 0 0.0013742666024228237 -2.7797080272639757e-05 0 0.001275586209428401 7.90828344635395e-05 0 0.0012011462397999528 -7.3558953349505963e-05 0 0.001275586209428401 7.90828344635395e-05 0 0.0011316227766154693 3.4883296951892557e-05 0 0.001275586209428401 7.90828344635395e-05 0 0.0011524403835806701 0.00016880555639556759 0 0.0011316227766154693 3.4883296951892557e-05 0 0.0020283613776596317 7.9736787039473765e-05 0 0.0018747623319741687 -1.14885408903363e-05 0 0.001338337429844958 0.00026771531236056923 0 0.001275586209428401 7.90828344635395e-05 0 0.0011524403835806701 0.00016880555639556759 0 0.001338337429844958 0.00026771531236056923 0 0.0014443588920274822 0.00010197135004546114 0 0.001275586209428401 7.90828344635395e-05 0 0.0024449732180056669 -0.00015106421769289538 0 0.0025732910211750059 -0.00020046804487535385 0 0.0024197759755793173 -0.00029302817816387246 0 0.00164551345213541 -0.00012846154776916492 0 0.0023085210934159369 -0.00027245833144727094 0 0.0024449732180056669 -0.00015106421769289538 0 0.0024197759755793173 -0.00029302817816387246 0 0.0023354304759184655 -0.00016786720670968408 0 0.0018747623319741687 -1.14885408903363e-05 0 0.00164551345213541 -0.00012846154776916492 0 0.0011524403835806701 0.00016880555639556759 0 0.0011316227766154693 3.4883296951892557e-05 0 0.00098230412722991392 6.4229294680495254e-05 0 0.0011316227766154693 3.4883296951892557e-05 0 0.00098230412722991392 6.4229294680495254e-05 0 0.0010601859048248649 -6.7895820014843639e-05 0 0.00093683422790311727 0.0001289111319058321 0 0.00090497169763649184 -2.6535218918077665e-05 0 0.0010601859048248649 -6.7895820014843639e-05 0 0.00164551345213541 -0.00012846154776916492 0 0.00085858755623632692 9.1531568606455365e-05 0 0.00090497169763649184 -2.6535218918077665e-05 0 0.0010601859048248649 -6.7895820014843639e-05 0 0.00095704758314204142 -0.00011935630669457707 0 0.00090497169763649184 -2.6535218918077665e-05 0 0.00095704758314204142 -0.00011935630669457707 0 0.00081353154371948181 -0.00010738866857367186 0 0.0012011462397999528 -7.3558953349505963e-05 0 0.0011316227766154693 3.4883296951892557e-05 0 0.0010601859048248649 -6.7895820014843639e-05 0 0.0012011462397999528 -7.3558953349505963e-05 0 0.0010601859048248649 -6.7895820014843639e-05 0 0.001071229452608684 -0.00017396575103565057 0 0.001071229452608684 -0.00017396575103565057 0 0.00091543254029005021 -0.00022215912497462216 0 0.0010286075679413612 -0.00027509166559030551 0 0.0010601859048248649 -6.7895820014843639e-05 0 0.001071229452608684 -0.00017396575103565057 0 0.00095704758314204142 -0.00011935630669457707 0 0.0011810692625192046 -0.00021617373021781927 0 0.001071229452608684 -0.00017396575103565057 0 0.0010286075679413612 -0.00027509166559030551 0 0.001071229452608684 -0.00017396575103565057 0 0.00095704758314204142 -0.00011935630669457707 0 0.00091543254029005021 -0.00022215912497462216 0 0.00095704758314204142 -0.00011935630669457707 0 0.00091543254029005021 -0.00022215912497462216 0 0.00081353154371948181 -0.00010738866857367186 0 0.00091543254029005021 -0.00022215912497462216 0 0.0009365902690828317 -0.00031401937156341026 0 0.0007711557327288375 -0.00027006636697368068 0 0.00091543254029005021 -0.00022215912497462216 0 0.0009365902690828317 -0.00031401937156341026 0 0.0010286075679413612 -0.00027509166559030551 0 0.00089451199302268455 -0.00038879362730960093 0 0.0010061717457356615 -0.00039299619693185364 0 0.00088429956554205509 -0.00047731804223102387 0 0.0009365902690828317 -0.00031401937156341026 0 0.00089451199302268455 -0.00038879362730960093 0 0.0010061717457356615 -0.00039299619693185364 0 0.0010061717457356615 -0.00039299619693185364 0 0.0010286075679413612 -0.00027509166559030551 0 0.0010865583540339725 -0.00032280843106738074 0 0.0009365902690828317 -0.00031401937156341026 0 0.0010061717457356615 -0.00039299619693185364 0 0.0010286075679413612 -0.00027509166559030551 0 0.0011810692625192046 -0.00021617373021781927 0 0.0010286075679413612 -0.00027509166559030551 0 0.0013012612130638469 -0.00029708216257913028 0 0.0010286075679413612 -0.00027509166559030551 0 0.0011597581598442827 -0.00026576549389736756 0 0.0010865583540339725 -0.00032280843106738074 0 0.0010324734684126465 -0.0002846410735685765 0 0.0012476580666507297 -0.00024974163426895257 0 0.00121286256630403 -0.00023639271231462857 0 0.0012476580666507297 -0.00024974163426895257 0 0.0014603714553961054 -0.0002325287235303649 0 0.0012476580666507297 -0.00024974163426895257 0 0.0013259418124148021 -0.00028571811907342117 0 0.0012476580666507297 -0.00024974163426895257 0 0.0014089247337303061 -0.0002730181412727611 0 0.0013855552708845593 -0.00024260289582696195 0 0.001272092673976244 -0.00018850155639346734 0 0.0012547772483097578 -0.00030947104810180961 0 0.001143737016996605 -0.00036831298415975058 0 0.0011786691213343946 -0.00042592176538103747 0 0.0012547772483097578 -0.00030947104810180961 0 0.0011597581598442827 -0.00026576549389736756 0 0.001143737016996605 -0.00036831298415975058 0 0.0011597581598442827 -0.00026576549389736756 0 0.0010865583540339725 -0.00032280843106738074 0 0.001143737016996605 -0.00036831298415975058 0 0.0010061717457356615 -0.00039299619693185364 0 0.0010865583540339725 -0.00032280843106738074 0 0.001143737016996605 -0.00036831298415975058 0 0.0010061717457356615 -0.00039299619693185364 0 0.001143737016996605 -0.00036831298415975058 0 0.0011001153703322883 -0.00050794289212862276 0 0.0011359496403754946 -0.00038644672798431078 0 0.0011334938527137271 -0.00045471470068787079 0 0.001143737016996605 -0.00036831298415975058 0 0.001117491424007157 -0.00044198765928528844 0 0.0011786691213343946 -0.00042592176538103747 0 0.0011786691213343946 -0.00042592176538103747 0 0.0011360983819759826 -0.00048894331988569057 0 0.0011631732501859353 -0.00050923762098471998 0 0.001117491424007157 -0.00044198765928528844 0 0.0011786691213343946 -0.00042592176538103747 0 0.0011360983819759826 -0.00048894331988569057 0 0.0011334938527137271 -0.00045471470068787079 0 0.00080792178000538262 -0.00059305248662243294 0 0.001117491424007157 -0.00044198765928528844 0 0.0011360983819759826 -0.00048894331988569057 0 0.0011132486494919169 -0.00049859702884392533 0 0.0011001153703322883 -0.00050794289212862276 0 0.00098297828497696262 -0.00059736005897261543 0 0.0010484967711380715 -0.00063839395198501177 0 0.0011001153703322883 -0.00050794289212862276 0 0.00096231842505708966 -0.00052903385069976686 0 0.00098297828497696262 -0.00059736005897261543 0 0.00096231842505708966 -0.00052903385069976686 0 0.00091538346552793746 -0.00061233697676394403 0 0.00086088846775347644 -0.00056289161714971798 0 0.00096231842505708966 -0.00052903385069976686 0 0.00088429956554205509 -0.00047731804223102387 0 0.00086088846775347644 -0.00056289161714971798 0 0.00096231842505708966 -0.00052903385069976686 0 0.00098297828497696262 -0.00059736005897261543 0 0.00091538346552793746 -0.00061233697676394403 0 0.00091538346552793746 -0.00061233697676394403 0 0.00086088846775347644 -0.00056289161714971798 0 0.00083334207569804944 -0.00063807880981124349 0 0.0010061717457356615 -0.00039299619693185364 0 0.00096231842505708966 -0.00052903385069976686 0 0.00088429956554205509 -0.00047731804223102387 0 0.0010061717457356615 -0.00039299619693185364 0 0.0011001153703322883 -0.00050794289212862276 0 0.00096231842505708966 -0.00052903385069976686 0 0.00097916729002042908 -0.0007999974039197286 0 0.00091596355543258382 -0.00075854944528583616 0 0.00095351151265521362 -0.00066606868639587158 0 0.00024810172309004393 -0.00067363814771264805 0 0.00080792178000538262 -0.00059305248662243294 0 0.00024810172309004393 -0.00067363814771264805 0 0.00063778173960208479 -0.00077439714853259065 0 0.00063778173960208479 -0.00077439714853259065 0 0.0008909213244698011 -0.00072923392960109101 0 0.00087414533297852648 -0.00076418891516619398 0 0.00088192521444193522 -0.00074182017951491261 0 0.00081497122118541292 -0.00069077703282454175 0 9.9845186817439736e-05 -0.00071602788396954204 0 0.00031371331173101879 -0.00074708215866864239 0 0.00028444579418356259 -0.0008333338833233355 0 0.00017628527491020781 -0.0007809045123567921 0 0.00063778173960208479 -0.00077439714853259065 0 0.00063778173960208479 -0.00077439714853259065 0 0.00094004215457323505 -0.00064273130909035879 0 0.00092021971563604533 -0.00076085058047743715 0 0.00088574391888996014 -0.00067362538512533458 0 0.00081497122118541292 -0.00069077703282454175 0 0.00092021971563604533 -0.00076085058047743715 0 0.00095351151265521362 -0.00066606868639587158 0 0.00088574391888996014 -0.00067362538512533458 0 0.00091538346552793746 -0.00061233697676394403 0 0.00088574391888996014 -0.00067362538512533458 0 0.00083334207569804944 -0.00063807880981124349 0 0.00098297828497696262 -0.00059736005897261543 0 0.00091538346552793746 -0.00061233697676394403 0 0.00095351151265521362 -0.00066606868639587158 0 0.00091538346552793746 -0.00061233697676394403 0 0.00095351151265521362 -0.00066606868639587158 0 0.00088574391888996014 -0.00067362538512533458 0 0.00098297828497696262 -0.00059736005897261543 0 0.00095351151265521362 -0.00066606868639587158 0 0.00099967728667982531 -0.00065522259882374255 0 0.00097916729002042908 -0.0007999974039197286 0 0.00095351151265521362 -0.00066606868639587158 0 0.00099967728667982531 -0.00065522259882374255 0 0.00097916729002042908 -0.0007999974039197286 0 0.00099967728667982531 -0.00065522259882374255 0 0.0010484967711380715 -0.00063839395198501177 0 0.00098297828497696262 -0.00059736005897261543 0 0.00099967728667982531 -0.00065522259882374255 0 0.0010484967711380715 -0.00063839395198501177 0 0.00080792178000538262 -0.00059305248662243294 0 0.00078573988351912541 -0.00056546837507368615 0 0.0011360983819759826 -0.00048894331988569057 0 0.0011132486494919169 -0.00049859702884392533 0 0.0011428337152598737 -0.00051105081736183163 0 0.0011360983819759826 -0.00048894331988569057 0 0.0011631732501859353 -0.00050923762098471998 0 0.0011428337152598737 -0.00051105081736183163 0 0.0011291713053077849 -0.00050698924117054177 0 0.0011428337152598737 -0.00051105081736183163 0 0.0011087116494698478 -0.00048667961411003676 0 0.0011631732501859353 -0.00050923762098471998 0 0.0011291713053077849 -0.00050698924117054177 0 0.0011428337152598737 -0.00051105081736183163 0 0.00039959103353975277 -0.00060445909266639551 0 0.00036487104362252363 -0.00071067440504513036 0 0.00029701006999879534 -0.00062097015191278171 0 -0.000561350555555191 -0.00067387791192418289 0 -0.00054452306471091479 -0.00063611443692434644 0 -0.00045285166908180715 -0.00070266861618160611 0 0.00039959103353975277 -0.00060445909266639551 0 0.00029701006999879534 -0.00062097015191278171 0 0.00031083560659606719 -0.00054840653794224986 0 0.0011428337152598737 -0.00051105081736183163 0 0.001118070390738276 -0.00045234223708710207 0 0.0011087116494698478 -0.00048667961411003676 0 0.00078573988351912541 -0.00056546837507368615 0 0.00012156671259466747 -0.00061136925166284265 0 -0.00030749024331103408 -0.00062830343650876303 0 0.00012156671259466747 -0.00061136925166284265 0 0.00029701006999879534 -0.00062097015191278171 0 0.00031083560659606719 -0.00054840653794224986 0 0.00022796606584950303 -0.00052887711711030515 0 -0.00050846075980300173 -0.00067115948300968363 0 -0.0006134483269826024 -0.00064738416220853521 0 -0.00061172777632692891 -0.0006143643635181063 0 -0.000561350555555191 -0.00067387791192418289 0 -0.00061172777632692891 -0.0006143643635181063 0 -0.00057699541075330037 -0.00062763683203651498 0 -0.00030749024331103408 -0.00062830343650876303 0 -0.00067370059707827447 -0.00060550121243790965 0 -0.0005902553781994064 -0.00060028007339866531 0 -0.00061172777632692891 -0.0006143643635181063 0 -0.00057699541075330037 -0.00062763683203651498 0 -0.0005902553781994064 -0.00060028007339866531 0 -0.00061172777632692891 -0.0006143643635181063 0 -0.00060934268763205852 -0.00057754360004051632 0 -0.000561350555555191 -0.00067387791192418289 0 -0.00054452306471091479 -0.00063611443692434644 0 -0.00057699541075330037 -0.00062763683203651498 0 -0.00054452306471091479 -0.00063611443692434644 0 -0.00057699541075330037 -0.00062763683203651498 0 -0.0005596977401820083 -0.00060859773938824486 0 -0.0005902553781994064 -0.00060028007339866531 0 -0.00057699541075330037 -0.00062763683203651498 0 -0.0005596977401820083 -0.00060859773938824486 0 -0.00054452306471091479 -0.00063611443692434644 0 -0.0005596977401820083 -0.00060859773938824486 0 -0.00052414565550971319 -0.00062472446854263406 0 -0.00052414565550971319 -0.00062472446854263406 0 -0.0004806005057118072 -0.00062865608313777261 0 -0.00050290376841169427 -0.0006605073564927823 0 -0.00052414565550971319 -0.00062472446854263406 0 -0.0004806005057118072 -0.00062865608313777261 0 -0.0005355054735842555 -0.00059099579608305525 0 -0.0004806005057118072 -0.00062865608313777261 0 -0.00050290376841169427 -0.0006605073564927823 0 -0.00046449284634532569 -0.00066449502125260783 0 -0.00050290376841169427 -0.0006605073564927823 0 -0.00047929750684161019 -0.00068393304884286808 0 -0.00046449284634532569 -0.00066449502125260783 0 -0.00054452306471091479 -0.00063611443692434644 0 -0.00052414565550971319 -0.00062472446854263406 0 -0.00050290376841169427 -0.0006605073564927823 0 0.00024810172309004393 -0.00067363814771264805 0 -0.00030749024331103408 -0.00062830343650876303 0 -0.00046286162161463565 -0.00073456012722382001 0 -0.000561350555555191 -0.00067387791192418289 0 -0.00045285166908180715 -0.00070266861618160611 0 -0.00061531652200946319 -0.00062702678901420069 0 -0.00021170960864865126 -0.00067400558750782373 0 -0.00054452306471091479 -0.00063611443692434644 0 -0.00050290376841169427 -0.0006605073564927823 0 -0.00047774138412455595 -0.00072039466119820325 0 -0.00047929750684161019 -0.00068393304884286808 0 -0.00046988488371252102 -0.00070267864622138444 0 -0.00046449284634532569 -0.00066449502125260783 0 -0.00050290376841169427 -0.0006605073564927823 0 -0.00047929750684161019 -0.00068393304884286808 0 -0.00047774138412455595 -0.00072039466119820325 0 -0.00047929750684161019 -0.00068393304884286808 0 -0.00046988488371252102 -0.00070267864622138444 0 -0.00047774138412455595 -0.00072039466119820325 0 9.9845186817439736e-05 -0.00071602788396954204 0 0.00031371331173101879 -0.00074708215866864239 0 0.00014436485008405994 -0.00059315772362435897 0 -0.0002672050027908799 -0.0007165194664199453 0 -0.00021170960864865126 -0.00067400558750782373 0 0.00024810172309004393 -0.00067363814771264805 0 -0.00021170960864865126 -0.00067400558750782373 0 -0.0002193695788331855 -0.00076196893615278292 0 -0.00018253660909544952 -0.00064546479523842773 0 -0.00014961814281658548 -0.00071976708482144182 0 -0.0004371968825845503 -0.00074930353612237478 0 -0.00046988488371252102 -0.00070267864622138444 0 -0.00041029194237933659 -0.00066727429157404305 0 0.00017628527491020781 -0.0007809045123567921 0 -0.0003536425913657773 -0.00066925127419766354 0 0.00017628527491020781 -0.0007809045123567921 0 -0.00021170960864865126 -0.00067400558750782373 0 -0.0004371968825845503 -0.00074930353612237478 0 -0.00046988488371252102 -0.00070267864622138444 0 -0.00047434212014130651 -0.00071737194496993657 0 -0.00046988488371252102 -0.00070267864622138444 0 -0.00041029194237933659 -0.00066727429157404305 0 -0.00046449284634532569 -0.00066449502125260783 0 -0.0004806005057118072 -0.00062865608313777261 0 -0.00041029194237933659 -0.00066727429157404305 0 -0.00045482649545268211 -0.0005855375688505202 0 -0.0004806005057118072 -0.00062865608313777261 0 -0.00041029194237933659 -0.00066727429157404305 0 -0.00046449284634532569 -0.00066449502125260783 0 -0.00041029194237933659 -0.00066727429157404305 0 -0.00045482649545268211 -0.0005855375688505202 0 -0.00035881345377810866 -0.0005973122238341949 0 -0.0004806005057118072 -0.00062865608313777261 0 -0.00045482649545268211 -0.0005855375688505202 0 -0.0005355054735842555 -0.00059099579608305525 0 -0.00045482649545268211 -0.0005855375688505202 0 -0.0005355054735842555 -0.00059099579608305525 0 -0.00055336883580277296 -0.00053609953250205748 0 -0.00045482649545268211 -0.0005855375688505202 0 -0.00051364954601778407 -0.00050711918757244498 0 -0.00055336883580277296 -0.00053609953250205748 0 -0.00051364954601778407 -0.00050711918757244498 0 -0.00058802169471680404 -0.0004801616954683364 0 -0.00055336883580277296 -0.00053609953250205748 0 -0.00045482649545268211 -0.0005855375688505202 0 -0.00051364954601778407 -0.00050711918757244498 0 -0.00042297994857777219 -0.00049342786966179457 0 -0.00045482649545268211 -0.0005855375688505202 0 -0.00042297994857777219 -0.00049342786966179457 0 -0.00035881345377810866 -0.0005973122238341949 0 -0.00042297994857777219 -0.00049342786966179457 0 -0.00053410961535272001 -0.00045700940619333355 0 -0.00043433273319019947 -0.00037518319261837081 0 -0.00051364954601778407 -0.00050711918757244498 0 -0.00042297994857777219 -0.00049342786966179457 0 -0.00053410961535272001 -0.00045700940619333355 0 -0.00053410961535272001 -0.00045700940619333355 0 -0.00063728528380434777 -0.00041792778637848426 0 -0.00058802169471680404 -0.0004801616954683364 0 -0.00051364954601778407 -0.00050711918757244498 0 -0.00053410961535272001 -0.00045700940619333355 0 -0.00058802169471680404 -0.0004801616954683364 0 -0.00053410961535272001 -0.00045700940619333355 0 -0.00063728528380434777 -0.00041792778637848426 0 -0.00043433273319019947 -0.00037518319261837081 0 -0.00063728528380434777 -0.00041792778637848426 0 -0.00043433273319019947 -0.00037518319261837081 0 -0.00056301281178940045 -0.00029789854383027546 0 -0.00062213557282505801 -0.00046666383589549564 0 -0.0006261591211596698 -0.00046895570857364319 0 -0.00062182040501446514 -0.00046335275392555414 0 -0.00061785828038511464 -0.00045890023427495316 0 -0.00062213557282505801 -0.00046666383589549564 0 -0.00062182040501446514 -0.00046335275392555414 0 -0.00061785828038511464 -0.00045890023427495316 0 -0.00062213557282505801 -0.00046666383589549564 0 -0.00062320765386545361 -0.0004813306660342085 0 -0.00063728528380434777 -0.00041792778637848426 0 -0.00061785828038511464 -0.00045890023427495316 0 -0.00058802169471680404 -0.0004801616954683364 0 -0.00063728528380434777 -0.00041792778637848426 0 -0.00061785828038511464 -0.00045890023427495316 0 -0.00062182040501446514 -0.00046335275392555414 0 -0.00061785828038511464 -0.00045890023427495316 0 -0.00058802169471680404 -0.0004801616954683364 0 -0.00061269815491666007 -0.00049426343790537016 0 -0.00061785828038511464 -0.00045890023427495316 0 -0.00061269815491666007 -0.00049426343790537016 0 -0.00062320765386545361 -0.0004813306660342085 0 -0.00061269815491666007 -0.00049426343790537016 0 -0.0006239491274811431 -0.0005062213393082235 0 -0.00062320765386545361 -0.0004813306660342085 0 -0.00061269815491666007 -0.00049426343790537016 0 -0.00061437397962792 -0.00053570125820356571 0 -0.0005921040353683327 -0.00052421063635963165 0 -0.00061269815491666007 -0.00049426343790537016 0 -0.00061437397962792 -0.00053570125820356571 0 -0.0006239491274811431 -0.0005062213393082235 0 -0.00058802169471680404 -0.0004801616954683364 0 -0.00061269815491666007 -0.00049426343790537016 0 -0.0005921040353683327 -0.00052421063635963165 0 -0.00058802169471680404 -0.0004801616954683364 0 -0.0005921040353683327 -0.00052421063635963165 0 -0.00055336883580277296 -0.00053609953250205748 0 -0.0005921040353683327 -0.00052421063635963165 0 -0.00055336883580277296 -0.00053609953250205748 0 -0.0005840083431908424 -0.00057347040234926 0 -0.0005355054735842555 -0.00059099579608305525 0 -0.00055336883580277296 -0.00053609953250205748 0 -0.0005840083431908424 -0.00057347040234926 0 -0.0005596977401820083 -0.00060859773938824486 0 -0.0005355054735842555 -0.00059099579608305525 0 -0.0005840083431908424 -0.00057347040234926 0 -0.0005902553781994064 -0.00060028007339866531 0 -0.0005596977401820083 -0.00060859773938824486 0 -0.0005840083431908424 -0.00057347040234926 0 -0.0005596977401820083 -0.00060859773938824486 0 -0.00052414565550971319 -0.00062472446854263406 0 -0.0005355054735842555 -0.00059099579608305525 0 -0.00061437397962792 -0.00053570125820356571 0 -0.0005840083431908424 -0.00057347040234926 0 -0.00060934268763205852 -0.00057754360004051632 0 -0.00061437397962792 -0.00053570125820356571 0 -0.0005921040353683327 -0.00052421063635963165 0 -0.0005840083431908424 -0.00057347040234926 0 -0.0005902553781994064 -0.00060028007339866531 0 -0.0005840083431908424 -0.00057347040234926 0 -0.00060934268763205852 -0.00057754360004051632 0 -0.00061437397962792 -0.00053570125820356571 0 -0.00064361522793489659 -0.00056830786782720646 0 -0.00063079633796126432 -0.00052358698925475422 0 -0.00064361522793489659 -0.00056830786782720646 0 -0.00063172015697487039 -0.00051704007264142485 0 -0.00063079633796126432 -0.00052358698925475422 0 -0.00061437397962792 -0.00053570125820356571 0 -0.00060934268763205852 -0.00057754360004051632 0 -0.00064361522793489659 -0.00056830786782720646 0 -0.00053992304580445375 -0.00059389971478223617 0 -0.00060851143760098415 -0.00058042886607045029 0 -0.00063172015697487039 -0.00051704007264142485 0 -0.00060851143760098415 -0.00058042886607045029 0 -0.00065965392128366791 -0.0005257329696921599 0 -0.00061734515209153559 -0.00065854382361287456 0 -0.0006534249087261411 -0.00058293553687127674 0 0.0002268157958520924 -0.00054354322101465846 0 -0.0006582803504987533 -0.00054950326996785505 0 -0.00060808642707607435 -0.00054463508690313672 0 -0.00053992304580445375 -0.00059389971478223617 0 -0.00060851143760098415 -0.00058042886607045029 0 -0.00057656657137652415 -0.00062293486632671589 0 -0.00060851143760098415 -0.00058042886607045029 0 -0.00063172015697487039 -0.00051704007264142485 0 -0.00065965392128366791 -0.0005257329696921599 0 -0.00063172015697487039 -0.00051704007264142485 0 -0.00064253694998247601 -0.00050134365600536007 0 -0.00065965392128366791 -0.0005257329696921599 0 -0.00063172015697487039 -0.00051704007264142485 0 -0.00064253694998247601 -0.00050134365600536007 0 -0.00063116592425087401 -0.00049936506632436309 0 -0.00063172015697487039 -0.00051704007264142485 0 -0.00063079633796126432 -0.00052358698925475422 0 -0.00063116592425087401 -0.00049936506632436309 0 -0.00061437397962792 -0.00053570125820356571 0 -0.00063079633796126432 -0.00052358698925475422 0 -0.0006239491274811431 -0.0005062213393082235 0 -0.00063079633796126432 -0.00052358698925475422 0 -0.0006239491274811431 -0.0005062213393082235 0 -0.00063116592425087401 -0.00049936506632436309 0 -0.00062320765386545361 -0.0004813306660342085 0 -0.00063116592425087401 -0.00049936506632436309 0 -0.00062914553995383567 -0.00047698280526708992 0 -0.0006239491274811431 -0.0005062213393082235 0 -0.00062320765386545361 -0.0004813306660342085 0 -0.00063116592425087401 -0.00049936506632436309 0 -0.00063602997989860321 -0.00048827752051983027 0 -0.00062914553995383567 -0.00047698280526708992 0 -0.00063349014636606999 -0.00047675913280433252 0 -0.00063116592425087401 -0.00049936506632436309 0 -0.00063602997989860321 -0.00048827752051983027 0 -0.00062914553995383567 -0.00047698280526708992 0 -0.00064253694998247601 -0.00050134365600536007 0 -0.00063602997989860321 -0.00048827752051983027 0 -0.0006379857162956455 -0.0004848529591789829 0 -0.00064253694998247601 -0.00050134365600536007 0 -0.00063116592425087401 -0.00049936506632436309 0 -0.00063602997989860321 -0.00048827752051983027 0 -0.00063602997989860321 -0.00048827752051983027 0 -0.00063349014636606999 -0.00047675913280433252 0 -0.0006379857162956455 -0.0004848529591789829 0 -0.00062862051045105109 -0.00047178240234491006 0 -0.00062914553995383567 -0.00047698280526708992 0 -0.00063349014636606999 -0.00047675913280433252 0 -0.00062862051045105109 -0.00047178240234491006 0 -0.0006271575792227591 -0.00047328170451321137 0 -0.00063349014636606999 -0.00047675913280433252 0 -0.00062213557282505801 -0.00046666383589549564 0 -0.00062320765386545361 -0.0004813306660342085 0 -0.00062914553995383567 -0.00047698280526708992 0 -0.00062862051045105109 -0.00047178240234491006 0 -0.0006261591211596698 -0.00046895570857364319 0 -0.00062914553995383567 -0.00047698280526708992 0 -0.00062213557282505801 -0.00046666383589549564 0 -0.0006261591211596698 -0.00046895570857364319 0 -0.00062914553995383567 -0.00047698280526708992 0 -0.00055723220184822309 -0.00052195058813490989 0 -0.00058858299120424209 -0.00048343701479715317 0 -0.00059488868160568076 -0.00047527792881633924 0 -0.0005564519757287888 -0.00052265130346294125 0 -0.00059377707473251779 -0.00047957710999492194 0 -0.00058858299120424209 -0.00048343701479715317 0 -0.00056995677486504966 -0.00054160391570265908 0 -0.00059975009958830659 -0.00054223839814985522 0 -0.00055723220184822309 -0.00052195058813490989 0 -0.00058858299120424209 -0.00048343701479715317 0 -0.00056995677486504966 -0.00054160391570265908 0 -0.00055723220184822309 -0.00052195058813490989 0 -0.00049771480934235422 -0.00055435370962703752 0 -0.00059488868160568076 -0.00047527792881633924 0 -0.00062512282779452605 -0.00047411482147031867 0 -0.00064028432573467705 -0.00047619746521465487 0 -0.00059488868160568076 -0.00047527792881633924 0 -0.00062512282779452605 -0.00047411482147031867 0 -0.0006271575792227591 -0.00047328170451321137 0 -0.00061737909171193724 -0.0004749996813079766 0 -0.00062512282779452605 -0.00047411482147031867 0 -0.0006271575792227591 -0.00047328170451321137 0 -0.00063349014636606999 -0.00047675913280433252 0 -0.00062512282779452605 -0.00047411482147031867 0 -0.00063349014636606999 -0.00047675913280433252 0 -0.00064028432573467705 -0.00047619746521465487 0 -0.00049771480934235422 -0.00055435370962703752 0 -0.00050700183266675085 -0.00059649661185913331 0 -0.00048812311287193009 -0.00061419470362546083 0 -0.00063349014636606999 -0.00047675913280433252 0 -0.00064028432573467705 -0.00047619746521465487 0 -0.0006379857162956455 -0.0004848529591789829 0 -0.00064253694998247601 -0.00050134365600536007 0 -0.00064028432573467705 -0.00047619746521465487 0 -0.0006379857162956455 -0.0004848529591789829 0 -0.00049771480934235422 -0.00055435370962703752 0 -0.00053889044918876017 -0.00056979436884387166 0 -0.00050700183266675085 -0.00059649661185913331 0 -0.00053889044918876017 -0.00056979436884387166 0 -0.00052316038129358899 -0.00059813539040338873 0 -0.00050700183266675085 -0.00059649661185913331 0 -0.00055723220184822309 -0.00052195058813490989 0 -0.00049771480934235422 -0.00055435370962703752 0 -0.00053889044918876017 -0.00056979436884387166 0 -0.00056995677486504966 -0.00054160391570265908 0 -0.00057665257440863479 -0.0006057752551740798 0 -0.00059975009958830659 -0.00054223839814985522 0 -0.00055723220184822309 -0.00052195058813490989 0 -0.00053889044918876017 -0.00056979436884387166 0 -0.00056995677486504966 -0.00054160391570265908 0 -0.00053889044918876017 -0.00056979436884387166 0 -0.00056995677486504966 -0.00054160391570265908 0 -0.00057665257440863479 -0.0006057752551740798 0 -0.00052065707363622038 -0.00060812665652337132 0 -0.00044137758022191068 -0.00065363647913179129 0 -0.00053889044918876017 -0.00056979436884387166 0 -0.00054929926790210756 -0.00059833283205549376 0 -0.00052316038129358899 -0.00059813539040338873 0 -0.00044137758022191068 -0.00065363647913179129 0 -0.00048779469706144269 -0.00068772704161919188 0 -0.00054929926790210756 -0.00059833283205549376 0 -0.00052316038129358899 -0.00059813539040338873 0 -0.00049776131261860569 -0.00062539164099890574 0 -0.00054929926790210756 -0.00059833283205549376 0 -0.00049783624403423887 -0.00063488939510644889 0 -0.00047374120431567681 -0.00066586846185688045 0 -0.00042357558779478077 -0.00082435465347331356 0 -0.00043266551011588881 -0.00072876554091072575 0 -0.00040998248344232304 -0.00076068895411269665 0 -0.00050700183266675085 -0.00059649661185913331 0 -0.00049776131261860569 -0.00062539164099890574 0 -0.00048812311287193009 -0.00061419470362546083 0 -0.00052316038129358899 -0.00059813539040338873 0 -0.00050700183266675085 -0.00059649661185913331 0 -0.00049776131261860569 -0.00062539164099890574 0 -0.00054929926790210756 -0.00059833283205549376 0 -0.00049776131261860569 -0.00062539164099890574 0 -0.00049783624403423887 -0.00063488939510644889 0 -0.00064253694998247601 -0.00050134365600536007 0 -0.00064028432573467705 -0.00047619746521465487 0 -0.00065965392128366791 -0.0005257329696921599 0 -0.00049771480934235422 -0.00055435370962703752 0 -0.00048812311287193009 -0.00061419470362546083 0 -0.00045535779844017133 -0.00063528385258998954 0 -0.0005564519757287888 -0.00052265130346294125 0 -0.0006534249087261411 -0.00058293553687127674 0 -0.00048812311287193009 -0.00061419470362546083 0 -0.00045535779844017133 -0.00063528385258998954 0 -0.00047710170389503201 -0.00064857105607288149 0 -0.00049776131261860569 -0.00062539164099890574 0 -0.00048812311287193009 -0.00061419470362546083 0 -0.00047710170389503201 -0.00064857105607288149 0 -0.00045535779844017133 -0.00063528385258998954 0 -0.00047449596160449239 -0.00067071597618008458 0 -0.00043179209024315021 -0.00068018699814872084 0 -0.00045535779844017133 -0.00063528385258998954 0 -0.00047710170389503201 -0.00064857105607288149 0 -0.00047449596160449239 -0.00067071597618008458 0 -0.00047710170389503201 -0.00064857105607288149 0 -0.00047374120431567681 -0.00066586846185688045 0 -0.00047449596160449239 -0.00067071597618008458 0 -0.00042357558779478077 -0.00082435465347331356 0 -0.00043266551011588881 -0.00072876554091072575 0 -0.00047374120431567681 -0.00066586846185688045 0 -0.00043266551011588881 -0.00072876554091072575 0 -0.00043630103213526585 -0.00068801378318737185 0 -0.0004048803773876245 -0.00071951066075571948 0 -0.00047710170389503201 -0.00064857105607288149 0 -0.00049783624403423887 -0.00063488939510644889 0 -0.00047374120431567681 -0.00066586846185688045 0 -0.00049776131261860569 -0.00062539164099890574 0 -0.00047710170389503201 -0.00064857105607288149 0 -0.00049783624403423887 -0.00063488939510644889 0 -0.00043266551011588881 -0.00072876554091072575 0 -0.00047374120431567681 -0.00066586846185688045 0 -0.00043630103213526585 -0.00068801378318737185 0 -0.00047374120431567681 -0.00066586846185688045 0 -0.00043630103213526585 -0.00068801378318737185 0 -0.0004471846644729041 -0.00065443518935129113 0 0.00093019663656382107 -0.00068216065765424195 0 0.00080073522765572891 -0.00064782561076190263 0 0.0016141478752490334 -0.00092040501200612006 0 0.001600354252630345 -0.000918146040121535 0 0.0016190082518657597 -0.00090388067839781484 0 0.0016148807518365624 -0.00087015598035972586 0 0.0016189889562685381 -0.0008059075411664629 0 0.0014454867476698275 -0.00078066133976641811 0 0.00080073522765572891 -0.00064782561076190263 0 0.00016298675037878472 -0.0005159762370128369 0 0.001600354252630345 -0.000918146040121535 0 0.0016148807518365624 -0.00087015598035972586 0 0.0016190082518657597 -0.00090388067839781484 0 0.001600354252630345 -0.000918146040121535 0 0.0016148807518365624 -0.00087015598035972586 0 0.0014454867476698275 -0.00078066133976641811 0 0.00080073522765572891 -0.00064782561076190263 0 0.001303575101179762 -0.00064332350018099559 0 -0.00047374120431567681 -0.00066586846185688045 0 -0.0004471846644729041 -0.00065443518935129113 0 -0.00047449596160449239 -0.00067071597618008458 0 0.0015815489618738804 -0.00072338312359230173 0 0.0014454867476698275 -0.00078066133976641811 0 0.0014981217617514584 -0.00067433312353391221 0 0.0016189889562685381 -0.0008059075411664629 0 0.0015815489618738804 -0.00072338312359230173 0 0.0014454867476698275 -0.00078066133976641811 0 0.0014454867476698275 -0.00078066133976641811 0 0.0014981217617514584 -0.00067433312353391221 0 0.0014157654854959755 -0.00066162765727401476 0 0.00016298675037878472 -0.0005159762370128369 0 0.0002268157958520924 -0.00054354322101465846 0 0.00099093326873939645 -0.00046595837178558847 0 0.00097131689498130419 -0.0004049667706179941 0 0.0010236820222508695 -0.00045146180522670889 0 0.00097131689498130419 -0.0004049667706179941 0 0.0010420929268938441 -0.00042230125524496333 0 0.0010236820222508695 -0.00045146180522670889 0 0.00089454929104283449 -0.00039044065389955227 0 0.00099093326873939645 -0.00046595837178558847 0 0.00097131689498130419 -0.0004049667706179941 0 -0.00060851143760098415 -0.00058042886607045029 0 -0.00057656657137652415 -0.00062293486632671589 0 -0.00061734515209153559 -0.00065854382361287456 0 0.0002268157958520924 -0.00054354322101465846 0 0.00069700550309620673 -0.00058560867834449228 0 0.0010420929268938441 -0.00042230125524496333 0 0.0010236820222508695 -0.00045146180522670889 0 0.0010556692965660078 -0.00045298917670972514 0 -0.0006134483269826024 -0.00064738416220853521 0 -0.00061172777632692891 -0.0006143643635181063 0 -0.00064361522793489659 -0.00056830786782720646 0 0.00012156671259466747 -0.00061136925166284265 0 0.0002268157958520924 -0.00054354322101465846 0 0.001118070390738276 -0.00045234223708710207 0 0.0010427461761324545 -0.00042832981273340686 0 0.0010556692965660078 -0.00045298917670972514 0 0.00012156671259466747 -0.00061136925166284265 0 -0.0006582803504987533 -0.00054950326996785505 0 -0.00045563837942269136 -0.0007016428477729696 0 -0.00057656657137652415 -0.00062293486632671589 0 -0.00061734515209153559 -0.00065854382361287456 0 -0.00045563837942269136 -0.0007016428477729696 0 -0.00053992304580445375 -0.00059389971478223617 0 -0.00057656657137652415 -0.00062293486632671589 0 -0.00061172777632692891 -0.0006143643635181063 0 -0.00060934268763205852 -0.00057754360004051632 0 -0.00064361522793489659 -0.00056830786782720646 0 0.0011087116494698478 -0.00048667961411003676 0 0.0010556692965660078 -0.00045298917670972514 0 0.0010829038142837651 -0.00051634501794415926 0 0.001118070390738276 -0.00045234223708710207 0 0.0011087116494698478 -0.00048667961411003676 0 0.0010556692965660078 -0.00045298917670972514 0 0.001303575101179762 -0.00064332350018099559 0 0.0011714305651529357 -0.00056729220110383807 0 0.00099093326873939645 -0.00046595837178558847 0 0.0010236820222508695 -0.00045146180522670889 0 0.0010829038142837651 -0.00051634501794415926 0 0.0010236820222508695 -0.00045146180522670889 0 0.0010556692965660078 -0.00045298917670972514 0 0.0010829038142837651 -0.00051634501794415926 0 0.0014454867476698275 -0.00078066133976641811 0 0.0012968881374886044 -0.00064108285957505042 0 0.0014157654854959755 -0.00066162765727401476 0 0.0012968881374886044 -0.00064108285957505042 0 0.0014379480612898698 -0.00057185227714992993 0 0.0014157654854959755 -0.00066162765727401476 0 0.0011291713053077849 -0.00050698924117054177 0 0.0011087116494698478 -0.00048667961411003676 0 0.0010829038142837651 -0.00051634501794415926 0 0.0011631732501859353 -0.00050923762098471998 0 0.0011291713053077849 -0.00050698924117054177 0 0.0010829038142837651 -0.00051634501794415926 0 0.0011631732501859353 -0.00050923762098471998 0 0.0012968881374886044 -0.00064108285957505042 0 0.0012792599590950731 -0.00052200999288860991 0 0.0011671917844611097 -0.00051794172488518232 0 0.0011714305651529357 -0.00056729220110383807 0 0.0012968881374886044 -0.00064108285957505042 0 0.0013651313787337068 -0.00051886845629116102 0 0.0014379480612898698 -0.00057185227714992993 0 0.0012968881374886044 -0.00064108285957505042 0 0.0012792599590950731 -0.00052200999288860991 0 0.0013651313787337068 -0.00051886845629116102 0 0.0013651313787337068 -0.00051886845629116102 0 0.0014379480612898698 -0.00057185227714992993 0 0.0014755658412789225 -0.00050887023856143279 0 0.0014379480612898698 -0.00057185227714992993 0 0.0014755658412789225 -0.00050887023856143279 0 0.0015210330447200063 -0.0005968350400182386 0 0.0015579185203596386 -0.00045846377160530975 0 0.0014755658412789225 -0.00050887023856143279 0 0.0015463402657424374 -0.00052896338361987981 0 0.0015579185203596386 -0.00045846377160530975 0 0.0015463402657424374 -0.00052896338361987981 0 0.001632353037978965 -0.00055185980377759464 0 0.0015463402657424374 -0.00052896338361987981 0 0.0015210330447200063 -0.0005968350400182386 0 0.001632353037978965 -0.00055185980377759464 0 0.0014755658412789225 -0.00050887023856143279 0 0.0015463402657424374 -0.00052896338361987981 0 0.0015210330447200063 -0.0005968350400182386 0 0.0015210330447200063 -0.0005968350400182386 0 0.0015817230502368506 -0.0006504725860692125 0 0.0014981217617514584 -0.00067433312353391221 0 0.0015210330447200063 -0.0005968350400182386 0 0.0015817230502368506 -0.0006504725860692125 0 0.001632353037978965 -0.00055185980377759464 0 0.0015815489618738804 -0.00072338312359230173 0 0.0015817230502368506 -0.0006504725860692125 0 0.0016714711523268797 -0.00066625011664499993 0 0.0015815489618738804 -0.00072338312359230173 0 0.0015817230502368506 -0.0006504725860692125 0 0.0014981217617514584 -0.00067433312353391221 0 0.0014379480612898698 -0.00057185227714992993 0 0.0014981217617514584 -0.00067433312353391221 0 0.0014157654854959755 -0.00066162765727401476 0 0.0014379480612898698 -0.00057185227714992993 0 0.0015210330447200063 -0.0005968350400182386 0 0.0014981217617514584 -0.00067433312353391221 0 0.0017914132734050973 -0.00069500125875403577 0 0.0018749160496476102 -0.00055918031962268189 0 0.0019488749607092981 -0.0006573013415620691 0 0.0017579940157622174 -0.00059200078058249987 0 0.0017914132734050973 -0.00069500125875403577 0 0.0018749160496476102 -0.00055918031962268189 0 0.0017579940157622174 -0.00059200078058249987 0 0.0016714711523268797 -0.00066625011664499993 0 0.001632353037978965 -0.00055185980377759464 0 0.0017579940157622174 -0.00059200078058249987 0 0.0017914132734050973 -0.00069500125875403577 0 0.0016714711523268797 -0.00066625011664499993 0 0.0015817230502368506 -0.0006504725860692125 0 0.0016714711523268797 -0.00066625011664499993 0 0.001632353037978965 -0.00055185980377759464 0 0.0017579940157622174 -0.00059200078058249987 0 0.001632353037978965 -0.00055185980377759464 0 0.0018020191232078293 -0.0004801794252740064 0 0.0016502006318934528 -0.00041982669115872063 0 0.001632353037978965 -0.00055185980377759464 0 0.0018020191232078293 -0.0004801794252740064 0 0.0018987621136490268 -0.00044198324632581371 0 0.0018020191232078293 -0.0004801794252740064 0 0.0018749160496476102 -0.00055918031962268189 0 0.0017579940157622174 -0.00059200078058249987 0 0.0018020191232078293 -0.0004801794252740064 0 0.0018749160496476102 -0.00055918031962268189 0 0.0018749160496476102 -0.00055918031962268189 0 0.0020241601600661627 -0.00049520779410865893 0 0.0019488749607092981 -0.0006573013415620691 0 0.001818881838314331 -0.00036389742639047378 0 0.0017696645761645579 -0.00047111698633213358 0 0.0018987621136490268 -0.00044198324632581371 0 0.0018749160496476102 -0.00055918031962268189 0 0.0020241601600661627 -0.00049520779410865893 0 0.0016427525204030279 -0.00021383005255692475 0 0.0016486899625055096 -0.00023196535298657754 0 0.0015874966525041933 -0.0003028482073156335 0 0.0016931688891557071 -0.00018417940429141483 0 0.0016311026989034227 -0.00022334911781709293 0 0.0016749295603943411 -0.0002993615487372433 0 0.001606741782586049 -0.00023726272750206341 0 0.0016024953766393046 -0.00032497773682012396 0 0.0016311026989034227 -0.00022334911781709293 0 0.001589192101586055 -0.00033699955494343901 0 0.0016749295603943411 -0.0002993615487372433 0 0.0016486899625055096 -0.00023196535298657754 0 0.0015874966525041933 -0.0003028482073156335 0 0.001589192101586055 -0.00033699955494343901 0 0.0017696645761645579 -0.00047111698633213358 0 0.001714959845536358 -0.00064559652029772159 0 0.0017914132734050973 -0.00069500125875403577 0 0.0019488749607092981 -0.0006573013415620691 0 0.0018583052341139164 -0.00081764494429864554 0 0.0015874966525041933 -0.0003028482073156335 0 0.001589192101586055 -0.00033699955494343901 0 0.0015390600180436372 -0.00039384760998470301 0 0.001589192101586055 -0.00033699955494343901 0 0.0015390600180436372 -0.00039384760998470301 0 0.0015877711216059579 -0.00039405734567470214 0 0.0013894175602240401 -0.0001805913931019302 0 0.0014612951495428736 -0.00015222177738165221 0 0.001589192101586055 -0.00033699955494343901 0 0.0015877711216059579 -0.00039405734567470214 0 0.0016749295603943411 -0.0002993615487372433 0 0.0011983156552882795 -2.6132620362322567e-05 0 0.0012442929584303404 -2.2593260157335164e-05 0 0.0012435770671086492 1.4081733661287842e-06 0 0.0011983156552882795 -2.6132620362322567e-05 0 0.0012245702811896477 -5.7715602290373566e-05 0 0.0012040710904826467 -6.3606649448859505e-05 0 0.0011983156552882795 -2.6132620362322567e-05 0 0.0012245702811896477 -5.7715602290373566e-05 0 0.0012442929584303404 -2.2593260157335164e-05 0 0.0013894175602240401 -0.0001805913931019302 0 0.0013784421482650375 -0.00045359935836244411 0 0.0015390600180436372 -0.00039384760998470301 0 0.0015877711216059579 -0.00039405734567470214 0 0.0014926466544002695 -0.00049030339414240327 0 0.001714959845536358 -0.00064559652029772159 0 0.0013784421482650375 -0.00045359935836244411 0 0.0018583052341139164 -0.00081764494429864554 0 0.0017423419017728173 -0.00081236944016367326 0 0.0017763729393823697 -0.00096278772598769216 0 0.0017914132734050973 -0.00069500125875403577 0 0.0018583052341139164 -0.00081764494429864554 0 0.0017423419017728173 -0.00081236944016367326 0 0.0017914132734050973 -0.00069500125875403577 0 0.0017423419017728173 -0.00081236944016367326 0 0.0016806524240302416 -0.00074927174588426204 0 0.0016189889562685381 -0.0008059075411664629 0 0.0017423419017728173 -0.00081236944016367326 0 0.0016806524240302416 -0.00074927174588426204 0 0.0015815489618738804 -0.00072338312359230173 0 0.0016714711523268797 -0.00066625011664499993 0 0.0016806524240302416 -0.00074927174588426204 0 0.0017914132734050973 -0.00069500125875403577 0 0.0016714711523268797 -0.00066625011664499993 0 0.0016806524240302416 -0.00074927174588426204 0 0.0016189889562685381 -0.0008059075411664629 0 0.0015815489618738804 -0.00072338312359230173 0 0.0016806524240302416 -0.00074927174588426204 0 0.0017423419017728173 -0.00081236944016367326 0 0.0016637049829168844 -0.00086618041069810696 0 0.0016735257388571347 -0.00091757763187762535 0 0.0019188611607936761 -0.00094004049738798752 0 0.0010841917133904862 -0.00072308712285842631 0 0.0016148807518365624 -0.00087015598035972586 0 0.0016189889562685381 -0.0008059075411664629 0 0.0016637049829168844 -0.00086618041069810696 0 0.0017423419017728173 -0.00081236944016367326 0 0.0016735257388571347 -0.00091757763187762535 0 0.0016988077249680395 -0.0010121847827813696 0 0.0016189889562685381 -0.0008059075411664629 0 0.0017423419017728173 -0.00081236944016367326 0 0.0016637049829168844 -0.00086618041069810696 0 0.0016637049829168844 -0.00086618041069810696 0 0.0016447884776086151 -0.00090617646671089667 0 0.0016735257388571347 -0.00091757763187762535 0 0.0016148807518365624 -0.00087015598035972586 0 0.0016637049829168844 -0.00086618041069810696 0 0.0016447884776086151 -0.00090617646671089667 0 0.0016148807518365624 -0.00087015598035972586 0 0.0016447884776086151 -0.00090617646671089667 0 0.0016190082518657597 -0.00090388067839781484 0 0.0016141478752490334 -0.00092040501200612006 0 0.0016447884776086151 -0.00090617646671089667 0 0.0016190082518657597 -0.00090388067839781484 0 0.0016141478752490334 -0.00092040501200612006 0 0.0016447884776086151 -0.00090617646671089667 0 0.0016370172312061523 -0.00093818231668683862 0 0.0016370172312061523 -0.00093818231668683862 0 0.0016735257388571347 -0.00091757763187762535 0 0.0016580545219782149 -0.00097012625591017009 0 0.0016141478752490334 -0.00092040501200612006 0 0.0016014949510049312 -0.00091757070622401713 0 0.0016370172312061523 -0.00093818231668683862 0 0.00080073522765572891 -0.00064782561076190263 0 0.00091352017640664474 -0.0008129867198335088 0 0.0016014949510049312 -0.00091757070622401713 0 0.0016370172312061523 -0.00093818231668683862 0 0.0016556082168368469 -0.00096597937666289678 0 -0.00043630103213526585 -0.00068801378318737185 0 -0.0004471846644729041 -0.00065443518935129113 0 -0.00037306025480409501 -0.00069646497720109429 0 0.0012375207159583247 -0.0010363934864774836 0 0.00091352017640664474 -0.0008129867198335088 0 0.0016447884776086151 -0.00090617646671089667 0 0.0016370172312061523 -0.00093818231668683862 0 0.0016735257388571347 -0.00091757763187762535 0 0.0016735257388571347 -0.00091757763187762535 0 0.0016988077249680395 -0.0010121847827813696 0 0.0016580545219782149 -0.00097012625591017009 0 0.0010841917133904862 -0.00072308712285842631 0 0.00091352017640664474 -0.0008129867198335088 0 0.00066635024333975754 -0.00069874225091855918 0 0.00087584852204267507 -0.00089198366018803364 0 0.00071337837157940578 -0.00064982348063660918 0 -0.00037537110171488515 -0.00073722056348977819 0 -0.00037306025480409501 -0.00069646497720109429 0 -0.00033497123116576154 -0.00074721705881234681 0 0.00091352017640664474 -0.0008129867198335088 0 0.00055058714398225229 -0.00070046798549338349 0 0.0010841917133904862 -0.00072308712285842631 0 0.00055058714398225229 -0.00070046798549338349 0 -0.00043630103213526585 -0.00068801378318737185 0 -0.0004048803773876245 -0.00071951066075571948 0 -0.00037306025480409501 -0.00069646497720109429 0 -0.00043266551011588881 -0.00072876554091072575 0 -0.0004048803773876245 -0.00071951066075571948 0 -0.00040998248344232304 -0.00076068895411269665 0 -0.00037537110171488515 -0.00073722056348977819 0 -0.0004048803773876245 -0.00071951066075571948 0 -0.00040998248344232304 -0.00076068895411269665 0 -0.00037537110171488515 -0.00073722056348977819 0 -0.0004048803773876245 -0.00071951066075571948 0 -0.00037306025480409501 -0.00069646497720109429 0 0.0017423419017728173 -0.00081236944016367326 0 0.0017173635097703895 -0.0010191314799613657 0 0.0017763729393823697 -0.00096278772598769216 0 0.00095733645686828955 -0.00063024859975630129 0 0.0012040695576597648 -0.00037666210450090342 0 0.0010484468332633999 -0.00071421769709843666 0 0.0011528517756127033 -6.4326610170961494e-05 0 0.0011601216150534106 -8.0855257357620591e-05 0 0.0011381423367437464 -8.9552944320821272e-05 0 0.0010841917133904862 -0.00072308712285842631 0 0.0013784421482650375 -0.00045359935836244411 0 0.0013784421482650375 -0.00045359935836244411 0 0.00075632212604012747 -0.00039563008113730223 0 0.0011528517756127033 -6.4326610170961494e-05 0 0.0011601216150534106 -8.0855257357620591e-05 0 0.0011795407914247003 -7.2707988415093283e-05 0 0.00076639496371480489 -0.00029406488518492603 0 0.00061497744295579092 -0.00015443255583326115 0 0.00055294050399883922 -0.00028885268231181288 0 0.0011601216150534106 -8.0855257357620591e-05 0 0.0011421859017343818 -9.316468326596848e-05 0 0.001192667423629826 -9.1553217697910692e-05 0 0.00030713096483793781 -0.00050057074697487799 0 6.6740036270175734e-05 -0.00029755379432336526 0 -8.7870861819895447e-05 -0.00044640965013143582 0 -7.5955058902051544e-05 -0.00041723711065709855 0 -0.00014208259125729619 -0.00036720480308058645 0 0.00040399775938238192 -0.00048522432682340577 0 0.00044407222217257174 -0.00046454953343579161 0 0.00028636088050433035 -0.00023351326692375157 0 0.00072111037743407787 -0.00036866959743917828 0 0.00041365750382838987 -0.0002363669479452645 0 0.00072111037743407787 -0.00036866959743917828 0 0.0009555902060612157 -0.00011789386054247887 0 0.00040399775938238192 -0.00048522432682340577 0 0.00028636088050433035 -0.00023351326692375157 0 0.00021233743831360484 -0.00030979959914389035 0 0.0011601216150534106 -8.0855257357620591e-05 0 0.0011421859017343818 -9.316468326596848e-05 0 0.0011381423367437464 -8.9552944320821272e-05 0 0.00065496262315363496 -0.00029497915933709198 0 0.00078021146995040243 -0.00041049018160403716 0 0.00083088765921725987 -0.00029867794163892744 0 0.00072111037743407787 -0.00036866959743917828 0 0.00054343401298707049 -0.00045422200139722311 0 0.00075632212604012747 -0.00039563008113730223 0 0.00054343401298707049 -0.00045422200139722311 0 0.00063157980284789435 -0.00049659915641053743 0 0.00066122952467015947 -0.00043096878538981503 0 0.00070778978950960278 -0.0004999866485128785 0 0.00072111037743407787 -0.00036866959743917828 0 0.00075632212604012747 -0.00039563008113730223 0 0.00040399775938238192 -0.00048522432682340577 0 0.00043456464541213337 -0.00048598167426019029 0 0.00044407222217257174 -0.00046454953343579161 0 -0.00037537110171488515 -0.00073722056348977819 0 -0.00040998248344232304 -0.00076068895411269665 0 -0.00035308885779607749 -0.00076498651689466417 0 -0.00037888075418809702 -0.00073880784634937824 0 3.3116793424509517e-05 -0.00072652532115614649 0 -0.00042357558779478077 -0.00082435465347331356 0 -0.00040998248344232304 -0.00076068895411269665 0 -0.00035822405290890624 -0.00076153831901057661 0 -0.00037537110171488515 -0.00073722056348977819 0 -0.00035308885779607749 -0.00076498651689466417 0 -0.00033497123116576154 -0.00074721705881234681 0 0.00017082684364601409 -0.00050356650775521059 0 0.00018220370719781889 -0.00051259257629944174 0 0.00016516469927375748 -0.00054764293173089284 0 -0.00017625466553842953 -0.00057554713034853799 0 -0.0001703644387146693 -0.00057563118430786265 0 -0.00017324564739474644 -0.00058999595840296501 0 3.3116793424509517e-05 -0.00072652532115614649 0 0.00055058714398225229 -0.00070046798549338349 0 0.00041286035658089277 -0.00066087828460169274 0 0.00041756162845958369 -0.00065667165716902737 0 0.00041843649085915861 -0.00066075891133499294 0 3.3116793424509517e-05 -0.00072652532115614649 0 0.00033013759015080945 -0.00057425992291393454 0 0.0010841917133904862 -0.00072308712285842631 0 0.00075632212604012747 -0.00039563008113730223 0 0.00075510211208897158 -0.00061042003306458392 0 0.00063157980284789435 -0.00049659915641053743 0 0.00070778978950960278 -0.0004999866485128785 0 0.00075510211208897158 -0.00061042003306458392 0 0.00070778978950960278 -0.0004999866485128785 0 0.00081849400376507485 -0.00054436421362387291 0 0.00070778978950960278 -0.0004999866485128785 0 0.00081849400376507485 -0.00054436421362387291 0 0.00078907438129098182 -0.00043378750562503754 0 0.00055058714398225229 -0.00070046798549338349 0 0.00033013759015080945 -0.00057425992291393454 0 0.00066122952467015947 -0.00043096878538981503 0 0.00070778978950960278 -0.0004999866485128785 0 0.00078907438129098182 -0.00043378750562503754 0 0.00054343401298707049 -0.00045422200139722311 0 0.00033013759015080945 -0.00057425992291393454 0 0.00033013759015080945 -0.00057425992291393454 0 0.00030713096483793781 -0.00050057074697487799 0 0.00026636871322696084 -0.00061664162960129224 0 0.00039605819487686147 -0.00061948853218760493 0 0.00029953978135498357 -0.00054334327409211289 0 0.00054343401298707049 -0.00045422200139722311 0 0.00030713096483793781 -0.00050057074697487799 0 0.00033013759015080945 -0.00057425992291393454 0 1.6569761262560629e-06 -0.00052483027136474133 0 0.00030713096483793781 -0.00050057074697487799 0 1.6569761262560629e-06 -0.00052483027136474133 0 -0.00044137758022191068 -0.00065363647913179129 0 3.3116793424509517e-05 -0.00072652532115614649 0 -0.0001955324351435775 -0.00059277191770593259 0 -0.00017625466553842953 -0.00057554713034853799 0 -0.00017324564739474644 -0.00058999595840296501 0 1.6569761262560629e-06 -0.00052483027136474133 0 -0.00040318953285636535 -0.00052199089586404891 0 -0.00021945739342893008 -0.00048082637329030536 0 -0.00021419088706127871 -0.0004609734394363296 0 -0.00022066147935843921 -0.00046276516007196894 0 -0.00044137758022191068 -0.00065363647913179129 0 -0.00040318953285636535 -0.00052199089586404891 0 -0.0001955324351435775 -0.00059277191770593259 0 -0.00017324564739474644 -0.00058999595840296501 0 -0.00018841259848872494 -0.00061670333683772408 0 1.6569761262560629e-06 -0.00052483027136474133 0 -0.00014708045071018853 -0.00038903201617824395 0 -7.2917361873682272e-05 -0.00035558494642028349 0 -0.00014208259125729619 -0.00036720480308058645 0 -0.00013135150740754459 -0.00030422690385482513 0 -7.5955058902051544e-05 -0.00041723711065709855 0 -7.2917361873682272e-05 -0.00035558494642028349 0 -0.00014208259125729619 -0.00036720480308058645 0 -0.00013135150740754459 -0.00030422690385482513 0 -7.011179884553316e-05 -0.00029619357590298328 0 -0.00015054684385975962 -0.00023944089462441085 0 -0.00060425828774338434 -0.00048340824560869273 0 -0.00040318953285636535 -0.00052199089586404891 0 -0.00060273084170152217 -0.00046522867498860585 0 -0.00059699840847582495 -0.00045812304938656629 0 -0.00059627242384805703 -0.0004638433496841456 0 -7.2917361873682272e-05 -0.00035558494642028349 0 -0.00013135150740754459 -0.00030422690385482513 0 -7.011179884553316e-05 -0.00029619357590298328 0 -0.00040318953285636535 -0.00052199089586404891 0 -0.00036213770063633899 -0.00042667597012199641 0 -0.00021419088706127871 -0.0004609734394363296 0 -0.00022066147935843921 -0.00046276516007196894 0 -0.00022121484017712174 -0.00044485281071209005 0 -0.00014708045071018853 -0.00038903201617824395 0 -0.00036213770063633899 -0.00042667597012199641 0 0.00012742079968651739 -5.2327260234609715e-05 0 -9.8859074389407825e-05 4.8309861476019977e-05 0 0.00026533676020603405 -4.9866430768518959e-05 0 0.00014133961279312964 -2.0869571735255561e-05 0 0.00010505646493932473 9.6393332794652496e-05 0 -0.0002360904617892441 5.899587597905239e-05 0 -0.00023464013923543551 4.5056752676222886e-05 0 -0.00021010052178621158 3.6332553937047108e-05 0 -0.0002360904617892441 5.899587597905239e-05 0 -0.00023464013923543551 4.5056752676222886e-05 0 -0.0002484411653333751 4.518714410436522e-05 0 -0.00014208259125729619 -0.00036720480308058645 0 -0.00013135150740754459 -0.00030422690385482513 0 -0.00019263071164204575 -0.0002906577888210542 0 6.6740036270175734e-05 -0.00029755379432336526 0 -0.00011515010957965559 -0.00010678093955140032 0 0.00028636088050433035 -0.00023351326692375157 0 2.3527336669451192e-05 -0.00013632446111667092 0 0.00013116779795130867 -5.6225217745901528e-06 0 0.00012742079968651739 -5.2327260234609715e-05 0 -0.00011515010957965559 -0.00010678093955140032 0 0.00012742079968651739 -5.2327260234609715e-05 0 0.00041365750382838987 -0.0002363669479452645 0 0.00028636088050433035 -0.00023351326692375157 0 2.3527336669451192e-05 -0.00013632446111667092 0 0.00021233743831360484 -0.00030979959914389035 0 0.00046189787108266852 -1.4641556680811032e-05 0 0.00061497744295579092 -0.00015443255583326115 0 0.0003978512812131024 -9.3051035632154427e-05 0 0.00026533676020603405 -4.9866430768518959e-05 0 0.00021408189811561641 -0.00011259665388335616 0 0.00014133961279312964 -2.0869571735255561e-05 0 0.00012742079968651739 -5.2327260234609715e-05 0 0.00046846880588311023 -4.9745083657090491e-05 0 0.00046846880588311023 -4.9745083657090491e-05 0 0.00031008953223281749 -1.999246185255824e-05 0 0.00081058838101761091 -5.4204952242748146e-05 0 0.00081214067247155472 -9.3268994879834157e-05 0 0.00078131634239399683 -9.2367096622916474e-05 0 0.00081058838101761091 -5.4204952242748146e-05 0 0.00081214067247155472 -9.3268994879834157e-05 0 0.00084425663751476845 -9.4208377248688766e-05 0 0.0010422202490628651 -8.5244997667603816e-05 0 0.0009555902060612157 -0.00011789386054247887 0 0.00046846880588311023 -4.9745083657090491e-05 0 0.0009555902060612157 -0.00011789386054247887 0 0.00061497744295579092 -0.00015443255583326115 0 0.0003978512812131024 -9.3051035632154427e-05 0 0.00055294050399883922 -0.00028885268231181288 0 0.0011983156552882795 -2.6132620362322567e-05 0 0.0011795407914247003 -7.2707988415093283e-05 0 0.0012040710904826467 -6.3606649448859505e-05 0 0.0011983156552882795 -2.6132620362322567e-05 0 0.0011528517756127033 -6.4326610170961494e-05 0 0.0011795407914247003 -7.2707988415093283e-05 0 0.0011601216150534106 -8.0855257357620591e-05 0 0.001192667423629826 -9.1553217697910692e-05 0 0.0011795407914247003 -7.2707988415093283e-05 0 0.0009555902060612157 -0.00011789386054247887 0 0.001130542133738725 -0.00013342182051033692 0 0.0011913121977841197 -8.1798651084106475e-05 0 0.0011795407914247003 -7.2707988415093283e-05 0 0.0012040710904826467 -6.3606649448859505e-05 0 0.0012150727409675282 -7.5036407097038918e-05 0 0.0012245702811896477 -5.7715602290373566e-05 0 0.0012040710904826467 -6.3606649448859505e-05 0 0.0012150727409675282 -7.5036407097038918e-05 0 0.0011913121977841197 -8.1798651084106475e-05 0 0.0012040710904826467 -6.3606649448859505e-05 0 0.0012150727409675282 -7.5036407097038918e-05 0 0.0012245702811896477 -5.7715602290373566e-05 0 0.0012219822281179786 -6.4834366186060637e-05 0 0.0012619184508691581 -5.9722131616155612e-05 0 0.0011570926008814589 -7.7539872070502485e-05 0 0.0012219822281179786 -6.4834366186060637e-05 0 0.0012174350722818283 -6.8221940982769727e-05 0 0.001220461061214982 -6.5861612541114021e-05 0 0.0012245702811896477 -5.7715602290373566e-05 0 0.0012760013056128667 -6.8869623620519679e-05 0 0.0012526624598123608 -4.2176616208887787e-05 0 0.0012245702811896477 -5.7715602290373566e-05 0 0.0012219822281179786 -6.4834366186060637e-05 0 0.0012174350722818283 -6.8221940982769727e-05 0 0.0012673910329588736 -2.9685789900870449e-05 0 0.0012714338499601656 -2.5674753311147289e-05 0 0.0012695713898034794 -2.4576925141338256e-05 0 0.0011570926008814589 -7.7539872070502485e-05 0 0.0012875791976162667 -1.7923124885729055e-05 0 0.00046323771189951495 -1.9681320808876311e-05 0 0.00047118944589310136 -1.9884302659844789e-05 0 0.00046565666005948342 -1.1856914713843259e-05 0 0.00078018450298153442 1.0261423908746608e-05 0 0.00087189897595537952 -7.4078446282874132e-05 0 0.0012153526270669741 -6.5067502840456413e-05 0 0.001220461061214982 -6.5861612541114021e-05 0 0.0012206197646949214 -6.5197856221078351e-05 0 0.0011570926008814589 -7.7539872070502485e-05 0 0.00078018450298153442 1.0261423908746608e-05 0 0.0012174350722818283 -6.8221940982769727e-05 0 0.0012153526270669741 -6.5067502840456413e-05 0 0.001220461061214982 -6.5861612541114021e-05 0 0.00046846880588311023 -4.9745083657090491e-05 0 0.00087189897595537952 -7.4078446282874132e-05 0 0.0012150727409675282 -7.5036407097038918e-05 0 0.0012219822281179786 -6.4834366186060637e-05 0 0.0012215026049357933 -6.6596469349250882e-05 0 0.0010422202490628651 -8.5244997667603816e-05 0 0.00087189897595537952 -7.4078446282874132e-05 0 0.0012219822281179786 -6.4834366186060637e-05 0 0.001220461061214982 -6.5861612541114021e-05 0 0.0012215026049357933 -6.6596469349250882e-05 0 0.00093050083856536364 -3.7821449176545157e-05 0 0.00087189897595537952 -7.4078446282874132e-05 0 0.00047672579536617396 -1.0429524296370434e-05 0 0.00047118944589310136 -1.9884302659844789e-05 0 0.00047019267260576202 -1.0257454352614634e-05 0 0.00047118944589310136 -1.9884302659844789e-05 0 0.00047019267260576202 -1.0257454352614634e-05 0 0.00046565666005948342 -1.1856914713843259e-05 0 0.00047672579536617396 -1.0429524296370434e-05 0 0.00047019267260576202 -1.0257454352614634e-05 0 0.00047088979830292002 -4.0074792932703487e-06 0 0.00047019267260576202 -1.0257454352614634e-05 0 0.00046565666005948342 -1.1856914713843259e-05 0 0.00046424724385535842 -5.4785957909503207e-06 0 0.00046323771189951495 -1.9681320808876311e-05 0 0.00046565666005948342 -1.1856914713843259e-05 0 0.00045700014749926047 -5.7282215377066001e-06 0 0.00078018450298153442 1.0261423908746608e-05 0 0.00025077548942747425 4.1594079282095724e-06 0 0.00046565666005948342 -1.1856914713843259e-05 0 0.00046424724385535842 -5.4785957909503207e-06 0 0.00045700014749926047 -5.7282215377066001e-06 0 -0.00013233399596042993 1.5539971758244163e-05 0 -0.00012869649398033445 1.7897529312554411e-05 0 -0.00012827172538715429 -1.8496354293779506e-05 0 0.00011966835273735821 2.5043683600853628e-05 0 8.2188435071477956e-05 5.0780172547289511e-05 0 0.00012528070848622923 1.2566476568655568e-05 0 -0.00010787823227700088 -6.4087460353152068e-06 0 0.00011966835273735821 2.5043683600853628e-05 0 -0.00016202397739715392 2.507298774599663e-06 0 0.00046424724385535842 -5.4785957909503207e-06 0 0.00045702954239902296 -3.7077439790612935e-06 0 0.00046386773049251248 2.489368717725292e-06 0 0.00046424724385535842 -5.4785957909503207e-06 0 0.00045700014749926047 -5.7282215377066001e-06 0 0.00045702954239902296 -3.7077439790612935e-06 0 0.00025077548942747425 4.1594079282095724e-06 0 0.00012528070848622923 1.2566476568655568e-05 0 0.00025077548942747425 4.1594079282095724e-06 0 0.00011966835273735821 2.5043683600853628e-05 0 0.00019009383695098317 1.8410417280029203e-05 0 0.00018373680468112739 -2.1917528741633214e-06 0 0.0001913353201871061 2.9956536021193868e-06 0 0.00011966835273735821 2.5043683600853628e-05 0 0.00012528070848622923 1.2566476568655568e-05 0 0.00046424724385535842 -5.4785957909503207e-06 0 0.00047088979830292002 -4.0074792932703487e-06 0 0.00046386773049251248 2.489368717725292e-06 0 0.00014133961279312964 -2.0869571735255561e-05 0 0.00010505646493932473 9.6393332794652496e-05 0 6.8579609132780574e-05 7.1107795127769868e-05 0 0.00031008953223281749 -1.999246185255824e-05 0 8.2188435071477956e-05 5.0780172547289511e-05 0 0.00047019267260576202 -1.0257454352614634e-05 0 0.00046424724385535842 -5.4785957909503207e-06 0 0.00047088979830292002 -4.0074792932703487e-06 0 6.7021220601749671e-05 -7.6124833917307054e-08 0 -4.0522664217133121e-05 -3.7896522954851709e-06 0 3.8169484840623263e-05 3.624941738597461e-05 0 0.00033821536898683111 -5.1938945388845496e-06 0 0.00033807142786427814 -6.2214106162000766e-06 0 0.00034360873332587151 -2.1305007923451165e-06 0 -9.9880217478098897e-05 2.0132501797350582e-05 0 -4.0522664217133121e-05 -3.7896522954851709e-06 0 3.8169484840623263e-05 3.624941738597461e-05 0 -9.9880217478098897e-05 2.0132501797350582e-05 0 -9.3108965110377998e-05 -7.44451188747644e-06 0 -0.00012827172538715429 -1.8496354293779506e-05 0 -9.9880217478098897e-05 2.0132501797350582e-05 0 -4.0522664217133121e-05 -3.7896522954851709e-06 0 -9.3108965110377998e-05 -7.44451188747644e-06 0 0.00012528070848622923 1.2566476568655568e-05 0 0.00018590973882440679 3.6410806600310322e-06 0 0.00033821536898683111 -5.1938945388845496e-06 0 0.00034360873332587151 -2.1305007923451165e-06 0 0.00034200904454854714 -1.7458027590874492e-06 0 0.00033821536898683111 -5.1938945388845496e-06 0 0.00034200904454854714 -1.7458027590874492e-06 0 0.00033889814394227012 3.1353210133966399e-06 0 0.00025077548942747425 4.1594079282095724e-06 0 0.00060084135367700334 5.3924499615880328e-06 0 0.00034360873332587151 -2.1305007923451165e-06 0 0.00032510608292496299 -6.1767558688106418e-09 0 0.00034204088016128375 -4.9871707016318711e-06 0 0.00018590973882440679 3.6410806600310322e-06 0 0.00032472981993501284 2.3002003984010947e-09 0 0.00034360873332587151 -2.1305007923451165e-06 0 0.00034204088016128375 -4.9871707016318711e-06 0 0.00034200904454854714 -1.7458027590874492e-06 0 6.7021220601749671e-05 -7.6124833917307054e-08 0 3.8169484840623263e-05 3.624941738597461e-05 0 0.00032444149709448219 2.2000324779496611e-07 0 0.00034204088016128375 -4.9871707016318711e-06 0 0.00039935389300594807 6.4986880680366896e-09 0 0.00035178016569904834 1.0753199002911321e-05 0 0.00032510608292496299 -6.1767558688106418e-09 0 0.00034204088016128375 -4.9871707016318711e-06 0 0.00039935389300594807 6.4986880680366896e-09 0 0.00043170176629465869 2.7640290986339279e-05 0 0.00060084135367700334 5.3924499615880328e-06 0 0.00034204088016128375 -4.9871707016318711e-06 0 0.00035178016569904834 1.0753199002911321e-05 0 0.00034200904454854714 -1.7458027590874492e-06 0 0.00043170176629465869 2.7640290986339279e-05 0 0.00082190889869317488 3.1489956899854326e-05 0 0.00039996383761820568 1.3883710303934197e-07 0 0.00052954033550637258 2.5320192296534326e-05 0 0.00058365253738659544 -7.1496198076589379e-06 0 0.0003996986020624918 3.3178441266000267e-08 0 0.00043170176629465869 2.7640290986339279e-05 0 0.00046808871329072246 5.4700089912259714e-05 0 0.00068960540461990272 -1.2287088607737393e-05 0 0.00071103089428386753 6.0037741593802041e-05 0 0.00051479123232430911 2.5003626863993556e-05 0 0.00051397707184918946 -1.2512087851536794e-05 0 0.00052912414590251789 2.4712987841360974e-05 0 0.00035178016569904834 1.0753199002911321e-05 0 0.00034200904454854714 -1.7458027590874492e-06 0 0.00033889814394227012 3.1353210133966399e-06 0 0.00082190889869317488 3.1489956899854326e-05 0 0.00060084135367700334 5.3924499615880328e-06 0 0.00091338997851649192 3.673986615692143e-05 0 0.000761556786219228 -2.0761743652261586e-05 0 0.00077928232388977195 3.9530754720364678e-05 0 0.00092371004457063625 -6.979268772769242e-05 0 0.00091338997851649192 3.673986615692143e-05 0 0.000761556786219228 -2.0761743652261586e-05 0 0.00078018450298153442 1.0261423908746608e-05 0 0.00060084135367700334 5.3924499615880328e-06 0 0.0012711536972300984 -3.2591551286759563e-05 0 0.0012714338499601656 -2.5674753311147289e-05 0 0.0012785605125392534 -1.8349997340148066e-05 0 0.00082190889869317488 3.1489956899854326e-05 0 0.00099713628684198357 -2.8762486365267091e-05 0 0.0012673910329588736 -2.9685789900870449e-05 0 0.0012711536972300984 -3.2591551286759563e-05 0 0.0012714338499601656 -2.5674753311147289e-05 0 0.0011570926008814589 -7.7539872070502485e-05 0 0.00082190889869317488 3.1489956899854326e-05 0 0.0006081150475079571 8.1542246988791306e-06 0 0.00058365253738659544 -7.1496198076589379e-06 0 0.000679488170541016 -1.3649028256720891e-05 0 0.00039996383761820568 1.3883710303934197e-07 0 0.00058365253738659544 -7.1496198076589379e-06 0 0.00067192123546180459 -1.074826350395546e-07 0 0.00052954033550637258 2.5320192296534326e-05 0 0.0006081150475079571 8.1542246988791306e-06 0 0.00058365253738659544 -7.1496198076589379e-06 0 0.00058365253738659544 -7.1496198076589379e-06 0 0.00067192123546180459 -1.074826350395546e-07 0 0.000679488170541016 -1.3649028256720891e-05 0 0.00067192123546180459 -1.074826350395546e-07 0 0.000679488170541016 -1.3649028256720891e-05 0 0.0009441953410021279 2.88003363465118e-08 0 0.00099713628684198357 -2.8762486365267091e-05 0 0.0010936764363666009 -9.1268234207831661e-06 0 0.000679488170541016 -1.3649028256720891e-05 0 0.0009441953410021279 2.88003363465118e-08 0 0.00092548092654624089 5.5734481557167383e-06 0 0.0012785605125392534 -1.8349997340148066e-05 0 0.0012764285330654928 -2.6538429277467547e-06 0 0.001276706459473702 1.1326240375597414e-05 0 0.0012785605125392534 -1.8349997340148066e-05 0 0.0012695713898034794 -2.4576925141338256e-05 0 0.0012764285330654928 -2.6538429277467547e-06 0 0.0012714338499601656 -2.5674753311147289e-05 0 0.0012785605125392534 -1.8349997340148066e-05 0 0.0012695713898034794 -2.4576925141338256e-05 0 0.0012760013056128667 -6.8869623620519679e-05 0 0.0012695713898034794 -2.4576925141338256e-05 0 0.0012526624598123608 -4.2176616208887787e-05 0 0.0012245702811896477 -5.7715602290373566e-05 0 0.0012526624598123608 -4.2176616208887787e-05 0 0.0012442929584303404 -2.2593260157335164e-05 0 0.0012695713898034794 -2.4576925141338256e-05 0 0.0012526624598123608 -4.2176616208887787e-05 0 0.0012442929584303404 -2.2593260157335164e-05 0 0.0012442929584303404 -2.2593260157335164e-05 0 0.0012764285330654928 -2.6538429277467547e-06 0 0.0012435770671086492 1.4081733661287842e-06 0 0.0012695713898034794 -2.4576925141338256e-05 0 0.0012442929584303404 -2.2593260157335164e-05 0 0.0012764285330654928 -2.6538429277467547e-06 0 0.0012764285330654928 -2.6538429277467547e-06 0 0.0012435770671086492 1.4081733661287842e-06 0 0.0012806290485993645 6.1650721325386839e-06 0 0.0014612951495428736 -0.00015222177738165221 0 0.0015045194945653673 -0.0001143396495364308 0 0.0016931688891557071 -0.00018417940429141483 0 0.0016749295603943411 -0.0002993615487372433 0 0.0017603310514016151 -0.00020521774289973551 0 0.0012764285330654928 -2.6538429277467547e-06 0 0.0012806290485993645 6.1650721325386839e-06 0 0.0012998980602066585 -1.5650931155582421e-06 0 0.0012998980602066585 -1.5650931155582421e-06 0 0.0012169720977646128 -1.2963126212555065e-08 0 0.001276706459473702 1.1326240375597414e-05 0 0.0012164948185464221 1.9083110780810275e-08 0 0.0009441953410021279 2.88003363465118e-08 0 0.00092548092654624089 5.5734481557167383e-06 0 0.0012165214164039559 -4.4474658369807527e-08 0 0.0010936764363666009 -9.1268234207831661e-06 0 0.0012764285330654928 -2.6538429277467547e-06 0 0.0012998980602066585 -1.5650931155582421e-06 0 0.001276706459473702 1.1326240375597414e-05 0 0.00077082341399555628 -0.00053673155312505935 0 0.00097840629553499342 -0.00036266144637333106 0 0.0010093005226462395 -0.00066901820723596988 0 0.00079890445584115629 -0.00058605671275827487 0 0.0008028759868620993 -0.00071739060983647151 0 0.00077082341399555628 -0.00053673155312505935 0 0.00063437233205380873 -0.00047996441687289692 0 0.0006169935153730662 -0.00056306776878343773 0 0.00077082341399555628 -0.00053673155312505935 0 0.00063437233205380873 -0.00047996441687289692 0 0.00065080270974310925 -0.00032074457241932259 0 0.00063437233205380873 -0.00047996441687289692 0 0.00065080270974310925 -0.00032074457241932259 0 0.00054831566978923011 -0.00049214791392717533 0 0.00063437233205380873 -0.00047996441687289692 0 0.0006169935153730662 -0.00056306776878343773 0 0.00054831566978923011 -0.00049214791392717533 0 0.0006237456258126648 -0.00044858699316942897 0 0.00054831566978923011 -0.00049214791392717533 0 0.00058652847401912973 -0.00040911357427246071 0 0.0006583438176827681 -0.00037383298016811773 0 0.00054775035887468795 -0.00048264520845731334 0 0.00077082341399555628 -0.00053673155312505935 0 0.00065080270974310925 -0.00032074457241932259 0 0.00097840629553499342 -0.00036266144637333106 0 0.00065080270974310925 -0.00032074457241932259 0 0.00097840629553499342 -0.00036266144637333106 0 0.00098309222964711347 -3.551344328281605e-05 0 0.0006583438176827681 -0.00037383298016811773 0 0.00075838289383015935 -0.00026095278658111746 0 0.00097840629553499342 -0.00036266144637333106 0 0.0012865806213272514 -0.00011487721252754547 0 0.00098309222964711347 -3.551344328281605e-05 0 0.00097840629553499342 -0.00036266144637333106 0 0.0012649078284449331 -0.00049040329575890124 0 0.0012865806213272514 -0.00011487721252754547 0 0.0015402006628416453 -0.00028829135242640358 0 0.0012649078284449331 -0.00049040329575890124 0 0.0012865806213272514 -0.00011487721252754547 0 0.0013678777796887268 -0.00055543381609096892 0 0.0012505342124831489 -0.00058178630690107231 0 0.0013070776431637384 -0.00061355279919832434 0 0.0011714168194920315 -0.00073521085814576899 0 0.0011370237791738945 -0.00088585541332031467 0 0.0013678777796887268 -0.00055543381609096892 0 0.0011147347417974575 -0.00091649591535672751 0 0.0013137691960795333 -0.00082220664408436085 0 0.0011370237791738945 -0.00088585541332031467 0 0.0012506422885200873 -0.00090258315367368607 0 0.0012866951775602116 -0.0006713446217812563 0 0.0013137691960795333 -0.00082220664408436085 0 0.0011370237791738945 -0.00088585541332031467 0 0.00097840629553499342 -0.00036266144637333106 0 0.0012649078284449331 -0.00049040329575890124 0 0.0010093005226462395 -0.00066901820723596988 0 0.0012505342124831489 -0.00058178630690107231 0 0.0008028759868620993 -0.00071739060983647151 0 0.0011714168194920315 -0.00073521085814576899 0 0.0010434042491629305 -0.00085794694113415569 0 0.0011370237791738945 -0.00088585541332031467 0 0.00044486051530994179 -0.00080491092562436789 0 0.00043948540556344414 -0.00075630615033193125 0 0.00039727189717432402 -0.00077705601898833579 0 0.00043948540556344414 -0.00075630615033193125 0 0.00039727189717432402 -0.00077705601898833579 0 0.00041348920661814112 -0.00071872693929985951 0 0.0010434042491629305 -0.00085794694113415569 0 0.0011370237791738945 -0.00088585541332031467 0 0.001189043311973242 -0.00092199563365997334 0 0.0008028759868620993 -0.00071739060983647151 0 0.0008412431311777093 -0.00086818052976350745 0 0.00039727189717432402 -0.00077705601898833579 0 0.00041348920661814112 -0.00071872693929985951 0 0.00036200174612723674 -0.00076084704997670131 0 0.0013137691960795333 -0.00082220664408436085 0 0.0012506422885200873 -0.00090258315367368607 0 0.0013171279422366405 -0.00097708115257134649 0 0.0012506422885200873 -0.00090258315367368607 0 0.001189043311973242 -0.00092199563365997334 0 0.0013171279422366405 -0.00097708115257134649 0 0.0011370237791738945 -0.00088585541332031467 0 0.0012506422885200873 -0.00090258315367368607 0 0.001189043311973242 -0.00092199563365997334 0 0.0008412431311777093 -0.00086818052976350745 0 0.00052067887667255389 -0.00075562904173667495 0 0.0003347085334460784 -0.00074702182755652087 0 0.00052067887667255389 -0.00075562904173667495 0 0.00041348920661814112 -0.00071872693929985951 0 0.00029873924304328256 -0.00080987782297449614 0 0.00026925979166048342 -0.00074776745817438058 0 0.00043948540556344414 -0.00075630615033193125 0 0.00041348920661814112 -0.00071872693929985951 0 0.00047655782342993574 -0.00071592515627658712 0 0.00041348920661814112 -0.00071872693929985951 0 0.00047655782342993574 -0.00071592515627658712 0 0.00049282697726774538 -0.00067387220136775933 0 0.00047655782342993574 -0.00071592515627658712 0 0.00057588674430190869 -0.00067642916984828082 0 0.00049282697726774538 -0.00067387220136775933 0 0.00047655782342993574 -0.00071592515627658712 0 0.00049453581204282214 -0.00077011167661049157 0 0.00057588674430190869 -0.00067642916984828082 0 0.00043948540556344414 -0.00075630615033193125 0 0.00047655782342993574 -0.00071592515627658712 0 0.00049453581204282214 -0.00077011167661049157 0 0.00060530088121438577 -0.00070281552815935585 0 0.00059481575011874593 -0.00068015135354313892 0 0.00077082341399555628 -0.00053673155312505935 0 0.00073637432542500306 -0.00061826058674602973 0 0.0006169935153730662 -0.00056306776878343773 0 0.00077082341399555628 -0.00053673155312505935 0 0.00081776204659124658 -0.00056521141178501801 0 0.00073637432542500306 -0.00061826058674602973 0 0.0008028759868620993 -0.00071739060983647151 0 0.00060530088121438577 -0.00070281552815935585 0 0.00044486051530994179 -0.00080491092562436789 0 0.00043948540556344414 -0.00075630615033193125 0 0.00049453581204282214 -0.00077011167661049157 0 0.00073637432542500306 -0.00061826058674602973 0 0.0006169935153730662 -0.00056306776878343773 0 0.00057588674430190869 -0.00067642916984828082 0 0.0006169935153730662 -0.00056306776878343773 0 0.00057588674430190869 -0.00067642916984828082 0 0.0005470137347259982 -0.00059744984065491667 0 0.00057588674430190869 -0.00067642916984828082 0 0.00054155107141668607 -0.00063812724507401441 0 0.0005470137347259982 -0.00059744984065491667 0 0.00057588674430190869 -0.00067642916984828082 0 0.00053648169883049445 -0.00065607729818079313 0 0.00049282697726774538 -0.00067387220136775933 0 0.00057588674430190869 -0.00067642916984828082 0 0.00054155107141668607 -0.00063812724507401441 0 0.00053648169883049445 -0.00065607729818079313 0 0.00054155107141668607 -0.00063812724507401441 0 0.00051602645954541718 -0.00060798530707425937 0 0.00052387949848394422 -0.00063740842777581283 0 0.00054155107141668607 -0.00063812724507401441 0 0.00051602645954541718 -0.00060798530707425937 0 0.0005470137347259982 -0.00059744984065491667 0 0.00051602645954541718 -0.00060798530707425937 0 0.0004927429172188059 -0.000579965355036056 0 0.00051328754574789367 -0.0005574645840766187 0 0.00051602645954541718 -0.00060798530707425937 0 0.0004927429172188059 -0.000579965355036056 0 0.00048996866535414084 -0.00060368940209727727 0 0.00051328754574789367 -0.0005574645840766187 0 0.00048132223440337373 -0.00054291109706986851 0 0.00050781125376010423 -0.00049264125634233022 0 0.0004927429172188059 -0.000579965355036056 0 0.00051328754574789367 -0.0005574645840766187 0 0.00048132223440337373 -0.00054291109706986851 0 0.00051602645954541718 -0.00060798530707425937 0 0.00051328754574789367 -0.0005574645840766187 0 0.0005470137347259982 -0.00059744984065491667 0 0.0006169935153730662 -0.00056306776878343773 0 0.0005470137347259982 -0.00059744984065491667 0 0.00054831566978923011 -0.00049214791392717533 0 0.00051328754574789367 -0.0005574645840766187 0 0.0005470137347259982 -0.00059744984065491667 0 0.00054831566978923011 -0.00049214791392717533 0 0.00042535383953648846 -0.00056722551815740867 0 0.00046171705216266432 -0.0005825770044482917 0 0.00044575752277992966 -0.00053111926120478451 0 0.00040555671588886973 -0.00052198722218693 0 0.00042535383953648846 -0.00056722551815740867 0 0.00044575752277992966 -0.00053111926120478451 0 0.0004927429172188059 -0.000579965355036056 0 0.00046171705216266432 -0.0005825770044482917 0 0.00048132223440337373 -0.00054291109706986851 0 0.00046171705216266432 -0.0005825770044482917 0 0.00048132223440337373 -0.00054291109706986851 0 0.00044575752277992966 -0.00053111926120478451 0 0.0004927429172188059 -0.000579965355036056 0 0.00046171705216266432 -0.0005825770044482917 0 0.00048996866535414084 -0.00060368940209727727 0 0.00048132223440337373 -0.00054291109706986851 0 0.00044575752277992966 -0.00053111926120478451 0 0.00046793518624816126 -0.00047921643791384123 0 0.00043121454382549133 -0.00048388897654115721 0 0.00044575752277992966 -0.00053111926120478451 0 0.00046793518624816126 -0.00047921643791384123 0 0.00040555671588886973 -0.00052198722218693 0 0.00043121454382549133 -0.00048388897654115721 0 0.00044575752277992966 -0.00053111926120478451 0 0.00043121454382549133 -0.00048388897654115721 0 0.00044527438562505322 -0.00042193207776571387 0 0.00046793518624816126 -0.00047921643791384123 0 0.00046793518624816126 -0.00047921643791384123 0 0.00050191587078757976 -0.00043570695341624272 0 0.00050781125376010423 -0.00049264125634233022 0 0.00048132223440337373 -0.00054291109706986851 0 0.00046793518624816126 -0.00047921643791384123 0 0.00050781125376010423 -0.00049264125634233022 0 0.00044527438562505322 -0.00042193207776571387 0 0.00046793518624816126 -0.00047921643791384123 0 0.00050191587078757976 -0.00043570695341624272 0 0.00044527438562505322 -0.00042193207776571387 0 0.00050191587078757976 -0.00043570695341624272 0 0.0004931693314387701 -0.00039133219243518545 0 0.00054831566978923011 -0.00049214791392717533 0 0.00050781125376010423 -0.00049264125634233022 0 0.00053867497665232276 -0.00042939830223481237 0 0.00051328754574789367 -0.0005574645840766187 0 0.00054831566978923011 -0.00049214791392717533 0 0.00050781125376010423 -0.00049264125634233022 0 0.00050191587078757976 -0.00043570695341624272 0 0.00050781125376010423 -0.00049264125634233022 0 0.00053867497665232276 -0.00042939830223481237 0 0.00054831566978923011 -0.00049214791392717533 0 0.00053867497665232276 -0.00042939830223481237 0 0.00058652847401912973 -0.00040911357427246071 0 0.00053867497665232276 -0.00042939830223481237 0 0.00058652847401912973 -0.00040911357427246071 0 0.00056340856399179125 -0.00037654464064445294 0 0.00050191587078757976 -0.00043570695341624272 0 0.00053867497665232276 -0.00042939830223481237 0 0.00052587904591135321 -0.00038683765318185909 0 0.00053867497665232276 -0.00042939830223481237 0 0.00056340856399179125 -0.00037654464064445294 0 0.00052587904591135321 -0.00038683765318185909 0 0.00056340856399179125 -0.00037654464064445294 0 0.00052587904591135321 -0.00038683765318185909 0 0.00054665750562693711 -0.00034931366442297754 0 0.00056340856399179125 -0.00037654464064445294 0 0.00057650453385134305 -0.00034096160173526164 0 0.00054665750562693711 -0.00034931366442297754 0 0.00056340856399179125 -0.00037654464064445294 0 0.00057650453385134305 -0.00034096160173526164 0 0.00060133322992033625 -0.00036530893294778826 0 0.00058652847401912973 -0.00040911357427246071 0 0.00056340856399179125 -0.00037654464064445294 0 0.00060133322992033625 -0.00036530893294778826 0 0.00044527438562505322 -0.00042193207776571387 0 0.00048269275116990124 -0.00036244744835020262 0 0.0004931693314387701 -0.00039133219243518545 0 0.00050191587078757976 -0.00043570695341624272 0 0.0004931693314387701 -0.00039133219243518545 0 0.00052587904591135321 -0.00038683765318185909 0 0.00052587904591135321 -0.00038683765318185909 0 0.00051689690313646978 -0.00035162127332226119 0 0.00054665750562693711 -0.00034931366442297754 0 0.0004931693314387701 -0.00039133219243518545 0 0.00052587904591135321 -0.00038683765318185909 0 0.00051689690313646978 -0.00035162127332226119 0 0.00048269275116990124 -0.00036244744835020262 0 0.0004931693314387701 -0.00039133219243518545 0 0.00051689690313646978 -0.00035162127332226119 0 0.00048269275116990124 -0.00036244744835020262 0 0.00051689690313646978 -0.00035162127332226119 0 0.00051800713545393476 -0.0003251530819664131 0 0.00051689690313646978 -0.00035162127332226119 0 0.00051800713545393476 -0.0003251530819664131 0 0.00053886705643078447 -0.00032261293431680806 0 0.00053886705643078447 -0.00032261293431680806 0 0.00054665750562693711 -0.00034931366442297754 0 0.00055794785120614305 -0.00032542337944797633 0 0.00051689690313646978 -0.00035162127332226119 0 0.00053886705643078447 -0.00032261293431680806 0 0.00054665750562693711 -0.00034931366442297754 0 0.00054408479384135508 -0.00030261646742443051 0 0.00055799906547393009 -0.00030359787012703484 0 0.00053886705643078447 -0.00032261293431680806 0 0.00055799906547393009 -0.00030359787012703484 0 0.00053886705643078447 -0.00032261293431680806 0 0.00055794785120614305 -0.00032542337944797633 0 0.00054408479384135508 -0.00030261646742443051 0 0.00051800713545393476 -0.0003251530819664131 0 0.00053886705643078447 -0.00032261293431680806 0 0.00057650453385134305 -0.00034096160173526164 0 0.00060822072011131566 -0.00032508414695626861 0 0.00060133322992033625 -0.00036530893294778826 0 0.00057650453385134305 -0.00034096160173526164 0 0.00054665750562693711 -0.00034931366442297754 0 0.00055794785120614305 -0.00032542337944797633 0 0.00055799906547393009 -0.00030359787012703484 0 0.00055794785120614305 -0.00032542337944797633 0 0.00057858849934910807 -0.00031278953565486113 0 0.00057650453385134305 -0.00034096160173526164 0 0.00055794785120614305 -0.00032542337944797633 0 0.00057858849934910807 -0.00031278953565486113 0 0.00060916256170694691 -0.00029122321325639709 0 0.00057858849934910807 -0.00031278953565486113 0 0.00060822072011131566 -0.00032508414695626861 0 0.00057650453385134305 -0.00034096160173526164 0 0.00057858849934910807 -0.00031278953565486113 0 0.00060822072011131566 -0.00032508414695626861 0 0.00060916256170694691 -0.00029122321325639709 0 0.00064357395165103764 -0.00030683166592995699 0 0.00060822072011131566 -0.00032508414695626861 0 0.0013413275919667168 4.7506702616303269e-05 0 0.001335025742350044 4.7965076780029429e-05 0 0.00064357395165103764 -0.00030683166592995699 0 0.00064142285201946529 -0.0003469473307952103 0 0.00068524410507758509 -0.00033447224792379845 0 0.00064142285201946529 -0.0003469473307952103 0 0.00068349313170515435 -0.00037173300269791943 0 0.00068524410507758509 -0.00033447224792379845 0 0.00064357395165103764 -0.00030683166592995699 0 0.00064142285201946529 -0.0003469473307952103 0 0.00060822072011131566 -0.00032508414695626861 0 0.00064142285201946529 -0.0003469473307952103 0 0.00060822072011131566 -0.00032508414695626861 0 0.00060133322992033625 -0.00036530893294778826 0 0.00064142285201946529 -0.0003469473307952103 0 0.00060133322992033625 -0.00036530893294778826 0 0.00063213996743559289 -0.00039951218139154114 0 0.00064142285201946529 -0.0003469473307952103 0 0.00063213996743559289 -0.00039951218139154114 0 0.00068349313170515435 -0.00037173300269791943 0 0.0006237456258126648 -0.00044858699316942897 0 0.00063213996743559289 -0.00039951218139154114 0 0.00067543126807514649 -0.00041079495543381071 0 0.00063213996743559289 -0.00039951218139154114 0 0.00067543126807514649 -0.00041079495543381071 0 0.00068349313170515435 -0.00037173300269791943 0 0.00058652847401912973 -0.00040911357427246071 0 0.00060133322992033625 -0.00036530893294778826 0 0.00063213996743559289 -0.00039951218139154114 0 0.0006237456258126648 -0.00044858699316942897 0 0.00058652847401912973 -0.00040911357427246071 0 0.00063213996743559289 -0.00039951218139154114 0 0.0015350774040853196 9.9730248411831221e-05 0 0.0012865806213272514 -0.00011487721252754547 0 0.0014034931090316802 0.0002543688945840816 0 0.0015402006628416453 -0.00028829135242640358 0 0.0015350774040853196 9.9730248411831221e-05 0 0.0012865806213272514 -0.00011487721252754547 0 0.00075838289383015935 -0.00026095278658111746 0 0.0014484536950537233 5.4116579779319723e-05 0 0.0012865806213272514 -0.00011487721252754547 0 0.00098309222964711347 -3.551344328281605e-05 0 0.0014034931090316802 0.0002543688945840816 0 0.00067543126807514649 -0.00041079495543381071 0 0.00068349313170515435 -0.00037173300269791943 0 0.00072912424979192591 -0.00037416092923925332 0 0.0014484536950537233 5.4116579779319723e-05 0 0.001335025742350044 4.7965076780029429e-05 0 0.00068349313170515435 -0.00037173300269791943 0 0.00072912424979192591 -0.00037416092923925332 0 0.00068524410507758509 -0.00033447224792379845 0 0.0019763173363149234 0.00046987711646215611 0 0.0019648177727411985 0.00042040046688867337 0 0.0018967892523724685 0.00041228422775217076 0 0.0015350774040853196 9.9730248411831221e-05 0 0.0014533758591001075 0.00021871816743769214 0 0.0018254752217613049 0.00012907926805383945 0 0.0014650726914121192 0.00011655976874590911 0 0.0014484536950537233 5.4116579779319723e-05 0 0.0019763173363149234 0.00046987711646215611 0 0.0019648177727411985 0.00042040046688867337 0 0.0020085184717337306 0.0004223312092014363 0 0.0019648177727411985 0.00042040046688867337 0 0.0019752510666448302 0.00039953303347570304 0 0.0019486557926365992 0.00040212900568434122 0 0.0019648177727411985 0.00042040046688867337 0 0.0020085184717337306 0.0004223312092014363 0 0.0020020187894647999 0.00040344557595768058 0 0.0020336044825751813 0.000401193858278427 0 0.0020085184717337306 0.0004223312092014363 0 0.0020020187894647999 0.00040344557595768058 0 0.0020049925787696075 0.0003877381656488211 0 0.0020336044825751813 0.000401193858278427 0 0.0020020187894647999 0.00040344557595768058 0 0.0019707833411072278 0.00039086816461759218 0 0.0020049925787696075 0.0003877381656488211 0 0.0019752510666448302 0.00039953303347570304 0 0.0019648177727411985 0.00042040046688867337 0 0.0020020187894647999 0.00040344557595768058 0 0.0019752510666448302 0.00039953303347570304 0 0.0020049925787696075 0.0003877381656488211 0 0.0020020187894647999 0.00040344557595768058 0 0.0019752510666448302 0.00039953303347570304 0 0.0019707833411072278 0.00039086816461759218 0 0.0019752510666448302 0.00039953303347570304 0 0.0019486557926365992 0.00040212900568434122 0 0.0019707833411072278 0.00039086816461759218 0 0.0019532002421255414 0.00040603907543795717 0 0.0019486557926365992 0.00040212900568434122 0 0.0019532002421255414 0.00040603907543795717 0 0.0019486557926365992 0.00040212900568434122 0 0.0018967892523724685 0.00041228422775217076 0 0.0019648177727411985 0.00042040046688867337 0 0.0019486557926365992 0.00040212900568434122 0 0.0018967892523724685 0.00041228422775217076 0 0.0019532002421255414 0.00040603907543795717 0 0.0018967892523724685 0.00041228422775217076 0 0.0019728215460587638 0.00040805280066798499 0 0.0015394468377897912 -0.00034743641916881078 0 0.0016293084345842433 -0.00032455245981396954 0 0.0016156348217778319 -0.00040134481355248903 0 0.0019532002421255414 0.00040603907543795717 0 0.0019728215460587638 0.00040805280066798499 0 0.0019528768803913591 0.0003938518739387995 0 0.0017500225364535187 1.9399385861614648e-05 0 0.0018020697664589119 9.7111188426776487e-05 0 0.0019702975522450103 0.00037915592871877652 0 0.0019532002421255414 0.00040603907543795717 0 0.0019528768803913591 0.0003938518739387995 0 0.0016480451498897559 -0.00020210601898286318 0 0.0018072362451205237 -0.00023140482988091886 0 0.0017140611075301155 -0.0003490081548869314 0 0.0018072362451205237 -0.00023140482988091886 0 0.0018139233298851655 -0.00035819770559856063 0 0.0017140611075301155 -0.0003490081548869314 0 0.0018072362451205237 -0.00023140482988091886 0 0.0018139233298851655 -0.00035819770559856063 0 0.0018789870171444442 -0.00030695590313511393 0 0.0018139233298851655 -0.00035819770559856063 0 0.0017140611075301155 -0.0003490081548869314 0 0.0017592248911999142 -0.00045418261893576638 0 0.0016480451498897559 -0.00020210601898286318 0 0.0016293084345842433 -0.00032455245981396954 0 0.0017140611075301155 -0.0003490081548869314 0 0.0015394468377897912 -0.00034743641916881078 0 0.0016480451498897559 -0.00020210601898286318 0 0.0016293084345842433 -0.00032455245981396954 0 0.0016293084345842433 -0.00032455245981396954 0 0.0017140611075301155 -0.0003490081548869314 0 0.0016156348217778319 -0.00040134481355248903 0 0.0016156348217778319 -0.00040134481355248903 0 0.0016803605810790535 -0.00043839098712822636 0 0.0015987264265179145 -0.00046840430948828397 0 0.0017140611075301155 -0.0003490081548869314 0 0.0016156348217778319 -0.00040134481355248903 0 0.0016803605810790535 -0.00043839098712822636 0 0.0016803605810790535 -0.00043839098712822636 0 0.0017592248911999142 -0.00045418261893576638 0 0.0016545962641727517 -0.00051245324433435229 0 0.0016803605810790535 -0.00043839098712822636 0 0.0015987264265179145 -0.00046840430948828397 0 0.0016545962641727517 -0.00051245324433435229 0 0.0015987264265179145 -0.00046840430948828397 0 0.0016545962641727517 -0.00051245324433435229 0 0.0015829197255508259 -0.00052231255904573769 0 0.0017140611075301155 -0.0003490081548869314 0 0.0016803605810790535 -0.00043839098712822636 0 0.0017592248911999142 -0.00045418261893576638 0 0.0017354314235892953 -0.00055536168932220781 0 0.001672105180296739 -0.00059878200022859152 0 0.0017499751767937248 -0.00069855009928571261 0 0.0017354314235892953 -0.00055536168932220781 0 0.0018395879848950734 -0.00054149166892011804 0 0.0017499751767937248 -0.00069855009928571261 0 0.0018735431499340813 -0.00051216236664282876 0 0.00096507411841042633 -0.00056720021811131061 0 0.0017592248911999142 -0.00045418261893576638 0 0.0017354314235892953 -0.00055536168932220781 0 0.0018395879848950734 -0.00054149166892011804 0 0.0017592248911999142 -0.00045418261893576638 0 0.0017354314235892953 -0.00055536168932220781 0 0.0016545962641727517 -0.00051245324433435229 0 0.0016545962641727517 -0.00051245324433435229 0 0.0016074025443306422 -0.00057948831256296256 0 0.0015829197255508259 -0.00052231255904573769 0 0.0017354314235892953 -0.00055536168932220781 0 0.0016545962641727517 -0.00051245324433435229 0 0.001672105180296739 -0.00059878200022859152 0 0.0016545962641727517 -0.00051245324433435229 0 0.001672105180296739 -0.00059878200022859152 0 0.0016074025443306422 -0.00057948831256296256 0 0.001672105180296739 -0.00059878200022859152 0 0.0016074025443306422 -0.00057948831256296256 0 0.0016356214659814317 -0.0006472299962045451 0 0.0016074025443306422 -0.00057948831256296256 0 0.0015295371202906506 -0.00055927424366754243 0 0.0015726672923772251 -0.00063736548160461012 0 0.0015295371202906506 -0.00055927424366754243 0 0.0014945122772702902 -0.00062118908847554088 0 0.0015726672923772251 -0.00063736548160461012 0 0.0015295371202906506 -0.00055927424366754243 0 0.0015829197255508259 -0.00052231255904573769 0 0.0015470633279147509 -0.00049445993568947571 0 0.0016074025443306422 -0.00057948831256296256 0 0.0015295371202906506 -0.00055927424366754243 0 0.0015829197255508259 -0.00052231255904573769 0 0.0015295371202906506 -0.00055927424366754243 0 0.0014977368060176048 -0.0005050094062953749 0 0.0014458876773193975 -0.00054921440588988726 0 0.0015295371202906506 -0.00055927424366754243 0 0.0014977368060176048 -0.0005050094062953749 0 0.0015470633279147509 -0.00049445993568947571 0 0.0015295371202906506 -0.00055927424366754243 0 0.0014458876773193975 -0.00054921440588988726 0 0.0014945122772702902 -0.00062118908847554088 0 0.0013678777796887268 -0.00055543381609096892 0 0.001638733874557566 -0.00016775305844266361 0 0.0015402006628416453 -0.00028829135242640358 0 0.0015350774040853196 9.9730248411831221e-05 0 0.0018254752217613049 0.00012907926805383945 0 0.0013464621957701092 -0.00063945406637890131 0 0.0014458876773193975 -0.00054921440588988726 0 0.0014252172356885823 -0.00050661014759489031 0 0.0013678777796887268 -0.00055543381609096892 0 0.0014086279476298446 -0.00058919915825599446 0 0.0014977368060176048 -0.0005050094062953749 0 0.0014458876773193975 -0.00054921440588988726 0 0.0014252172356885823 -0.00050661014759489031 0 0.0014533758591001075 0.00021871816743769214 0 0.0018967892523724685 0.00041228422775217076 0 0.0018254752217613049 0.00012907926805383945 0 0.0014484536950537233 5.4116579779319723e-05 0 0.0020032542102774008 0.00052371429426981565 0 0.0018967892523724685 0.00041228422775217076 0 0.0019728215460587638 0.00040805280066798499 0 0.0018254752217613049 0.00012907926805383945 0 0.0017500225364535187 1.9399385861614648e-05 0 0.001638733874557566 -0.00016775305844266361 0 0.0015394468377897912 -0.00034743641916881078 0 0.0014252172356885823 -0.00050661014759489031 0 0.0015366065085929983 -0.00045346668070432729 0 0.0015394468377897912 -0.00034743641916881078 0 0.0016156348217778319 -0.00040134481355248903 0 0.0015366065085929983 -0.00045346668070432729 0 0.0016156348217778319 -0.00040134481355248903 0 0.0015987264265179145 -0.00046840430948828397 0 0.0015366065085929983 -0.00045346668070432729 0 0.0015987264265179145 -0.00046840430948828397 0 0.0015366065085929983 -0.00045346668070432729 0 0.0015470633279147509 -0.00049445993568947571 0 0.0015987264265179145 -0.00046840430948828397 0 0.0015829197255508259 -0.00052231255904573769 0 0.0015470633279147509 -0.00049445993568947571 0 0.0014977368060176048 -0.0005050094062953749 0 0.0014252172356885823 -0.00050661014759489031 0 0.0015366065085929983 -0.00045346668070432729 0 0.0014977368060176048 -0.0005050094062953749 0 0.0015366065085929983 -0.00045346668070432729 0 0.0015470633279147509 -0.00049445993568947571 0 0.00164551345213541 -0.00012846154776916492 0 0.0013776389907570734 -0.00018953188139668811 0 0.0021517212424405426 -0.00031897508914134582 0 0.0020868372148381046 -0.00031766749912890704 0 0.0020955899209042345 -0.00023874698750173695 0 0.0021517212424405426 -0.00031897508914134582 0 0.0020868372148381046 -0.00031766749912890704 0 0.0020717428469597464 -0.00038069228543219472 0 0.0020868372148381046 -0.00031766749912890704 0 0.0020252733117986652 -0.00034518240686537253 0 0.0020717428469597464 -0.00038069228543219472 0 0.0020868372148381046 -0.00031766749912890704 0 0.0020955899209042345 -0.00023874698750173695 0 0.0020400449450182338 -0.00029611160303645828 0 0.0020367492285800659 -0.00021602419348879236 0 0.0020955899209042345 -0.00023874698750173695 0 0.0020115913755429978 -0.00025441047058521912 0 0.0020955899209042345 -0.00023874698750173695 0 0.0020115913755429978 -0.00025441047058521912 0 0.0020400449450182338 -0.00029611160303645828 0 0.0019917488431410056 -0.00021449511131182172 0 0.0020367492285800659 -0.00021602419348879236 0 0.0020115913755429978 -0.00025441047058521912 0 0.0020115913755429978 -0.00025441047058521912 0 0.0020008035973647104 -0.00029578139522259218 0 0.0020400449450182338 -0.00029611160303645828 0 0.0020008035973647104 -0.00029578139522259218 0 0.0020400449450182338 -0.00029611160303645828 0 0.0020252733117986652 -0.00034518240686537253 0 0.0020868372148381046 -0.00031766749912890704 0 0.0020400449450182338 -0.00029611160303645828 0 0.0020252733117986652 -0.00034518240686537253 0 0.0020008035973647104 -0.00029578139522259218 0 0.0020252733117986652 -0.00034518240686537253 0 0.0019668946416481147 -0.00034220035167150726 0 0.0019668946416481147 -0.00034220035167150726 0 0.0019728572489221522 -0.00026539841248978004 0 0.0018646381667190412 -0.00036531654069052195 0 0.0019669575508026969 -0.000271603111596564 0 0.0018826196987736649 -0.00038657032754639613 0 0.0020008035973647104 -0.00029578139522259218 0 0.0019668946416481147 -0.00034220035167150726 0 0.0019728572489221522 -0.00026539841248978004 0 0.0019728572489221522 -0.00026539841248978004 0 0.0019563684238486957 -0.00025770311085296453 0 0.0019225399029366326 -0.00039033885483281353 0 0.0020115913755429978 -0.00025441047058521912 0 0.0020008035973647104 -0.00029578139522259218 0 0.0019728572489221522 -0.00026539841248978004 0 0.0020309974450101547 -0.00019871509377629394 0 0.001973137212640919 -0.00024762517742386701 0 0.0019917488431410056 -0.00021449511131182172 0 0.0019728572489221522 -0.00026539841248978004 0 0.0019563684238486957 -0.00025770311085296453 0 0.0019917488431410056 -0.00021449511131182172 0 0.0020115913755429978 -0.00025441047058521912 0 0.0019728572489221522 -0.00026539841248978004 0 0.0019768319774019303 -0.0001697091340595299 0 0.0020870843602120697 -0.00016976411047448466 0 0.0019563684238486957 -0.00025770311085296453 0 0.0018999049024308568 -0.00012323455211570394 0 0.0018072362451205237 -0.00023140482988091886 0 0.0019036596885367038 -0.00022048045336979605 0 0.0019563684238486957 -0.00025770311085296453 0 0.0019036596885367038 -0.00022048045336979605 0 0.0018789870171444442 -0.00030695590313511393 0 0.0019768319774019303 -0.0001697091340595299 0 0.0019563684238486957 -0.00025770311085296453 0 0.0019036596885367038 -0.00022048045336979605 0 0.0018072362451205237 -0.00023140482988091886 0 0.0019036596885367038 -0.00022048045336979605 0 0.0018789870171444442 -0.00030695590313511393 0 0.0019563684238486957 -0.00025770311085296453 0 0.0018789870171444442 -0.00030695590313511393 0 0.0019225399029366326 -0.00039033885483281353 0 0.0018139233298851655 -0.00035819770559856063 0 0.0018789870171444442 -0.00030695590313511393 0 0.0019225399029366326 -0.00039033885483281353 0 0.0018826196987736649 -0.00038657032754639613 0 0.0018735431499340813 -0.00051216236664282876 0 0.0018139233298851655 -0.00035819770559856063 0 0.0017592248911999142 -0.00045418261893576638 0 0.0019225399029366326 -0.00039033885483281353 0 0.0017592248911999142 -0.00045418261893576638 0 0.0019225399029366326 -0.00039033885483281353 0 0.0018395879848950734 -0.00054149166892011804 0 0.0018646381667190412 -0.00036531654069052195 0 0.0018649990097496451 -0.00046473124220640784 0 0.0017509556230286317 -0.00050720071354729598 0 0.0017509556230286317 -0.00050720071354729598 0 0.0018238374586783872 -0.00057594494727285315 0 0.0016295179960982193 -0.00069453183382954921 0 0.0018649990097496451 -0.00046473124220640784 0 0.0017509556230286317 -0.00050720071354729598 0 0.0018238374586783872 -0.00057594494727285315 0 0.00028989017042679616 -0.00029539804794895762 0 0.00044244748999155677 -0.00030331786134102178 0 0.00047543649265907823 -0.00014230496696489224 0 0.0010458924915599415 -0.00043657995946255393 0 0.0012292009362189094 -0.00030350240984799016 0 0.0018649990097496451 -0.00046473124220640784 0 0.0018238374586783872 -0.00057594494727285315 0 0.001971250109751032 -0.00046603192180848772 0 0.0019668946416481147 -0.00034220035167150726 0 0.0018646381667190412 -0.00036531654069052195 0 0.001971250109751032 -0.00046603192180848772 0 0.0018646381667190412 -0.00036531654069052195 0 0.0018649990097496451 -0.00046473124220640784 0 0.001971250109751032 -0.00046603192180848772 0 0.00047543649265907823 -0.00014230496696489224 0 0.00061682309366638992 -0.00018422309117419581 0 0.00072021264822369469 9.4323002302452945e-06 0 0.0020252733117986652 -0.00034518240686537253 0 0.0019668946416481147 -0.00034220035167150726 0 0.001971250109751032 -0.00046603192180848772 0 0.0020252733117986652 -0.00034518240686537253 0 0.001971250109751032 -0.00046603192180848772 0 0.0020717428469597464 -0.00038069228543219472 0 0.0012292009362189094 -0.00030350240984799016 0 0.0013776389907570734 -0.00018953188139668811 0 0.00044244748999155677 -0.00030331786134102178 0 0.00047543649265907823 -0.00014230496696489224 0 0.00061682309366638992 -0.00018422309117419581 0 0.00044244748999155677 -0.00030331786134102178 0 0.00061682309366638992 -0.00018422309117419581 0 0.00065320482988566225 -0.0003607509500989822 0 0.00091543254029005021 -0.00022215912497462216 0 0.00081353154371948181 -0.00010738866857367186 0 0.0007711557327288375 -0.00027006636697368068 0 0.00080904502571763212 -0.00011406975315995809 0 0.00070908312361778832 -0.00031473639856085682 0 0.00061682309366638992 -0.00018422309117419581 0 0.00081353154371948181 -0.00010738866857367186 0 0.00065320482988566225 -0.0003607509500989822 0 0.00090497169763649184 -2.6535218918077665e-05 0 0.00081353154371948181 -0.00010738866857367186 0 0.00072021264822369469 9.4323002302452945e-06 0 0.00061682309366638992 -0.00018422309117419581 0 0.00081353154371948181 -0.00010738866857367186 0 0.00072021264822369469 9.4323002302452945e-06 0 0.00093683422790311727 0.0001289111319058321 0 0.00090497169763649184 -2.6535218918077665e-05 0 0.00072021264822369469 9.4323002302452945e-06 0 0.00089451199302268455 -0.00038879362730960093 0 0.0007711557327288375 -0.00027006636697368068 0 0.00080465597600097832 -0.00043214999672720094 0 0.0009365902690828317 -0.00031401937156341026 0 0.00089451199302268455 -0.00038879362730960093 0 0.0007711557327288375 -0.00027006636697368068 0 0.00044244748999155677 -0.00030331786134102178 0 0.00065320482988566225 -0.0003607509500989822 0 0.00042349476720141379 -0.00045014666606125396 0 0.00070908312361778832 -0.00031473639856085682 0 0.00063834168816276327 -0.0004475504614286684 0 0.0007711557327288375 -0.00027006636697368068 0 0.00071276779233318344 -0.0004080073663986291 0 0.00080465597600097832 -0.00043214999672720094 0 0.00065320482988566225 -0.0003607509500989822 0 0.00050704846505544626 -0.00054876670273037987 0 0.00042349476720141379 -0.00045014666606125396 0 0.00050704846505544626 -0.00054876670273037987 0 0.0003768701011367168 -0.0005438510969936846 0 0.00042349476720141379 -0.00045014666606125396 0 0.0003768701011367168 -0.0005438510969936846 0 0.00031819752984337674 -0.00049906080521834595 0 0.00030249819176464513 -0.0005800365974385713 0 0.00042349476720141379 -0.00045014666606125396 0 0.00034204398430010973 -0.00040359007943196649 0 0.00031819752984337674 -0.00049906080521834595 0 0.0003768701011367168 -0.0005438510969936846 0 0.00042349476720141379 -0.00045014666606125396 0 0.00031819752984337674 -0.00049906080521834595 0 0.00044244748999155677 -0.00030331786134102178 0 0.00042349476720141379 -0.00045014666606125396 0 0.00034204398430010973 -0.00040359007943196649 0 0.00028989017042679616 -0.00029539804794895762 0 0.00044244748999155677 -0.00030331786134102178 0 0.00034204398430010973 -0.00040359007943196649 0 0.00028989017042679616 -0.00029539804794895762 0 0.00025062313232411022 -0.00045502060432476307 0 0.0001591016602257229 -0.00041955315206898932 0 0.00028989017042679616 -0.00029539804794895762 0 0.00034204398430010973 -0.00040359007943196649 0 0.00025062313232411022 -0.00045502060432476307 0 0.0010458924915599415 -0.00043657995946255393 0 0.00096507411841042633 -0.00056720021811131061 0 0.00025062313232411022 -0.00045502060432476307 0 0.00031819752984337674 -0.00049906080521834595 0 0.00025362564437665094 -0.00055343987290916669 0 0.00034204398430010973 -0.00040359007943196649 0 0.00025062313232411022 -0.00045502060432476307 0 0.00031819752984337674 -0.00049906080521834595 0 0.00031819752984337674 -0.00049906080521834595 0 0.00025362564437665094 -0.00055343987290916669 0 0.00030249819176464513 -0.0005800365974385713 0 0.00025062313232411022 -0.00045502060432476307 0 0.00025362564437665094 -0.00055343987290916669 0 0.00019049119449277729 -0.00053450025430837073 0 0.00025362564437665094 -0.00055343987290916669 0 0.00030249819176464513 -0.0005800365974385713 0 0.00023641436792182257 -0.00061676545806897297 0 0.00025362564437665094 -0.00055343987290916669 0 0.00023641436792182257 -0.00061676545806897297 0 0.00021115500559544415 -0.00058155808529556264 0 0.00030249819176464513 -0.0005800365974385713 0 0.0002840276850579243 -0.00063467751950598982 0 0.00023641436792182257 -0.00061676545806897297 0 0.00023641436792182257 -0.00061676545806897297 0 0.00021986598560372203 -0.00068258436334595204 0 0.00018732590946664098 -0.00062466436118184055 0 0.0002840276850579243 -0.00063467751950598982 0 0.00023641436792182257 -0.00061676545806897297 0 0.00021986598560372203 -0.00068258436334595204 0 0.00021986598560372203 -0.00068258436334595204 0 0.00028831503607836863 -0.00069955193772075616 0 0.00022362026962137091 -0.00071771261943953299 0 0.00021986598560372203 -0.00068258436334595204 0 0.0002920846209811824 -0.00066848522583965906 0 0.00028831503607836863 -0.00069955193772075616 0 0.0002840276850579243 -0.00063467751950598982 0 0.00021986598560372203 -0.00068258436334595204 0 0.0002920846209811824 -0.00066848522583965906 0 0.0002920846209811824 -0.00066848522583965906 0 0.00035279018772133361 -0.00067209820519212532 0 0.00032041840623565188 -0.00064580420970592205 0 3.5689742236631623e-05 -0.0010020726746686856 0 -5.2436413230778272e-06 -0.00090360820166115075 0 8.5601690898586994e-05 -0.00089252352347314243 0 0.00028831503607836863 -0.00069955193772075616 0 0.00035610696768738364 -0.0006798541815987325 0 0.00025704832631980078 -0.00073210304520538512 0 0.0002920846209811824 -0.00066848522583965906 0 0.00028831503607836863 -0.00069955193772075616 0 0.00035279018772133361 -0.00067209820519212532 0 0.00031389159689260349 -0.00071360806327151673 0 0.00015846702144537022 -0.00083240397087440009 0 0.00028831503607836863 -0.00069955193772075616 0 0.00035610696768738364 -0.0006798541815987325 0 0.00035279018772133361 -0.00067209820519212532 0 0.00031389159689260349 -0.00071360806327151673 0 0.00031814738598825374 -0.00071082524365005792 0 0.00050704846505544626 -0.00054876670273037987 0 0.00036834319971733336 -0.00068694891689605718 0 0.00035279018772133361 -0.00067209820519212532 0 0.00050704846505544626 -0.00054876670273037987 0 0.00035279018772133361 -0.00067209820519212532 0 0.00035515850793667569 -0.00060715838548455444 0 0.00035279018772133361 -0.00067209820519212532 0 0.00032041840623565188 -0.00064580420970592205 0 0.00035515850793667569 -0.00060715838548455444 0 0.0002840276850579243 -0.00063467751950598982 0 0.00032041840623565188 -0.00064580420970592205 0 0.00035515850793667569 -0.00060715838548455444 0 0.0002840276850579243 -0.00063467751950598982 0 0.0002920846209811824 -0.00066848522583965906 0 0.00032041840623565188 -0.00064580420970592205 0 0.0003768701011367168 -0.0005438510969936846 0 0.00030249819176464513 -0.0005800365974385713 0 0.00035515850793667569 -0.00060715838548455444 0 0.00030249819176464513 -0.0005800365974385713 0 0.0002840276850579243 -0.00063467751950598982 0 0.00035515850793667569 -0.00060715838548455444 0 0.00050704846505544626 -0.00054876670273037987 0 0.0003768701011367168 -0.0005438510969936846 0 0.00035515850793667569 -0.00060715838548455444 0 0.00071276779233318344 -0.0004080073663986291 0 0.00074072110451625531 -0.00054812171106447428 0 0.00079460975167093973 -0.00051248454581577074 0 0.00071276779233318344 -0.0004080073663986291 0 0.00064881186000293031 -0.00054825415082039499 0 0.00074072110451625531 -0.00054812171106447428 0 0.00063834168816276327 -0.0004475504614286684 0 0.00031389159689260349 -0.00071360806327151673 0 0.00064881186000293031 -0.00054825415082039499 0 0.00074072110451625531 -0.00054812171106447428 0 0.00078321478718663788 -0.00066752576885055449 0 0.00031389159689260349 -0.00071360806327151673 0 0.00037458497406318831 -0.00078639234823859488 0 0.00074072110451625531 -0.00054812171106447428 0 0.00079766746856931156 -0.00058876218732621568 0 0.00078321478718663788 -0.00066752576885055449 0 0.00074072110451625531 -0.00054812171106447428 0 0.00079766746856931156 -0.00058876218732621568 0 0.00079460975167093973 -0.00051248454581577074 0 0.00079766746856931156 -0.00058876218732621568 0 0.00086088846775347644 -0.00056289161714971798 0 0.00083334207569804944 -0.00063807880981124349 0 0.00079766746856931156 -0.00058876218732621568 0 0.00086088846775347644 -0.00056289161714971798 0 0.00079460975167093973 -0.00051248454581577074 0 0.00088429956554205509 -0.00047731804223102387 0 0.00086088846775347644 -0.00056289161714971798 0 0.00079460975167093973 -0.00051248454581577074 0 0.00071276779233318344 -0.0004080073663986291 0 0.00079460975167093973 -0.00051248454581577074 0 0.00080465597600097832 -0.00043214999672720094 0 0.00088429956554205509 -0.00047731804223102387 0 0.00079460975167093973 -0.00051248454581577074 0 0.00080465597600097832 -0.00043214999672720094 0 0.00089451199302268455 -0.00038879362730960093 0 0.00088429956554205509 -0.00047731804223102387 0 0.00080465597600097832 -0.00043214999672720094 0 0.0014541884727359768 -0.00078714432473074342 0 0.0015330080595045957 -0.00073085441428128773 0 0.0016144750195294726 -0.00078787866213188404 0 0.0014541884727359768 -0.00078714432473074342 0 0.0016144750195294726 -0.00078787866213188404 0 0.0014695772212592057 -0.00088229149744806429 0 0.0001455539698748048 -0.00054068005182948448 0 0.00012617649656766576 -0.00059847154085929132 0 7.5386813885516368e-05 -0.00060023588546764372 0 0.00088308058220482836 -0.00066531185460453181 0 0.00079259954996853637 -0.00073517900835509535 0 0.0013137691960795333 -0.00082220664408436085 0 0.0014541884727359768 -0.00078714432473074342 0 0.0014340234611383504 -0.00069256328190537111 0 0.0013137691960795333 -0.00082220664408436085 0 0.0014541884727359768 -0.00078714432473074342 0 0.0014695772212592057 -0.00088229149744806429 0 0.0012866951775602116 -0.0006713446217812563 0 0.0013137691960795333 -0.00082220664408436085 0 0.0014340234611383504 -0.00069256328190537111 0 0.0014458876773193975 -0.00054921440588988726 0 0.0014340234611383504 -0.00069256328190537111 0 0.0014945122772702902 -0.00062118908847554088 0 0.0012866951775602116 -0.0006713446217812563 0 0.0014458876773193975 -0.00054921440588988726 0 0.0014340234611383504 -0.00069256328190537111 0 0.0014340234611383504 -0.00069256328190537111 0 0.0014945122772702902 -0.00062118908847554088 0 0.0015180026633705556 -0.00066952721277505599 0 0.0014541884727359768 -0.00078714432473074342 0 0.0014340234611383504 -0.00069256328190537111 0 0.0015330080595045957 -0.00073085441428128773 0 0.0014340234611383504 -0.00069256328190537111 0 0.0015180026633705556 -0.00066952721277505599 0 0.0015330080595045957 -0.00073085441428128773 0 0.0015180026633705556 -0.00066952721277505599 0 0.0015330080595045957 -0.00073085441428128773 0 0.0016112294778541669 -0.00070667485674634197 0 0.0015180026633705556 -0.00066952721277505599 0 0.0015726672923772251 -0.00063736548160461012 0 0.0016112294778541669 -0.00070667485674634197 0 0.0014945122772702902 -0.00062118908847554088 0 0.0015180026633705556 -0.00066952721277505599 0 0.0015726672923772251 -0.00063736548160461012 0 0.00096507411841042633 -0.00056720021811131061 0 0.00088308058220482836 -0.00066531185460453181 0 0.0016074025443306422 -0.00057948831256296256 0 0.0015726672923772251 -0.00063736548160461012 0 0.0016356214659814317 -0.0006472299962045451 0 0.0016112294778541669 -0.00070667485674634197 0 0.0017499751767937248 -0.00069855009928571261 0 0.0016144750195294726 -0.00078787866213188404 0 0.0015726672923772251 -0.00063736548160461012 0 0.0016356214659814317 -0.0006472299962045451 0 0.0016112294778541669 -0.00070667485674634197 0 0.0016356214659814317 -0.0006472299962045451 0 0.0016112294778541669 -0.00070667485674634197 0 0.0017499751767937248 -0.00069855009928571261 0 0.001672105180296739 -0.00059878200022859152 0 0.0016356214659814317 -0.0006472299962045451 0 0.0017499751767937248 -0.00069855009928571261 0 0.0015330080595045957 -0.00073085441428128773 0 0.0016112294778541669 -0.00070667485674634197 0 0.0016144750195294726 -0.00078787866213188404 0 0.00025062313232411022 -0.00045502060432476307 0 0.0001591016602257229 -0.00041955315206898932 0 0.00019049119449277729 -0.00053450025430837073 0 0.00096507411841042633 -0.00056720021811131061 0 0.0001030455659833669 -0.000590076483267426 0 0.0001591016602257229 -0.00041955315206898932 0 0.00019049119449277729 -0.00053450025430837073 0 0.00012064639582049241 -0.00055074799820728775 0 0.00019049119449277729 -0.00053450025430837073 0 0.00012064639582049241 -0.00055074799820728775 0 0.0001660890008504444 -0.0005808892636715655 0 0.00019049119449277729 -0.00053450025430837073 0 0.00021115500559544415 -0.00058155808529556264 0 0.0001660890008504444 -0.0005808892636715655 0 0.00025362564437665094 -0.00055343987290916669 0 0.00019049119449277729 -0.00053450025430837073 0 0.00021115500559544415 -0.00058155808529556264 0 0.00026292367665265364 -0.00046921754860689382 0 0.0001455539698748048 -0.00054068005182948448 0 0.00018783385704981438 -0.00057798327443797518 0 0.0001455539698748048 -0.00054068005182948448 0 0.00018783385704981438 -0.00057798327443797518 0 0.00012617649656766576 -0.00059847154085929132 0 0.00018783385704981438 -0.00057798327443797518 0 0.00012617649656766576 -0.00059847154085929132 0 0.0001171166673124086 -0.00064391307972428032 0 0.0001030455659833669 -0.000590076483267426 0 0.00013335158415794441 -0.0006170837591940718 0 0.00012064639582049241 -0.00055074799820728775 0 0.00014870574717032258 -0.00061459157083308799 0 0.0001171166673124086 -0.00064391307972428032 0 0.00012064639582049241 -0.00055074799820728775 0 0.00014870574717032258 -0.00061459157083308799 0 0.0001660890008504444 -0.0005808892636715655 0 0.00014870574717032258 -0.00061459157083308799 0 0.0001171166673124086 -0.00064391307972428032 0 0.00016435713588578308 -0.00066093165771807891 0 0.00023641436792182257 -0.00061676545806897297 0 0.00021115500559544415 -0.00058155808529556264 0 0.00018732590946664098 -0.00062466436118184055 0 0.00021115500559544415 -0.00058155808529556264 0 0.0001660890008504444 -0.0005808892636715655 0 0.00018732590946664098 -0.00062466436118184055 0 0.00014870574717032258 -0.00061459157083308799 0 0.0001660890008504444 -0.0005808892636715655 0 0.00018732590946664098 -0.00062466436118184055 0 0.00014870574717032258 -0.00061459157083308799 0 0.00018732590946664098 -0.00062466436118184055 0 0.00016435713588578308 -0.00066093165771807891 0 0.00021986598560372203 -0.00068258436334595204 0 0.00016435713588578308 -0.00066093165771807891 0 0.00015807365084541451 -0.00071351709707560612 0 0.00021986598560372203 -0.00068258436334595204 0 0.00015807365084541451 -0.00071351709707560612 0 0.000180947162558542 -0.00073087901502212746 0 0.00021986598560372203 -0.00068258436334595204 0 0.00018732590946664098 -0.00062466436118184055 0 0.00016435713588578308 -0.00066093165771807891 0 0.0001171166673124086 -0.00064391307972428032 0 0.00015807365084541451 -0.00071351709707560612 0 8.5576653780526714e-05 -0.00066590497973122902 0 0.0001874335067274234 -0.00072575340695511239 0 7.650774580954626e-05 -0.00069505855981776964 0 0.0001171166673124086 -0.00064391307972428032 0 0.00016435713588578308 -0.00066093165771807891 0 0.00015807365084541451 -0.00071351709707560612 0 0.00020778308993221021 -0.00076425675071141019 0 0.00026925979166048342 -0.00074776745817438058 0 0.00019619382026152415 -0.00071738414736211963 0 0.00015807365084541451 -0.00071351709707560612 0 0.00020778308993221021 -0.00076425675071141019 0 0.00019619382026152415 -0.00071738414736211963 0 0.00012617649656766576 -0.00059847154085929132 0 0.0001171166673124086 -0.00064391307972428032 0 8.6655665850157864e-05 -0.00063154684828727341 0 0.0001171166673124086 -0.00064391307972428032 0 8.5576653780526714e-05 -0.00066590497973122902 0 8.6655665850157864e-05 -0.00063154684828727341 0 0.00012617649656766576 -0.00059847154085929132 0 8.6655665850157864e-05 -0.00063154684828727341 0 7.5386813885516368e-05 -0.00060023588546764372 0 0.0013137691960795333 -0.00082220664408436085 0 0.0014695772212592057 -0.00088229149744806429 0 0.0013171279422366405 -0.00097708115257134649 0 8.5576653780526714e-05 -0.00066590497973122902 0 8.6655665850157864e-05 -0.00063154684828727341 0 3.1362261875098431e-05 -0.00063628079203901914 0 0.00079259954996853637 -0.00073517900835509535 0 0.00052067887667255389 -0.00075562904173667495 0 8.6655665850157864e-05 -0.00063154684828727341 0 7.5386813885516368e-05 -0.00060023588546764372 0 3.1362261875098431e-05 -0.00063628079203901914 0 7.650774580954626e-05 -0.00069505855981776964 0 0.00052067887667255389 -0.00075562904173667495 0 0.00020778308993221021 -0.00076425675071141019 0 0.00029873924304328256 -0.00080987782297449614 0 0.00026925979166048342 -0.00074776745817438058 0 0.00026925979166048342 -0.00074776745817438058 0 0.00027763299272721791 -0.00069383458725700458 0 0.00019619382026152415 -0.00071738414736211963 0 0.00027763299272721791 -0.00069383458725700458 0 0.00017566569691510278 -0.00069061990000180633 0 0.00027258364585649325 -0.00063973057840106188 0 0.00027763299272721791 -0.00069383458725700458 0 0.00017566569691510278 -0.00069061990000180633 0 0.00019619382026152415 -0.00071738414736211963 0 0.00017566569691510278 -0.00069061990000180633 0 0.00019619382026152415 -0.00071738414736211963 0 0.00016879009579226793 -0.00071461488004594771 0 0.00015807365084541451 -0.00071351709707560612 0 0.00019619382026152415 -0.00071738414736211963 0 0.00016879009579226793 -0.00071461488004594771 0 0.00015807365084541451 -0.00071351709707560612 0 0.000180947162558542 -0.00073087901502212746 0 0.00016879009579226793 -0.00071461488004594771 0 0.000180947162558542 -0.00073087901502212746 0 0.0001668789522491771 -0.00072809388799785707 0 0.00016879009579226793 -0.00071461488004594771 0 0.0001668789522491771 -0.00072809388799785707 0 0.00016879009579226793 -0.00071461488004594771 0 0.00018384589177971032 -0.00069445970277845904 0 0.00017566569691510278 -0.00069061990000180633 0 0.00016879009579226793 -0.00071461488004594771 0 0.00018384589177971032 -0.00069445970277845904 0 0.0001698883203370146 -0.00068984798863118933 0 0.00011665636594921314 -0.00065520527422719278 0 5.0225778154453526e-05 -0.00062244363150197764 0 0.00010196851872386032 -0.00054875007029338578 0 0.0002082813641345386 -0.00058344005652601169 0 0.00017566569691510278 -0.00069061990000180633 0 5.0225778154453526e-05 -0.00062244363150197764 0 0.0002082813641345386 -0.00058344005652601169 0 0.0001668789522491771 -0.00072809388799785707 0 0.00018384589177971032 -0.00069445970277845904 0 0.00012425901629725767 -0.00069384330657156715 0 0.00011665636594921314 -0.00065520527422719278 0 3.243105439610357e-05 -0.00058282653095329505 0 5.0225778154453526e-05 -0.00062244363150197764 0 -4.9031443006048958e-05 -0.00056058188540553176 0 3.7274180639218016e-05 -0.00050222717476359373 0 5.0225778154453526e-05 -0.00062244363150197764 0 0.00010196851872386032 -0.00054875007029338578 0 3.7274180639218016e-05 -0.00050222717476359373 0 0.0002082813641345386 -0.00058344005652601169 0 0.00026131567979440016 -0.00050394143026179358 0 0.00034032696416824774 -0.00057549516350266137 0 0.0002082813641345386 -0.00058344005652601169 0 0.00027258364585649325 -0.00063973057840106188 0 0.00034032696416824774 -0.00057549516350266137 0 0.00017566569691510278 -0.00069061990000180633 0 0.0002082813641345386 -0.00058344005652601169 0 0.00027258364585649325 -0.00063973057840106188 0 -0.00013159409716626349 -0.00078263242350085169 0 -0.0001024599651393987 -0.00087494709691459554 0 -7.5042762807463507e-05 -0.00080792669597783747 0 -0.0002193695788331855 -0.00076196893615278292 0 -0.00013159409716626349 -0.00078263242350085169 0 -0.00014961814281658548 -0.00071976708482144182 0 -0.0002193695788331855 -0.00076196893615278292 0 -0.00013159409716626349 -0.00078263242350085169 0 -0.0001024599651393987 -0.00087494709691459554 0 0.00087414533297852648 -0.00076418891516619398 0 0.00081497122118541292 -0.00069077703282454175 0 0.00078321478718663788 -0.00066752576885055449 0 0.00017628527491020781 -0.0007809045123567921 0 0.00037458497406318831 -0.00078639234823859488 0 -0.00013159409716626349 -0.00078263242350085169 0 -8.4293725632618175e-05 -0.00073420555588249545 0 -0.00014961814281658548 -0.00071976708482144182 0 -0.00013159409716626349 -0.00078263242350085169 0 -7.5042762807463507e-05 -0.00080792669597783747 0 -8.4293725632618175e-05 -0.00073420555588249545 0 0.00088574391888996014 -0.00067362538512533458 0 0.00081497122118541292 -0.00069077703282454175 0 0.00083334207569804944 -0.00063807880981124349 0 0.00081497122118541292 -0.00069077703282454175 0 0.00083334207569804944 -0.00063807880981124349 0 0.00078321478718663788 -0.00066752576885055449 0 0.00079766746856931156 -0.00058876218732621568 0 0.00083334207569804944 -0.00063807880981124349 0 0.00078321478718663788 -0.00066752576885055449 0 -0.0001024599651393987 -0.00087494709691459554 0 -3.4722372901486027e-05 -0.00084700048081426795 0 -7.5042762807463507e-05 -0.00080792669597783747 0 3.5689742236631623e-05 -0.0010020726746686856 0 -0.0001024599651393987 -0.00087494709691459554 0 -5.2436413230778272e-06 -0.00090360820166115075 0 -0.0001024599651393987 -0.00087494709691459554 0 -5.2436413230778272e-06 -0.00090360820166115075 0 -3.4722372901486027e-05 -0.00084700048081426795 0 -5.2436413230778272e-06 -0.00090360820166115075 0 -3.4722372901486027e-05 -0.00084700048081426795 0 2.7070695160022946e-05 -0.00085063158691758855 0 -3.4722372901486027e-05 -0.00084700048081426795 0 -9.4931599098116381e-06 -0.00078953193863728357 0 2.7070695160022946e-05 -0.00085063158691758855 0 -9.4931599098116381e-06 -0.00078953193863728357 0 2.2538548575490175e-05 -0.00070967006122655825 0 -8.4293725632618175e-05 -0.00073420555588249545 0 -3.4722372901486027e-05 -0.00084700048081426795 0 -9.4931599098116381e-06 -0.00078953193863728357 0 -7.5042762807463507e-05 -0.00080792669597783747 0 -9.4931599098116381e-06 -0.00078953193863728357 0 -7.5042762807463507e-05 -0.00080792669597783747 0 -8.4293725632618175e-05 -0.00073420555588249545 0 -9.4931599098116381e-06 -0.00078953193863728357 0 0.00014460798625765437 -0.00076077862438983447 0 2.2538548575490175e-05 -0.00070967006122655825 0 -9.4931599098116381e-06 -0.00078953193863728357 0 2.7070695160022946e-05 -0.00085063158691758855 0 0.00014460798625765437 -0.00076077862438983447 0 2.7070695160022946e-05 -0.00085063158691758855 0 8.5601690898586994e-05 -0.00089252352347314243 0 0.00014460798625765437 -0.00076077862438983447 0 0.00015846702144537022 -0.00083240397087440009 0 0.00016215927351730515 -0.00075373156118387205 0 -5.2436413230778272e-06 -0.00090360820166115075 0 2.7070695160022946e-05 -0.00085063158691758855 0 8.5601690898586994e-05 -0.00089252352347314243 0 0.00028831503607836863 -0.00069955193772075616 0 0.00025704832631980078 -0.00073210304520538512 0 0.00022362026962137091 -0.00071771261943953299 0 0.00025704832631980078 -0.00073210304520538512 0 0.00022362026962137091 -0.00071771261943953299 0 0.00014460798625765437 -0.00076077862438983447 0 0.00021986598560372203 -0.00068258436334595204 0 0.000180947162558542 -0.00073087901502212746 0 0.00022362026962137091 -0.00071771261943953299 0 0.000180947162558542 -0.00073087901502212746 0 0.00022362026962137091 -0.00071771261943953299 0 0.00014460798625765437 -0.00076077862438983447 0 0.000180947162558542 -0.00073087901502212746 0 0.0001668789522491771 -0.00072809388799785707 0 0.00014460798625765437 -0.00076077862438983447 0 0.0001668789522491771 -0.00072809388799785707 0 0.00014460798625765437 -0.00076077862438983447 0 0.00012425901629725767 -0.00069384330657156715 0 0.00012425901629725767 -0.00069384330657156715 0 0.00012021013102949532 -0.00060429651296204951 0 3.3706819847998022e-05 -0.00064035143449802355 0 0.00018384589177971032 -0.00069445970277845904 0 0.00012425901629725767 -0.00069384330657156715 0 0.00012021013102949532 -0.00060429651296204951 0 3.3706819847998022e-05 -0.00064035143449802355 0 2.2538548575490175e-05 -0.00070967006122655825 0 -7.6905299234266566e-05 -0.00062178885111930065 0 0.00012425901629725767 -0.00069384330657156715 0 3.3706819847998022e-05 -0.00064035143449802355 0 2.2538548575490175e-05 -0.00070967006122655825 0 0.00014460798625765437 -0.00076077862438983447 0 0.00012425901629725767 -0.00069384330657156715 0 2.2538548575490175e-05 -0.00070967006122655825 0 -8.4293725632618175e-05 -0.00073420555588249545 0 -7.6905299234266566e-05 -0.00062178885111930065 0 -0.00012667314869312145 -0.00067866736482448224 0 2.2538548575490175e-05 -0.00070967006122655825 0 -8.4293725632618175e-05 -0.00073420555588249545 0 -7.6905299234266566e-05 -0.00062178885111930065 0 -0.00018253660909544952 -0.00064546479523842773 0 -7.6905299234266566e-05 -0.00062178885111930065 0 -0.00012667314869312145 -0.00067866736482448224 0 -0.00018253660909544952 -0.00064546479523842773 0 -7.6905299234266566e-05 -0.00062178885111930065 0 -0.00016852089435332127 -0.00054037497823962682 0 -0.00018253660909544952 -0.00064546479523842773 0 -0.00012667314869312145 -0.00067866736482448224 0 -0.00014961814281658548 -0.00071976708482144182 0 -8.4293725632618175e-05 -0.00073420555588249545 0 -0.00012667314869312145 -0.00067866736482448224 0 -0.00014961814281658548 -0.00071976708482144182 0 -0.00025482737832702591 -0.00055608542249764462 0 -0.00023062772553343554 -0.00045391989961914952 0 -0.00042297994857777219 -0.00049342786966179457 0 -0.00035881345377810866 -0.0005973122238341949 0 -0.00023055853316513475 -0.0004521855615229762 0 -0.00016852089435332127 -0.00054037497823962682 0 -0.00013495835226930538 -0.00050767046984731144 0 -0.00023055853316513475 -0.0004521855615229762 0 -0.0003536425913657773 -0.00066925127419766354 0 -0.00025482737832702591 -0.00055608542249764462 0 -7.6905299234266566e-05 -0.00062178885111930065 0 -0.00016852089435332127 -0.00054037497823962682 0 -0.00013495835226930538 -0.00050767046984731144 0 -7.6905299234266566e-05 -0.00062178885111930065 0 -0.00013495835226930538 -0.00050767046984731144 0 -1.8476237047902484e-05 -0.00051148124833456053 0 -8.5380416340672454e-05 -0.00051308858160709894 0 -0.0002479849896033444 -0.00045077710664051784 0 -0.00015068729736844605 -0.00050896545861375906 0 -0.00021051476599078488 -0.00044399150128847923 0 -0.00027740968666895856 -0.00045051910567848568 0 -0.00013495835226930538 -0.00050767046984731144 0 -1.8476237047902484e-05 -0.00051148124833456053 0 -0.00021477161745501376 -0.00044913969020279372 0 -0.00013495835226930538 -0.00050767046984731144 0 -0.00021477161745501376 -0.00044913969020279372 0 -0.00023055853316513475 -0.0004521855615229762 0 -0.00015068729736844605 -0.00050896545861375906 0 -0.00015337838238757619 -0.00042942504990131966 0 -0.00021051476599078488 -0.00044399150128847923 0 -0.00015068729736844605 -0.00050896545861375906 0 -7.9540611445172164e-05 -0.00043532973049288637 0 -0.00015337838238757619 -0.00042942504990131966 0 3.243105439610357e-05 -0.00058282653095329505 0 -8.5380416340672454e-05 -0.00051308858160709894 0 0.00012021013102949532 -0.00060429651296204951 0 3.3706819847998022e-05 -0.00064035143449802355 0 -1.8476237047902484e-05 -0.00051148124833456053 0 3.3706819847998022e-05 -0.00064035143449802355 0 -7.6905299234266566e-05 -0.00062178885111930065 0 -1.8476237047902484e-05 -0.00051148124833456053 0 -4.9031443006048958e-05 -0.00056058188540553176 0 -0.00015068729736844605 -0.00050896545861375906 0 -2.7102469195037175e-05 -0.00047509705567560704 0 -7.9540611445172164e-05 -0.00043532973049288637 0 -2.7102469195037175e-05 -0.00047509705567560704 0 -2.875690349595758e-06 -0.00041154831918057853 0 -0.00015068729736844605 -0.00050896545861375906 0 -7.9540611445172164e-05 -0.00043532973049288637 0 -2.7102469195037175e-05 -0.00047509705567560704 0 -7.9540611445172164e-05 -0.00043532973049288637 0 -5.5366309136015605e-05 -0.00039237561860981152 0 -2.875690349595758e-06 -0.00041154831918057853 0 -7.9540611445172164e-05 -0.00043532973049288637 0 -0.00010646740266247745 -0.00039477747445897479 0 -5.5366309136015605e-05 -0.00039237561860981152 0 -0.00010646740266247745 -0.00039477747445897479 0 -5.5366309136015605e-05 -0.00039237561860981152 0 -7.5177633401657813e-05 -0.00035761949332045262 0 -5.5366309136015605e-05 -0.00039237561860981152 0 -7.5177633401657813e-05 -0.00035761949332045262 0 -2.2834444458758136e-05 -0.00034933403963158179 0 -6.1211112412982047e-05 -0.00032279007024031778 0 -7.5177633401657813e-05 -0.00035761949332045262 0 -2.2834444458758136e-05 -0.00034933403963158179 0 -6.1211112412982047e-05 -0.00032279007024031778 0 -3.3996136487371546e-05 -0.00031494208350548445 0 -2.2834444458758136e-05 -0.00034933403963158179 0 -6.1211112412982047e-05 -0.00032279007024031778 0 -8.9207164010593845e-05 -0.00029725468215395723 0 -5.2187906494943461e-05 -0.00029005749587764291 0 -6.1211112412982047e-05 -0.00032279007024031778 0 -3.3996136487371546e-05 -0.00031494208350548445 0 -5.2187906494943461e-05 -0.00029005749587764291 0 -8.9207164010593845e-05 -0.00029725468215395723 0 -9.4342347390548862e-05 -0.00033112222558647538 0 -0.00012943366237286311 -0.00032027279298505731 0 -6.1211112412982047e-05 -0.00032279007024031778 0 -8.9207164010593845e-05 -0.00029725468215395723 0 -9.4342347390548862e-05 -0.00033112222558647538 0 -6.1211112412982047e-05 -0.00032279007024031778 0 -9.4342347390548862e-05 -0.00033112222558647538 0 -7.5177633401657813e-05 -0.00035761949332045262 0 -0.00010646740266247745 -0.00039477747445897479 0 -7.5177633401657813e-05 -0.00035761949332045262 0 -0.00011825480836084278 -0.00035660616075153582 0 -9.4342347390548862e-05 -0.00033112222558647538 0 -7.5177633401657813e-05 -0.00035761949332045262 0 -0.00011825480836084278 -0.00035660616075153582 0 -0.00010646740266247745 -0.00039477747445897479 0 -0.00011825480836084278 -0.00035660616075153582 0 -0.00015415666523132157 -0.00038224643290273025 0 -0.00014855611606782475 -0.00035083225042707603 0 -0.00011825480836084278 -0.00035660616075153582 0 -0.00015415666523132157 -0.00038224643290273025 0 -0.00014855611606782475 -0.00035083225042707603 0 -0.00011825480836084278 -0.00035660616075153582 0 -0.00012943366237286311 -0.00032027279298505731 0 -0.00012943366237286311 -0.00032027279298505731 0 -0.00017348880271635168 -0.00029330899894232512 0 -0.00012387205931960882 -0.00028039919491285948 0 -9.4342347390548862e-05 -0.00033112222558647538 0 -0.00011825480836084278 -0.00035660616075153582 0 -0.00012943366237286311 -0.00032027279298505731 0 -0.00014855611606782475 -0.00035083225042707603 0 -0.00012943366237286311 -0.00032027279298505731 0 -0.0001690649760366234 -0.00033165113112944815 0 -8.9207164010593845e-05 -0.00029725468215395723 0 -0.00012943366237286311 -0.00032027279298505731 0 -0.00012387205931960882 -0.00028039919491285948 0 -0.00020479479019403906 -0.00033131483697292893 0 -0.00022512119101392376 -0.00029983992725061666 0 -0.00017348880271635168 -0.00029330899894232512 0 -0.0001690649760366234 -0.00033165113112944815 0 -0.00020479479019403906 -0.00033131483697292893 0 -0.00017348880271635168 -0.00029330899894232512 0 -0.00012943366237286311 -0.00032027279298505731 0 -0.0001690649760366234 -0.00033165113112944815 0 -0.00017348880271635168 -0.00029330899894232512 0 -0.0001690649760366234 -0.00033165113112944815 0 -0.00018589368013783805 -0.00035911700195727483 0 -0.00020479479019403906 -0.00033131483697292893 0 -0.00018589368013783805 -0.00035911700195727483 0 -0.00015415666523132157 -0.00038224643290273025 0 -0.00021675244589906682 -0.00039662811349936838 0 -0.00014855611606782475 -0.00035083225042707603 0 -0.0001690649760366234 -0.00033165113112944815 0 -0.00018589368013783805 -0.00035911700195727483 0 -0.00014855611606782475 -0.00035083225042707603 0 -0.00018589368013783805 -0.00035911700195727483 0 -0.00015415666523132157 -0.00038224643290273025 0 -0.00015415666523132157 -0.00038224643290273025 0 -0.00015337838238757619 -0.00042942504990131966 0 -0.00021675244589906682 -0.00039662811349936838 0 -0.00010646740266247745 -0.00039477747445897479 0 -0.00015415666523132157 -0.00038224643290273025 0 -0.00015337838238757619 -0.00042942504990131966 0 -7.9540611445172164e-05 -0.00043532973049288637 0 -0.00010646740266247745 -0.00039477747445897479 0 -0.00015337838238757619 -0.00042942504990131966 0 -0.00015337838238757619 -0.00042942504990131966 0 -0.00021051476599078488 -0.00044399150128847923 0 -0.00021675244589906682 -0.00039662811349936838 0 -0.00021051476599078488 -0.00044399150128847923 0 -0.00027740968666895856 -0.00045051910567848568 0 -0.00024237615370659835 -0.00042321322972005952 0 -0.00027740968666895856 -0.00045051910567848568 0 -0.00026526057184768001 -0.0004008170197478953 0 -0.00032531637277884195 -0.00038206622992181333 0 -0.00027740968666895856 -0.00045051910567848568 0 -0.00026526057184768001 -0.0004008170197478953 0 -0.00024237615370659835 -0.00042321322972005952 0 -0.00026526057184768001 -0.0004008170197478953 0 -0.00021675244589906682 -0.00039662811349936838 0 -0.00024696499650623502 -0.00037841651959044865 0 -0.00026526057184768001 -0.0004008170197478953 0 -0.00024237615370659835 -0.00042321322972005952 0 -0.00021675244589906682 -0.00039662811349936838 0 -0.00021051476599078488 -0.00044399150128847923 0 -0.00024237615370659835 -0.00042321322972005952 0 -0.00021675244589906682 -0.00039662811349936838 0 -0.00018589368013783805 -0.00035911700195727483 0 -0.00021675244589906682 -0.00039662811349936838 0 -0.0002269721396437278 -0.00035819961991981873 0 -0.00021675244589906682 -0.00039662811349936838 0 -0.00024696499650623502 -0.00037841651959044865 0 -0.0002269721396437278 -0.00035819961991981873 0 -0.00018589368013783805 -0.00035911700195727483 0 -0.0002269721396437278 -0.00035819961991981873 0 -0.00020479479019403906 -0.00033131483697292893 0 -0.0002269721396437278 -0.00035819961991981873 0 -0.00020479479019403906 -0.00033131483697292893 0 -0.00025113518593814269 -0.00032926560798754602 0 -0.00020479479019403906 -0.00033131483697292893 0 -0.00025113518593814269 -0.00032926560798754602 0 -0.00022512119101392376 -0.00029983992725061666 0 -0.00025113518593814269 -0.00032926560798754602 0 -0.00029334872681607225 -0.00029896896502156102 0 -0.00022512119101392376 -0.00029983992725061666 0 -0.00025113518593814269 -0.00032926560798754602 0 -0.00027951641350840574 -0.00035733352818378885 0 -0.00029334872681607225 -0.00029896896502156102 0 -0.00026526057184768001 -0.0004008170197478953 0 -0.00027951641350840574 -0.00035733352818378885 0 -0.00032531637277884195 -0.00038206622992181333 0 -0.0002269721396437278 -0.00035819961991981873 0 -0.00025113518593814269 -0.00032926560798754602 0 -0.00027951641350840574 -0.00035733352818378885 0 -0.00026526057184768001 -0.0004008170197478953 0 -0.00024696499650623502 -0.00037841651959044865 0 -0.00027951641350840574 -0.00035733352818378885 0 -0.00024696499650623502 -0.00037841651959044865 0 -0.0002269721396437278 -0.00035819961991981873 0 -0.00027951641350840574 -0.00035733352818378885 0 -0.00027951641350840574 -0.00035733352818378885 0 -0.00035928824453856256 -0.00032500222673733476 0 -0.00029334872681607225 -0.00029896896502156102 0 -0.00027951641350840574 -0.00035733352818378885 0 -0.00032531637277884195 -0.00038206622992181333 0 -0.00035928824453856256 -0.00032500222673733476 0 -0.00043433273319019947 -0.00037518319261837081 0 -0.00032531637277884195 -0.00038206622992181333 0 -0.00035928824453856256 -0.00032500222673733476 0 -0.00043433273319019947 -0.00037518319261837081 0 -0.00027740968666895856 -0.00045051910567848568 0 -0.00032531637277884195 -0.00038206622992181333 0 -0.00042297994857777219 -0.00049342786966179457 0 -0.00043433273319019947 -0.00037518319261837081 0 -0.00023055853316513475 -0.0004521855615229762 0 -0.00043433273319019947 -0.00037518319261837081 0 -0.00021477161745501376 -0.00044913969020279372 0 -0.00023055853316513475 -0.0004521855615229762 0 -0.00041609386599742121 -0.00037404735261039522 0 -0.0002479849896033444 -0.00045077710664051784 0 0.00012285127505059853 -0.00046272930966043525 0 6.3212589131365237e-05 -0.00043552650684378807 0 9.2942274681376066e-05 -0.0004261471595484982 0 8.0441925550731527e-05 -0.00042474362449708631 0 0.00012285127505059853 -0.00046272930966043525 0 9.2942274681376066e-05 -0.0004261471595484982 0 0.00016457287284715272 -0.00042289380333598154 0 0.00011940555270602532 -0.00045953664370290573 0 0.00024668903280769853 -0.00041422067999152476 0 0.00026131567979440016 -0.00050394143026179358 0 0.00012285127505059853 -0.00046272930966043525 0 0.00024668903280769853 -0.00041422067999152476 0 0.00026131567979440016 -0.00050394143026179358 0 0.00031022462927976681 -0.000444324195822336 0 0.0002082813641345386 -0.00058344005652601169 0 0.00026131567979440016 -0.00050394143026179358 0 0.00012285127505059853 -0.00046272930966043525 0 0.00010196851872386032 -0.00054875007029338578 0 0.0002082813641345386 -0.00058344005652601169 0 0.00012285127505059853 -0.00046272930966043525 0 0.00010196851872386032 -0.00054875007029338578 0 0.00012285127505059853 -0.00046272930966043525 0 3.7274180639218016e-05 -0.00050222717476359373 0 -4.9031443006048958e-05 -0.00056058188540553176 0 3.7274180639218016e-05 -0.00050222717476359373 0 -2.7102469195037175e-05 -0.00047509705567560704 0 -2.7102469195037175e-05 -0.00047509705567560704 0 6.3212589131365237e-05 -0.00043552650684378807 0 -2.875690349595758e-06 -0.00041154831918057853 0 3.7274180639218016e-05 -0.00050222717476359373 0 -2.7102469195037175e-05 -0.00047509705567560704 0 6.3212589131365237e-05 -0.00043552650684378807 0 0.00012285127505059853 -0.00046272930966043525 0 3.7274180639218016e-05 -0.00050222717476359373 0 6.3212589131365237e-05 -0.00043552650684378807 0 6.3212589131365237e-05 -0.00043552650684378807 0 4.9910813842766658e-05 -0.00040559182207433581 0 -2.875690349595758e-06 -0.00041154831918057853 0 6.3212589131365237e-05 -0.00043552650684378807 0 4.9910813842766658e-05 -0.00040559182207433581 0 8.0263417151934808e-05 -0.00039657684504188325 0 6.3212589131365237e-05 -0.00043552650684378807 0 8.0263417151934808e-05 -0.00039657684504188325 0 9.2942274681376066e-05 -0.0004261471595484982 0 4.9910813842766658e-05 -0.00040559182207433581 0 -2.875690349595758e-06 -0.00041154831918057853 0 2.1418101934092295e-05 -0.00036409100951406335 0 -5.5366309136015605e-05 -0.00039237561860981152 0 -2.875690349595758e-06 -0.00041154831918057853 0 -2.2834444458758136e-05 -0.00034933403963158179 0 -2.875690349595758e-06 -0.00041154831918057853 0 -2.2834444458758136e-05 -0.00034933403963158179 0 2.1418101934092295e-05 -0.00036409100951406335 0 -2.2834444458758136e-05 -0.00034933403963158179 0 2.1418101934092295e-05 -0.00036409100951406335 0 1.6369718949316519e-05 -0.00032559157709156293 0 2.1418101934092295e-05 -0.00036409100951406335 0 1.6369718949316519e-05 -0.00032559157709156293 0 6.2557473943163745e-05 -0.00032358760983798075 0 1.6369718949316519e-05 -0.00032559157709156293 0 6.2557473943163745e-05 -0.00032358760983798075 0 2.3358804876575212e-05 -0.00029163356579942035 0 1.6369718949316519e-05 -0.00032559157709156293 0 -5.7623862656660632e-06 -0.00029860021970325878 0 2.3358804876575212e-05 -0.00029163356579942035 0 -2.2834444458758136e-05 -0.00034933403963158179 0 1.6369718949316519e-05 -0.00032559157709156293 0 -5.7623862656660632e-06 -0.00029860021970325878 0 -3.3996136487371546e-05 -0.00031494208350548445 0 -2.2834444458758136e-05 -0.00034933403963158179 0 -5.7623862656660632e-06 -0.00029860021970325878 0 4.9910813842766658e-05 -0.00040559182207433581 0 8.0263417151934808e-05 -0.00039657684504188325 0 6.2557473943163745e-05 -0.00032358760983798075 0 4.9910813842766658e-05 -0.00040559182207433581 0 2.1418101934092295e-05 -0.00036409100951406335 0 6.2557473943163745e-05 -0.00032358760983798075 0 8.0263417151934808e-05 -0.00039657684504188325 0 8.6466428209318043e-05 -0.00041526699667557868 0 7.3817765966501816e-05 -0.00042115490378634728 0 7.8751937900018465e-05 -0.00038786833184236466 0 7.6723098200921845e-05 -0.00037676580706165317 0 3.4103902217181866e-05 -0.00040763300670081207 0 -7.3548120282654172e-07 -0.0004016507797419427 0 8.0263417151934808e-05 -0.00039657684504188325 0 4.1779076449887058e-05 -0.00040903779196210961 0 7.3817765966501816e-05 -0.00042115490378634728 0 8.0263417151934808e-05 -0.00039657684504188325 0 9.2942274681376066e-05 -0.0004261471595484982 0 6.9223344334331323e-05 -0.00041867262317374235 0 8.0263417151934808e-05 -0.00039657684504188325 0 6.9223344334331323e-05 -0.00041867262317374235 0 4.1779076449887058e-05 -0.00040903779196210961 0 8.0441925550731527e-05 -0.00042474362449708631 0 9.2942274681376066e-05 -0.0004261471595484982 0 6.9223344334331323e-05 -0.00041867262317374235 0 8.0441925550731527e-05 -0.00042474362449708631 0 6.9223344334331323e-05 -0.00041867262317374235 0 7.7738822002355282e-05 -0.00041957812002406484 0 6.9223344334331323e-05 -0.00041867262317374235 0 7.1482992476817043e-05 -0.00041118144169903395 0 7.7738822002355282e-05 -0.00041957812002406484 0 6.9223344334331323e-05 -0.00041867262317374235 0 4.1779076449887058e-05 -0.00040903779196210961 0 7.1482992476817043e-05 -0.00041118144169903395 0 4.1779076449887058e-05 -0.00040903779196210961 0 7.1482992476817043e-05 -0.00041118144169903395 0 4.7841441574208735e-05 -0.00037411978357816396 0 7.1482992476817043e-05 -0.00041118144169903395 0 8.5829419346957489e-05 -0.00039634421984831189 0 4.7841441574208735e-05 -0.00037411978357816396 0 8.5829419346957489e-05 -0.00039634421984831189 0 9.5909074465230036e-05 -0.00037735795259669406 0 4.7841441574208735e-05 -0.00037411978357816396 0 7.1482992476817043e-05 -0.00041118144169903395 0 8.9693556797576548e-05 -0.00040662334903911586 0 8.3904660310928577e-05 -0.00041597941007179198 0 7.1482992476817043e-05 -0.00041118144169903395 0 8.9693556797576548e-05 -0.00040662334903911586 0 8.5829419346957489e-05 -0.00039634421984831189 0 8.9693556797576548e-05 -0.00040662334903911586 0 8.5829419346957489e-05 -0.00039634421984831189 0 9.7931131677077982e-05 -0.00039768863068828918 0 8.5829419346957489e-05 -0.00039634421984831189 0 9.7931131677077982e-05 -0.00039768863068828918 0 9.5909074465230036e-05 -0.00037735795259669406 0 3.3137227843362766e-05 -0.00031303042057353341 0 2.788895536841465e-05 -0.0003051651468544111 0 2.7616600887044604e-05 -0.0003072924785179061 0 3.1181861013949603e-05 -0.00031416753785815945 0 3.3137227843362766e-05 -0.00031303042057353341 0 2.7616600887044604e-05 -0.0003072924785179061 0 -0.00013233470144298942 -0.00035270278488592902 0 9.0158172117502881e-05 -0.00030494476766325612 0 3.2480157001703089e-05 -0.00041647735161189938 0 6.2185339876934026e-05 -0.00033674639471479326 0 9.7931131677077982e-05 -0.00039768863068828918 0 0.00012005719984863064 -0.00041391078357213949 0 9.5909074465230036e-05 -0.00037735795259669406 0 4.2874356416910583e-05 -0.00031288388650376289 0 3.7990217740757621e-05 -0.00030594148551574409 0 2.788895536841465e-05 -0.0003051651468544111 0 9.7931131677077982e-05 -0.00039768863068828918 0 0.00010079324336558443 -0.00040759844702178977 0 0.00012005719984863064 -0.00041391078357213949 0 8.9693556797576548e-05 -0.00040662334903911586 0 9.7931131677077982e-05 -0.00039768863068828918 0 0.00010079324336558443 -0.00040759844702178977 0 8.9693556797576548e-05 -0.00040662334903911586 0 0.00010079324336558443 -0.00040759844702178977 0 9.5388431778395226e-05 -0.00041575869709269245 0 9.5388431778395226e-05 -0.00041575869709269245 0 0.00012005719984863064 -0.00041391078357213949 0 9.1885240016619283e-05 -0.00042525342628853193 0 0.00010079324336558443 -0.00040759844702178977 0 9.5388431778395226e-05 -0.00041575869709269245 0 0.00012005719984863064 -0.00041391078357213949 0 0.00020093851013172043 -0.00040649327442903436 0 0.00031261611504961078 -0.00042648550918827276 0 0.00014086094010443565 -0.00043275459282712526 0 0.00016750686063420379 -0.00041813529413661972 0 0.00013206794017222169 -0.00040426789699587296 0 3.2480157001703089e-05 -0.00041647735161189938 0 0.00020093851013172043 -0.00040649327442903436 0 8.0441925550731527e-05 -0.00042474362449708631 0 8.7455074621317489e-05 -0.00042312424737406073 0 8.673387567948625e-05 -0.00042280803874959456 0 8.0441925550731527e-05 -0.00042474362449708631 0 7.7738822002355282e-05 -0.00041957812002406484 0 8.673387567948625e-05 -0.00042280803874959456 0 0.00016457287284715272 -0.00042289380333598154 0 0.00020093851013172043 -0.00040649327442903436 0 0.00020093851013172043 -0.00040649327442903436 0 0.0001847453595230327 -0.00040276065614576912 0 7.1482992476817043e-05 -0.00041118144169903395 0 7.7738822002355282e-05 -0.00041957812002406484 0 8.3904660310928577e-05 -0.00041597941007179198 0 7.7738822002355282e-05 -0.00041957812002406484 0 8.3904660310928577e-05 -0.00041597941007179198 0 8.673387567948625e-05 -0.00042280803874959456 0 8.9693556797576548e-05 -0.00040662334903911586 0 9.5388431778395226e-05 -0.00041575869709269245 0 8.3904660310928577e-05 -0.00041597941007179198 0 9.5388431778395226e-05 -0.00041575869709269245 0 9.1885240016619283e-05 -0.00042525342628853193 0 8.673387567948625e-05 -0.00042280803874959456 0 9.5388431778395226e-05 -0.00041575869709269245 0 8.3904660310928577e-05 -0.00041597941007179198 0 8.673387567948625e-05 -0.00042280803874959456 0 -0.00044182711281551669 -0.00032250068805370703 0 -0.00042981553109883755 -0.00032095070571771096 0 -0.00042549419061715585 -0.00030618042556719197 0 -0.00044008249547659422 -0.00032715465783929803 0 -0.00043940692581835117 -0.0003331768421772603 0 -0.00045121375725191022 -0.00032764706529104625 0 -0.00043339039317956185 -0.00032655907753504856 0 -0.00043112830550107693 -0.00033460759598329673 0 -0.00042343368661235532 -0.00033352921983647069 0 -0.00043339039317956185 -0.00032655907753504856 0 -0.00043940692581835117 -0.0003331768421772603 0 -0.00043112830550107693 -0.00033460759598329673 0 -0.00043339039317956185 -0.00032655907753504856 0 -0.00044008249547659422 -0.00032715465783929803 0 -0.00043940692581835117 -0.0003331768421772603 0 -0.00043339039317956185 -0.00032655907753504856 0 -0.00044182711281551669 -0.00032250068805370703 0 -0.00042981553109883755 -0.00032095070571771096 0 -0.00034540960394855103 -0.00030561233465263582 0 -0.00037244660822067003 -0.00030109585268369723 0 -0.00043339039317956185 -0.00032655907753504856 0 -0.00044182711281551669 -0.00032250068805370703 0 -0.00044008249547659422 -0.00032715465783929803 0 -0.00034540960394855103 -0.00030561233465263582 0 -0.00013233470144298942 -0.00035270278488592902 0 -0.00044163464300358088 -0.0003233010413363166 0 -0.00044008249547659422 -0.00032715465783929803 0 -0.00045121375725191022 -0.00032764706529104625 0 4.7645247141669213e-05 -0.00030916410275796339 0 4.2874356416910583e-05 -0.00031288388650376289 0 4.380197305288906e-05 -0.00030613600548548277 0 4.2874356416910583e-05 -0.00031288388650376289 0 4.380197305288906e-05 -0.00030613600548548277 0 3.7990217740757621e-05 -0.00030594148551574409 0 3.2480157001703089e-05 -0.00041647735161189938 0 -0.00013233470144298942 -0.00035270278488592902 0 -0.00023267769713954526 -0.00049787475209805412 0 -0.00024881847472905553 -0.00044964873148954225 0 -0.00029787897289239285 -0.00045246667479730251 0 -0.0002086631579095322 -0.00048487041356713452 0 -0.00023267769713954526 -0.00049787475209805412 0 -0.00024881847472905553 -0.00044964873148954225 0 0.00014086094010443565 -0.00043275459282712526 0 0.00011885770061255357 -0.00041150898916828086 0 0.00013206794017222169 -0.00040426789699587296 0 3.2480157001703089e-05 -0.00041647735161189938 0 -8.6814729065347982e-05 -0.00041188084937886726 0 -0.00043940692581835117 -0.0003331768421772603 0 -0.00045121375725191022 -0.00032764706529104625 0 -0.00043866217708460147 -0.00035119076051159476 0 -0.00013233470144298942 -0.00035270278488592902 0 -0.00040331647451103178 -0.0004006857959147625 0 -0.00043866217708460147 -0.00035119076051159476 0 -0.00043112830550107693 -0.00033460759598329673 0 -0.0004255606340637728 -0.0003396880844914408 0 -0.00043940692581835117 -0.0003331768421772603 0 -0.00043866217708460147 -0.00035119076051159476 0 -0.00043112830550107693 -0.00033460759598329673 0 -0.00029787897289239285 -0.00045246667479730251 0 -0.00028667108677850399 -0.00042113897797051066 0 -0.00033493798932422432 -0.00041081049204867454 0 -0.00024881847472905553 -0.00044964873148954225 0 -0.00029787897289239285 -0.00045246667479730251 0 -0.00028667108677850399 -0.00042113897797051066 0 0.00048239619082451543 -0.00047303960467484391 0 0.00047549096549054799 -0.00050752712581075984 0 0.00049972582425209943 -0.00050334485964348137 0 -8.6814729065347982e-05 -0.00041188084937886726 0 0.00011193838981514885 -0.00041469847919138933 0 0.00011193838981514885 -0.00041469847919138933 0 0.00031261611504961078 -0.00042648550918827276 0 0.00011885770061255357 -0.00041150898916828086 0 9.7027035084708255e-05 -0.00039135112970131698 0 0.00013206794017222169 -0.00040426789699587296 0 0.00041377489804629851 -0.0004270318551504733 0 0.00044525061289061771 -0.00051207367641756491 0 0.00039499645137950387 -0.00051544023520812049 0 0.00048239619082451543 -0.00047303960467484391 0 0.00041377489804629851 -0.0004270318551504733 0 0.00044525061289061771 -0.00051207367641756491 0 0.00044525061289061771 -0.00051207367641756491 0 0.00039499645137950387 -0.00051544023520812049 0 0.0004324279919000521 -0.00057355393660717016 0 0.00044525061289061771 -0.00051207367641756491 0 0.0004324279919000521 -0.00057355393660717016 0 0.0004870171607168236 -0.00056441348903427211 0 0.00048239619082451543 -0.00047303960467484391 0 0.00044525061289061771 -0.00051207367641756491 0 0.00047549096549054799 -0.00050752712581075984 0 0.00044525061289061771 -0.00051207367641756491 0 0.00047549096549054799 -0.00050752712581075984 0 0.0004870171607168236 -0.00056441348903427211 0 0.00047549096549054799 -0.00050752712581075984 0 0.0005032965399587758 -0.00051877364523566713 0 0.0004870171607168236 -0.00056441348903427211 0 0.0005032965399587758 -0.00051877364523566713 0 0.0004870171607168236 -0.00056441348903427211 0 0.00051533989953536717 -0.00052930289633719538 0 0.00047549096549054799 -0.00050752712581075984 0 0.0005032965399587758 -0.00051877364523566713 0 0.00049972582425209943 -0.00050334485964348137 0 0.00033675034422161977 -0.00038198585747728633 0 0.00031022462927976681 -0.000444324195822336 0 0.00035963502348594303 -0.00045376742399202096 0 0.00024668903280769853 -0.00041422067999152476 0 0.00033675034422161977 -0.00038198585747728633 0 0.00031022462927976681 -0.000444324195822336 0 0.00031022462927976681 -0.000444324195822336 0 0.00035963502348594303 -0.00045376742399202096 0 0.00033561886335736383 -0.00049538732719141764 0 0.00041377489804629851 -0.0004270318551504733 0 0.00035963502348594303 -0.00045376742399202096 0 0.00039499645137950387 -0.00051544023520812049 0 0.00033675034422161977 -0.00038198585747728633 0 0.00041377489804629851 -0.0004270318551504733 0 0.00035963502348594303 -0.00045376742399202096 0 0.00039499645137950387 -0.00051544023520812049 0 0.00033561886335736383 -0.00049538732719141764 0 0.00034032696416824774 -0.00057549516350266137 0 0.00035963502348594303 -0.00045376742399202096 0 0.00039499645137950387 -0.00051544023520812049 0 0.00033561886335736383 -0.00049538732719141764 0 0.00026131567979440016 -0.00050394143026179358 0 0.00031022462927976681 -0.000444324195822336 0 0.00033561886335736383 -0.00049538732719141764 0 0.00026131567979440016 -0.00050394143026179358 0 0.00033561886335736383 -0.00049538732719141764 0 0.00034032696416824774 -0.00057549516350266137 0 0.00027258364585649325 -0.00063973057840106188 0 0.00034032696416824774 -0.00057549516350266137 0 0.00036225633474041489 -0.00064860712050253302 0 0.00034032696416824774 -0.00057549516350266137 0 0.00040311905884963964 -0.00060875357178038722 0 0.00036225633474041489 -0.00064860712050253302 0 0.00034032696416824774 -0.00057549516350266137 0 0.00040311905884963964 -0.00060875357178038722 0 0.0004324279919000521 -0.00057355393660717016 0 0.00039499645137950387 -0.00051544023520812049 0 0.00034032696416824774 -0.00057549516350266137 0 0.0004324279919000521 -0.00057355393660717016 0 0.0004324279919000521 -0.00057355393660717016 0 0.0004870171607168236 -0.00056441348903427211 0 0.00048187760204188512 -0.00059992485369842147 0 0.0004870171607168236 -0.00056441348903427211 0 0.00048187760204188512 -0.00059992485369842147 0 0.00049916600720552632 -0.00060296152526056307 0 0.00048187760204188512 -0.00059992485369842147 0 0.00049701629036578922 -0.00061423765174829629 0 0.00049916600720552632 -0.00060296152526056307 0 0.00048187760204188512 -0.00059992485369842147 0 0.00049310363545398571 -0.00062092509638211316 0 0.00049701629036578922 -0.00061423765174829629 0 0.00048187760204188512 -0.00059992485369842147 0 0.00049310363545398571 -0.00062092509638211316 0 0.00045982017969097353 -0.0006185580534454789 0 0.0004324279919000521 -0.00057355393660717016 0 0.00048187760204188512 -0.00059992485369842147 0 0.00045982017969097353 -0.0006185580534454789 0 0.00040311905884963964 -0.00060875357178038722 0 0.0004324279919000521 -0.00057355393660717016 0 0.00045982017969097353 -0.0006185580534454789 0 0.00040311905884963964 -0.00060875357178038722 0 0.00045982017969097353 -0.0006185580534454789 0 0.00045653501098090861 -0.00064804163818390494 0 0.00045982017969097353 -0.0006185580534454789 0 0.00045653501098090861 -0.00064804163818390494 0 0.00048861965426290083 -0.00063297871928531986 0 0.00045653501098090861 -0.00064804163818390494 0 0.00048861965426290083 -0.00063297871928531986 0 0.00051065672874407123 -0.00064582057787996054 0 0.00049310363545398571 -0.00062092509638211316 0 0.00048861965426290083 -0.00063297871928531986 0 0.00050713429576347752 -0.0006325683029939662 0 0.00049310363545398571 -0.00062092509638211316 0 0.00045982017969097353 -0.0006185580534454789 0 0.00048861965426290083 -0.00063297871928531986 0 0.00048861965426290083 -0.00063297871928531986 0 0.00051065672874407123 -0.00064582057787996054 0 0.00050713429576347752 -0.0006325683029939662 0 0.00051065672874407123 -0.00064582057787996054 0 0.00052387949848394422 -0.00063740842777581283 0 0.00050713429576347752 -0.0006325683029939662 0 0.00051065672874407123 -0.00064582057787996054 0 0.00053648169883049445 -0.00065607729818079313 0 0.00049282697726774538 -0.00067387220136775933 0 0.00051065672874407123 -0.00064582057787996054 0 0.00053648169883049445 -0.00065607729818079313 0 0.00052387949848394422 -0.00063740842777581283 0 0.00045653501098090861 -0.00064804163818390494 0 0.00051065672874407123 -0.00064582057787996054 0 0.00049282697726774538 -0.00067387220136775933 0 0.00041348920661814112 -0.00071872693929985951 0 0.00045653501098090861 -0.00064804163818390494 0 0.00049282697726774538 -0.00067387220136775933 0 0.00041348920661814112 -0.00071872693929985951 0 0.00045653501098090861 -0.00064804163818390494 0 0.00036225633474041489 -0.00064860712050253302 0 0.00041348920661814112 -0.00071872693929985951 0 0.00027763299272721791 -0.00069383458725700458 0 0.00036225633474041489 -0.00064860712050253302 0 0.00041348920661814112 -0.00071872693929985951 0 0.00026925979166048342 -0.00074776745817438058 0 0.00027763299272721791 -0.00069383458725700458 0 0.00027763299272721791 -0.00069383458725700458 0 0.00027258364585649325 -0.00063973057840106188 0 0.00036225633474041489 -0.00064860712050253302 0 0.00040311905884963964 -0.00060875357178038722 0 0.00045653501098090861 -0.00064804163818390494 0 0.00036225633474041489 -0.00064860712050253302 0 0.00048438266128654446 -0.00062030678008626039 0 0.0004624580743177617 -0.0006329619310787534 0 0.00044837663297539666 -0.00061059936980557535 0 0.00048438266128654446 -0.00062030678008626039 0 0.00048398206160150524 -0.00062995449191427099 0 0.0004624580743177617 -0.0006329619310787534 0 0.0004624580743177617 -0.0006329619310787534 0 0.00042917010635842894 -0.00063087405772313239 0 0.00044837663297539666 -0.00061059936980557535 0 0.00042917010635842894 -0.00063087405772313239 0 0.00041938492155504432 -0.00061462178218643269 0 0.00044837663297539666 -0.00061059936980557535 0 0.00040433121510908703 -0.00059180454317185962 0 0.00042535383953648846 -0.00056722551815740867 0 0.00044837663297539666 -0.00061059936980557535 0 0.00040433121510908703 -0.00059180454317185962 0 0.00041938492155504432 -0.00061462178218643269 0 0.00044837663297539666 -0.00061059936980557535 0 0.00042535383953648846 -0.00056722551815740867 0 0.00046171705216266432 -0.0005825770044482917 0 0.00044837663297539666 -0.00061059936980557535 0 0.00046171705216266432 -0.0005825770044482917 0 0.00044837663297539666 -0.00061059936980557535 0 0.00047196794325961305 -0.0006047483577029197 0 0.00046171705216266432 -0.0005825770044482917 0 0.00047196794325961305 -0.0006047483577029197 0 0.00048996866535414084 -0.00060368940209727727 0 0.00048438266128654446 -0.00062030678008626039 0 0.00044837663297539666 -0.00061059936980557535 0 0.00047196794325961305 -0.0006047483577029197 0 0.00048438266128654446 -0.00062030678008626039 0 0.00047196794325961305 -0.0006047483577029197 0 0.00048996866535414084 -0.00060368940209727727 0 0.00051602645954541718 -0.00060798530707425937 0 0.00048996866535414084 -0.00060368940209727727 0 0.00050516108453524963 -0.00062298653765315991 0 0.00048438266128654446 -0.00062030678008626039 0 0.00048996866535414084 -0.00060368940209727727 0 0.00050516108453524963 -0.00062298653765315991 0 0.00051602645954541718 -0.00060798530707425937 0 0.00050516108453524963 -0.00062298653765315991 0 0.00052387949848394422 -0.00063740842777581283 0 0.00054155107141668607 -0.00063812724507401441 0 0.00053648169883049445 -0.00065607729818079313 0 0.00052387949848394422 -0.00063740842777581283 0 0.00050516108453524963 -0.00062298653765315991 0 0.00052387949848394422 -0.00063740842777581283 0 0.00050755741107446858 -0.0006291543773661695 0 0.00052387949848394422 -0.00063740842777581283 0 0.00050713429576347752 -0.0006325683029939662 0 0.00050755741107446858 -0.0006291543773661695 0 0.00050755741107446858 -0.0006291543773661695 0 0.0004971736438613341 -0.00062862170810885855 0 0.00050288539245584181 -0.00062439277634285674 0 0.00050713429576347752 -0.0006325683029939662 0 0.00050755741107446858 -0.0006291543773661695 0 0.00050288539245584181 -0.00062439277634285674 0 0.00049310363545398571 -0.00062092509638211316 0 0.00050713429576347752 -0.0006325683029939662 0 0.00050288539245584181 -0.00062439277634285674 0 0.00048438266128654446 -0.00062030678008626039 0 0.00050516108453524963 -0.00062298653765315991 0 0.00049806208089579523 -0.0006265535306201256 0 0.00050516108453524963 -0.00062298653765315991 0 0.00050755741107446858 -0.0006291543773661695 0 0.00049806208089579523 -0.0006265535306201256 0 0.00050755741107446858 -0.0006291543773661695 0 0.00049806208089579523 -0.0006265535306201256 0 0.0004971736438613341 -0.00062862170810885855 0 0.00048438266128654446 -0.00062030678008626039 0 0.00048398206160150524 -0.00062995449191427099 0 0.00049806208089579523 -0.0006265535306201256 0 0.00048398206160150524 -0.00062995449191427099 0 0.00049806208089579523 -0.0006265535306201256 0 0.0004971736438613341 -0.00062862170810885855 0 0.00048398206160150524 -0.00062995449191427099 0 0.0004971736438613341 -0.00062862170810885855 0 0.00047891279072067477 -0.00063780293940198342 0 0.0004971736438613341 -0.00062862170810885855 0 0.00049134015486868802 -0.00063109255766280372 0 0.0004992770240410207 -0.00062080065346878594 0 0.0004971736438613341 -0.00062862170810885855 0 0.00049134015486868802 -0.00063109255766280372 0 0.00047891279072067477 -0.00063780293940198342 0 0.00049134015486868802 -0.00063109255766280372 0 0.00048284866890618806 -0.00063840581010016174 0 0.00047891279072067477 -0.00063780293940198342 0 0.00049310363545398571 -0.00062092509638211316 0 0.00050288539245584181 -0.00062439277634285674 0 0.00049701629036578922 -0.00061423765174829629 0 0.0004971736438613341 -0.00062862170810885855 0 0.00050288539245584181 -0.00062439277634285674 0 0.0004992770240410207 -0.00062080065346878594 0 0.00050288539245584181 -0.00062439277634285674 0 0.0004992770240410207 -0.00062080065346878594 0 0.00049701629036578922 -0.00061423765174829629 0 0.0004992770240410207 -0.00062080065346878594 0 0.00049916600720552632 -0.00060296152526056307 0 0.00049119383658048513 -0.00063145004586029406 0 0.00049916600720552632 -0.00060296152526056307 0 0.00049119383658048513 -0.00063145004586029406 0 0.00049858208267392632 -0.00061838534447811926 0 0.0004870171607168236 -0.00056441348903427211 0 0.00049916600720552632 -0.00060296152526056307 0 0.00049858208267392632 -0.00061838534447811926 0 0.0004992770240410207 -0.00062080065346878594 0 0.00049701629036578922 -0.00061423765174829629 0 0.00049916600720552632 -0.00060296152526056307 0 0.00049119383658048513 -0.00063145004586029406 0 0.00046773001456427011 -0.00065342730581743208 0 0.00048282737860546601 -0.00064940169152312964 0 0.00048284866890618806 -0.00063840581010016174 0 0.00049119383658048513 -0.00063145004586029406 0 0.00046773001456427011 -0.00065342730581743208 0 0.00049134015486868802 -0.00063109255766280372 0 0.00048284866890618806 -0.00063840581010016174 0 0.00049119383658048513 -0.00063145004586029406 0 0.00049134015486868802 -0.00063109255766280372 0 0.0004992770240410207 -0.00062080065346878594 0 0.00049119383658048513 -0.00063145004586029406 0 0.00046773001456427011 -0.00065342730581743208 0 0.00043987819890255788 -0.00067640671226678803 0 0.00048282737860546601 -0.00064940169152312964 0 0.00046773001456427011 -0.00065342730581743208 0 0.00047891279072067477 -0.00063780293940198342 0 0.00045590272828069015 -0.00065107010565789575 0 0.00046773001456427011 -0.00065342730581743208 0 0.00045590272828069015 -0.00065107010565789575 0 0.00045125625961926671 -0.0006607303074936782 0 0.00048284866890618806 -0.00063840581010016174 0 0.00046773001456427011 -0.00065342730581743208 0 0.00047891279072067477 -0.00063780293940198342 0 0.0004624580743177617 -0.0006329619310787534 0 0.00047891279072067477 -0.00063780293940198342 0 0.00045590272828069015 -0.00065107010565789575 0 0.00048398206160150524 -0.00062995449191427099 0 0.0004624580743177617 -0.0006329619310787534 0 0.00047891279072067477 -0.00063780293940198342 0 0.00040662605612663621 -0.00065070038014613054 0 0.00042917010635842894 -0.00063087405772313239 0 0.00043407050131226183 -0.00064982938061692674 0 0.0004624580743177617 -0.0006329619310787534 0 0.00045590272828069015 -0.00065107010565789575 0 0.00043407050131226183 -0.00064982938061692674 0 0.0004624580743177617 -0.0006329619310787534 0 0.00042917010635842894 -0.00063087405772313239 0 0.00043407050131226183 -0.00064982938061692674 0 0.00045590272828069015 -0.00065107010565789575 0 0.00043407050131226183 -0.00064982938061692674 0 0.00043975770417578781 -0.00066128508971853713 0 0.00041469446112374304 -0.00066621748552060666 0 0.00043407050131226183 -0.00064982938061692674 0 0.00043975770417578781 -0.00066128508971853713 0 0.00041469446112374304 -0.00066621748552060666 0 0.00040662605612663621 -0.00065070038014613054 0 0.00043407050131226183 -0.00064982938061692674 0 0.00041469446112374304 -0.00066621748552060666 0 0.00043975770417578781 -0.00066128508971853713 0 0.00043987819890255788 -0.00067640671226678803 0 0.00046773001456427011 -0.00065342730581743208 0 0.00045125625961926671 -0.0006607303074936782 0 0.00043987819890255788 -0.00067640671226678803 0 0.00043975770417578781 -0.00066128508971853713 0 0.00045125625961926671 -0.0006607303074936782 0 0.00043987819890255788 -0.00067640671226678803 0 0.00045590272828069015 -0.00065107010565789575 0 0.00043975770417578781 -0.00066128508971853713 0 0.00045125625961926671 -0.0006607303074936782 0 -0.00035060104203333994 -0.00039720790907407091 0 -0.00034943415235713405 -0.00043870344016250993 0 -0.00040167702549086601 -0.00040844725832072488 0 -0.00025007140114948655 -0.00049729440665410797 0 -0.00021543324532787581 -0.00047765089419530242 0 -0.00019443402527599479 -0.00053672677593784475 0 -0.0002908659226819525 -0.00047358532799171636 0 -0.00033560812030147737 -0.00044359206835146655 0 -0.00034910779458912668 -0.00039654813468191502 0 -0.00033560812030147737 -0.00044359206835146655 0 -0.00026406999328343496 -0.00042839379069659815 0 -0.00031204269349539729 -0.0004355338290760655 0 -0.00031670753600940407 -0.00041967151533381066 0 0.00012282716183242837 -0.00058634393814190836 0 0.00014013380679662871 -0.00053455750032974808 0 -0.00021543324532787581 -0.00047765089419530242 0 -0.00019443402527599479 -0.00053672677593784475 0 -9.933820579698498e-05 -0.00051787941573385376 0 -0.00033560812030147737 -0.00044359206835146655 0 0.00014013380679662871 -0.00053455750032974808 0 -0.00036913773888074691 -0.00039225941181241761 0 -0.00037967495414622583 -0.00036134081665648487 0 -0.00040446177060783097 -0.00036156179125304365 0 -0.00037967495414622583 -0.00036134081665648487 0 -0.00040446177060783097 -0.00036156179125304365 0 -0.00039316155403619691 -0.00034301814957640671 0 -0.00033560812030147737 -0.00044359206835146655 0 -0.00035636088418954906 -0.0003749695111983115 0 -0.00026406999328343496 -0.00042839379069659815 0 -0.00031670753600940407 -0.00041967151533381066 0 -0.00031174425885966821 -0.00039683422806577535 0 -0.00036913773888074691 -0.00039225941181241761 0 -0.00037967495414622583 -0.00036134081665648487 0 -0.00035422046190266513 -0.00036751585009385101 0 -0.00037967495414622583 -0.00036134081665648487 0 -0.00035422046190266513 -0.00036751585009385101 0 -0.00036893311418462643 -0.0003437460033040965 0 -0.00033933484481716902 -0.00039060652976450315 0 -0.00036913773888074691 -0.00039225941181241761 0 -0.00035422046190266513 -0.00036751585009385101 0 0.00046418284676600404 -0.00057483019276809047 0 0.00057388380292733581 -0.0005643608730566918 0 0.0004870171607168236 -0.00056441348903427211 0 0.00051533989953536717 -0.00052930289633719538 0 0.00053361597891724726 -0.00053374124728235736 0 0.0005032965399587758 -0.00051877364523566713 0 0.00049972582425209943 -0.00050334485964348137 0 0.00053176289506278677 -0.00051172899685187289 0 0.0005032965399587758 -0.00051877364523566713 0 0.00051533989953536717 -0.00052930289633719538 0 0.00053176289506278677 -0.00051172899685187289 0 0.00051533989953536717 -0.00052930289633719538 0 0.00053361597891724726 -0.00053374124728235736 0 0.00053176289506278677 -0.00051172899685187289 0 0.00049119383658048513 -0.00063145004586029406 0 0.00049858208267392632 -0.00061838534447811926 0 0.00048282737860546601 -0.00064940169152312964 0 -0.00033493798932422432 -0.00041081049204867454 0 -0.00031204269349539729 -0.0004355338290760655 0 -0.00031670753600940407 -0.00041967151533381066 0 0.00053361597891724726 -0.00053374124728235736 0 0.00053176289506278677 -0.00051172899685187289 0 0.0005528543696355447 -0.0005272225097260161 0 9.286569518770982e-05 -0.0004583369505633425 0 0.00014013380679662871 -0.00053455750032974808 0 0.00057388380292733581 -0.0005643608730566918 0 0.00014013380679662871 -0.00053455750032974808 0 -0.00035636088418954906 -0.0003749695111983115 0 -0.00040972425172156155 -0.00034779094540007458 0 -0.00033493798932422432 -0.00041081049204867454 0 -0.00031670753600940407 -0.00041967151533381066 0 -0.00034067809161985105 -0.00041402210841326442 0 -0.00031174425885966821 -0.00039683422806577535 0 -0.00034067809161985105 -0.00041402210841326442 0 -0.00041271948114368791 -0.00034406654032877702 0 -0.00031670753600940407 -0.00041967151533381066 0 -0.00031174425885966821 -0.00039683422806577535 0 -0.00034067809161985105 -0.00041402210841326442 0 -0.00029787897289239285 -0.00045246667479730251 0 -0.00033493798932422432 -0.00041081049204867454 0 -0.00034067809161985105 -0.00041402210841326442 0 0.00048239619082451543 -0.00047303960467484391 0 0.00049972582425209943 -0.00050334485964348137 0 0.00053176289506278677 -0.00051172899685187289 0 0.00011193838981514885 -0.00041469847919138933 0 9.286569518770982e-05 -0.0004583369505633425 0 -0.00040331647451103178 -0.0004006857959147625 0 -0.00032988295926283853 -0.00041747425048061301 0 -0.00043866217708460147 -0.00035119076051159476 0 -0.00034067809161985105 -0.00041402210841326442 0 -0.00041271948114368791 -0.00034406654032877702 0 -0.00042343368661235532 -0.00033352921983647069 0 -0.00041271948114368791 -0.00034406654032877702 0 -0.00041495417309509743 -0.00033877344959544871 0 -0.00042343368661235532 -0.00033352921983647069 0 -0.0004255606340637728 -0.0003396880844914408 0 -0.00041271948114368791 -0.00034406654032877702 0 -0.00043112830550107693 -0.00033460759598329673 0 -0.00042343368661235532 -0.00033352921983647069 0 -0.0004255606340637728 -0.0003396880844914408 0 -0.00043866217708460147 -0.00035119076051159476 0 -0.0004255606340637728 -0.0003396880844914408 0 -0.00041271948114368791 -0.00034406654032877702 0 -0.00041271948114368791 -0.00034406654032877702 0 -0.00041495417309509743 -0.00033877344959544871 0 -0.00040876943049315736 -0.00034644138772737832 0 -0.00041495417309509743 -0.00033877344959544871 0 -0.00040876943049315736 -0.00034644138772737832 0 -0.00041646168138651023 -0.0003283514040216782 0 -0.00040446177060783097 -0.00036156179125304365 0 -0.00041271948114368791 -0.00034406654032877702 0 -0.00040876943049315736 -0.00034644138772737832 0 -0.00040446177060783097 -0.00036156179125304365 0 -0.00040876943049315736 -0.00034644138772737832 0 -0.00039316155403619691 -0.00034301814957640671 0 -0.00040876943049315736 -0.00034644138772737832 0 -0.0004042288485116266 -0.00032946830560695069 0 -0.00039316155403619691 -0.00034301814957640671 0 -0.00040876943049315736 -0.00034644138772737832 0 -0.0004042288485116266 -0.00032946830560695069 0 -0.00041646168138651023 -0.0003283514040216782 0 -0.0004042288485116266 -0.00032946830560695069 0 -0.00041646168138651023 -0.0003283514040216782 0 -0.000410366135268098 -0.00030823716089214254 0 -0.00041646168138651023 -0.0003283514040216782 0 -0.00042981553109883755 -0.00032095070571771096 0 -0.00042549419061715585 -0.00030618042556719197 0 -0.00042343368661235532 -0.00033352921983647069 0 -0.00041495417309509743 -0.00033877344959544871 0 -0.00041646168138651023 -0.0003283514040216782 0 -0.00042343368661235532 -0.00033352921983647069 0 -0.00041646168138651023 -0.0003283514040216782 0 -0.00042981553109883755 -0.00032095070571771096 0 -0.00043339039317956185 -0.00032655907753504856 0 -0.00042343368661235532 -0.00033352921983647069 0 -0.00042981553109883755 -0.00032095070571771096 0 -0.00033681312006873153 -0.00034727048267530131 0 -0.00035422046190266513 -0.00036751585009385101 0 -0.00036893311418462643 -0.0003437460033040965 0 -0.00033681312006873153 -0.00034727048267530131 0 -0.00036893311418462643 -0.0003437460033040965 0 -0.00035637418470028606 -0.00032412186105630554 0 -0.00036893311418462643 -0.0003437460033040965 0 -0.00039316155403619691 -0.00034301814957640671 0 -0.0003850538636816717 -0.00031643696936244347 0 -0.00037967495414622583 -0.00036134081665648487 0 -0.00036893311418462643 -0.0003437460033040965 0 -0.00039316155403619691 -0.00034301814957640671 0 -0.0004042288485116266 -0.00032946830560695069 0 -0.00039316155403619691 -0.00034301814957640671 0 -0.0003850538636816717 -0.00031643696936244347 0 -0.0004042288485116266 -0.00032946830560695069 0 -0.0003850538636816717 -0.00031643696936244347 0 -0.000410366135268098 -0.00030823716089214254 0 -0.00036893311418462643 -0.0003437460033040965 0 -0.0003850538636816717 -0.00031643696936244347 0 -0.00035637418470028606 -0.00032412186105630554 0 -0.0003850538636816717 -0.00031643696936244347 0 -0.00035637418470028606 -0.00032412186105630554 0 -0.000355952056911409 -0.00030473409047246803 0 -0.0003850538636816717 -0.00031643696936244347 0 -0.00038082012834786676 -0.00028868913223188285 0 -0.000355952056911409 -0.00030473409047246803 0 -0.0003850538636816717 -0.00031643696936244347 0 -0.00040652317821980463 -0.00029050379525466567 0 -0.00038082012834786676 -0.00028868913223188285 0 -0.0003850538636816717 -0.00031643696936244347 0 -0.00040652317821980463 -0.00029050379525466567 0 -0.000410366135268098 -0.00030823716089214254 0 -0.00040652317821980463 -0.00029050379525466567 0 -0.00038082012834786676 -0.00028868913223188285 0 -0.00041836862317835003 -0.00027193398272244045 0 -0.00040652317821980463 -0.00029050379525466567 0 -0.00042580081135878831 -0.00028830780381759985 0 -0.00041836862317835003 -0.00027193398272244045 0 -0.00042549419061715585 -0.00030618042556719197 0 -0.00042580081135878831 -0.00028830780381759985 0 -0.00044017975639449642 -0.00030307225120718178 0 -0.00041646168138651023 -0.0003283514040216782 0 -0.00042549419061715585 -0.00030618042556719197 0 -0.000410366135268098 -0.00030823716089214254 0 -0.00042549419061715585 -0.00030618042556719197 0 -0.000410366135268098 -0.00030823716089214254 0 -0.00042580081135878831 -0.00028830780381759985 0 -0.00040652317821980463 -0.00029050379525466567 0 -0.000410366135268098 -0.00030823716089214254 0 -0.00042580081135878831 -0.00028830780381759985 0 -0.00042580081135878831 -0.00028830780381759985 0 -0.00042975514202657023 -0.0002722726909303869 0 -0.00044301994719437665 -0.00027991232287633683 0 -0.00053058514859657979 -0.00033123555402681383 0 -0.00071742626207509162 -0.00041003312813158447 0 -0.00042580081135878831 -0.00028830780381759985 0 -0.00042975514202657023 -0.0002722726909303869 0 -0.00041836862317835003 -0.00027193398272244045 0 -0.00065838274766241256 -0.00040815346540987223 0 -0.00045296459978451636 -0.00026917688260881946 0 -0.00061388857818080894 -0.0002613321404994682 0 -0.00053058514859657979 -0.00033123555402681383 0 -0.0004642138275956604 -0.00028041452813542839 0 -0.00065838274766241256 -0.00040815346540987223 0 -0.00061388857818080894 -0.0002613321404994682 0 -0.0007900382955298834 -0.00030491758290230171 0 -0.00065838274766241256 -0.00040815346540987223 0 -0.0007900382955298834 -0.00030491758290230171 0 -0.00086702317210276647 -0.00049478107054523005 0 -0.00038082012834786676 -0.00028868913223188285 0 -0.00041836862317835003 -0.00027193398272244045 0 -0.00037197832215267874 -0.0002664500916370874 0 -0.00041836862317835003 -0.00027193398272244045 0 -0.00040690836599178233 -0.00025695870360442424 0 -0.00037197832215267874 -0.0002664500916370874 0 -0.00042975514202657023 -0.0002722726909303869 0 -0.00041836862317835003 -0.00027193398272244045 0 -0.00045296459978451636 -0.00026917688260881946 0 -0.00041836862317835003 -0.00027193398272244045 0 -0.00045296459978451636 -0.00026917688260881946 0 -0.00040690836599178233 -0.00025695870360442424 0 -0.00045296459978451636 -0.00026917688260881946 0 -0.00040690836599178233 -0.00025695870360442424 0 -0.0004091527492038941 -0.00022857781420963769 0 -0.00045296459978451636 -0.00026917688260881946 0 -0.0004091527492038941 -0.00022857781420963769 0 -0.0004461475803496945 -0.00018545145852688169 0 -0.0004091527492038941 -0.00022857781420963769 0 -0.0004461475803496945 -0.00018545145852688169 0 -0.00036891398182761954 -0.00019397049185851511 0 -0.0004461475803496945 -0.00018545145852688169 0 -0.0004785370719847301 -5.2891035323513773e-05 0 -0.0004077562691189538 -8.8837021505129468e-05 0 -0.0004461475803496945 -0.00018545145852688169 0 -0.0004785370719847301 -5.2891035323513773e-05 0 -0.00062283143447226092 -6.0147266620257439e-05 0 -0.00046039154119794637 -0.00018426715344771615 0 -0.00061882148782600223 -0.00015553203699553438 0 -0.0004461475803496945 -0.00018545145852688169 0 -0.00068329090232371946 -0.00017892445652876887 0 -0.00062283143447226092 -6.0147266620257439e-05 0 -0.00045296459978451636 -0.00026917688260881946 0 -0.0004461475803496945 -0.00018545145852688169 0 -0.00055157508267280871 -0.00013513365117522104 0 -0.00045296459978451636 -0.00026917688260881946 0 -0.00061388857818080894 -0.0002613321404994682 0 -0.00055157508267280871 -0.00013513365117522104 0 -0.00061388857818080894 -0.0002613321404994682 0 -0.00069380112805555462 -0.00019419346884075547 0 -0.00055157508267280871 -0.00013513365117522104 0 -0.00061388857818080894 -0.0002613321404994682 0 -0.0007900382955298834 -0.00030491758290230171 0 -0.00069380112805555462 -0.00019419346884075547 0 -0.0007900382955298834 -0.00030491758290230171 0 -0.00069380112805555462 -0.00019419346884075547 0 -0.00081972233588629062 -0.00018545632118495677 0 -0.00069380112805555462 -0.00019419346884075547 0 -0.00075728980529992729 -7.904519271441875e-05 0 -0.00081972233588629062 -0.00018545632118495677 0 -0.00083992351313123945 -0.0001052970544015022 0 -0.00061882148782600223 -0.00015553203699553438 0 -0.00069380112805555462 -0.00019419346884075547 0 -0.00075728980529992729 -7.904519271441875e-05 0 -0.00055157508267280871 -0.00013513365117522104 0 -0.00092236320571266006 -0.00013351363446247077 0 -0.00068329090232371946 -0.00017892445652876887 0 -0.0007874868200525763 -7.5898619269798524e-05 0 -0.00068329090232371946 -0.00017892445652876887 0 -0.0007874868200525763 -7.5898619269798524e-05 0 -0.00062283143447226092 -6.0147266620257439e-05 0 -0.0007874868200525763 -7.5898619269798524e-05 0 -0.0007661075519031223 9.2488416208608363e-06 0 -0.00062283143447226092 -6.0147266620257439e-05 0 -0.0007874868200525763 -7.5898619269798524e-05 0 -0.0007661075519031223 9.2488416208608363e-06 0 -0.00088591950207539134 -8.6880852458655207e-06 0 -0.0007661075519031223 9.2488416208608363e-06 0 -0.00067855536918699322 6.7735690534621455e-05 0 -0.00062283143447226092 -6.0147266620257439e-05 0 -0.00088591950207539134 -8.6880852458655207e-06 0 -0.00094172566172613203 0.00011775606664759943 0 -0.0010213020962574319 -6.5813964980448509e-05 0 -0.00092236320571266006 -0.00013351363446247077 0 -0.00088591950207539134 -8.6880852458655207e-06 0 -0.0010213020962574319 -6.5813964980448509e-05 0 -0.00092236320571266006 -0.00013351363446247077 0 -0.0007874868200525763 -7.5898619269798524e-05 0 -0.00088591950207539134 -8.6880852458655207e-06 0 -0.0007661075519031223 9.2488416208608363e-06 0 -0.00088591950207539134 -8.6880852458655207e-06 0 -0.00084808346901293007 7.244833205301446e-05 0 -0.00084808346901293007 7.244833205301446e-05 0 -0.00094172566172613203 0.00011775606664759943 0 -0.00080016512180004253 0.00015467487320713406 0 -0.00088591950207539134 -8.6880852458655207e-06 0 -0.00084808346901293007 7.244833205301446e-05 0 -0.00094172566172613203 0.00011775606664759943 0 -0.0007661075519031223 9.2488416208608363e-06 0 -0.00080016512180004253 0.00015467487320713406 0 -0.00067855536918699322 6.7735690534621455e-05 0 -0.00080016512180004253 0.00015467487320713406 0 -0.00067855536918699322 6.7735690534621455e-05 0 -0.00065806219932375818 0.0002070653901802437 0 -0.0007661075519031223 9.2488416208608363e-06 0 -0.00084808346901293007 7.244833205301446e-05 0 -0.00080016512180004253 0.00015467487320713406 0 -0.00067855536918699322 6.7735690534621455e-05 0 -0.00054784859049186935 3.3722163571950723e-05 0 -0.00065806219932375818 0.0002070653901802437 0 -0.00098854012130090768 4.6355741204346705e-05 0 -0.0011523731326134278 1.1603535350605081e-05 0 -0.00054784859049186935 3.3722163571950723e-05 0 -0.00044511553331446415 7.7583769463819571e-05 0 -0.00065806219932375818 0.0002070653901802437 0 -0.0014414519999014848 -0.00019330216754075201 0 -0.0015502164245182306 -0.00011925848580035001 0 -0.0014185567776206483 -0.00016818288343428675 0 -0.00098854012130090768 4.6355741204346705e-05 0 -0.0013250830389940004 1.7763065054407932e-05 0 -0.00044511553331446415 7.7583769463819571e-05 0 -0.00044784640563461098 3.2530813254369767e-05 0 -0.00042627524843483644 6.6931229684451537e-06 0 -0.00044511553331446415 7.7583769463819571e-05 0 -0.00044784640563461098 3.2530813254369767e-05 0 -0.00047826578648689413 1.8224469082463377e-05 0 -0.00044784640563461098 3.2530813254369767e-05 0 -0.00044779790278749151 -8.681137381415887e-06 0 -0.00042627524843483644 6.6931229684451537e-06 0 -0.00044784640563461098 3.2530813254369767e-05 0 -0.00047826578648689413 1.8224469082463377e-05 0 -0.00044779790278749151 -8.681137381415887e-06 0 -0.00054784859049186935 3.3722163571950723e-05 0 -0.00044511553331446415 7.7583769463819571e-05 0 -0.00047826578648689413 1.8224469082463377e-05 0 -0.00054784859049186935 3.3722163571950723e-05 0 -0.00047826578648689413 1.8224469082463377e-05 0 -0.0004785370719847301 -5.2891035323513773e-05 0 -0.00044779790278749151 -8.681137381415887e-06 0 -0.0004785370719847301 -5.2891035323513773e-05 0 -0.0004164354208134867 -4.1146104939372366e-05 0 -0.00047826578648689413 1.8224469082463377e-05 0 -0.00044779790278749151 -8.681137381415887e-06 0 -0.0004785370719847301 -5.2891035323513773e-05 0 -0.0004785370719847301 -5.2891035323513773e-05 0 -0.0004164354208134867 -4.1146104939372366e-05 0 -0.0004077562691189538 -8.8837021505129468e-05 0 -0.00054784859049186935 3.3722163571950723e-05 0 -0.0004785370719847301 -5.2891035323513773e-05 0 -0.00062283143447226092 -6.0147266620257439e-05 0 -0.00067855536918699322 6.7735690534621455e-05 0 -0.00054784859049186935 3.3722163571950723e-05 0 -0.00062283143447226092 -6.0147266620257439e-05 0 -0.0013495789749111368 4.6329115995022469e-06 0 -0.0013684403127949198 -0.00012617758154988536 0 -0.001576275975503948 -2.9242727238606204e-05 0 -0.0013495789749111368 4.6329115995022469e-06 0 -0.0015089211439737018 0.00013341008986473307 0 -0.001576275975503948 -2.9242727238606204e-05 0 -0.0013495789749111368 4.6329115995022469e-06 0 -0.0015089211439737018 0.00013341008986473307 0 -0.0013383360375829063 0.00015602163448970337 0 -0.0015089211439737018 0.00013341008986473307 0 -0.0013383360375829063 0.00015602163448970337 0 -0.0014000878368516571 0.00029932492309083045 0 -0.0013495789749111368 4.6329115995022469e-06 0 -0.0013383360375829063 0.00015602163448970337 0 -0.0012347404737814071 6.9829148756446151e-05 0 -0.0013383360375829063 0.00015602163448970337 0 -0.0012487229949356981 0.00017465479897643487 0 -0.0012347404737814071 6.9829148756446151e-05 0 -0.0012487229949356981 0.00017465479897643487 0 -0.0011786330231587261 0.00016039031632812261 0 -0.0012347404737814071 6.9829148756446151e-05 0 -0.0011786330231587261 0.00016039031632812261 0 -0.0012347404737814071 6.9829148756446151e-05 0 -0.0011148151416591984 4.3351227031834629e-05 0 -0.0010569189552977003 0.00014782054707013133 0 -0.0010672513554287034 9.1910727796384458e-05 0 -0.001093526011145284 0.00018700784574035716 0 -0.0010672513554287034 9.1910727796384458e-05 0 -0.0011148151416591984 4.3351227031834629e-05 0 -0.001093526011145284 0.00018700784574035716 0 -0.0010158719168331545 0.00012047251876206173 0 -0.0010672513554287034 9.1910727796384458e-05 0 -0.0010213020962574319 -6.5813964980448509e-05 0 -0.0011786330231587261 0.00016039031632812261 0 -0.0011148151416591984 4.3351227031834629e-05 0 -0.0010980311207812248 0.00024999340128216028 0 -0.0011229665040881473 4.2017274773404517e-05 0 -0.0010525306820439583 0.00024444837986387817 0 -0.0010158719168331545 0.00012047251876206173 0 -0.0010569189552977003 0.00014782054707013133 0 -0.0010672513554287034 9.1910727796384458e-05 0 -0.00092236320571266006 -0.00013351363446247077 0 -0.0010213020962574319 -6.5813964980448509e-05 0 -0.0011663607314724381 -6.1907596452183923e-05 0 -0.00095707565814989433 0.00012882428905894853 0 -0.0010264323494800093 -6.3858641536551351e-05 0 -0.0010672513554287034 9.1910727796384458e-05 0 -0.0011148151416591984 4.3351227031834629e-05 0 -0.0010213020962574319 -6.5813964980448509e-05 0 -0.0011148151416591984 4.3351227031834629e-05 0 -0.0010213020962574319 -6.5813964980448509e-05 0 -0.0011663607314724381 -6.1907596452183923e-05 0 -0.0013287790333431626 2.6381677756591747e-06 0 -0.001090937128146497 -4.3283123292192487e-05 0 -0.0013495789749111368 4.6329115995022469e-06 0 -0.0010119285500062023 -2.0510336790072507e-05 0 -0.00108804465184169 -0.00014205260513968615 0 -0.0013495789749111368 4.6329115995022469e-06 0 -0.0012347404737814071 6.9829148756446151e-05 0 -0.0011663607314724381 -6.1907596452183923e-05 0 -0.0012347404737814071 6.9829148756446151e-05 0 -0.0011148151416591984 4.3351227031834629e-05 0 -0.0011663607314724381 -6.1907596452183923e-05 0 -0.0010119285500062023 -2.0510336790072507e-05 0 -0.00108804465184169 -0.00014205260513968615 0 -0.00092008497172474954 -0.0001290865437921326 0 -0.00108804465184169 -0.00014205260513968615 0 -0.00092008497172474954 -0.0001290865437921326 0 -0.00097578149054641046 -0.00022498140456136202 0 -0.00108804465184169 -0.00014205260513968615 0 -0.0011864400224375991 -0.00032241603039464113 0 -0.0012246208998372217 -0.00019494044471200157 0 -0.00092008497172474954 -0.0001290865437921326 0 -0.00081972233588629062 -0.00018545632118495677 0 -0.00097578149054641046 -0.00022498140456136202 0 -0.00083992351313123945 -0.0001052970544015022 0 -0.001090937128146497 -4.3283123292192487e-05 0 -0.00075728980529992729 -7.904519271441875e-05 0 -0.0010119285500062023 -2.0510336790072507e-05 0 -0.00092008497172474954 -0.0001290865437921326 0 -0.00075728980529992729 -7.904519271441875e-05 0 -0.00092008497172474954 -0.0001290865437921326 0 -0.00081972233588629062 -0.00018545632118495677 0 -0.0007900382955298834 -0.00030491758290230171 0 -0.00097578149054641046 -0.00022498140456136202 0 -0.00096437641123448795 -0.00035249328728617787 0 -0.0007900382955298834 -0.00030491758290230171 0 -0.00081972233588629062 -0.00018545632118495677 0 -0.00097578149054641046 -0.00022498140456136202 0 -0.00097578149054641046 -0.00022498140456136202 0 -0.0010639199477350337 -0.0002746258036123838 0 -0.00096437641123448795 -0.00035249328728617787 0 -0.00108804465184169 -0.00014205260513968615 0 -0.00097578149054641046 -0.00022498140456136202 0 -0.0011864400224375991 -0.00032241603039464113 0 -0.00096101570899397926 -0.0002214721516546307 0 -0.0012195207097526434 -0.00033879450519353713 0 -0.0010639199477350337 -0.0002746258036123838 0 -0.0011643655296959558 -0.00032097352213092162 0 -0.0010504114986904112 -0.00036571850460030974 0 -0.0011864400224375991 -0.00032241603039464113 0 -0.00129628952046954 -0.00028011938967102673 0 -0.0013393863212840533 -0.00037924716571143165 0 -0.0012195207097526434 -0.00033879450519353713 0 -0.0006061241726019593 -0.00026293729015114577 0 -0.0011864400224375991 -0.00032241603039464113 0 -0.00129628952046954 -0.00028011938967102673 0 -0.0012246208998372217 -0.00019494044471200157 0 -0.0013495789749111368 4.6329115995022469e-06 0 -0.0013684403127949198 -0.00012617758154988536 0 -0.0012246208998372217 -0.00019494044471200157 0 -0.0013495789749111368 4.6329115995022469e-06 0 -0.00108804465184169 -0.00014205260513968615 0 -0.0012246208998372217 -0.00019494044471200157 0 -0.00129628952046954 -0.00028011938967102673 0 -0.0012246208998372217 -0.00019494044471200157 0 -0.0014244371121081882 -0.00021184743026364343 0 -0.001385691348449069 -0.00019506585651478628 0 -0.0010850849852706579 -0.00025034734242576932 0 -0.0013684403127949198 -0.00012617758154988536 0 -0.0012246208998372217 -0.00019494044471200157 0 -0.0014876638956685785 -0.00021018215746825076 0 -0.0010850849852706579 -0.00025034734242576932 0 -0.001627199631917767 2.1027510621745743e-05 0 -0.0013684403127949198 -0.00012617758154988536 0 -0.0014876638956685785 -0.00021018215746825076 0 -0.001576275975503948 -2.9242727238606204e-05 0 -0.00010901250774600271 -0.00018526059274970769 0 -0.00010662797135006487 -0.00019029776410702106 0 -0.00010598200809864863 -0.00018900851381226813 0 -0.0010850849852706579 -0.00025034734242576932 0 -0.0006061241726019593 -0.00026293729015114577 0 -0.00129628952046954 -0.00028011938967102673 0 -0.0014244371121081882 -0.00021184743026364343 0 -0.0013393863212840533 -0.00037924716571143165 0 2.2911494726258215e-05 -0.00019508073696645166 0 1.3777210981471675e-05 -0.00023156824441273647 0 4.2099446240269289e-05 -0.00023688181380587283 0 2.2911494726258215e-05 -0.00019508073696645166 0 1.3777210981471675e-05 -0.00023156824441273647 0 -1.9736396059263238e-05 -0.00020555484190541628 0 -0.00010662797135006487 -0.00019029776410702106 0 -0.00010248307608486088 -0.00019772315995412028 0 -0.00010598200809864863 -0.00018900851381226813 0 -0.0006061241726019593 -0.00026293729015114577 0 4.5767672747630089e-05 -0.00016771978179884095 0 -0.0011643655296959558 -0.00032097352213092162 0 -0.0011065678048730655 -0.00043921406088615674 0 -0.0010504114986904112 -0.00036571850460030974 0 -0.0006061241726019593 -0.00026293729015114577 0 -0.0005279540486693656 -0.00034949532354067495 0 -0.0011065678048730655 -0.00043921406088615674 0 -0.0010504114986904112 -0.00036571850460030974 0 -0.0010065171469372271 -0.00044830445618227263 0 4.2099446240269289e-05 -0.00023688181380587283 0 5.2457919834680296e-05 -0.00027692250069836209 0 4.4082842068014068e-05 -0.00028088719708421273 0 -0.0005279540486693656 -0.00034949532354067495 0 -0.00046136747259754304 -0.00033745316592398428 0 -0.0011065678048730655 -0.00043921406088615674 0 -0.0010065171469372271 -0.00044830445618227263 0 -0.0010438661333595568 -0.00056230704714927977 0 4.2099446240269289e-05 -0.00023688181380587283 0 3.0258864213890277e-05 -0.00026346500229277128 0 4.4082842068014068e-05 -0.00028088719708421273 0 1.3777210981471675e-05 -0.00023156824441273647 0 4.2099446240269289e-05 -0.00023688181380587283 0 3.0258864213890277e-05 -0.00026346500229277128 0 3.0258864213890277e-05 -0.00026346500229277128 0 2.4131794634623354e-05 -0.00028906230961882817 0 -4.6537770133736802e-06 -0.00025787430467149236 0 1.3777210981471675e-05 -0.00023156824441273647 0 -1.9736396059263238e-05 -0.00020555484190541628 0 -4.6537770133736802e-06 -0.00025787430467149236 0 1.3777210981471675e-05 -0.00023156824441273647 0 3.0258864213890277e-05 -0.00026346500229277128 0 -4.6537770133736802e-06 -0.00025787430467149236 0 -0.0007900382955298834 -0.00030491758290230171 0 -0.00096437641123448795 -0.00035249328728617787 0 -0.00086702317210276647 -0.00049478107054523005 0 -0.00096437641123448795 -0.00035249328728617787 0 -0.0010065171469372271 -0.00044830445618227263 0 -0.00086702317210276647 -0.00049478107054523005 0 -0.0010639199477350337 -0.0002746258036123838 0 -0.00096437641123448795 -0.00035249328728617787 0 -0.0010504114986904112 -0.00036571850460030974 0 -0.00096437641123448795 -0.00035249328728617787 0 -0.0010504114986904112 -0.00036571850460030974 0 -0.0010065171469372271 -0.00044830445618227263 0 -0.00044301994719437665 -0.00027991232287633683 0 -0.00044654729655456855 -0.00029103522803641742 0 -0.00046079268921779846 -0.0002884125301947942 0 -0.0010065171469372271 -0.00044830445618227263 0 -0.00086702317210276647 -0.00049478107054523005 0 -0.0010438661333595568 -0.00056230704714927977 0 -0.00071742626207509162 -0.00041003312813158447 0 -0.00046136747259754304 -0.00033745316592398428 0 -0.00042580081135878831 -0.00028830780381759985 0 -0.00044301994719437665 -0.00027991232287633683 0 -0.00044654729655456855 -0.00029103522803641742 0 -0.00044654729655456855 -0.00029103522803641742 0 -0.00045335407298889146 -0.00030192699380093954 0 -0.00044017975639449642 -0.00030307225120718178 0 -0.00042580081135878831 -0.00028830780381759985 0 -0.00044654729655456855 -0.00029103522803641742 0 -0.00044017975639449642 -0.00030307225120718178 0 -0.00046136747259754304 -0.00033745316592398428 0 -0.00018069012214516815 -0.00031681693721532231 0 4.5517192670182256e-05 -0.00028039156218342092 0 4.6850838007233288e-05 -0.00029834835297366314 0 4.1961728427607716e-05 -0.00029053942954698574 0 -0.00044654729655456855 -0.00029103522803641742 0 -0.00046079268921779846 -0.0002884125301947942 0 -0.00045335407298889146 -0.00030192699380093954 0 -0.00034540960394855103 -0.00030561233465263582 0 -0.00018069012214516815 -0.00031681693721532231 0 4.7645247141669213e-05 -0.00030916410275796339 0 4.380197305288906e-05 -0.00030613600548548277 0 4.6850838007233288e-05 -0.00029834835297366314 0 4.6850838007233288e-05 -0.00029834835297366314 0 4.1961728427607716e-05 -0.00029053942954698574 0 4.0470179871863942e-05 -0.00030024128593784228 0 4.380197305288906e-05 -0.00030613600548548277 0 4.0470179871863942e-05 -0.00030024128593784228 0 3.7990217740757621e-05 -0.00030594148551574409 0 4.380197305288906e-05 -0.00030613600548548277 0 4.6850838007233288e-05 -0.00029834835297366314 0 4.0470179871863942e-05 -0.00030024128593784228 0 -0.00034540960394855103 -0.00030561233465263582 0 -0.00046391129372291075 -0.00031898830756946591 0 -0.00044605846953215002 -0.00031688051102018723 0 -0.00045335407298889146 -0.00030192699380093954 0 -0.00044017975639449642 -0.00030307225120718178 0 -0.00044605846953215002 -0.00031688051102018723 0 -0.00042549419061715585 -0.00030618042556719197 0 -0.00044017975639449642 -0.00030307225120718178 0 2.4131794634623354e-05 -0.00028906230961882817 0 1.3891002663470747e-05 -0.00030750719270792665 0 -4.6537770133736802e-06 -0.00025787430467149236 0 2.4131794634623354e-05 -0.00028906230961882817 0 3.493117735710188e-05 -0.00028700659560465676 0 2.9729398414327076e-05 -0.00029546935552129071 0 2.4131794634623354e-05 -0.00028906230961882817 0 2.9729398414327076e-05 -0.00029546935552129071 0 2.2748785290604245e-05 -0.00030277021855481368 0 2.4131794634623354e-05 -0.00028906230961882817 0 2.2748785290604245e-05 -0.00030277021855481368 0 1.3891002663470747e-05 -0.00030750719270792665 0 3.0258864213890277e-05 -0.00026346500229277128 0 4.4082842068014068e-05 -0.00028088719708421273 0 3.493117735710188e-05 -0.00028700659560465676 0 3.0258864213890277e-05 -0.00026346500229277128 0 2.4131794634623354e-05 -0.00028906230961882817 0 3.493117735710188e-05 -0.00028700659560465676 0 4.5517192670182256e-05 -0.00028039156218342092 0 4.4082842068014068e-05 -0.00028088719708421273 0 4.1961728427607716e-05 -0.00029053942954698574 0 4.4082842068014068e-05 -0.00028088719708421273 0 4.1961728427607716e-05 -0.00029053942954698574 0 3.493117735710188e-05 -0.00028700659560465676 0 -0.00046136747259754304 -0.00033745316592398428 0 -0.0002089247915751574 -0.0002580607879712617 0 4.1961728427607716e-05 -0.00029053942954698574 0 3.493117735710188e-05 -0.00028700659560465676 0 3.5520041704198612e-05 -0.00029628127737934548 0 3.493117735710188e-05 -0.00028700659560465676 0 2.9729398414327076e-05 -0.00029546935552129071 0 3.5520041704198612e-05 -0.00029628127737934548 0 3.4640101520328345e-05 -0.00030176657787945135 0 3.073302708254912e-05 -0.00030067113865648665 0 2.788895536841465e-05 -0.0003051651468544111 0 2.9729398414327076e-05 -0.00029546935552129071 0 3.5520041704198612e-05 -0.00029628127737934548 0 3.073302708254912e-05 -0.00030067113865648665 0 3.5520041704198612e-05 -0.00029628127737934548 0 3.4640101520328345e-05 -0.00030176657787945135 0 3.073302708254912e-05 -0.00030067113865648665 0 4.1961728427607716e-05 -0.00029053942954698574 0 3.5520041704198612e-05 -0.00029628127737934548 0 4.0470179871863942e-05 -0.00030024128593784228 0 3.5520041704198612e-05 -0.00029628127737934548 0 3.4640101520328345e-05 -0.00030176657787945135 0 4.0470179871863942e-05 -0.00030024128593784228 0 3.4640101520328345e-05 -0.00030176657787945135 0 4.0470179871863942e-05 -0.00030024128593784228 0 3.7990217740757621e-05 -0.00030594148551574409 0 3.4640101520328345e-05 -0.00030176657787945135 0 3.7990217740757621e-05 -0.00030594148551574409 0 2.788895536841465e-05 -0.0003051651468544111 0 2.788895536841465e-05 -0.0003051651468544111 0 2.7616600887044604e-05 -0.0003072924785179061 0 2.2748785290604245e-05 -0.00030277021855481368 0 6.2185339876934026e-05 -0.00033674639471479326 0 1.8232655793865437e-05 -0.00031024994383119708 0 2.7616600887044604e-05 -0.0003072924785179061 0 2.2748785290604245e-05 -0.00030277021855481368 0 1.3891002663470747e-05 -0.00030750719270792665 0 9.5909074465230036e-05 -0.00037735795259669406 0 4.7841441574208735e-05 -0.00037411978357816396 0 1.3891002663470747e-05 -0.00030750719270792665 0 3.073302708254912e-05 -0.00030067113865648665 0 2.788895536841465e-05 -0.0003051651468544111 0 2.2748785290604245e-05 -0.00030277021855481368 0 2.9729398414327076e-05 -0.00029546935552129071 0 3.073302708254912e-05 -0.00030067113865648665 0 2.2748785290604245e-05 -0.00030277021855481368 0 4.1779076449887058e-05 -0.00040903779196210961 0 4.7841441574208735e-05 -0.00037411978357816396 0 -3.8045715217905943e-05 -0.00032461986938957563 0 4.7841441574208735e-05 -0.00037411978357816396 0 1.3891002663470747e-05 -0.00030750719270792665 0 -3.8045715217905943e-05 -0.00032461986938957563 0 1.3891002663470747e-05 -0.00030750719270792665 0 -5.2307958853260394e-05 -0.00027116150188356462 0 -4.6537770133736802e-06 -0.00025787430467149236 0 1.3891002663470747e-05 -0.00030750719270792665 0 -5.2307958853260394e-05 -0.00027116150188356462 0 -3.8045715217905943e-05 -0.00032461986938957563 0 -5.2307958853260394e-05 -0.00027116150188356462 0 -3.8045715217905943e-05 -0.00032461986938957563 0 -9.960723537965294e-05 -0.0002800553907525645 0 -3.8045715217905943e-05 -0.00032461986938957563 0 -0.00010181205607816152 -0.00031787346130806156 0 -9.960723537965294e-05 -0.0002800553907525645 0 -3.8045715217905943e-05 -0.00032461986938957563 0 -8.2873968375210807e-05 -0.00037415180687305636 0 -0.00010181205607816152 -0.00031787346130806156 0 4.1779076449887058e-05 -0.00040903779196210961 0 -3.8045715217905943e-05 -0.00032461986938957563 0 -8.2873968375210807e-05 -0.00037415180687305636 0 -7.3548120282654172e-07 -0.0004016507797419427 0 -3.0675565505606142e-05 -0.00032666877090727835 0 -8.2873968375210807e-05 -0.00037415180687305636 0 -0.00012117766239498729 -0.00033034029871776373 0 -0.00015900149725965167 -0.00033317311609085224 0 8.6466428209318043e-05 -0.00041526699667557868 0 7.3817765966501816e-05 -0.00042115490378634728 0 9.3313418235806969e-05 -0.00042746498140695235 0 7.6723098200921845e-05 -0.00037676580706165317 0 -3.0675565505606142e-05 -0.00032666877090727835 0 -0.00012117766239498729 -0.00033034029871776373 0 -0.00015900149725965167 -0.00033317311609085224 0 -0.00013987873452347391 -0.0002990292005150454 0 -8.2873968375210807e-05 -0.00037415180687305636 0 -0.00012117766239498729 -0.00033034029871776373 0 -0.00010181205607816152 -0.00031787346130806156 0 -1.4911025800555101e-05 -0.00026209997528815255 0 -2.947943507780533e-05 -0.00028321344872196956 0 -4.106514544592756e-05 -0.0002559757312965122 0 -1.4911025800555101e-05 -0.00026209997528815255 0 -2.947943507780533e-05 -0.00028321344872196956 0 -5.7623862656660632e-06 -0.00029860021970325878 0 -3.3996136487371546e-05 -0.00031494208350548445 0 -2.947943507780533e-05 -0.00028321344872196956 0 -5.7623862656660632e-06 -0.00029860021970325878 0 -1.4911025800555101e-05 -0.00026209997528815255 0 -5.7623862656660632e-06 -0.00029860021970325878 0 9.2148413472679237e-06 -0.00025888750606532633 0 6.2557473943163745e-05 -0.00032358760983798075 0 2.3358804876575212e-05 -0.00029163356579942035 0 3.2376030836275864e-05 -0.00024428954643700439 0 2.3358804876575212e-05 -0.00029163356579942035 0 3.2376030836275864e-05 -0.00024428954643700439 0 9.2148413472679237e-06 -0.00025888750606532633 0 -5.7623862656660632e-06 -0.00029860021970325878 0 2.3358804876575212e-05 -0.00029163356579942035 0 9.2148413472679237e-06 -0.00025888750606532633 0 -6.0965546956226977e-05 -0.00031539162816774795 0 -9.2193571690615722e-05 -0.00030059503664512467 0 -0.00010114508397439895 -0.00024853549499600315 0 -3.0675565505606142e-05 -0.00032666877090727835 0 -6.6689148647841457e-05 -0.00027343720703731933 0 3.2376030836275864e-05 -0.00024428954643700439 0 1.0250679820998445e-05 -0.00023086431843432007 0 9.2148413472679237e-06 -0.00025888750606532633 0 1.0250679820998445e-05 -0.00023086431843432007 0 -2.0013059433118454e-05 -0.00023822923380134608 0 -5.6224244916027233e-05 -0.00020268918986183221 0 -1.4911025800555101e-05 -0.00026209997528815255 0 9.2148413472679237e-06 -0.00025888750606532633 0 -2.0013059433118454e-05 -0.00023822923380134608 0 1.0250679820998445e-05 -0.00023086431843432007 0 9.2148413472679237e-06 -0.00025888750606532633 0 -2.0013059433118454e-05 -0.00023822923380134608 0 -1.4911025800555101e-05 -0.00026209997528815255 0 -2.0013059433118454e-05 -0.00023822923380134608 0 -4.106514544592756e-05 -0.0002559757312965122 0 -0.00013382279569445273 -0.00025299570727833242 0 -0.0001911084683742966 -0.00021417352383573169 0 -7.9859948939609585e-05 -0.00026448558540324716 0 -8.8786965363574425e-05 -0.00021186025723867396 0 -0.00019768948757492696 -0.0002055101664660251 0 -6.6689148647841457e-05 -0.00027343720703731933 0 -0.00013382279569445273 -0.00025299570727833242 0 -3.0675565505606142e-05 -0.00032666877090727835 0 -0.00013382279569445273 -0.00025299570727833242 0 -0.00015900149725965167 -0.00033317311609085224 0 -0.00017655947860474426 -0.00029715204808039233 0 -0.00013987873452347391 -0.0002990292005150454 0 -0.00017655947860474426 -0.00029715204808039233 0 -0.00013987873452347391 -0.0002990292005150454 0 -0.00014570554629705538 -0.00025682067700707063 0 -0.00013382279569445273 -0.00025299570727833242 0 -0.00018583277650353961 -0.00015683304876733622 0 -0.00012117766239498729 -0.00033034029871776373 0 -0.00010181205607816152 -0.00031787346130806156 0 -0.00013987873452347391 -0.0002990292005150454 0 -0.00010181205607816152 -0.00031787346130806156 0 -0.00013987873452347391 -0.0002990292005150454 0 -9.960723537965294e-05 -0.0002800553907525645 0 -0.00013987873452347391 -0.0002990292005150454 0 -9.960723537965294e-05 -0.0002800553907525645 0 -0.00014570554629705538 -0.00025682067700707063 0 -9.960723537965294e-05 -0.0002800553907525645 0 -0.00014570554629705538 -0.00025682067700707063 0 -9.4682593669819358e-05 -0.00022117006210967122 0 -0.00014570554629705538 -0.00025682067700707063 0 -0.00014729288957136358 -0.00021797338223968201 0 -9.4682593669819358e-05 -0.00022117006210967122 0 -0.00018663875067667152 -0.00026489744873064834 0 -0.00020234661566707291 -0.00017780076158741221 0 -0.00023192242981587085 -0.00019065879102023081 0 -0.00017655947860474426 -0.00029715204808039233 0 -0.00014570554629705538 -0.00025682067700707063 0 -0.00018155248693810038 -0.0002429307545549713 0 -0.00014570554629705538 -0.00025682067700707063 0 -0.00018155248693810038 -0.0002429307545549713 0 -0.00014729288957136358 -0.00021797338223968201 0 -0.00018155248693810038 -0.0002429307545549713 0 -0.00018505758804079743 -0.00020275135917012166 0 -0.00014729288957136358 -0.00021797338223968201 0 -0.00026502292443409677 -0.0001595973277070573 0 -0.00014068486901366468 -0.00020007716049679573 0 -0.0001911084683742966 -0.00021417352383573169 0 -0.00026502292443409677 -0.0001595973277070573 0 -0.00020234661566707291 -0.00017780076158741221 0 -0.00021762469775136258 -9.1166246537526153e-05 0 -0.00023385856182711839 -0.00014330016941208252 0 -0.00018505758804079743 -0.00020275135917012166 0 -0.00014729288957136358 -0.00021797338223968201 0 -0.0001482335867124387 -0.00018882140648655182 0 -0.00012496820805891364 -0.00020460989001557496 0 -0.00014729288957136358 -0.00021797338223968201 0 -0.0001482335867124387 -0.00018882140648655182 0 -0.00012496820805891364 -0.00020460989001557496 0 -0.00014729288957136358 -0.00021797338223968201 0 -9.4682593669819358e-05 -0.00022117006210967122 0 -0.00012496820805891364 -0.00020460989001557496 0 -9.4682593669819358e-05 -0.00022117006210967122 0 -0.00011192484867394479 -0.00019365568605578688 0 -0.00010248307608486088 -0.00019772315995412028 0 -9.4682593669819358e-05 -0.00022117006210967122 0 -0.00011192484867394479 -0.00019365568605578688 0 4.5767672747630089e-05 -0.00016771978179884095 0 -0.00013580543579385607 -0.00023616083272237582 0 -1.9736396059263238e-05 -0.00020555484190541628 0 -4.6537770133736802e-06 -0.00025787430467149236 0 -9.4682593669819358e-05 -0.00022117006210967122 0 -5.2307958853260394e-05 -0.00027116150188356462 0 -4.6537770133736802e-06 -0.00025787430467149236 0 -9.4682593669819358e-05 -0.00022117006210967122 0 -5.2307958853260394e-05 -0.00027116150188356462 0 -9.960723537965294e-05 -0.0002800553907525645 0 -9.4682593669819358e-05 -0.00022117006210967122 0 -0.0003493142793960197 -0.00015862939646569358 0 -0.00045307898803518144 -0.00024099249540952627 0 -0.00045851121245499835 -7.3078634688437895e-05 0 -0.0003493142793960197 -0.00015862939646569358 0 -0.00035359862120474671 -4.9596973316755823e-05 0 -0.00045851121245499835 -7.3078634688437895e-05 0 -0.0003493142793960197 -0.00015862939646569358 0 -0.00027808724878248923 -8.9315519138257076e-05 0 -0.00035359862120474671 -4.9596973316755823e-05 0 -0.00043433273319019947 -0.00037518319261837081 0 -0.00035928824453856256 -0.00032500222673733476 0 -0.00045307898803518144 -0.00024099249540952627 0 -0.0003493142793960197 -0.00015862939646569358 0 -0.0003474969480880391 -0.00025419290609384815 0 -0.00045307898803518144 -0.00024099249540952627 0 -0.00035928824453856256 -0.00032500222673733476 0 -0.0003474969480880391 -0.00025419290609384815 0 -0.00045307898803518144 -0.00024099249540952627 0 -0.00035928824453856256 -0.00032500222673733476 0 -0.0003474969480880391 -0.00025419290609384815 0 -0.00029334872681607225 -0.00029896896502156102 0 -0.0003493142793960197 -0.00015862939646569358 0 -0.0003474969480880391 -0.00025419290609384815 0 -0.0002815794416609241 -0.00023188732220569334 0 -0.0003474969480880391 -0.00025419290609384815 0 -0.0002815794416609241 -0.00023188732220569334 0 -0.00029334872681607225 -0.00029896896502156102 0 -0.0002815794416609241 -0.00023188732220569334 0 -0.00029334872681607225 -0.00029896896502156102 0 -0.00021395723916098827 -0.00024329346265802789 0 -0.00029334872681607225 -0.00029896896502156102 0 -0.00022512119101392376 -0.00029983992725061666 0 -0.00021395723916098827 -0.00024329346265802789 0 -0.0002815794416609241 -0.00023188732220569334 0 -0.00021395723916098827 -0.00024329346265802789 0 -0.00023625776443680539 -0.00019382989298551633 0 -0.00021395723916098827 -0.00024329346265802789 0 -0.00023625776443680539 -0.00019382989298551633 0 -0.000183085108887285 -0.00019825895674509137 0 -0.00023625776443680539 -0.00019382989298551633 0 -0.00028267277336059793 -0.00015702601281137086 0 -0.0002236882634354798 -0.00013669841030200657 0 -0.00023625776443680539 -0.00019382989298551633 0 -0.0002236882634354798 -0.00013669841030200657 0 -0.000183085108887285 -0.00019825895674509137 0 -0.0002815794416609241 -0.00023188732220569334 0 -0.00023625776443680539 -0.00019382989298551633 0 -0.00028267277336059793 -0.00015702601281137086 0 -0.0003493142793960197 -0.00015862939646569358 0 -0.0002815794416609241 -0.00023188732220569334 0 -0.00028267277336059793 -0.00015702601281137086 0 -0.00028267277336059793 -0.00015702601281137086 0 -0.00027808724878248923 -8.9315519138257076e-05 0 -0.0002236882634354798 -0.00013669841030200657 0 -0.0003493142793960197 -0.00015862939646569358 0 -0.00028267277336059793 -0.00015702601281137086 0 -0.00027808724878248923 -8.9315519138257076e-05 0 -0.0002236882634354798 -0.00013669841030200657 0 -0.00018059218811568748 -0.0001196864362807145 0 -0.00021760018673722714 -6.6830900604057647e-05 0 -0.00027808724878248923 -8.9315519138257076e-05 0 -0.0002236882634354798 -0.00013669841030200657 0 -0.00021760018673722714 -6.6830900604057647e-05 0 -0.00018059218811568748 -0.0001196864362807145 0 -9.0147744597475179e-05 -0.00015687180797949594 0 -0.00021760018673722714 -6.6830900604057647e-05 0 -0.00010517738997492988 -0.00014796726144784923 0 -0.00020708084312025263 -7.2444596848897006e-05 0 -0.00018059218811568748 -0.0001196864362807145 0 -0.00013231890222741504 -0.00015085354348852331 0 -0.00017710128796161984 -0.00015383139535498415 0 -0.0002236882634354798 -0.00013669841030200657 0 -0.00018059218811568748 -0.0001196864362807145 0 -0.00017710128796161984 -0.00015383139535498415 0 -0.00018059218811568748 -0.0001196864362807145 0 -0.00013231890222741504 -0.00015085354348852331 0 -9.0147744597475179e-05 -0.00015687180797949594 0 -0.00014978586683692742 -0.00018157690878562173 0 -0.000183085108887285 -0.00019825895674509137 0 -0.00013579088034967798 -0.00021881690706195453 0 -0.00013231890222741504 -0.00015085354348852331 0 -0.00014978586683692742 -0.00018157690878562173 0 -0.00017710128796161984 -0.00015383139535498415 0 -0.00013231890222741504 -0.00015085354348852331 0 -0.00010950513784855725 -0.00016800287698035216 0 -9.0147744597475179e-05 -0.00015687180797949594 0 -0.00013231890222741504 -0.00015085354348852331 0 -0.00011781213453901088 -0.00018659392835800639 0 -0.00010950513784855725 -0.00016800287698035216 0 -0.00013231890222741504 -0.00015085354348852331 0 -0.00011781213453901088 -0.00018659392835800639 0 -0.00014978586683692742 -0.00018157690878562173 0 -0.00011781213453901088 -0.00018659392835800639 0 -0.00014978586683692742 -0.00018157690878562173 0 -0.00013579088034967798 -0.00021881690706195453 0 -0.0002236882634354798 -0.00013669841030200657 0 -0.00017710128796161984 -0.00015383139535498415 0 -0.000183085108887285 -0.00019825895674509137 0 -0.00014978586683692742 -0.00018157690878562173 0 -0.00017710128796161984 -0.00015383139535498415 0 -0.000183085108887285 -0.00019825895674509137 0 -0.000183085108887285 -0.00019825895674509137 0 -0.00015704871249047262 -0.00024729091739735611 0 -0.00013579088034967798 -0.00021881690706195453 0 -0.00021395723916098827 -0.00024329346265802789 0 -0.000183085108887285 -0.00019825895674509137 0 -0.00015704871249047262 -0.00024729091739735611 0 -0.00022512119101392376 -0.00029983992725061666 0 -0.00021395723916098827 -0.00024329346265802789 0 -0.00017348880271635168 -0.00029330899894232512 0 -0.00021395723916098827 -0.00024329346265802789 0 -0.00015704871249047262 -0.00024729091739735611 0 -0.00017348880271635168 -0.00029330899894232512 0 -0.00015704871249047262 -0.00024729091739735611 0 -0.00017348880271635168 -0.00029330899894232512 0 -0.00012387205931960882 -0.00028039919491285948 0 -0.00015704871249047262 -0.00024729091739735611 0 -0.00012387205931960882 -0.00028039919491285948 0 -0.00011631133817106058 -0.00024656473134459085 0 -0.00012387205931960882 -0.00028039919491285948 0 -0.00011631133817106058 -0.00024656473134459085 0 -9.802776322238254e-05 -0.00026555922426095536 0 -0.00015704871249047262 -0.00024729091739735611 0 -0.00011631133817106058 -0.00024656473134459085 0 -0.00013579088034967798 -0.00021881690706195453 0 -0.00011631133817106058 -0.00024656473134459085 0 -0.00013579088034967798 -0.00021881690706195453 0 -0.00010963051514319762 -0.0002162062096059486 0 -0.00011781213453901088 -0.00018659392835800639 0 -0.00013579088034967798 -0.00021881690706195453 0 -0.00010963051514319762 -0.0002162062096059486 0 -0.00010963051514319762 -0.0002162062096059486 0 -9.0480939715414235e-05 -0.00023920114743089524 0 -8.7034959307203587e-05 -0.00020403513591586806 0 -9.0480939715414235e-05 -0.00023920114743089524 0 -6.4402760169333091e-05 -0.00023188654339693267 0 -8.7034959307203587e-05 -0.00020403513591586806 0 -9.0480939715414235e-05 -0.00023920114743089524 0 -7.1333212261187457e-05 -0.00026366257984855953 0 -6.4402760169333091e-05 -0.00023188654339693267 0 -0.00011631133817106058 -0.00024656473134459085 0 -9.0480939715414235e-05 -0.00023920114743089524 0 -9.802776322238254e-05 -0.00026555922426095536 0 -0.00011631133817106058 -0.00024656473134459085 0 -0.00010963051514319762 -0.0002162062096059486 0 -9.0480939715414235e-05 -0.00023920114743089524 0 -9.0480939715414235e-05 -0.00023920114743089524 0 -9.802776322238254e-05 -0.00026555922426095536 0 -7.1333212261187457e-05 -0.00026366257984855953 0 -8.9207164010593845e-05 -0.00029725468215395723 0 -9.802776322238254e-05 -0.00026555922426095536 0 -7.1333212261187457e-05 -0.00026366257984855953 0 -8.9207164010593845e-05 -0.00029725468215395723 0 -0.00012387205931960882 -0.00028039919491285948 0 -9.802776322238254e-05 -0.00026555922426095536 0 -3.3996136487371546e-05 -0.00031494208350548445 0 -2.947943507780533e-05 -0.00028321344872196956 0 -5.2187906494943461e-05 -0.00029005749587764291 0 -8.9207164010593845e-05 -0.00029725468215395723 0 -7.1333212261187457e-05 -0.00026366257984855953 0 -5.2187906494943461e-05 -0.00029005749587764291 0 -7.1333212261187457e-05 -0.00026366257984855953 0 -5.2187906494943461e-05 -0.00029005749587764291 0 -4.106514544592756e-05 -0.0002559757312965122 0 -2.947943507780533e-05 -0.00028321344872196956 0 -5.2187906494943461e-05 -0.00029005749587764291 0 -4.106514544592756e-05 -0.0002559757312965122 0 -4.106514544592756e-05 -0.0002559757312965122 0 -6.4402760169333091e-05 -0.00023188654339693267 0 -4.4519737616670568e-05 -0.00023013743239387534 0 -2.0013059433118454e-05 -0.00023822923380134608 0 -4.106514544592756e-05 -0.0002559757312965122 0 -4.4519737616670568e-05 -0.00023013743239387534 0 -7.1333212261187457e-05 -0.00026366257984855953 0 -4.106514544592756e-05 -0.0002559757312965122 0 -6.4402760169333091e-05 -0.00023188654339693267 0 -6.4402760169333091e-05 -0.00023188654339693267 0 -4.4519737616670568e-05 -0.00023013743239387534 0 -5.6224244916027233e-05 -0.00020268918986183221 0 -6.4402760169333091e-05 -0.00023188654339693267 0 -5.6224244916027233e-05 -0.00020268918986183221 0 -8.7034959307203587e-05 -0.00020403513591586806 0 -2.0013059433118454e-05 -0.00023822923380134608 0 -4.4519737616670568e-05 -0.00023013743239387534 0 -5.6224244916027233e-05 -0.00020268918986183221 0 -8.8786965363574425e-05 -0.00021186025723867396 0 -0.00019768948757492696 -0.0002055101664660251 0 -0.00015064517011133017 -0.00010828427738274071 0 -6.6689148647841457e-05 -0.00027343720703731933 0 -0.00010558788283688235 -0.00016159426104343818 0 1.0250679820998445e-05 -0.00023086431843432007 0 -5.6224244916027233e-05 -0.00020268918986183221 0 -7.4313357533732253e-05 -0.00016925778855898712 0 -5.6224244916027233e-05 -0.00020268918986183221 0 -8.2841802222457289e-05 -0.00018505639548465033 0 -8.7034959307203587e-05 -0.00020403513591586806 0 -8.2841802222457289e-05 -0.00018505639548465033 0 -8.7034959307203587e-05 -0.00020403513591586806 0 -9.8113383209074337e-05 -0.00017745843767491529 0 -0.00011781213453901088 -0.00018659392835800639 0 -8.7034959307203587e-05 -0.00020403513591586806 0 -9.8113383209074337e-05 -0.00017745843767491529 0 -0.00011781213453901088 -0.00018659392835800639 0 -0.00010963051514319762 -0.0002162062096059486 0 -8.7034959307203587e-05 -0.00020403513591586806 0 -8.2841802222457289e-05 -0.00018505639548465033 0 -9.8113383209074337e-05 -0.00017745843767491529 0 -9.0147744597475179e-05 -0.00015687180797949594 0 -0.00011781213453901088 -0.00018659392835800639 0 -9.8113383209074337e-05 -0.00017745843767491529 0 -0.00010950513784855725 -0.00016800287698035216 0 -9.8113383209074337e-05 -0.00017745843767491529 0 -0.00010950513784855725 -0.00016800287698035216 0 -9.0147744597475179e-05 -0.00015687180797949594 0 -5.6224244916027233e-05 -0.00020268918986183221 0 -7.4313357533732253e-05 -0.00016925778855898712 0 -9.0147744597475179e-05 -0.00015687180797949594 0 -5.6224244916027233e-05 -0.00020268918986183221 0 -8.2841802222457289e-05 -0.00018505639548465033 0 -9.0147744597475179e-05 -0.00015687180797949594 0 -0.00010558788283688235 -0.00016159426104343818 0 -0.00010517738997492988 -0.00014796726144784923 0 -7.0722142207762769e-05 -0.00013755995496870678 0 -9.0490794210077528e-05 -0.00012761589519102556 0 -0.00013016650657308125 -5.4886493756905197e-05 0 -7.0722142207762769e-05 -0.00013755995496870678 0 -0.00010114676162877056 3.5408716232372521e-05 0 -0.00013016650657308125 -5.4886493756905197e-05 0 -0.00019768948757492696 -0.0002055101664660251 0 -0.00015064517011133017 -0.00010828427738274071 0 -0.00023233066113796818 -1.2903725385293482e-05 0 -0.00010558788283688235 -0.00016159426104343818 0 -0.00021951584931427317 1.514697616451316e-05 0 -0.00015064517011133017 -0.00010828427738274071 0 -0.00023233066113796818 -1.2903725385293482e-05 0 -0.00021300387732463291 -4.4624293168825896e-06 0 -0.00018583277650353961 -0.00015683304876733622 0 -0.00034684379148793698 -4.2172102552604459e-05 0 -0.00023192242981587085 -0.00019065879102023081 0 -0.00023385856182711839 -0.00014330016941208252 0 -0.0002766566480542876 -0.00011649138610561783 0 -0.00020234661566707291 -0.00017780076158741221 0 -0.00023192242981587085 -0.00019065879102023081 0 -0.00023385856182711839 -0.00014330016941208252 0 -0.00021762469775136258 -9.1166246537526153e-05 0 -0.00023385856182711839 -0.00014330016941208252 0 -0.0002766566480542876 -0.00011649138610561783 0 -0.00026502292443409677 -0.0001595973277070573 0 -0.00034684379148793698 -4.2172102552604459e-05 0 -0.00054404088139362863 8.0039411480531889e-06 0 -0.00059653390202984741 7.2590671417617594e-06 0 -0.00060370231451927869 -1.6247321497830079e-05 0 -0.00054404088139362863 8.0039411480531889e-06 0 -0.00057955505883733164 2.4477037658320807e-05 0 -0.00059653390202984741 7.2590671417617594e-06 0 -0.00057955505883733164 2.4477037658320807e-05 0 -0.00059653390202984741 7.2590671417617594e-06 0 -0.00061962768219449337 1.1501457648721007e-05 0 -0.00059789163830789702 4.1316380919832314e-06 0 -0.00039880348040327883 4.5760975427168747e-05 0 -0.00057955505883733164 2.4477037658320807e-05 0 -0.0006268547342154052 1.0439686922777035e-05 0 -0.00063222126959417313 1.927127838428107e-05 0 -0.00039880348040327883 4.5760975427168747e-05 0 -0.00046384864028958475 7.4277308932989251e-05 0 -0.00059653390202984741 7.2590671417617594e-06 0 -0.00061962768219449337 1.1501457648721007e-05 0 -0.00060370231451927869 -1.6247321497830079e-05 0 -0.00039880348040327883 4.5760975427168747e-05 0 -0.00034684379148793698 -4.2172102552604459e-05 0 -0.00034408052415991401 4.5661186051814148e-05 0 -0.0003343963875824061 -6.2010520987349762e-05 0 -0.00029101887314169391 -4.3075633964592875e-05 0 -0.00039880348040327883 4.5760975427168747e-05 0 -0.00021951584931427317 1.514697616451316e-05 0 -0.00021951584931427317 1.514697616451316e-05 0 -0.00034684379148793698 -4.2172102552604459e-05 0 -0.00011473423139934829 7.4976635487083917e-05 0 -0.00022014282036652809 2.4006257995696147e-05 0 -0.00021198897714374664 8.7733462950623212e-05 0 -0.00011893135579904728 0.00011433981360545091 0 -0.00011473423139934829 7.4976635487083917e-05 0 -0.00021198897714374664 8.7733462950623212e-05 0 -0.00039880348040327883 4.5760975427168747e-05 0 -0.00029515610663439687 0.00012331537579686941 0 -0.00042329633080701951 0.00014356532614841349 0 -0.00043474648820980804 0.00014799641246389039 0 -0.0004416983126257852 0.00013846742890584072 0 -0.00042329633080701951 0.00014356532614841349 0 -0.00042440541465533772 0.00014546593914211811 0 -0.00043474648820980804 0.00014799641246389039 0 -0.00043474648820980804 0.00014799641246389039 0 -0.0004416983126257852 0.00013846742890584072 0 -0.00044752311883875201 0.00014841793742319029 0 -0.00021951584931427317 1.514697616451316e-05 0 -0.00020048957677854136 1.3687074872848808e-05 0 -9.0490794210077528e-05 -0.00012761589519102556 0 -0.00013016650657308125 -5.4886493756905197e-05 0 -0.00021760018673722714 -6.6830900604057647e-05 0 -0.00010114676162877056 3.5408716232372521e-05 0 -0.00017653034404436059 -3.9940594525257049e-05 0 -0.0002166373071989735 -1.2654921682171386e-05 0 -0.00010114676162877056 3.5408716232372521e-05 0 -0.00013016650657308125 -5.4886493756905197e-05 0 -0.00017653034404436059 -3.9940594525257049e-05 0 -0.00017653034404436059 -3.9940594525257049e-05 0 -0.00021760018673722714 -6.6830900604057647e-05 0 -0.0002166373071989735 -1.2654921682171386e-05 0 -0.00013016650657308125 -5.4886493756905197e-05 0 -0.00017653034404436059 -3.9940594525257049e-05 0 -0.00021760018673722714 -6.6830900604057647e-05 0 -0.00020048957677854136 1.3687074872848808e-05 0 -0.00035215310053190551 -4.9943272012485662e-05 0 -0.00022014282036652809 2.4006257995696147e-05 0 -0.00032019204996103847 6.2003006944642014e-05 0 -0.00033867548517476471 4.054654666123947e-05 0 -0.00027808724878248923 -8.9315519138257076e-05 0 -0.0002166373071989735 -1.2654921682171386e-05 0 -0.00035359862120474671 -4.9596973316755823e-05 0 -0.00022014282036652809 2.4006257995696147e-05 0 -0.00033867548517476471 4.054654666123947e-05 0 -0.00035359862120474671 -4.9596973316755823e-05 0 -0.00027808724878248923 -8.9315519138257076e-05 0 -0.00021760018673722714 -6.6830900604057647e-05 0 -0.0002166373071989735 -1.2654921682171386e-05 0 -0.00029515610663439687 0.00012331537579686941 0 -0.00044739516196410701 9.4943967393259278e-05 0 -0.0004416983126257852 0.00013846742890584072 0 -0.00044752311883875201 0.00014841793742319029 0 -0.0004591692704065273 0.00013313518058353632 0 -0.00054973957447991919 0.00020188949802889795 0 -0.00060009789498680435 0.00012405434800952361 0 -0.00063344596412221311 0.0001867010959829913 0 -0.00022014282036652809 2.4006257995696147e-05 0 -0.00021198897714374664 8.7733462950623212e-05 0 -0.00032019204996103847 6.2003006944642014e-05 0 -0.00049776355639963635 0.00017513675807964821 0 -0.00044739516196410701 9.4943967393259278e-05 0 -0.00060009789498680435 0.00012405434800952361 0 -0.00067508030254924433 0.00013981481892751964 0 -0.00073219111591530598 5.4765776454111369e-05 0 -0.00060009789498680435 0.00012405434800952361 0 -0.00063344596412221311 0.0001867010959829913 0 -0.00067508030254924433 0.00013981481892751964 0 -0.00063344596412221311 0.0001867010959829913 0 -0.00067050958815524501 0.00023337651737693514 0 -0.00068728850545724874 0.00019039540987381999 0 -0.00063344596412221311 0.0001867010959829913 0 -0.00067508030254924433 0.00013981481892751964 0 -0.00068728850545724874 0.00019039540987381999 0 -0.00044739516196410701 9.4943967393259278e-05 0 -0.00064451311245776704 3.9692421968355554e-05 0 -0.00031578646264928935 6.4036168777762242e-05 0 -0.00033867548517476471 4.054654666123947e-05 0 -0.00053529305094664843 3.4078481999575406e-05 0 -0.00044739516196410701 9.4943967393259278e-05 0 -0.00042209433927100417 9.6854866483956923e-05 0 -0.00033867548517476471 4.054654666123947e-05 0 -0.00035359862120474671 -4.9596973316755823e-05 0 -0.00045851121245499835 -7.3078634688437895e-05 0 -0.00065183722163222337 0.00032421683286694506 0 -0.0006455287454931836 0.00034577612084200096 0 -0.00072906648153255515 0.00033283393922988065 0 -0.0006455287454931836 0.00034577612084200096 0 -0.00062296868190548369 0.00037937591575255229 0 -0.00072906648153255515 0.00033283393922988065 0 -0.00065183722163222337 0.00032421683286694506 0 -0.0006455287454931836 0.00034577612084200096 0 -0.00060325170200948674 0.00033896971829930616 0 -0.00065183722163222337 0.00032421683286694506 0 -0.00065358793716544059 0.00027660704175252787 0 -0.00059212174572432369 0.00028699800726005742 0 -0.00065183722163222337 0.00032421683286694506 0 -0.00059212174572432369 0.00028699800726005742 0 -0.00060325170200948674 0.00033896971829930616 0 -0.00065183722163222337 0.00032421683286694506 0 -0.00065358793716544059 0.00027660704175252787 0 -0.00069259748346803382 0.00030406882242376104 0 -0.00065358793716544059 0.00027660704175252787 0 -0.00070409707676703814 0.0002762355394497963 0 -0.00069259748346803382 0.00030406882242376104 0 -0.00065358793716544059 0.00027660704175252787 0 -0.00067050958815524501 0.00023337651737693514 0 -0.00061470237506652825 0.00024120795050500832 0 -0.00065358793716544059 0.00027660704175252787 0 -0.00067050958815524501 0.00023337651737693514 0 -0.00070409707676703814 0.0002762355394497963 0 -0.00063344596412221311 0.0001867010959829913 0 -0.00067050958815524501 0.00023337651737693514 0 -0.00061470237506652825 0.00024120795050500832 0 -0.00065358793716544059 0.00027660704175252787 0 -0.00061470237506652825 0.00024120795050500832 0 -0.00059212174572432369 0.00028699800726005742 0 -0.00054973957447991919 0.00020188949802889795 0 -0.00063344596412221311 0.0001867010959829913 0 -0.00061470237506652825 0.00024120795050500832 0 -0.00054973957447991919 0.00020188949802889795 0 -0.00059212174572432369 0.00028699800726005742 0 -0.00049445676692058866 0.00029075325695873834 0 -0.00056983587029157858 0.00028862642921966561 0 -0.0005643124992003992 0.00027646288198890118 0 -0.00054973957447991919 0.00020188949802889795 0 -0.00061470237506652825 0.00024120795050500832 0 -0.00059212174572432369 0.00028699800726005742 0 -0.00059212174572432369 0.00028699800726005742 0 -0.00056341664791054961 0.00032490089498492123 0 -0.00054576796712513741 0.00029552321298526772 0 -0.00059212174572432369 0.00028699800726005742 0 -0.00060325170200948674 0.00033896971829930616 0 -0.00056341664791054961 0.00032490089498492123 0 -0.00060325170200948674 0.00033896971829930616 0 -0.00056341664791054961 0.00032490089498492123 0 -0.0005767531169538361 0.00036754737583628025 0 -0.00091299848750132375 0.00027875139221251836 0 -0.00092748280885764729 0.0003061965367544966 0 -0.00052969427787395522 0.00031347403432767113 0 -0.00054585480983854976 0.0003143450725677611 0 -0.00054127907848222634 0.00036877220502951448 0 -0.00056341664791054961 0.00032490089498492123 0 -0.00054585480983854976 0.0003143450725677611 0 -0.00054127907848222634 0.00036877220502951448 0 -0.00091299848750132375 0.00027875139221251836 0 -0.0007863040925273181 0.00022097057516002523 0 -0.0008100569330140681 0.00023614882798308692 0 -0.00078684312200392331 0.00026422978407804142 0 -0.00081475358746889762 0.0002631814054285961 0 -0.00052969427787395522 0.00031347403432767113 0 -0.00054585480983854976 0.0003143450725677611 0 -0.00054185411709126239 0.00029872434077251383 0 -0.00091299848750132375 0.00027875139221251836 0 -0.00063173900626361829 0.00027245174912323447 0 -0.00056780295754353585 0.00031389027787744701 0 -0.0005643124992003992 0.00027646288198890118 0 -0.00056341664791054961 0.00032490089498492123 0 -0.00054585480983854976 0.0003143450725677611 0 -0.00054899739818331983 0.00029864050102812055 0 -0.00054585480983854976 0.0003143450725677611 0 -0.00054185411709126239 0.00029872434077251383 0 -0.00054899739818331983 0.00029864050102812055 0 -0.00046384864028958475 7.4277308932989251e-05 0 -0.0007863040925273181 0.00022097057516002523 0 -0.00054973957447991919 0.00020188949802889795 0 -0.00049445676692058866 0.00029075325695873834 0 -0.00048870065404148667 0.00028112139862376931 0 -0.00046384864028958475 7.4277308932989251e-05 0 -0.00055756056126614459 0.00026095970730934587 0 -0.00042440541465533772 0.00014546593914211811 0 -0.00043474648820980804 0.00014799641246389039 0 -0.00043592997189593742 0.00016447716390960659 0 -0.00054673395454971942 6.8891687633598921e-05 0 -0.00065621814261042062 0.00025161998705271123 0 -0.00058494931924725892 0.00027358510024858511 0 -0.0005562765124927702 0.00029888312913316386 0 -0.00058299129542248209 0.00029795115827029891 0 -0.00057194061135364127 0.00027937534040769102 0 -0.00063173900626361829 0.00027245174912323447 0 -0.0005643124992003992 0.00027646288198890118 0 -0.00063173900626361829 0.00027245174912323447 0 -0.00055756056126614459 0.00026095970730934587 0 -0.0005643124992003992 0.00027646288198890118 0 -0.00055756056126614459 0.00026095970730934587 0 -0.00049776355639963635 0.00017513675807964821 0 -0.00055756056126614459 0.00026095970730934587 0 -0.00043474648820980804 0.00014799641246389039 0 -0.00044752311883875201 0.00014841793742319029 0 -0.00043592997189593742 0.00016447716390960659 0 -0.0006401397795495012 0.00027167098526577116 0 -0.00065621814261042062 0.00025161998705271123 0 -0.00058494931924725892 0.00027358510024858511 0 -0.00063173900626361829 0.00027245174912323447 0 -0.0007863040925273181 0.00022097057516002523 0 -0.00057955505883733164 2.4477037658320807e-05 0 -0.00060858718055141199 7.0584264031390474e-05 0 -0.00056521245403966811 0.00011803348940186541 0 -0.00063222126959417313 1.927127838428107e-05 0 -0.00065162988842249164 0.00011616956301765206 0 -0.00060858718055141199 7.0584264031390474e-05 0 -0.00054404088139362863 8.0039411480531889e-06 0 -0.00057955505883733164 2.4477037658320807e-05 0 -0.00056521245403966811 0.00011803348940186541 0 -0.00065162988842249164 0.00011616956301765206 0 -0.00060858718055141199 7.0584264031390474e-05 0 -0.00056521245403966811 0.00011803348940186541 0 -0.00026502292443409677 -0.0001595973277070573 0 -0.0010569566926250109 4.9517575966782969e-05 0 -0.00057955505883733164 2.4477037658320807e-05 0 -0.00063222126959417313 1.927127838428107e-05 0 -0.00060858718055141199 7.0584264031390474e-05 0 -0.0007863040925273181 0.00022097057516002523 0 -0.0010569566926250109 4.9517575966782969e-05 0 -0.0010825296241396471 0.00017283846885233646 0 -0.0012631021178426342 0.00021623159030775027 0 -0.0012295499602142141 -4.6100047667227178e-06 0 -0.0010825296241396471 0.00017283846885233646 0 -0.0010911421750986509 0.00022293358659490533 0 -0.0012631021178426342 0.00021623159030775027 0 -0.00091299848750132375 0.00027875139221251836 0 -0.0017137358143685998 7.7236362242221642e-05 0 -0.0010569566926250109 4.9517575966782969e-05 0 -0.0017137358143685998 7.7236362242221642e-05 0 -0.0017137358143685998 7.7236362242221642e-05 0 -0.0020932465081000282 -9.3983165439258018e-06 0 -0.0020432453551616982 8.9993945188664035e-05 0 -0.0021582442947342701 0.00021909324424719868 0 -0.00208457425614287 0.00020414949877400234 0 -0.0017137358143685998 7.7236362242221642e-05 0 -0.0018082357021714202 0.00018572124593326103 0 -0.001406087882736344 0.00024649333558655656 0 -0.0013011943696300782 0.0001572537171630485 0 -0.0013846993600235636 0.00010180592769845011 0 -0.0021162805877360611 -3.9787297061355546e-06 0 -0.0020432453551616982 8.9993945188664035e-05 0 -0.0021582442947342701 0.00021909324424719868 0 -0.0011118829009722883 0.00031298633662254414 0 -0.0018082357021714202 0.00018572124593326103 0 -0.0011118829009722883 0.00031298633662254414 0 -0.0015952071090477738 0.00034299131684286261 0 -0.0011118829009722883 0.00031298633662254414 0 -0.00092748280885764729 0.0003061965367544966 0 -0.001406087882736344 0.00024649333558655656 0 -0.0013011943696300782 0.0001572537171630485 0 -0.0013157501540002341 0.00024636653272054631 0 -0.0013295175127783368 0.00033598870868497562 0 -0.001406087882736344 0.00024649333558655656 0 -0.0013157501540002341 0.00024636653272054631 0 -0.00055443091090271411 0.00042067052344641707 0 -0.00054127907848222634 0.00036877220502951448 0 -0.0005767531169538361 0.00036754737583628025 0 -0.00056341664791054961 0.00032490089498492123 0 -0.00054127907848222634 0.00036877220502951448 0 -0.0005767531169538361 0.00036754737583628025 0 -0.00055443091090271411 0.00042067052344641707 0 -0.0005767531169538361 0.00036754737583628025 0 -0.00062296868190548369 0.00037937591575255229 0 -0.00060325170200948674 0.00033896971829930616 0 -0.0005767531169538361 0.00036754737583628025 0 -0.00062296868190548369 0.00037937591575255229 0 -0.0013067230677425133 0.00029478550015738956 0 -0.0013061206978421057 0.00031146211284625359 0 -0.001274182649577522 0.00032374241608959026 0 -0.0011413548497125276 0.00033889770303321856 0 -0.0011664153747922242 0.00033269967165352701 0 -0.0011636456707499784 0.0003161328821001998 0 -0.0011413548497125276 0.00033889770303321856 0 -0.0011664153747922242 0.00033269967165352701 0 -0.0011460293552404057 0.00035263891452831414 0 -0.0011638332363971386 0.00033065123137732887 0 -0.0015952071090477738 0.00034299131684286261 0 -0.0011118829009722883 0.00031298633662254414 0 -0.00084036793565398329 0.00036980753887657888 0 -0.0013067230677425133 0.00029478550015738956 0 -0.0013061206978421057 0.00031146211284625359 0 -0.001315077632171961 0.00029862898933332647 0 -0.0013061206978421057 0.00031146211284625359 0 -0.001315077632171961 0.00029862898933332647 0 -0.0013198815234642424 0.00031300935595648109 0 -0.0013067230677425133 0.00029478550015738956 0 -0.001315077632171961 0.00029862898933332647 0 -0.0013154179888031432 0.00028823685225531616 0 -0.0011664153747922242 0.00033269967165352701 0 -0.0011636456707499784 0.0003161328821001998 0 -0.0012128832186279386 0.00029657739886424108 0 -0.00084036793565398329 0.00036980753887657888 0 -0.00098509565944418856 0.00029974880532073329 0 -0.0011638332363971386 0.00033065123137732887 0 -0.0012803643289325151 0.00027662287496025119 0 -0.0013067230677425133 0.00029478550015738956 0 -0.0013170811610186458 0.00027574522212849386 0 -0.0013154179888031432 0.00028823685225531616 0 -0.0006455287454931836 0.00034577612084200096 0 -0.00060325170200948674 0.00033896971829930616 0 -0.00062296868190548369 0.00037937591575255229 0 -0.0016981744117780457 -0.00017896345400970256 0 -0.0018502755272163122 -6.6326567732288754e-05 0 -0.0017281950316659664 -3.2359303730958773e-05 0 -0.0008419838351918183 -0.00016636957938578613 0 -0.0010633440018572198 -0.00018565183797795135 0 -0.0016981744117780457 -0.00017896345400970256 0 -0.0017281950316659664 -3.2359303730958773e-05 0 -0.001576275975503948 -2.9242727238606204e-05 0 -0.0010850849852706579 -0.00025034734242576932 0 -0.0008419838351918183 -0.00016636957938578613 0 -0.0014947595342599375 -0.00017553564266898928 0 -0.0016981744117780457 -0.00017896345400970256 0 -0.001576275975503948 -2.9242727238606204e-05 0 -0.00010248307608486088 -0.00019772315995412028 0 -0.00010598200809864863 -0.00018900851381226813 0 -0.00011192484867394479 -0.00019365568605578688 0 -0.00010901250774600271 -0.00018526059274970769 0 -0.00011390547941071118 -0.00017422510834448255 0 -0.00010598200809864863 -0.00018900851381226813 0 -0.00011390547941071118 -0.00017422510834448255 0 -0.00010598200809864863 -0.00018900851381226813 0 -0.00011192484867394479 -0.00019365568605578688 0 -0.00011390547941071118 -0.00017422510834448255 0 -0.00011192484867394479 -0.00019365568605578688 0 -0.00015673220687598932 -0.00015287757244317491 0 -0.00011192484867394479 -0.00019365568605578688 0 -0.0001482335867124387 -0.00018882140648655182 0 -0.00015673220687598932 -0.00015287757244317491 0 -0.00012496820805891364 -0.00020460989001557496 0 -0.00011192484867394479 -0.00019365568605578688 0 -0.0001482335867124387 -0.00018882140648655182 0 -0.0001482335867124387 -0.00018882140648655182 0 -0.00020481525487002562 -0.00017568254566430853 0 -0.00015673220687598932 -0.00015287757244317491 0 -0.00026604118641850261 -0.00013913197784228869 0 -0.00020481525487002562 -0.00017568254566430853 0 -0.00015673220687598932 -0.00015287757244317491 0 -0.00024722303065258683 -0.00023960741857199821 0 -0.00026604118641850261 -0.00013913197784228869 0 -0.00020481525487002562 -0.00017568254566430853 0 -0.00024722303065258683 -0.00023960741857199821 0 -0.0001482335867124387 -0.00018882140648655182 0 -0.00020481525487002562 -0.00017568254566430853 0 -0.0010569566926250109 4.9517575966782969e-05 0 -0.0010633440018572198 -0.00018565183797795135 0 -0.0020759882613796336 -0.00017829527405293827 0 -0.0018925631860336051 -0.00017699392578244446 0 -0.0019837026406172059 -5.18206921907711e-05 0 -0.0020759882613796336 -0.00017829527405293827 0 -0.002111999786935115 -7.7153370739464642e-06 0 -0.0019837026406172059 -5.18206921907711e-05 0 -0.0018925631860336051 -0.00017699392578244446 0 -0.0018502755272163122 -6.6326567732288754e-05 0 -0.0019837026406172059 -5.18206921907711e-05 0 -0.0016981744117780457 -0.00017896345400970256 0 -0.0018925631860336051 -0.00017699392578244446 0 -0.0018502755272163122 -6.6326567732288754e-05 0 -0.0018502755272163122 -6.6326567732288754e-05 0 -0.0019195754748111407 3.3159458859036344e-05 0 -0.0019837026406172059 -5.18206921907711e-05 0 -0.0018502755272163122 -6.6326567732288754e-05 0 -0.0019195754748111407 3.3159458859036344e-05 0 -0.0018254788528242519 5.0267763212884247e-05 0 -0.0019195754748111407 3.3159458859036344e-05 0 -0.0019837026406172059 -5.18206921907711e-05 0 -0.0020432453551616982 8.9993945188664035e-05 0 -0.002111999786935115 -7.7153370739464642e-06 0 -0.0019837026406172059 -5.18206921907711e-05 0 -0.0020432453551616982 8.9993945188664035e-05 0 -0.0019195754748111407 3.3159458859036344e-05 0 -0.0020432453551616982 8.9993945188664035e-05 0 -0.0019346488610048681 0.00013529988688110747 0 -0.0020432453551616982 8.9993945188664035e-05 0 -0.0019346488610048681 0.00013529988688110747 0 -0.0020190557683524898 0.00019452218613413193 0 -0.0020432453551616982 8.9993945188664035e-05 0 -0.0020190557683524898 0.00019452218613413193 0 -0.00208457425614287 0.00020414949877400234 0 -0.0018254788528242519 5.0267763212884247e-05 0 -0.0019346488610048681 0.00013529988688110747 0 -0.0018154476796751256 0.00020652993543616852 0 -0.0019195754748111407 3.3159458859036344e-05 0 -0.0018254788528242519 5.0267763212884247e-05 0 -0.0019346488610048681 0.00013529988688110747 0 -0.0018254788528242519 5.0267763212884247e-05 0 -0.0016864881188917112 6.2201298423728515e-05 0 -0.0018154476796751256 0.00020652993543616852 0 -0.0016864881188917112 6.2201298423728515e-05 0 -0.0016598619988528185 0.0001907295408402243 0 -0.0018154476796751256 0.00020652993543616852 0 -0.0018254788528242519 5.0267763212884247e-05 0 -0.0017281950316659664 -3.2359303730958773e-05 0 -0.0016864881188917112 6.2201298423728515e-05 0 -0.0018502755272163122 -6.6326567732288754e-05 0 -0.0018254788528242519 5.0267763212884247e-05 0 -0.0017281950316659664 -3.2359303730958773e-05 0 -0.0017281950316659664 -3.2359303730958773e-05 0 -0.0016864881188917112 6.2201298423728515e-05 0 -0.001576275975503948 -2.9242727238606204e-05 0 -0.0015089211439737018 0.00013341008986473307 0 -0.0016864881188917112 6.2201298423728515e-05 0 -0.001576275975503948 -2.9242727238606204e-05 0 -0.0015089211439737018 0.00013341008986473307 0 -0.0016864881188917112 6.2201298423728515e-05 0 -0.0016598619988528185 0.0001907295408402243 0 -0.0015089211439737018 0.00013341008986473307 0 -0.0016598619988528185 0.0001907295408402243 0 -0.0015789994347862669 0.00033030662170259429 0 -0.0016598619988528185 0.0001907295408402243 0 -0.0015789994347862669 0.00033030662170259429 0 -0.0018083332059152209 0.00036138944260809654 0 -0.0015789994347862669 0.00033030662170259429 0 -0.0018083332059152209 0.00036138944260809654 0 -0.001649376274974635 0.00052187517202671924 0 -0.0018671388504480962 0.00031657778779970846 0 -0.0015195199504679849 0.0006103634588885238 0 -0.0016598619988528185 0.0001907295408402243 0 -0.0018083332059152209 0.00036138944260809654 0 -0.0018154476796751256 0.00020652993543616852 0 -0.0018083332059152209 0.00036138944260809654 0 -0.0018154476796751256 0.00020652993543616852 0 -0.0019554597404774052 0.00026851308742446454 0 -0.0019346488610048681 0.00013529988688110747 0 -0.0018154476796751256 0.00020652993543616852 0 -0.0019554597404774052 0.00026851308742446454 0 -0.0019346488610048681 0.00013529988688110747 0 -0.0019554597404774052 0.00026851308742446454 0 -0.0020190557683524898 0.00019452218613413193 0 -0.0020190557683524898 0.00019452218613413193 0 -0.0020638314721418394 0.00025784831251883235 0 -0.00208457425614287 0.00020414949877400234 0 -0.0019554597404774052 0.00026851308742446454 0 -0.0020190557683524898 0.00019452218613413193 0 -0.0020638314721418394 0.00025784831251883235 0 -0.0019554597404774052 0.00026851308742446454 0 -0.0020638314721418394 0.00025784831251883235 0 -0.0020595579347929423 0.00033017914749749056 0 -0.0019554597404774052 0.00026851308742446454 0 -0.0020595579347929423 0.00033017914749749056 0 -0.0019452552288498769 0.00038624855793949517 0 -0.0020595579347929423 0.00033017914749749056 0 -0.0019452552288498769 0.00038624855793949517 0 -0.0020346191476350124 0.00047220748240614339 0 -0.0018083332059152209 0.00036138944260809654 0 -0.0019452552288498769 0.00038624855793949517 0 -0.0018765694188922935 0.00052456839274877892 0 -0.0018083332059152209 0.00036138944260809654 0 -0.0019554597404774052 0.00026851308742446454 0 -0.0019452552288498769 0.00038624855793949517 0 -0.0019452552288498769 0.00038624855793949517 0 -0.0018765694188922935 0.00052456839274877892 0 -0.0020346191476350124 0.00047220748240614339 0 -0.0018765694188922935 0.00052456839274877892 0 -0.0020346191476350124 0.00047220748240614339 0 -0.0020905935955709784 0.00061889422448465291 0 -0.0018765694188922935 0.00052456839274877892 0 -0.0020905935955709784 0.00061889422448465291 0 -0.0019613506525880437 0.00072314453045624458 0 -0.0018765694188922935 0.00052456839274877892 0 -0.0017965695472988842 0.00064372418804914866 0 -0.0019613506525880437 0.00072314453045624458 0 -0.0018765694188922935 0.00052456839274877892 0 -0.0017408278804098534 0.00047502478098164226 0 -0.0017965695472988842 0.00064372418804914866 0 -0.003222223092919866 0.00027151199734445219 0 -0.0026215567103840712 0.00031435434089516575 0 -0.0017408278804098534 0.00047502478098164226 0 -0.0017965695472988842 0.00064372418804914866 0 -0.0016598556995824193 0.00057841676279045851 0 -0.0044506358298597873 -9.7489759128357439e-05 0 -0.0044844592384697289 -0.00010943115655941165 0 -0.0044089569397439575 -0.00013989991187828615 0 -0.0015195199504679849 0.0006103634588885238 0 -0.0026215567103840712 0.00031435434089516575 0 -0.0018083332059152209 0.00036138944260809654 0 -0.0018765694188922935 0.00052456839274877892 0 -0.0017408278804098534 0.00047502478098164226 0 -0.0013198267300869556 0.00036344879524616188 0 -0.0013088134564775984 0.00033074122266829473 0 -0.0012959374873321636 0.00034886202673538622 0 -0.0013198267300869556 0.00036344879524616188 0 -0.0013088134564775984 0.00033074122266829473 0 -0.0013397291421453896 0.00033489796991175108 0 -0.0013198815234642424 0.00031300935595648109 0 -0.0013088134564775984 0.00033074122266829473 0 -0.0013397291421453896 0.00033489796991175108 0 -0.0013061206978421057 0.00031146211284625359 0 -0.0013198815234642424 0.00031300935595648109 0 -0.0013088134564775984 0.00033074122266829473 0 -0.0013061206978421057 0.00031146211284625359 0 -0.0013088134564775984 0.00033074122266829473 0 -0.001274182649577522 0.00032374241608959026 0 -0.0013088134564775984 0.00033074122266829473 0 -0.0012959374873321636 0.00034886202673538622 0 -0.001274182649577522 0.00032374241608959026 0 -0.0012959374873321636 0.00034886202673538622 0 -0.001274182649577522 0.00032374241608959026 0 -0.0012819028046331823 0.00037974795148193593 0 -0.0013198267300869556 0.00036344879524616188 0 -0.0012959374873321636 0.00034886202673538622 0 -0.0012819028046331823 0.00037974795148193593 0 -0.0015952071090477738 0.00034299131684286261 0 -0.0018634118388176648 0.00036016447178341919 0 -0.0023508044234782349 0.00028830432741135852 0 -0.0023186884367562971 0.0003201183004763718 0 -0.0023743416250054947 0.00035531830615931028 0 -0.0015554170323274037 0.00026295996006386397 0 -0.0017644390051058212 0.00029419484745984211 0 -0.001735529197246434 0.00010940435087467229 0 -0.0015816859088873955 0.00041796121279321356 0 -0.0015554170323274037 0.00026295996006386397 0 -0.0017644390051058212 0.00029419484745984211 0 -0.0015952071090477738 0.00034299131684286261 0 -0.0021182858677221777 0.00026509577469724545 0 -0.0018082357021714202 0.00018572124593326103 0 -0.0021182858677221777 0.00026509577469724545 0 -0.0021560205629415907 0.00022096960130785199 0 -0.0021215275173291038 0.00029170953260058237 0 -0.0021729610048103589 0.00033641172790140642 0 -0.0021560205629415907 0.00022096960130785199 0 -0.0021339917254808824 0.00023618988667557816 0 -0.0021215275173291038 0.00029170953260058237 0 -0.0018082357021714202 0.00018572124593326103 0 -0.0019087619262873239 0.00015185758700652908 0 -0.0021582442947342701 0.00021909324424719868 0 -0.00208457425614287 0.00020414949877400234 0 -0.0021339917254808824 0.00023618988667557816 0 -0.0020638314721418394 0.00025784831251883235 0 -0.00208457425614287 0.00020414949877400234 0 -0.0021339917254808824 0.00023618988667557816 0 -0.0020638314721418394 0.00025784831251883235 0 -0.0020595579347929423 0.00033017914749749056 0 -0.0021215275173291038 0.00029170953260058237 0 -0.0020638314721418394 0.00025784831251883235 0 -0.0021339917254808824 0.00023618988667557816 0 -0.0021215275173291038 0.00029170953260058237 0 -0.0020595579347929423 0.00033017914749749056 0 -0.0021215275173291038 0.00029170953260058237 0 -0.0021729610048103589 0.00033641172790140642 0 -0.0021182858677221777 0.00026509577469724545 0 -0.0023225508658709501 0.00044800213620163035 0 -0.0020595579347929423 0.00033017914749749056 0 -0.0020346191476350124 0.00047220748240614339 0 -0.0021729610048103589 0.00033641172790140642 0 -0.0020643501583491402 0.00047931765211846594 0 -0.0021182858677221777 0.00026509577469724545 0 -0.0020346191476350124 0.00047220748240614339 0 -0.0020905935955709784 0.00061889422448465291 0 -0.0022522364014010265 0.00050569471707618576 0 -0.0020346191476350124 0.00047220748240614339 0 -0.0022175877238505455 0.00030734138581252042 0 -0.0022522364014010265 0.00050569471707618576 0 -0.0020905935955709784 0.00061889422448465291 0 -0.0022522364014010265 0.00050569471707618576 0 -0.0022937436537737595 0.00068795398905790778 0 -0.0023225508658709501 0.00044800213620163035 0 -0.002211330200365525 0.00061662248281498704 0 -0.0023662924263551884 0.00041010708780076335 0 -0.0023362217789842494 0.0003821717266340356 0 -0.0023580580477413154 0.00044814022458139344 0 -0.0023662924263551884 0.00041010708780076335 0 -0.0024053044419701524 0.00043118943125442264 0 -0.0023580580477413154 0.00044814022458139344 0 -0.0023186884367562971 0.0003201183004763718 0 -0.0023362217789842494 0.0003821717266340356 0 -0.0023743416250054947 0.00035531830615931028 0 -0.0023662924263551884 0.00041010708780076335 0 -0.0023362217789842494 0.0003821717266340356 0 -0.0023743416250054947 0.00035531830615931028 0 -0.0013198267300869556 0.00036344879524616188 0 -0.0012819028046331823 0.00037974795148193593 0 -0.0013190446789555759 0.00040879048353272706 0 -0.0012819028046331823 0.00037974795148193593 0 -0.0012985335607760178 0.00045563894675200136 0 -0.0013190446789555759 0.00040879048353272706 0 -0.0023662924263551884 0.00041010708780076335 0 -0.0023743416250054947 0.00035531830615931028 0 -0.0024053044419701524 0.00043118943125442264 0 -0.0018634118388176648 0.00036016447178341919 0 -0.0018021720585563361 0.00046522419553879986 0 -0.0012985335607760178 0.00045563894675200136 0 -0.0013486710152510019 0.00048624599175713774 0 -0.001367878610834291 0.00042990584894494766 0 -0.0012985335607760178 0.00045563894675200136 0 -0.0013190446789555759 0.00040879048353272706 0 -0.001367878610834291 0.00042990584894494766 0 -0.0013227741381932154 0.00036738779558056188 0 -0.0013558117321544722 0.00042577859755610635 0 -0.0013198267300869556 0.00036344879524616188 0 -0.0013190446789555759 0.00040879048353272706 0 -0.001367878610834291 0.00042990584894494766 0 -0.0013486710152510019 0.00048624599175713774 0 -0.0013207706529353332 0.00052937001658298242 0 -0.001376512995243772 0.00056057286297658035 0 -0.0024053044419701524 0.00043118943125442264 0 -0.002394357512394875 0.00046796467827483438 0 -0.0024140818082464713 0.00049610836207637397 0 -0.0012985335607760178 0.00045563894675200136 0 -0.0013486710152510019 0.00048624599175713774 0 -0.0013207706529353332 0.00052937001658298242 0 -0.0018021720585563361 0.00046522419553879986 0 -0.0022311032919276981 0.00039732093174505833 0 -0.0024053044419701524 0.00043118943125442264 0 -0.0024140818082464713 0.00049610836207637397 0 -0.0024323710182449763 0.00050524200479978355 0 -0.002394357512394875 0.00046796467827483438 0 -0.0024140818082464713 0.00049610836207637397 0 -0.0024314819394188692 0.00052961334556003411 0 -0.002394357512394875 0.00046796467827483438 0 -0.0023840040655913135 0.00053621970353337793 0 -0.0024522237679756639 0.00056070609200280436 0 -0.0021954363401089911 0.00048425881954215674 0 -0.0033037725492192048 0.0003701417777974304 0 -0.0024063704800204194 0.00048950222608280119 0 -0.0022311032919276981 0.00039732093174505833 0 -0.0024140818082464713 0.00049610836207637397 0 -0.0024365841900891995 0.00050400787602799093 0 -0.0024314819394188692 0.00052961334556003411 0 -0.0023401683634465642 0.00087326265437842772 0 -0.0022937436537737595 0.00068795398905790778 0 -0.0021464170910368021 0.00080130520405102747 0 -0.0034825869968076618 0.00036875502590037241 0 -0.002211330200365525 0.00061662248281498704 0 -0.002394357512394875 0.00046796467827483438 0 -0.0023840040655913135 0.00053621970353337793 0 -0.0023580580477413154 0.00044814022458139344 0 -0.0024053044419701524 0.00043118943125442264 0 -0.002394357512394875 0.00046796467827483438 0 -0.0023580580477413154 0.00044814022458139344 0 -0.0020905935955709784 0.00061889422448465291 0 -0.0022937436537737595 0.00068795398905790778 0 -0.0021464170910368021 0.00080130520405102747 0 -0.0034825869968076618 0.00036875502590037241 0 -0.0033863200425315837 0.00038662899363462963 0 -0.0046587800035927844 -1.7928056008598745e-05 0 -0.0046090720429531589 -4.4708302459936382e-05 0 -0.0046130262522483994 -8.40774162824908e-06 0 -0.0046587800035927844 -1.7928056008598745e-05 0 -0.0046130262522483994 -8.40774162824908e-06 0 -0.0046367782364086438 1.8426862237890224e-05 0 -0.0046130262522483994 -8.40774162824908e-06 0 -0.0046367782364086438 1.8426862237890224e-05 0 -0.0046052391269206829 2.3781474369739502e-05 0 -0.0046367782364086438 1.8426862237890224e-05 0 -0.0046487197224342209 4.7465939660063301e-05 0 -0.0046297394006217909 5.3234703543134109e-05 0 -0.0046367782364086438 1.8426862237890224e-05 0 -0.0046052391269206829 2.3781474369739502e-05 0 -0.0046297394006217909 5.3234703543134109e-05 0 -0.0046367782364086438 1.8426862237890224e-05 0 -0.0046487197224342209 4.7465939660063301e-05 0 -0.0046746576328730045 3.8363948500165608e-05 0 -0.0046587800035927844 -1.7928056008598745e-05 0 -0.0046367782364086438 1.8426862237890224e-05 0 -0.0046746576328730045 3.8363948500165608e-05 0 -0.0034825869968076618 0.00036875502590037241 0 -0.004751829750601671 1.2776354796255649e-05 0 -0.0037052929541920481 0.0002124970483839645 0 -0.0036629122390667325 0.00019652187243642926 0 -0.0037460862403382619 0.00037914041549571046 0 -0.0045410731185425704 6.5077004729371504e-05 0 -0.0045675035637394489 0.0001038804962581801 0 -0.004571198191479527 7.425736374221509e-05 0 -0.0034825869968076618 0.00036875502590037241 0 -0.0033037725492192048 0.0003701417777974304 0 -0.0024365841900891995 0.00050400787602799093 0 -0.0024472662322646537 0.00053501338979169608 0 -0.0024314819394188692 0.00052961334556003411 0 -0.0022311032919276981 0.00039732093174505833 0 -0.0032843990341513483 0.00032713813892867703 0 -0.0032843990341513483 0.00032713813892867703 0 -0.0033037725492192048 0.0003701417777974304 0 -0.0033037725492192048 0.0003701417777974304 0 -0.0042534028549564892 0.00022301816852547985 0 -0.0045675035637394489 0.0001038804962581801 0 -0.004571198191479527 7.425736374221509e-05 0 -0.0045970880570712644 0.00010782557551556141 0 -0.0032843990341513483 0.00032713813892867703 0 -0.0042534028549564892 0.00022301816852547985 0 -0.0041629802189481896 0.00019941357262001093 0 -0.0041780743488203419 0.00022587774968612731 0 -0.0041975010743214754 0.00021264547716995467 0 -0.0032843990341513483 0.00032713813892867703 0 -0.0035114467827563772 0.00031509104124521475 0 -0.0022311032919276981 0.00039732093174505833 0 -0.0020172405652846047 0.0004645234090175452 0 -0.0026732397811420456 0.00033676360804600104 0 -0.0026833435049984232 0.0003784619774407642 0 -0.0027576927279210411 0.00038044798331388703 0 -0.0026833435049984232 0.0003784619774407642 0 -0.0027576927279210411 0.00038044798331388703 0 -0.0027652982538599836 0.00041171362317464055 0 -0.004522940377188759 -5.5691686182831752e-05 0 -0.0044821889370599485 -5.8059786215367069e-05 0 -0.0045171631062242571 -2.2586516621893652e-05 0 -0.0044821889370599485 -5.8059786215367069e-05 0 -0.0044791176111458617 -1.1421338756015709e-05 0 -0.004434202976484742 -5.006914040095998e-05 0 -0.0044821889370599485 -5.8059786215367069e-05 0 -0.0044506358298597873 -9.7489759128357439e-05 0 -0.004434202976484742 -5.006914040095998e-05 0 -0.0044821889370599485 -5.8059786215367069e-05 0 -0.0044506358298597873 -9.7489759128357439e-05 0 -0.0044844592384697289 -0.00010943115655941165 0 -0.003222223092919866 0.00027151199734445219 0 -0.0032387023468432217 0.00031817944495031171 0 -0.004522940377188759 -5.5691686182831752e-05 0 -0.0044821889370599485 -5.8059786215367069e-05 0 -0.0044844592384697289 -0.00010943115655941165 0 -0.004522940377188759 -5.5691686182831752e-05 0 -0.0044844592384697289 -0.00010943115655941165 0 -0.0045516482666105819 -7.7145489436347605e-05 0 -0.0033863200425315837 0.00038662899363462963 0 -0.0032387023468432217 0.00031817944495031171 0 -0.0020905935955709784 0.00061889422448465291 0 -0.0021464170910368021 0.00080130520405102747 0 -0.0019613506525880437 0.00072314453045624458 0 -0.0046090720429531589 -4.4708302459936382e-05 0 -0.0045516482666105819 -7.7145489436347605e-05 0 -0.0045723387022998732 -1.5932757386131692e-05 0 -0.0046090720429531589 -4.4708302459936382e-05 0 -0.0046130262522483994 -8.40774162824908e-06 0 -0.0045723387022998732 -1.5932757386131692e-05 0 -0.004522940377188759 -5.5691686182831752e-05 0 -0.0045516482666105819 -7.7145489436347605e-05 0 -0.0045723387022998732 -1.5932757386131692e-05 0 -0.004522940377188759 -5.5691686182831752e-05 0 -0.0045723387022998732 -1.5932757386131692e-05 0 -0.0045171631062242571 -2.2586516621893652e-05 0 -0.0046130262522483994 -8.40774162824908e-06 0 -0.0045723387022998732 -1.5932757386131692e-05 0 -0.0046052391269206829 2.3781474369739502e-05 0 -0.0046052391269206829 2.3781474369739502e-05 0 -0.0045750726137458817 3.4105589145519878e-05 0 -0.0046051189571332364 5.9303157457832124e-05 0 -0.0046052391269206829 2.3781474369739502e-05 0 -0.0046051189571332364 5.9303157457832124e-05 0 -0.0046297394006217909 5.3234703543134109e-05 0 -0.0045723387022998732 -1.5932757386131692e-05 0 -0.0046052391269206829 2.3781474369739502e-05 0 -0.0045750726137458817 3.4105589145519878e-05 0 -0.0045723387022998732 -1.5932757386131692e-05 0 -0.0045750726137458817 3.4105589145519878e-05 0 -0.0045324162820634195 1.8772775875059081e-05 0 -0.0045324162820634195 1.8772775875059081e-05 0 -0.0044978925418368912 3.8861998139015524e-05 0 -0.0045481684404171836 5.2922528561480702e-05 0 -0.0045750726137458817 3.4105589145519878e-05 0 -0.0045324162820634195 1.8772775875059081e-05 0 -0.0045481684404171836 5.2922528561480702e-05 0 -0.0045324162820634195 1.8772775875059081e-05 0 -0.0045171631062242571 -2.2586516621893652e-05 0 -0.0044791176111458617 -1.1421338756015709e-05 0 -0.0045723387022998732 -1.5932757386131692e-05 0 -0.0045324162820634195 1.8772775875059081e-05 0 -0.0045171631062242571 -2.2586516621893652e-05 0 -0.0044821889370599485 -5.8059786215367069e-05 0 -0.0045171631062242571 -2.2586516621893652e-05 0 -0.0044791176111458617 -1.1421338756015709e-05 0 -0.0044791176111458617 -1.1421338756015709e-05 0 -0.0044978925418368912 3.8861998139015524e-05 0 -0.0044268541158055605 6.1285099751886268e-06 0 -0.0045324162820634195 1.8772775875059081e-05 0 -0.0044791176111458617 -1.1421338756015709e-05 0 -0.0044978925418368912 3.8861998139015524e-05 0 -0.0044978925418368912 3.8861998139015524e-05 0 -0.0044433616036079482 4.6327025276377331e-05 0 -0.0044268541158055605 6.1285099751886268e-06 0 -0.0044268541158055605 6.1285099751886268e-06 0 -0.0043845979670787657 -7.9358964362010692e-07 0 -0.0043718708165656145 5.0121474216306214e-05 0 -0.0044433616036079482 4.6327025276377331e-05 0 -0.0044268541158055605 6.1285099751886268e-06 0 -0.0043718708165656145 5.0121474216306214e-05 0 -0.0043845979670787657 -7.9358964362010692e-07 0 -0.0043919678060279051 -3.3714102024326056e-05 0 -0.004347777065606631 -2.3763031998756644e-05 0 -0.0044268541158055605 6.1285099751886268e-06 0 -0.0043845979670787657 -7.9358964362010692e-07 0 -0.0043919678060279051 -3.3714102024326056e-05 0 -0.0044268541158055605 6.1285099751886268e-06 0 -0.0043919678060279051 -3.3714102024326056e-05 0 -0.004434202976484742 -5.006914040095998e-05 0 -0.0044791176111458617 -1.1421338756015709e-05 0 -0.0044268541158055605 6.1285099751886268e-06 0 -0.004434202976484742 -5.006914040095998e-05 0 -0.0043919678060279051 -3.3714102024326056e-05 0 -0.004434202976484742 -5.006914040095998e-05 0 -0.0043952159298226842 -6.5108157296909019e-05 0 -0.004434202976484742 -5.006914040095998e-05 0 -0.0043952159298226842 -6.5108157296909019e-05 0 -0.0044166460308311013 -8.0485616490376136e-05 0 -0.0043919678060279051 -3.3714102024326056e-05 0 -0.004362859519656411 -5.4904598134897312e-05 0 -0.004347777065606631 -2.3763031998756644e-05 0 -0.0043919678060279051 -3.3714102024326056e-05 0 -0.0043952159298226842 -6.5108157296909019e-05 0 -0.004362859519656411 -5.4904598134897312e-05 0 -0.0043699582344733237 -8.3213500531647248e-05 0 -0.0043548739272177657 -8.1633217176163049e-05 0 -0.004362859519656411 -5.4904598134897312e-05 0 -0.0043952159298226842 -6.5108157296909019e-05 0 -0.0043699582344733237 -8.3213500531647248e-05 0 -0.004362859519656411 -5.4904598134897312e-05 0 -0.0043957735814007855 -8.7850942252643742e-05 0 -0.0043699582344733237 -8.3213500531647248e-05 0 -0.0043985916168723859 -0.00011035741965025693 0 -0.0043952159298226842 -6.5108157296909019e-05 0 -0.0043957735814007855 -8.7850942252643742e-05 0 -0.0043699582344733237 -8.3213500531647248e-05 0 -0.0043699582344733237 -8.3213500531647248e-05 0 -0.0043609728207852829 -9.5101925272208823e-05 0 -0.0043548739272177657 -8.1633217176163049e-05 0 -0.0028892013954441979 1.1181905235245911e-05 0 -0.0029539889592130474 -7.0541124529224466e-06 0 -0.0029120852526865067 -3.0452592313791557e-05 0 -0.0043699582344733237 -8.3213500531647248e-05 0 -0.0043609728207852829 -9.5101925272208823e-05 0 -0.00437470026239718 -9.7684371509376195e-05 0 -0.0044170086204786676 -0.00015157868749154558 0 -0.0040147356692939087 -0.00010724413991563173 0 -0.0035487782102203692 -2.363148802077105e-05 0 -0.0040147356692939087 -0.00010724413991563173 0 -0.0043957735814007855 -8.7850942252643742e-05 0 -0.0044119851512261013 -0.00010152288589957347 0 -0.0043985916168723859 -0.00011035741965025693 0 -0.0044119851512261013 -0.00010152288589957347 0 -0.0043985916168723859 -0.00011035741965025693 0 -0.0044125577912553235 -0.00011724518698527659 0 -0.0044506358298597873 -9.7489759128357439e-05 0 -0.004434202976484742 -5.006914040095998e-05 0 -0.0044166460308311013 -8.0485616490376136e-05 0 -0.0044506358298597873 -9.7489759128357439e-05 0 -0.0044119851512261013 -0.00010152288589957347 0 -0.0044125577912553235 -0.00011724518698527659 0 -0.0044506358298597873 -9.7489759128357439e-05 0 -0.0044119851512261013 -0.00010152288589957347 0 -0.0044166460308311013 -8.0485616490376136e-05 0 -0.0043952159298226842 -6.5108157296909019e-05 0 -0.0043957735814007855 -8.7850942252643742e-05 0 -0.0044166460308311013 -8.0485616490376136e-05 0 -0.0043957735814007855 -8.7850942252643742e-05 0 -0.0044119851512261013 -0.00010152288589957347 0 -0.0044166460308311013 -8.0485616490376136e-05 0 -0.0030981613907459229 -0.00033417882991631685 0 -0.0029620505865604265 -0.00029285373229814116 0 -0.0030661169881561249 -0.00015873784479962988 0 -0.0036494078126477467 -0.00040166077838633599 0 -0.0028064745335761115 -0.00018938558969021601 0 -0.0037023371665807618 -0.00021771127987459327 0 -0.0028901994215464349 -0.00011173466373526031 0 -0.0036494078126477467 -0.00040166077838633599 0 -0.0037023371665807618 -0.00021771127987459327 0 -0.0035487782102203692 -2.363148802077105e-05 0 -0.0037023371665807618 -0.00021771127987459327 0 -0.0028892013954441979 1.1181905235245911e-05 0 -0.0028266739266805487 2.9730883843844658e-05 0 -0.0028560904085505089 -2.3540341179907238e-05 0 -0.0043609728207852829 -9.5101925272208823e-05 0 -0.0043548739272177657 -8.1633217176163049e-05 0 -0.00432428482668597 -9.0479563215758034e-05 0 -0.0037023371665807618 -0.00021771127987459327 0 -0.0045218938132285105 -0.00023312841033891582 0 -0.00432428482668597 -9.0479563215758034e-05 0 -0.004362859519656411 -5.4904598134897312e-05 0 -0.004347777065606631 -2.3763031998756644e-05 0 -0.0044990377586955526 -0.00052516468965499268 0 -0.0044793275637045778 -0.00046136341126540455 0 -0.0045350467753852066 -0.00042776382657073357 0 -0.0043548739272177657 -8.1633217176163049e-05 0 -0.00432428482668597 -9.0479563215758034e-05 0 -0.004362859519656411 -5.4904598134897312e-05 0 -0.004441494905838379 -0.00050803481850215254 0 -0.0044793275637045778 -0.00046136341126540455 0 -0.004431182695410785 -0.00042782376920392508 0 -0.004441494905838379 -0.00050803481850215254 0 -0.0044990377586955526 -0.00052516468965499268 0 -0.0044793275637045778 -0.00046136341126540455 0 -0.0044793275637045778 -0.00046136341126540455 0 -0.0045350467753852066 -0.00042776382657073357 0 -0.0044852306257763055 -0.00038723409123189598 0 -0.0044793275637045778 -0.00046136341126540455 0 -0.0044852306257763055 -0.00038723409123189598 0 -0.004431182695410785 -0.00042782376920392508 0 -0.0044852306257763055 -0.00038723409123189598 0 -0.0044218450485864653 -0.00036425446827941367 0 -0.004431182695410785 -0.00042782376920392508 0 -0.0045218938132285105 -0.00023312841033891582 0 -0.0045421697163065345 -0.00013524818375825962 0 -0.0045350467753852066 -0.00042776382657073357 0 -0.0044852306257763055 -0.00038723409123189598 0 -0.00455940195829124 -0.00033417361344465098 0 -0.0043845979670787657 -7.9358964362010692e-07 0 -0.004347777065606631 -2.3763031998756644e-05 0 -0.0043718708165656145 5.0121474216306214e-05 0 -0.0044981622291824699 -0.00043648845785884704 0 -0.0045421697163065345 -0.00013524818375825962 0 -0.0044852306257763055 -0.00038723409123189598 0 -0.0045199382546744892 -0.0002967398410929522 0 -0.0046377814737896712 -0.00031017189738422149 0 -0.0044218450485864653 -0.00036425446827941367 0 -0.004429084879594712 -0.00028605702250929661 0 -0.0045199382546744892 -0.0002967398410929522 0 -0.0044852306257763055 -0.00038723409123189598 0 -0.0044218450485864653 -0.00036425446827941367 0 -0.0045199382546744892 -0.0002967398410929522 0 -0.0044194142463609126 -0.00037982734917566506 0 -0.0044266078933183073 -0.00032281734386314459 0 -0.0044218450485864653 -0.00036425446827941367 0 -0.004339009365067978 -0.00037226959927988727 0 -0.004429084879594712 -0.00028605702250929661 0 -0.0044218450485864653 -0.00036425446827941367 0 -0.004339009365067978 -0.00037226959927988727 0 -0.0043865850626090977 -0.00040376426161162866 0 -0.0043490891144351094 -0.00046958526657974668 0 -0.0042997317872268178 -0.00035039148931228332 0 -0.0044489749863146797 -0.00033628656105346203 0 -0.0043490891144351094 -0.00046958526657974668 0 -0.004201498681454521 -0.0004323112797599092 0 -0.0042997317872268178 -0.00035039148931228332 0 -0.0044194142463609126 -0.00037982734917566506 0 -0.0036118525105277416 -0.00054787965440450924 0 -0.004339009365067978 -0.00037226959927988727 0 -0.0043043857450766401 -0.00046104912198400942 0 -0.0043514388067336781 -0.0004534524234605769 0 -0.004339009365067978 -0.00037226959927988727 0 -0.0043043857450766401 -0.00046104912198400942 0 -0.0042446105016539079 -0.00047083863788926572 0 -0.0043490891144351094 -0.00046958526657974668 0 -0.004201498681454521 -0.0004323112797599092 0 -0.0042443480800801944 -0.00060066698493637619 0 -0.0043043857450766401 -0.00046104912198400942 0 -0.0043514388067336781 -0.0004534524234605769 0 -0.0043197002320420532 -0.00049696530846731347 0 -0.0043514388067336781 -0.0004534524234605769 0 -0.004431182695410785 -0.00042782376920392508 0 -0.0043777349807438476 -0.00049937944930784786 0 -0.0044218450485864653 -0.00036425446827941367 0 -0.004431182695410785 -0.00042782376920392508 0 -0.0043865850626090977 -0.00040376426161162866 0 -0.004339009365067978 -0.00037226959927988727 0 -0.0043514388067336781 -0.0004534524234605769 0 -0.0043865850626090977 -0.00040376426161162866 0 -0.0043514388067336781 -0.0004534524234605769 0 -0.004431182695410785 -0.00042782376920392508 0 -0.0043865850626090977 -0.00040376426161162866 0 -0.003152818829334025 -0.00068400956046410575 0 -0.0032841692740255579 -0.00063920953665930463 0 -0.0032125400454738715 -0.00072543848272062076 0 -0.003152818829334025 -0.00068400956046410575 0 -0.0031894851539554857 -0.00059553925263978362 0 -0.0032841692740255579 -0.00063920953665930463 0 -0.003152818829334025 -0.00068400956046410575 0 -0.0031369509676931126 -0.00063320052760242735 0 -0.003100597406463674 -0.000652933764834377 0 -0.003152818829334025 -0.00068400956046410575 0 -0.0031369509676931126 -0.00063320052760242735 0 -0.0031894851539554857 -0.00059553925263978362 0 -0.0031369509676931126 -0.00063320052760242735 0 -0.0031894851539554857 -0.00059553925263978362 0 -0.0031047467694018211 -0.00060006998812239028 0 -0.0032523185931449105 -0.00075603775728809268 0 -0.0031243601042391178 -0.00077579592851447496 0 -0.0032895370107181732 -0.00082063094560183071 0 -0.0037640025146422609 -0.00056893860609816694 0 -0.0036118525105277416 -0.00054787965440450924 0 -0.0032841692740255579 -0.00063920953665930463 0 -0.0033199407858116024 -0.00078242770894965748 0 -0.0032523185931449105 -0.00075603775728809268 0 -0.0032841692740255579 -0.00063920953665930463 0 -0.0032523185931449105 -0.00075603775728809268 0 -0.0032125400454738715 -0.00072543848272062076 0 -0.0033199407858116024 -0.00078242770894965748 0 -0.0032523185931449105 -0.00075603775728809268 0 -0.0032895370107181732 -0.00082063094560183071 0 -0.0032523185931449105 -0.00075603775728809268 0 -0.0032125400454738715 -0.00072543848272062076 0 -0.0031243601042391178 -0.00077579592851447496 0 -0.003152818829334025 -0.00068400956046410575 0 -0.0032125400454738715 -0.00072543848272062076 0 -0.0031243601042391178 -0.00077579592851447496 0 -0.0026686154808260665 -0.00063508749117686101 0 -0.0027889203541516133 -0.0004896964848357491 0 -0.0022103430005192986 -0.00045579582994712361 0 -0.0022253986805190053 -0.00046398162963565809 0 -0.0022530043437773151 -0.00045986729095671042 0 -0.0022138779971543712 -0.00046672338056690871 0 -0.0022253986805190053 -0.00046398162963565809 0 -0.0022192531174927972 -0.00047967105907177951 0 -0.0022138779971543712 -0.00046672338056690871 0 -0.0022192531174927972 -0.00047967105907177951 0 -0.0022027101714690643 -0.00047500584089805266 0 -0.0022103430005192986 -0.00045579582994712361 0 -0.002213950104064907 -0.00046074743976532134 0 -0.0022253986805190053 -0.00046398162963565809 0 -0.0022138779971543712 -0.00046672338056690871 0 -0.002213950104064907 -0.00046074743976532134 0 -0.0022087079143383054 -0.00045695599516085898 0 -0.0022138779971543712 -0.00046672338056690871 0 -0.002213950104064907 -0.00046074743976532134 0 -0.0022253986805190053 -0.00046398162963565809 0 -0.0022103430005192986 -0.00045579582994712361 0 -0.002213950104064907 -0.00046074743976532134 0 -0.0022087079143383054 -0.00045695599516085898 0 -0.0022253986805190053 -0.00046398162963565809 0 -0.0022447279332784651 -0.00046972136524812248 0 -0.0022192531174927972 -0.00047967105907177951 0 -0.0020632334250119551 -0.00034358345774574572 0 -0.0019484827182898142 -0.00028736344966647501 0 -0.0022253986805190053 -0.00046398162963565809 0 -0.0022447279332784651 -0.00046972136524812248 0 -0.0022530043437773151 -0.00045986729095671042 0 -0.0023116400456963944 -0.00047079469457686702 0 -0.0024898433821553467 -0.00023699000996011346 0 -0.0026646847266080589 -0.00028928240144732083 0 -0.0031334622697079349 -0.0004550224320306018 0 -0.0031072729489024743 -0.0004872709261359702 0 -0.0031298099580391973 -0.00049372964551038466 0 -0.0036118525105277416 -0.00054787965440450924 0 -0.0027889203541516133 -0.0004896964848357491 0 -0.0027889203541516133 -0.0004896964848357491 0 -0.0026914461690047812 -0.00039445497861800957 0 -0.0016924920853307599 -9.189175267278081e-05 0 -0.0016938884961813089 -9.4110609344802608e-05 0 -0.0016899854860336638 -8.9646407086091184e-05 0 -0.0016938884961813089 -9.4110609344802608e-05 0 -0.0016899854860336638 -8.9646407086091184e-05 0 -0.0016933383631666929 -9.4120843156647393e-05 0 -0.0020632334250119551 -0.00034358345774574572 0 -0.0026914461690047812 -0.00039445497861800957 0 -0.0020632334250119551 -0.00034358345774574572 0 -0.0027889203541516133 -0.0004896964848357491 0 -0.0016899854860336638 -8.9646407086091184e-05 0 -0.0016850092102045652 -8.6742783133629929e-05 0 -0.0016863455246744756 -8.432550847273892e-05 0 -0.0016899854860336638 -8.9646407086091184e-05 0 -0.0016889713355520068 -8.6199215797831962e-05 0 -0.0016863455246744756 -8.432550847273892e-05 0 -0.0016889713355520068 -8.6199215797831962e-05 0 -0.0016868672463260441 -8.3311327898869707e-05 0 -0.0016863455246744756 -8.432550847273892e-05 0 -0.0016924920853307599 -9.189175267278081e-05 0 -0.0016899854860336638 -8.9646407086091184e-05 0 -0.0016889713355520068 -8.6199215797831962e-05 0 -0.0016924920853307599 -9.189175267278081e-05 0 -0.0016889713355520068 -8.6199215797831962e-05 0 -0.001687101782077687 -8.1290873786857718e-05 0 -0.0020632334250119551 -0.00034358345774574572 0 -0.0015981819728439178 -2.6579486327746982e-05 0 -0.0016927077789872208 -9.2063659206151203e-05 0 -0.0016880171086121861 -8.2049562946363123e-05 0 -0.0016903428399710155 -8.7120294445445801e-05 0 -0.0016927077789872208 -9.2063659206151203e-05 0 -0.0016880171086121861 -8.2049562946363123e-05 0 -0.001687101782077687 -8.1290873786857718e-05 0 -0.0016889713355520068 -8.6199215797831962e-05 0 -0.0016872870297187203 -8.3097542891194897e-05 0 -0.001687101782077687 -8.1290873786857718e-05 0 -0.0016889713355520068 -8.6199215797831962e-05 0 -0.0016872870297187203 -8.3097542891194897e-05 0 -0.0016868672463260441 -8.3311327898869707e-05 0 -0.0016880171086121861 -8.2049562946363123e-05 0 -0.0016903428399710155 -8.7120294445445801e-05 0 -0.0016995633245170578 -8.4315025548848893e-05 0 -0.004434710044126983 -0.00057111011202345659 0 -0.004431182695410785 -0.00042782376920392508 0 -0.0043777349807438476 -0.00049937944930784786 0 -0.0036494078126477467 -0.00040166077838633599 0 -0.0045904215485230463 -0.00051162321188398432 0 -0.004434710044126983 -0.00057111011202345659 0 -0.0043502107485691869 -0.00054559793125875445 0 -0.0043777349807438476 -0.00049937944930784786 0 -0.0036494078126477467 -0.00040166077838633599 0 -0.0035853310510915795 -0.00048349119621024581 0 -0.0043502107485691869 -0.00054559793125875445 0 -0.0043777349807438476 -0.00049937944930784786 0 -0.0043197002320420532 -0.00049696530846731347 0 -0.0043514388067336781 -0.0004534524234605769 0 -0.0043777349807438476 -0.00049937944930784786 0 -0.0043197002320420532 -0.00049696530846731347 0 -0.0043502107485691869 -0.00054559793125875445 0 -0.0043197002320420532 -0.00049696530846731347 0 -0.0042570748439950869 -0.00052029403000008296 0 -0.0026782235231652867 -0.00037886972764467237 0 -0.0027759127457769547 -0.00040824977251348451 0 -0.0027336499264529975 -0.00027632302557452403 0 -0.0043197002320420532 -0.00049696530846731347 0 -0.0042570748439950869 -0.00052029403000008296 0 -0.0042542155940199647 -0.00050857761898482452 0 -0.0043043857450766401 -0.00046104912198400942 0 -0.0043197002320420532 -0.00049696530846731347 0 -0.0042542155940199647 -0.00050857761898482452 0 -0.0043043857450766401 -0.00046104912198400942 0 -0.0042446105016539079 -0.00047083863788926572 0 -0.0042542155940199647 -0.00050857761898482452 0 -0.0031334622697079349 -0.0004550224320306018 0 -0.0031298099580391973 -0.00049372964551038466 0 -0.0031416021324307047 -0.00048769583780933348 0 -0.0036118525105277416 -0.00054787965440450924 0 -0.0030093859464951265 -0.00038048375184035726 0 -0.0028978991590031446 -0.00037135173719733889 0 -0.0030093859464951265 -0.00038048375184035726 0 -0.0030046936034951585 -0.00041096612758848879 0 -0.0028830746539723613 -0.00037424080211182896 0 -0.0029080211425272875 -0.00046096583691952687 0 -0.0026914461690047812 -0.00039445497861800957 0 -0.0028978991590031446 -0.00037135173719733889 0 -0.0026914461690047812 -0.00039445497861800957 0 -0.0030093859464951265 -0.00038048375184035726 0 -0.0035853310510915795 -0.00048349119621024581 0 -0.0028978991590031446 -0.00037135173719733889 0 -0.0026782235231652867 -0.00037886972764467237 0 -0.0027336499264529975 -0.00027632302557452403 0 -0.0026471532908299892 -0.00027118052339223828 0 -0.0028978991590031446 -0.00037135173719733889 0 -0.0021596524370753739 -0.00013203584596956382 0 -0.0016899854860336638 -8.9646407086091184e-05 0 -0.0016933383631666929 -9.4120843156647393e-05 0 -0.0016850092102045652 -8.6742783133629929e-05 0 -0.0025813433395415085 -0.00034957038145968025 0 -0.0026782235231652867 -0.00037886972764467237 0 -0.0026471532908299892 -0.00027118052339223828 0 -0.0025813433395415085 -0.00034957038145968025 0 -0.0026471532908299892 -0.00027118052339223828 0 -0.002553254368198679 -0.00020558235394186296 0 -0.0026471532908299892 -0.00027118052339223828 0 -0.0026892690321429387 -0.000144692677436765 0 -0.002553254368198679 -0.00020558235394186296 0 -0.0016850092102045652 -8.6742783133629929e-05 0 -0.0016826907405335136 -8.2765235330654375e-05 0 -0.0016863455246744756 -8.432550847273892e-05 0 -0.0027336499264529975 -0.00027632302557452403 0 -0.0026471532908299892 -0.00027118052339223828 0 -0.0026892690321429387 -0.000144692677436765 0 -0.0021596524370753739 -0.00013203584596956382 0 -0.0022098626135676979 -0.00013159489363133908 0 -0.0016850092102045652 -8.6742783133629929e-05 0 -0.0016826907405335136 -8.2765235330654375e-05 0 -0.0016787302542716326 -8.1027593407289149e-05 0 -0.0016826907405335136 -8.2765235330654375e-05 0 -0.0016787302542716326 -8.1027593407289149e-05 0 -0.0016798493482712506 -8.0508042260850956e-05 0 -0.0016787302542716326 -8.1027593407289149e-05 0 -0.0016798493482712506 -8.0508042260850956e-05 0 -0.0016757386834345457 -7.7728045170194881e-05 0 -0.0016787302542716326 -8.1027593407289149e-05 0 -0.0016757386834345457 -7.7728045170194881e-05 0 -0.0016750565521300815 -7.7055840498761356e-05 0 -0.0016798493482712506 -8.0508042260850956e-05 0 -0.0016757386834345457 -7.7728045170194881e-05 0 -0.001677345466175753 -7.847441665770318e-05 0 -0.0026892690321429387 -0.000144692677436765 0 -0.0026446319424931748 -1.4257615962854094e-05 0 -0.0025268456496680461 -6.2374678695006008e-05 0 -0.0026892690321429387 -0.000144692677436765 0 -0.002553254368198679 -0.00020558235394186296 0 -0.0025268456496680461 -6.2374678695006008e-05 0 -0.0022098626135676979 -0.00013159489363133908 0 -0.0018281170160673076 -6.8422721544108509e-05 0 -0.0016816214256153137 -7.9949366706855924e-05 0 -0.0016832151340829154 -8.0412113727765759e-05 0 -0.0016823235165285592 -7.9844877653525705e-05 0 -0.0016816214256153137 -7.9949366706855924e-05 0 -0.0016832151340829154 -8.0412113727765759e-05 0 -0.0016825003070511629 -8.0399226642366794e-05 0 -0.0016832151340829154 -8.0412113727765759e-05 0 -0.0016847040506912741 -8.068639312956126e-05 0 -0.0016846496504838524 -8.1092359657444155e-05 0 -0.0016832151340829154 -8.0412113727765759e-05 0 -0.0016846496504838524 -8.1092359657444155e-05 0 -0.0016825003070511629 -8.0399226642366794e-05 0 -0.0016832151340829154 -8.0412113727765759e-05 0 -0.0016847040506912741 -8.068639312956126e-05 0 -0.0016823235165285592 -7.9844877653525705e-05 0 -0.0016847040506912741 -8.068639312956126e-05 0 -0.0016840671775505162 -7.9662602122412284e-05 0 -0.0016823235165285592 -7.9844877653525705e-05 0 -0.0016880171086121861 -8.2049562946363123e-05 0 -0.001687101782077687 -8.1290873786857718e-05 0 -0.0016840671775505162 -7.9662602122412284e-05 0 -0.0016847040506912741 -8.068639312956126e-05 0 -0.001687101782077687 -8.1290873786857718e-05 0 -0.0016840671775505162 -7.9662602122412284e-05 0 -0.0016847040506912741 -8.068639312956126e-05 0 -0.001687101782077687 -8.1290873786857718e-05 0 -0.0016857197665415436 -8.1220534508261448e-05 0 -0.0016847040506912741 -8.068639312956126e-05 0 -0.0016857197665415436 -8.1220534508261448e-05 0 -0.0016846496504838524 -8.1092359657444155e-05 0 -0.0016857197665415436 -8.1220534508261448e-05 0 -0.0016861725609068525 -8.1906285483692416e-05 0 -0.0016846496504838524 -8.1092359657444155e-05 0 -0.001687101782077687 -8.1290873786857718e-05 0 -0.0016857197665415436 -8.1220534508261448e-05 0 -0.0016861725609068525 -8.1906285483692416e-05 0 -0.0016872870297187203 -8.3097542891194897e-05 0 -0.001687101782077687 -8.1290873786857718e-05 0 -0.0016861725609068525 -8.1906285483692416e-05 0 -0.0016861725609068525 -8.1906285483692416e-05 0 -0.0016868672463260441 -8.3311327898869707e-05 0 -0.0016853471572664228 -8.2165287352343943e-05 0 -0.0016872870297187203 -8.3097542891194897e-05 0 -0.0016861725609068525 -8.1906285483692416e-05 0 -0.0016868672463260441 -8.3311327898869707e-05 0 -0.0016861725609068525 -8.1906285483692416e-05 0 -0.0016853471572664228 -8.2165287352343943e-05 0 -0.0016846496504838524 -8.1092359657444155e-05 0 -0.0016853471572664228 -8.2165287352343943e-05 0 -0.0016836882664706444 -8.1110112625633348e-05 0 -0.0016846496504838524 -8.1092359657444155e-05 0 -0.0016836882664706444 -8.1110112625633348e-05 0 -0.0016846496504838524 -8.1092359657444155e-05 0 -0.0016825003070511629 -8.0399226642366794e-05 0 -0.0016836882664706444 -8.1110112625633348e-05 0 -0.0016825003070511629 -8.0399226642366794e-05 0 -0.0016821619801897164 -8.0524444456052166e-05 0 -0.0016836882664706444 -8.1110112625633348e-05 0 -0.0016828656681755619 -8.1374754649860855e-05 0 -0.0016821619801897164 -8.0524444456052166e-05 0 -0.0016853471572664228 -8.2165287352343943e-05 0 -0.0016836882664706444 -8.1110112625633348e-05 0 -0.0016828656681755619 -8.1374754649860855e-05 0 -0.0016868672463260441 -8.3311327898869707e-05 0 -0.0016853471572664228 -8.2165287352343943e-05 0 -0.0016863455246744756 -8.432550847273892e-05 0 -0.0016853471572664228 -8.2165287352343943e-05 0 -0.0016828656681755619 -8.1374754649860855e-05 0 -0.0016863455246744756 -8.432550847273892e-05 0 -0.0016826907405335136 -8.2765235330654375e-05 0 -0.0016828656681755619 -8.1374754649860855e-05 0 -0.0016863455246744756 -8.432550847273892e-05 0 -0.0016826907405335136 -8.2765235330654375e-05 0 -0.0016798493482712506 -8.0508042260850956e-05 0 -0.0016828656681755619 -8.1374754649860855e-05 0 -0.0016798493482712506 -8.0508042260850956e-05 0 -0.001680023186035327 -7.9926692411131571e-05 0 -0.001677345466175753 -7.847441665770318e-05 0 -0.0016798493482712506 -8.0508042260850956e-05 0 -0.0016828656681755619 -8.1374754649860855e-05 0 -0.001680023186035327 -7.9926692411131571e-05 0 -0.001680023186035327 -7.9926692411131571e-05 0 -0.001677345466175753 -7.847441665770318e-05 0 -0.0016778013965971 -7.8717369717979199e-05 0 -0.0016778013965971 -7.8717369717979199e-05 0 -0.0016805268661363529 -7.9895598910125507e-05 0 -0.0016789802419086297 -7.9158623968919058e-05 0 -0.001680023186035327 -7.9926692411131571e-05 0 -0.0016778013965971 -7.8717369717979199e-05 0 -0.0016805268661363529 -7.9895598910125507e-05 0 -0.0016828656681755619 -8.1374754649860855e-05 0 -0.001680023186035327 -7.9926692411131571e-05 0 -0.0016805268661363529 -7.9895598910125507e-05 0 -0.0016828656681755619 -8.1374754649860855e-05 0 -0.0016805268661363529 -7.9895598910125507e-05 0 -0.0016821619801897164 -8.0524444456052166e-05 0 -0.0016825003070511629 -8.0399226642366794e-05 0 -0.0016821619801897164 -8.0524444456052166e-05 0 -0.0016807243597300862 -7.9830403997312478e-05 0 -0.0016805268661363529 -7.9895598910125507e-05 0 -0.0016821619801897164 -8.0524444456052166e-05 0 -0.0016807243597300862 -7.9830403997312478e-05 0 -0.0016805268661363529 -7.9895598910125507e-05 0 -0.0016807243597300862 -7.9830403997312478e-05 0 -0.0016789802419086297 -7.9158623968919058e-05 0 -0.0016807243597300862 -7.9830403997312478e-05 0 -0.0016789084305528846 -7.9206096188659387e-05 0 -0.0016802916038185897 -7.9661810956928463e-05 0 -0.0016807243597300862 -7.9830403997312478e-05 0 -0.0016789802419086297 -7.9158623968919058e-05 0 -0.0016789084305528846 -7.9206096188659387e-05 0 -0.0016825003070511629 -8.0399226642366794e-05 0 -0.0016807243597300862 -7.9830403997312478e-05 0 -0.0016802916038185897 -7.9661810956928463e-05 0 -0.0016816214256153137 -7.9949366706855924e-05 0 -0.0016825003070511629 -8.0399226642366794e-05 0 -0.0016802916038185897 -7.9661810956928463e-05 0 -0.001676246485726016 -7.7618366622796833e-05 0 -0.001677845141873276 -7.8754135470903604e-05 0 -0.0016769196409247334 -7.8393278212037195e-05 0 -0.0016789802419086297 -7.9158623968919058e-05 0 -0.0016789084305528846 -7.9206096188659387e-05 0 -0.001677845141873276 -7.8754135470903604e-05 0 -0.001676246485726016 -7.7618366622796833e-05 0 -0.001677845141873276 -7.8754135470903604e-05 0 -0.0016778203341393943 -7.8998315634913393e-05 0 -0.0016789084305528846 -7.9206096188659387e-05 0 -0.001677845141873276 -7.8754135470903604e-05 0 -0.0016778203341393943 -7.8998315634913393e-05 0 -0.0016778013965971 -7.8717369717979199e-05 0 -0.0016789802419086297 -7.9158623968919058e-05 0 -0.0016769196409247334 -7.8393278212037195e-05 0 -0.0016789802419086297 -7.9158623968919058e-05 0 -0.001677845141873276 -7.8754135470903604e-05 0 -0.0016769196409247334 -7.8393278212037195e-05 0 -0.0016769196409247334 -7.8393278212037195e-05 0 -0.0016748496892779428 -7.8037894412261416e-05 0 -0.0016754420267313858 -7.7510505527900595e-05 0 -0.001676246485726016 -7.7618366622796833e-05 0 -0.0016769196409247334 -7.8393278212037195e-05 0 -0.0016754420267313858 -7.7510505527900595e-05 0 -0.0016748496892779428 -7.8037894412261416e-05 0 -0.0016742738948064117 -7.7941119113600159e-05 0 -0.0016754420267313858 -7.7510505527900595e-05 0 -0.0016748496892779428 -7.8037894412261416e-05 0 -0.0016721606344244869 -7.9194623634326933e-05 0 -0.0016742738948064117 -7.7941119113600159e-05 0 -0.0016778013965971 -7.8717369717979199e-05 0 -0.0016748496892779428 -7.8037894412261416e-05 0 -0.001675471247827358 -7.761666303502464e-05 0 -0.0016778013965971 -7.8717369717979199e-05 0 -0.0016769196409247334 -7.8393278212037195e-05 0 -0.0016748496892779428 -7.8037894412261416e-05 0 -0.001677345466175753 -7.847441665770318e-05 0 -0.0016778013965971 -7.8717369717979199e-05 0 -0.001675471247827358 -7.761666303502464e-05 0 -0.001677345466175753 -7.847441665770318e-05 0 -0.001675471247827358 -7.761666303502464e-05 0 -0.0016749615699732533 -7.6532966391900834e-05 0 -0.001675471247827358 -7.761666303502464e-05 0 -0.0016722345969840601 -7.6678120308274153e-05 0 -0.0016749615699732533 -7.6532966391900834e-05 0 -0.0016748496892779428 -7.8037894412261416e-05 0 -0.0016722345969840601 -7.6678120308274153e-05 0 -0.0016721606344244869 -7.9194623634326933e-05 0 -0.0016722345969840601 -7.6678120308274153e-05 0 -0.0016721606344244869 -7.9194623634326933e-05 0 -0.0016682767633318277 -8.471204912485937e-05 0 -0.0016748496892779428 -7.8037894412261416e-05 0 -0.001675471247827358 -7.761666303502464e-05 0 -0.0016722345969840601 -7.6678120308274153e-05 0 -0.0016447384616082533 -9.7257672688209708e-05 0 -0.0016513798891578826 -8.7525934509898514e-05 0 -0.0016721606344244869 -7.9194623634326933e-05 0 -0.0016744203472563637 -7.5586329847381536e-05 0 -0.0016682767633318277 -8.471204912485937e-05 0 -0.0014414519999014848 -0.00019330216754075201 0 -0.0016163890578258912 -0.00012677693069106197 0 -0.0015502164245182306 -0.00011925848580035001 0 -0.0016163890578258912 -0.00012677693069106197 0 -0.0015502164245182306 -0.00011925848580035001 0 -0.0016682767633318277 -8.471204912485937e-05 0 -0.0016744203472563637 -7.5586329847381536e-05 0 -0.0016742738948064117 -7.7941119113600159e-05 0 -0.0016754420267313858 -7.7510505527900595e-05 0 -0.0016721606344244869 -7.9194623634326933e-05 0 -0.0016744203472563637 -7.5586329847381536e-05 0 -0.0016742738948064117 -7.7941119113600159e-05 0 -0.001676246485726016 -7.7618366622796833e-05 0 -0.0016751307380157869 -7.6507718061486347e-05 0 -0.0016741711284711574 -7.5550346388771528e-05 0 -0.0016744203472563637 -7.5586329847381536e-05 0 -0.0016751307380157869 -7.6507718061486347e-05 0 -0.0016741711284711574 -7.5550346388771528e-05 0 -0.0016447384616082533 -9.7257672688209708e-05 0 -0.0013250830389940004 1.7763065054407932e-05 0 -0.0016744203472563637 -7.5586329847381536e-05 0 -0.0016751307380157869 -7.6507718061486347e-05 0 -0.0016754420267313858 -7.7510505527900595e-05 0 -0.001676246485726016 -7.7618366622796833e-05 0 -0.0016751307380157869 -7.6507718061486347e-05 0 -0.0016754420267313858 -7.7510505527900595e-05 0 -0.0018281170160673076 -6.8422721544108509e-05 0 -0.0020190422765818047 7.6431142660501156e-05 0 -0.001046531836958065 0.00026904557036833528 0 -0.0010048814023582737 0.00027385187756905278 0 -0.0010877841468247176 0.00030728492043491552 0 -0.0010190062718811622 0.00023426281485927267 0 -0.001046531836958065 0.00026904557036833528 0 -0.001051718649688663 0.00019114463738890045 0 -0.0010133473758899112 0.00023162820712760741 0 -0.0010190062718811622 0.00023426281485927267 0 -0.0010048814023582737 0.00027385187756905278 0 -0.0011706895646038907 0.00023135076583674354 0 -0.0018281170160673076 -6.8422721544108509e-05 0 -0.0017487029512012245 -7.8029640919941801e-05 0 -0.0017302841688149031 -3.3418385450385752e-05 0 -0.0017055606353885528 -6.6440578825469916e-05 0 -0.0011706895646038907 0.00023135076583674354 0 -0.0011575913040112085 0.00022738314693514545 0 -0.0010190062718811622 0.00023426281485927267 0 -0.001046531836958065 0.00026904557036833528 0 -0.0010048814023582737 0.00027385187756905278 0 -0.0017487029512012245 -7.8029640919941801e-05 0 -0.0017055606353885528 -6.6440578825469916e-05 0 -0.0016682767633318277 -8.471204912485937e-05 0 -0.0018281170160673076 -6.8422721544108509e-05 0 -0.0016448738768353758 -8.401090958146721e-05 0 -0.0016757386834345457 -7.7728045170194881e-05 0 -0.0016750565521300815 -7.7055840498761356e-05 0 -0.0016720628553836465 -7.2984381805929284e-05 0 -0.0016757386834345457 -7.7728045170194881e-05 0 -0.0016749615699732533 -7.6532966391900834e-05 0 -0.0016720628553836465 -7.2984381805929284e-05 0 -0.0016757386834345457 -7.7728045170194881e-05 0 -0.001677345466175753 -7.847441665770318e-05 0 -0.0016749615699732533 -7.6532966391900834e-05 0 -0.0016720628553836465 -7.2984381805929284e-05 0 -0.0017055606353885528 -6.6440578825469916e-05 0 -0.0016682767633318277 -8.471204912485937e-05 0 -0.0016722345969840601 -7.6678120308274153e-05 0 -0.0016749615699732533 -7.6532966391900834e-05 0 -0.0016720628553836465 -7.2984381805929284e-05 0 -0.0016722345969840601 -7.6678120308274153e-05 0 -0.0016720628553836465 -7.2984381805929284e-05 0 -0.0016682767633318277 -8.471204912485937e-05 0 -0.0017302841688149031 -3.3418385450385752e-05 0 -0.0016720628553836465 -7.2984381805929284e-05 0 -0.0017055606353885528 -6.6440578825469916e-05 0 -0.0011523731326134278 1.1603535350605081e-05 0 -0.0011706895646038907 0.00023135076583674354 0 -0.0016163890578258912 -0.00012677693069106197 0 -0.0017487029512012245 -7.8029640919941801e-05 0 -0.0016682767633318277 -8.471204912485937e-05 0 -0.00080016512180004253 0.00015467487320713406 0 -0.00065806219932375818 0.0002070653901802437 0 -0.00088656106654340264 0.00031122019111966064 0 -0.00094172566172613203 0.00011775606664759943 0 -0.00080016512180004253 0.00015467487320713406 0 -0.00088656106654340264 0.00031122019111966064 0 -0.00095707565814989433 0.00012882428905894853 0 -0.0011706895646038907 0.00023135076583674354 0 -0.0010158719168331545 0.00012047251876206173 0 -0.0010123220794050281 0.00023224599498427421 0 -0.001051718649688663 0.00019114463738890045 0 -0.0010123220794050281 0.00023224599498427421 0 -0.0010190062718811622 0.00023426281485927267 0 -0.001051718649688663 0.00019114463738890045 0 -0.001051718649688663 0.00019114463738890045 0 -0.001093526011145284 0.00018700784574035716 0 -0.0010860203401622797 0.00030079873504159499 0 -0.0010569189552977003 0.00014782054707013133 0 -0.001051718649688663 0.00019114463738890045 0 -0.001093526011145284 0.00018700784574035716 0 -0.0010158719168331545 0.00012047251876206173 0 -0.0010569189552977003 0.00014782054707013133 0 -0.001051718649688663 0.00019114463738890045 0 -0.0010980311207812248 0.00024999340128216028 0 -0.0011349403151524398 0.00035412361287441156 0 -0.0011943683658259829 0.00026399058366186003 0 -0.001046531836958065 0.00026904557036833528 0 -0.001051718649688663 0.00019114463738890045 0 -0.0010894631069291939 0.00028625179384444911 0 -0.0010525306820439583 0.00024444837986387817 0 -0.0015412704316950887 0.00027486172395696832 0 -0.0010980311207812248 0.00024999340128216028 0 -0.0011349403151524398 0.00035412361287441156 0 -0.0010820600596949204 0.00044878524620913716 0 -0.00097914619643452074 0.00018068299795472335 0 -0.0015412704316950887 0.00027486172395696832 0 -0.0011349403151524398 0.00035412361287441156 0 -0.0011455005152358744 0.00042351099424302725 0 -0.0010820600596949204 0.00044878524620913716 0 -0.0011455005152358744 0.00042351099424302725 0 -0.00109460698369376 0.00049579442863136025 0 -0.0012104746215985266 0.000466194289825862 0 -0.0011455005152358744 0.00042351099424302725 0 -0.0010820600596949204 0.00044878524620913716 0 -0.00109460698369376 0.00049579442863136025 0 -0.001046531836958065 0.00026904557036833528 0 -0.0010894631069291939 0.00028625179384444911 0 -0.0010877841468247176 0.00030728492043491552 0 -0.0012365633362129895 0.00036813525618441956 0 -0.0013202729417678078 0.0004386819922348968 0 -0.0012104746215985266 0.000466194289825862 0 -0.0011455005152358744 0.00042351099424302725 0 -0.0012365633362129895 0.00036813525618441956 0 -0.0012104746215985266 0.000466194289825862 0 -0.0011349403151524398 0.00035412361287441156 0 -0.0011455005152358744 0.00042351099424302725 0 -0.0012365633362129895 0.00036813525618441956 0 -0.0012365633362129895 0.00036813525618441956 0 -0.0011943683658259829 0.00026399058366186003 0 -0.0012935719735767918 0.00026791220048463121 0 -0.0011349403151524398 0.00035412361287441156 0 -0.0012365633362129895 0.00036813525618441956 0 -0.0011943683658259829 0.00026399058366186003 0 -0.0012487229949356981 0.00017465479897643487 0 -0.0011786330231587261 0.00016039031632812261 0 -0.0011943683658259829 0.00026399058366186003 0 -0.0011786330231587261 0.00016039031632812261 0 -0.0010980311207812248 0.00024999340128216028 0 -0.0011943683658259829 0.00026399058366186003 0 -0.0012487229949356981 0.00017465479897643487 0 -0.0011943683658259829 0.00026399058366186003 0 -0.0012935719735767918 0.00026791220048463121 0 -0.0012365633362129895 0.00036813525618441956 0 -0.0014000878368516571 0.00029932492309083045 0 -0.0012935719735767918 0.00026791220048463121 0 -0.0013383360375829063 0.00015602163448970337 0 -0.0014000878368516571 0.00029932492309083045 0 -0.0012935719735767918 0.00026791220048463121 0 -0.0013383360375829063 0.00015602163448970337 0 -0.0012487229949356981 0.00017465479897643487 0 -0.0012935719735767918 0.00026791220048463121 0 -0.0015089211439737018 0.00013341008986473307 0 -0.0015789994347862669 0.00033030662170259429 0 -0.0014000878368516571 0.00029932492309083045 0 -0.0015789994347862669 0.00033030662170259429 0 -0.0014000878368516571 0.00029932492309083045 0 -0.001454796656696934 0.0004786472435204073 0 -0.0015789994347862669 0.00033030662170259429 0 -0.001649376274974635 0.00052187517202671924 0 -0.001454796656696934 0.0004786472435204073 0 -0.0014000878368516571 0.00029932492309083045 0 -0.0013202729417678078 0.0004386819922348968 0 -0.001454796656696934 0.0004786472435204073 0 -0.0012365633362129895 0.00036813525618441956 0 -0.0014000878368516571 0.00029932492309083045 0 -0.0013202729417678078 0.0004386819922348968 0 -0.0013202729417678078 0.0004386819922348968 0 -0.0013005594621072587 0.00058107523080716539 0 -0.001454796656696934 0.0004786472435204073 0 -0.0013005594621072587 0.00058107523080716539 0 -0.001454796656696934 0.0004786472435204073 0 -0.0015123758757828118 0.00066556319854556983 0 -0.001649376274974635 0.00052187517202671924 0 -0.001454796656696934 0.0004786472435204073 0 -0.0015123758757828118 0.00066556319854556983 0 -0.0029539889592130474 -7.0541124529224466e-06 0 -0.0029913825169175603 -4.6819116727485486e-05 0 -0.0029120852526865067 -3.0452592313791557e-05 0 -0.0043689642633574855 -0.00010730283605690795 0 -0.0044089569397439575 -0.00013989991187828615 0 -0.0044125577912553235 -0.00011724518698527659 0 -0.0040147356692939087 -0.00010724413991563173 0 -0.0044122270684703556 -0.00016481662527066213 0 -0.0040147356692939087 -0.00010724413991563173 0 -0.0026215567103840712 0.00031435434089516575 0 -0.0044506358298597873 -9.7489759128357439e-05 0 -0.0044089569397439575 -0.00013989991187828615 0 -0.0044125577912553235 -0.00011724518698527659 0 -0.0019886540542981843 0.00023431342196240172 0 -0.0026215567103840712 0.00031435434089516575 0 -0.0028824861216011038 -9.186040929406616e-05 0 -0.0029913825169175603 -4.6819116727485486e-05 0 -0.0029120852526865067 -3.0452592313791557e-05 0 -0.0028824861216011038 -9.186040929406616e-05 0 -0.0029120852526865067 -3.0452592313791557e-05 0 -0.0028560904085505089 -2.3540341179907238e-05 0 -0.0028892013954441979 1.1181905235245911e-05 0 -0.0029120852526865067 -3.0452592313791557e-05 0 -0.0028560904085505089 -2.3540341179907238e-05 0 -0.0028266739266805487 2.9730883843844658e-05 0 -0.0028560904085505089 -2.3540341179907238e-05 0 -0.0027976753571912292 -5.1020447963016442e-05 0 -0.0028824861216011038 -9.186040929406616e-05 0 -0.0028560904085505089 -2.3540341179907238e-05 0 -0.0027976753571912292 -5.1020447963016442e-05 0 -0.0029620505865604265 -0.00029285373229814116 0 -0.0029904263395627577 -0.00014161193741714855 0 -0.0030661169881561249 -0.00015873784479962988 0 -0.0029904263395627577 -0.00014161193741714855 0 -0.0030661169881561249 -0.00015873784479962988 0 -0.0030136308625864036 9.1289230904544125e-06 0 -0.0028064745335761115 -0.00018938558969021601 0 -0.0020190422765818047 7.6431142660501156e-05 0 -0.0030661169881561249 -0.00015873784479962988 0 -0.0030286897004976692 1.5528295530759045e-05 0 -0.0030136308625864036 9.1289230904544125e-06 0 -0.0028901994215464349 -0.00011173466373526031 0 -0.0021003711435305214 0.00010981774592686175 0 -0.0018083572152431742 0.00019841668033852044 0 -0.0018181260178765843 0.00013221850207610346 0 -0.0017911099712733783 0.00012120652644468189 0 -0.0015412704316950887 0.00027486172395696832 0 -0.0020190422765818047 7.6431142660501156e-05 0 -0.0015412704316950887 0.00027486172395696832 0 -0.0021003711435305214 0.00010981774592686175 0 -0.0020190422765818047 7.6431142660501156e-05 0 -0.0021003711435305214 0.00010981774592686175 0 -0.0028824861216011038 -9.186040929406616e-05 0 -0.0027976753571912292 -5.1020447963016442e-05 0 -0.002769363166584046 -0.00013511789124750722 0 -0.0013202729417678078 0.0004386819922348968 0 -0.0013005594621072587 0.00058107523080716539 0 -0.0012104746215985266 0.000466194289825862 0 -0.0019886540542981843 0.00023431342196240172 0 -0.0021003711435305214 0.00010981774592686175 0 -0.0013005594621072587 0.00058107523080716539 0 -0.00109460698369376 0.00049579442863136025 0 -0.0012104746215985266 0.000466194289825862 0 -0.00099679779491964314 -2.3411217391309791e-05 0 -0.0010055878296146127 -1.04267773760318e-05 0 -0.00095956289498893221 -1.7158804393122407e-05 0 -0.0013051611621407049 7.607996248698436e-05 0 -0.0012847845906998657 4.8044213846278958e-05 0 -0.00099679779491964314 -2.3411217391309791e-05 0 -0.0010055878296146127 -1.04267773760318e-05 0 -0.0010478658969968228 7.8238851221936328e-07 0 -0.0010382042306790202 -1.6079303493054348e-07 0 -0.0010055878296146127 -1.04267773760318e-05 0 -0.00095956289498893221 -1.7158804393122407e-05 0 -0.0010382042306790202 -1.6079303493054348e-07 0 -0.0010055878296146127 -1.04267773760318e-05 0 -0.0010478658969968228 7.8238851221936328e-07 0 -0.0012847845906998657 4.8044213846278958e-05 0 -0.0013152631856068451 -1.5211185785252828e-08 0 -0.0010382042306790202 -1.6079303493054348e-07 0 -0.0010478658969968228 7.8238851221936328e-07 0 -0.001315076316236413 1.5544244021594677e-07 0 -0.0016131678947445436 0.00016888174644593705 0 -0.001527513942304879 0.00012945413373390089 0 -0.0016485335143117878 0.0001047768219893432 0 -0.001527513942304879 0.00012945413373390089 0 -0.0016485335143117878 0.0001047768219893432 0 -0.0016518691761600068 1.7077051602327238e-05 0 -0.0016485335143117878 0.0001047768219893432 0 -0.001722182439924826 7.1075593582113806e-05 0 -0.0016957062664863575 0.00013942787961942761 0 -0.001722182439924826 7.1075593582113806e-05 0 -0.001735953333825269 0.00012013373355716781 0 -0.0016957062664863575 0.00013942787961942761 0 -0.001735953333825269 0.00012013373355716781 0 -0.0016957062664863575 0.00013942787961942761 0 -0.0017519601394909608 0.00016574362250838502 0 -0.0016131678947445436 0.00016888174644593705 0 -0.0016485335143117878 0.0001047768219893432 0 -0.0016957062664863575 0.00013942787961942761 0 -0.0013691872827002029 9.929322081694642e-05 0 -0.0010155093848945738 3.1835507423813643e-05 0 -0.0013051611621407049 7.607996248698436e-05 0 -0.0013691872827002029 9.929322081694642e-05 0 -0.0016131678947445436 0.00016888174644593705 0 -0.0016957062664863575 0.00013942787961942761 0 -0.0016650903296316173 0.00020861330274063336 0 -0.00099679779491964314 -2.3411217391309791e-05 0 -0.0010447777950543051 2.5521736057433853e-05 0 -0.00099581921386113692 3.6269288232735376e-05 0 -0.0013691872827002029 9.929322081694642e-05 0 -0.001650624939940388 0.00013517361666984574 0 -0.0016957062664863575 0.00013942787961942761 0 -0.0016650903296316173 0.00020861330274063336 0 -0.0017519601394909608 0.00016574362250838502 0 -0.0013714587326589774 0.00012814984540437832 0 -0.0014463490428499061 0.00014959328308356755 0 -0.0014901708825593594 9.129413725299247e-05 0 -0.0013714587326589774 0.00012814984540437832 0 -0.0014463490428499061 0.00014959328308356755 0 -0.0014360496680728035 0.00019638686774614065 0 -0.0013691872827002029 9.929322081694642e-05 0 -0.0014082096807072157 0.00016467144669975132 0 -0.0012617774633882884 -3.152946070820006e-05 0 -0.0013049520048996168 0.00012000713281533076 0 -0.0014360496680728035 0.00019638686774614065 0 -0.0012617774633882884 -3.152946070820006e-05 0 -0.001151012788842721 0.0001636194165375224 0 -0.0010664515761350786 1.4359404439185607e-05 0 -0.001151012788842721 0.0001636194165375224 0 -0.0013049520048996168 0.00012000713281533076 0 -0.0014220713398277525 0.00023593310642160595 0 -0.0012617774633882884 -3.152946070820006e-05 0 -0.001151012788842721 0.0001636194165375224 0 -0.0013049520048996168 0.00012000713281533076 0 -0.0010155093848945738 3.1835507423813643e-05 0 -0.00077082954615410708 3.4161841368987068e-05 0 -0.00044843032858629759 3.7755207044259829e-05 0 -0.00057425230436378638 5.2037742836939994e-05 0 -0.00055126538759768192 -1.821149395982989e-05 0 -0.0007871282995104053 9.9226207894318014e-05 0 -0.00077082954615410708 3.4161841368987068e-05 0 -0.001151012788842721 0.0001636194165375224 0 -0.0010664515761350786 1.4359404439185607e-05 0 -0.0008672735207377563 6.5039323295178848e-05 0 -0.00099581921386113692 3.6269288232735376e-05 0 -0.00094914203941469735 9.7930330054981463e-06 0 -0.00088721183847327979 7.0774509903364293e-05 0 -0.00099679779491964314 -2.3411217391309791e-05 0 -0.00099581921386113692 3.6269288232735376e-05 0 -0.00094914203941469735 9.7930330054981463e-06 0 -0.00099679779491964314 -2.3411217391309791e-05 0 -0.00095956289498893221 -1.7158804393122407e-05 0 -0.00094914203941469735 9.7930330054981463e-06 0 -0.0010382042306790202 -1.6079303493054348e-07 0 -0.00095956289498893221 -1.7158804393122407e-05 0 -0.00076154851842233796 1.7050395590914299e-07 0 -0.00095956289498893221 -1.7158804393122407e-05 0 -0.00094914203941469735 9.7930330054981463e-06 0 -0.00076154851842233796 1.7050395590914299e-07 0 -0.00077082954615410708 3.4161841368987068e-05 0 -0.00070125363538908509 4.8912541131828203e-08 0 -0.00076090731545774024 -8.5463699703424311e-10 0 -0.00072690273849757784 1.1082619355550826e-07 0 -0.00070158171227267829 9.3843529340815145e-10 0 -0.0007612220883401402 3.5200218768351277e-08 0 -0.00077082954615410708 3.4161841368987068e-05 0 -0.00094914203941469735 9.7930330054981463e-06 0 -0.00076154851842233796 1.7050395590914299e-07 0 -0.00088721183847327979 7.0774509903364293e-05 0 -0.00057425230436378638 5.2037742836939994e-05 0 -0.00070078114719378617 1.4544342032751066e-07 0 -0.00055126538759768192 -1.821149395982989e-05 0 -0.00055126538759768192 -1.821149395982989e-05 0 -0.00051877787297006385 -4.2546696477143938e-05 0 -0.00044909288147810449 -1.4007953438696795e-07 0 -0.00070078114719378617 1.4544342032751066e-07 0 -0.00055126538759768192 -1.821149395982989e-05 0 -0.00044909288147810449 -1.4007953438696795e-07 0 -0.00044843032858629759 3.7755207044259829e-05 0 -0.00055126538759768192 -1.821149395982989e-05 0 -0.00051877787297006385 -4.2546696477143938e-05 0 -0.00036145480791785727 -6.5607296815428153e-06 0 -0.00028577249281014892 -2.9938426037360901e-05 0 -0.00020847635005659401 3.8092135244662665e-05 0 -0.00021184439387419683 -2.4254570890743165e-05 0 -0.00017349689443960662 -7.002227903658135e-06 0 -0.00044815794740615952 1.6807274221838697e-07 0 -0.00019087570193816047 -1.1919794871633131e-07 0 -0.00021184439387419683 -2.4254570890743165e-05 0 -0.00036145480791785727 -6.5607296815428153e-06 0 -0.00044857106299700327 -7.5744269154754906e-10 0 -0.00020847635005659401 3.8092135244662665e-05 0 -0.00044815794740615952 1.6807274221838697e-07 0 -0.00021184439387419683 -2.4254570890743165e-05 0 -0.00019087570193816047 -1.1919794871633131e-07 0 -0.00021184439387419683 -2.4254570890743165e-05 0 -0.00012863258988416105 -2.63687749684838e-05 0 -0.00021184439387419683 -2.4254570890743165e-05 0 -0.00016546348971729709 -2.3925997415957263e-05 0 -0.00012863258988416105 -2.63687749684838e-05 0 -0.00021184439387419683 -2.4254570890743165e-05 0 -0.00016546348971729709 -2.3925997415957263e-05 0 -0.00017349689443960662 -7.002227903658135e-06 0 -0.00016546348971729709 -2.3925997415957263e-05 0 -0.00012863258988416105 -2.63687749684838e-05 0 -0.00014508394563557923 -2.4068000197751375e-05 0 -4.0522664217133121e-05 -3.7896522954851709e-06 0 -0.00012863258988416105 -2.63687749684838e-05 0 -0.00010810257168883046 -1.9831975235844958e-05 0 -0.00012863258988416105 -2.63687749684838e-05 0 -0.00014508394563557923 -2.4068000197751375e-05 0 -0.00010810257168883046 -1.9831975235844958e-05 0 -0.00014508394563557923 -2.4068000197751375e-05 0 -0.00012827172538715429 -1.8496354293779506e-05 0 -0.00010810257168883046 -1.9831975235844958e-05 0 -9.3108965110377998e-05 -7.44451188747644e-06 0 -0.00012827172538715429 -1.8496354293779506e-05 0 -0.00010810257168883046 -1.9831975235844958e-05 0 -4.0522664217133121e-05 -3.7896522954851709e-06 0 -9.3108965110377998e-05 -7.44451188747644e-06 0 -0.00010810257168883046 -1.9831975235844958e-05 0 6.7021220601749671e-05 -7.6124833917307054e-08 0 -0.00019087570193816047 -1.1919794871633131e-07 0 -0.00012863258988416105 -2.63687749684838e-05 0 6.7021220601749671e-05 -7.6124833917307054e-08 0 -4.0522664217133121e-05 -3.7896522954851709e-06 0 -0.00012863258988416105 -2.63687749684838e-05 0 -0.00018915633140615941 3.5749650713722671e-05 0 -0.00020589642245787064 2.3563668938438236e-05 0 -0.0002020369341747721 4.5635356603026465e-05 0 -0.00018915633140615941 3.5749650713722671e-05 0 -0.00020589642245787064 2.3563668938438236e-05 0 -0.00018962096610379583 1.8432709024553359e-05 0 -0.00022092794236172887 2.9330031665565469e-05 0 -0.00020589642245787064 2.3563668938438236e-05 0 -0.0002020369341747721 4.5635356603026465e-05 0 -0.00022092794236172887 2.9330031665565469e-05 0 -0.00020589642245787064 2.3563668938438236e-05 0 -0.00022295472650567044 1.0907137250574029e-05 0 -0.00021065613954318976 1.0262183140481226e-05 0 -9.8859074389407825e-05 4.8309861476019977e-05 0 -0.00022092794236172887 2.9330031665565469e-05 0 -0.00021010052178621158 3.6332553937047108e-05 0 -0.00022903452411148664 3.4008175562591934e-05 0 -0.00018915633140615941 3.5749650713722671e-05 0 -0.00020182280148701119 4.8404288385852463e-05 0 -0.00018897755998457813 5.755140285633193e-05 0 -9.8859074389407825e-05 4.8309861476019977e-05 0 8.2188435071477956e-05 5.0780172547289511e-05 0 -0.00015441164019493422 6.543885194959085e-05 0 -9.8859074389407825e-05 4.8309861476019977e-05 0 -0.00018409341249074363 5.7580049292191295e-05 0 -0.00015748608110905882 4.0308867063548958e-05 0 -0.0001656649221447386 2.9055203817228742e-05 0 8.2188435071477956e-05 5.0780172547289511e-05 0 -0.000165435562701895 8.9158734449561677e-05 0 -0.00013233399596042993 1.5539971758244163e-05 0 -0.00012827172538715429 -1.8496354293779506e-05 0 -0.0001484100968312301 -2.1650748803463525e-05 0 -0.00018915633140615941 3.5749650713722671e-05 0 -0.00018897755998457813 5.755140285633193e-05 0 -0.0001656649221447386 2.9055203817228742e-05 0 -0.00014021493691417349 8.6370688010371427e-05 0 -0.00018409341249074363 5.7580049292191295e-05 0 -0.00015748608110905882 4.0308867063548958e-05 0 -0.00015748608110905882 4.0308867063548958e-05 0 -0.0001656649221447386 2.9055203817228742e-05 0 -0.00017794863851446939 -7.3067020330546268e-06 0 -0.00014508394563557923 -2.4068000197751375e-05 0 -0.0001484100968312301 -2.1650748803463525e-05 0 -0.00017794863851446939 -7.3067020330546268e-06 0 -0.00014508394563557923 -2.4068000197751375e-05 0 -0.00012827172538715429 -1.8496354293779506e-05 0 -0.0001484100968312301 -2.1650748803463525e-05 0 -0.00018915633140615941 3.5749650713722671e-05 0 -0.0001656649221447386 2.9055203817228742e-05 0 -0.00018962096610379583 1.8432709024553359e-05 0 -0.0001656649221447386 2.9055203817228742e-05 0 -0.00017794863851446939 -7.3067020330546268e-06 0 -0.00018962096610379583 1.8432709024553359e-05 0 -0.00016202397739715392 2.507298774599663e-06 0 -0.00017113134091634638 -6.1274276231197382e-06 0 -0.00016546348971729709 -2.3925997415957263e-05 0 -0.00014508394563557923 -2.4068000197751375e-05 0 -0.00017794863851446939 -7.3067020330546268e-06 0 -0.00016546348971729709 -2.3925997415957263e-05 0 -0.00017794863851446939 -7.3067020330546268e-06 0 -0.00017349689443960662 -7.002227903658135e-06 0 -0.00017794863851446939 -7.3067020330546268e-06 0 -0.00020381170379778083 -4.7556810300459482e-06 0 -0.00020539489961214093 8.674677508381393e-06 0 -0.00017794863851446939 -7.3067020330546268e-06 0 -0.00018962096610379583 1.8432709024553359e-05 0 -0.00020539489961214093 8.674677508381393e-06 0 -0.00020589642245787064 2.3563668938438236e-05 0 -0.00018962096610379583 1.8432709024553359e-05 0 -0.00020539489961214093 8.674677508381393e-06 0 -0.00020589642245787064 2.3563668938438236e-05 0 -0.00020539489961214093 8.674677508381393e-06 0 -0.00022295472650567044 1.0907137250574029e-05 0 -0.00020381170379778083 -4.7556810300459482e-06 0 -0.00020539489961214093 8.674677508381393e-06 0 -0.00022444364296849857 -5.7065513541190632e-06 0 -0.00020539489961214093 8.674677508381393e-06 0 -0.00022444364296849857 -5.7065513541190632e-06 0 -0.00022295472650567044 1.0907137250574029e-05 0 -0.00020487806007116961 -1.0554113367122492e-05 0 -0.00017983214521783387 -1.3242700164435188e-05 0 -0.0002489885938642997 -2.698802368917621e-05 0 -0.00020381170379778083 -4.7556810300459482e-06 0 -0.00020487806007116961 -1.0554113367122492e-05 0 -0.00023041730129483398 -1.6479712821908656e-05 0 -0.00020381170379778083 -4.7556810300459482e-06 0 -0.00022444364296849857 -5.7065513541190632e-06 0 -0.00023041730129483398 -1.6479712821908656e-05 0 -0.00017794863851446939 -7.3067020330546268e-06 0 -0.00020381170379778083 -4.7556810300459482e-06 0 -0.00020487806007116961 -1.0554113367122492e-05 0 -0.00020487806007116961 -1.0554113367122492e-05 0 -0.00023041730129483398 -1.6479712821908656e-05 0 -0.0002489885938642997 -2.698802368917621e-05 0 -0.00020847635005659401 3.8092135244662665e-05 0 -0.00017349689443960662 -7.002227903658135e-06 0 -0.00017983214521783387 -1.3242700164435188e-05 0 -0.00017794863851446939 -7.3067020330546268e-06 0 -0.00020487806007116961 -1.0554113367122492e-05 0 -0.00017349689443960662 -7.002227903658135e-06 0 -0.00020487806007116961 -1.0554113367122492e-05 0 -0.00017349689443960662 -7.002227903658135e-06 0 -0.00017983214521783387 -1.3242700164435188e-05 0 -0.0007871282995104053 9.9226207894318014e-05 0 -0.00085095255485856999 0.00011271784566373962 0 -0.00044843032858629759 3.7755207044259829e-05 0 -0.00051877787297006385 -4.2546696477143938e-05 0 -0.00038277120626928178 -5.8996147508263751e-05 0 -0.00044843032858629759 3.7755207044259829e-05 0 -0.00038277120626928178 -5.8996147508263751e-05 0 -0.00027295306663606606 -3.7993680091207855e-06 0 -0.00038277120626928178 -5.8996147508263751e-05 0 -0.0002489885938642997 -2.698802368917621e-05 0 -0.00027295306663606606 -3.7993680091207855e-06 0 -0.00028577249281014892 -2.9938426037360901e-05 0 -0.00025263933903983828 -2.9736041456127927e-05 0 -0.0013049520048996168 0.00012000713281533076 0 -0.0014220713398277525 0.00023593310642160595 0 -0.0014360496680728035 0.00019638686774614065 0 -0.0014220713398277525 0.00023593310642160595 0 -0.0014360496680728035 0.00019638686774614065 0 -0.0014746724213454074 0.00020502985703686755 0 -0.00085095255485856999 0.00011271784566373962 0 -0.00084842055082752976 0.00010140555645141103 0 -0.0002489885938642997 -2.698802368917621e-05 0 -0.00027295306663606606 -3.7993680091207855e-06 0 -0.00024052769307473631 -3.1570583884861506e-05 0 -0.0014220713398277525 0.00023593310642160595 0 -0.0014746724213454074 0.00020502985703686755 0 -0.0014955354501431329 0.00021884976744600463 0 -0.0014746724213454074 0.00020502985703686755 0 -0.0015009170105665147 0.00020370998944983353 0 -0.0014955354501431329 0.00021884976744600463 0 -0.0015009170105665147 0.00020370998944983353 0 -0.0015101439701396386 0.0002190189032035338 0 -0.0015108529055427233 0.00020027701053980301 0 -0.0015009170105665147 0.00020370998944983353 0 -0.0014955354501431329 0.00021884976744600463 0 -0.0015101439701396386 0.0002190189032035338 0 -0.00025367646436025239 -1.3128470283256904e-05 0 -0.00027785142007608922 -3.1306597549420343e-06 0 -0.00029274700047019658 -2.2835598049768823e-05 0 -0.00084842055082752976 0.00010140555645141103 0 -0.0010104800353125285 1.4494748292382045e-05 0 -0.00024052769307473631 -3.1570583884861506e-05 0 -0.00025367646436025239 -1.3128470283256904e-05 0 -0.00029274700047019658 -2.2835598049768823e-05 0 -0.0002489885938642997 -2.698802368917621e-05 0 -0.00024052769307473631 -3.1570583884861506e-05 0 -0.00023841681498433534 -2.0653914891213244e-05 0 -0.00023041730129483398 -1.6479712821908656e-05 0 -0.0002489885938642997 -2.698802368917621e-05 0 -0.00023841681498433534 -2.0653914891213244e-05 0 -0.00024052769307473631 -3.1570583884861506e-05 0 -0.00025367646436025239 -1.3128470283256904e-05 0 -0.00023841681498433534 -2.0653914891213244e-05 0 -0.00025367646436025239 -1.3128470283256904e-05 0 -0.00023841681498433534 -2.0653914891213244e-05 0 -0.00023881483035437427 -3.3907896738424085e-06 0 -0.00022444364296849857 -5.7065513541190632e-06 0 -0.00023841681498433534 -2.0653914891213244e-05 0 -0.00023881483035437427 -3.3907896738424085e-06 0 -0.00022444364296849857 -5.7065513541190632e-06 0 -0.00023041730129483398 -1.6479712821908656e-05 0 -0.00023841681498433534 -2.0653914891213244e-05 0 -0.00022444364296849857 -5.7065513541190632e-06 0 -0.00022295472650567044 1.0907137250574029e-05 0 -0.00023881483035437427 -3.3907896738424085e-06 0 -0.00022092794236172887 2.9330031665565469e-05 0 -0.00022295472650567044 1.0907137250574029e-05 0 -0.0002373601864070111 1.5879861946758436e-05 0 -0.00022295472650567044 1.0907137250574029e-05 0 -0.0002373601864070111 1.5879861946758436e-05 0 -0.00023881483035437427 -3.3907896738424085e-06 0 -0.0002373601864070111 1.5879861946758436e-05 0 -0.00023881483035437427 -3.3907896738424085e-06 0 -0.00025424777133325132 1.1574289194638559e-06 0 -0.00025367646436025239 -1.3128470283256904e-05 0 -0.00023881483035437427 -3.3907896738424085e-06 0 -0.00025424777133325132 1.1574289194638559e-06 0 -0.00025424777133325132 1.1574289194638559e-06 0 -0.0002769381678851961 2.7765697733185647e-05 0 -0.00027785142007608922 -3.1306597549420343e-06 0 -0.00025424777133325132 1.1574289194638559e-06 0 -0.00025251283242033127 1.9490520422746169e-05 0 -0.0002769381678851961 2.7765697733185647e-05 0 -0.00025367646436025239 -1.3128470283256904e-05 0 -0.00025424777133325132 1.1574289194638559e-06 0 -0.00027785142007608922 -3.1306597549420343e-06 0 -0.0002373601864070111 1.5879861946758436e-05 0 -0.00025424777133325132 1.1574289194638559e-06 0 -0.00025251283242033127 1.9490520422746169e-05 0 -0.00025493658717234193 5.1044866484140611e-05 0 -0.00024334221094719839 3.3739561889203429e-05 0 -0.0002769381678851961 2.7765697733185647e-05 0 -0.00013135150740754459 -0.00030422690385482513 0 -0.00019263071164204575 -0.0002906577888210542 0 -0.00015054684385975962 -0.00023944089462441085 0 -0.00025251283242033127 1.9490520422746169e-05 0 -0.00024334221094719839 3.3739561889203429e-05 0 -0.0002769381678851961 2.7765697733185647e-05 0 -0.00011515010957965559 -0.00010678093955140032 0 -0.00019546971349839482 -8.3704735898401742e-05 0 -0.00011515010957965559 -0.00010678093955140032 0 -0.00025883763761115023 7.1531121192330345e-05 0 -0.00023464013923543551 4.5056752676222886e-05 0 -0.0002484411653333751 4.518714410436522e-05 0 -0.00024334221094719839 3.3739561889203429e-05 0 -0.00023464013923543551 4.5056752676222886e-05 0 -0.00024334221094719839 3.3739561889203429e-05 0 -0.00022903452411148664 3.4008175562591934e-05 0 -0.00023464013923543551 4.5056752676222886e-05 0 -0.00021010052178621158 3.6332553937047108e-05 0 -0.00022903452411148664 3.4008175562591934e-05 0 -0.00022092794236172887 2.9330031665565469e-05 0 -0.0002373601864070111 1.5879861946758436e-05 0 -0.00022903452411148664 3.4008175562591934e-05 0 -0.0002373601864070111 1.5879861946758436e-05 0 -0.00024334221094719839 3.3739561889203429e-05 0 -0.00022903452411148664 3.4008175562591934e-05 0 -0.0002373601864070111 1.5879861946758436e-05 0 -0.00025251283242033127 1.9490520422746169e-05 0 -0.00024334221094719839 3.3739561889203429e-05 0 -0.00059548197454173564 -0.00046410125255173334 0 -0.00059832390411971356 -0.00047005623654880046 0 -0.00059560756733700588 -0.00047475453717284822 0 -0.00036213770063633899 -0.00042667597012199641 0 -0.00043366028809611195 -0.0002267989555734874 0 -0.00059832390411971356 -0.00047005623654880046 0 -0.00060289232358165556 -0.0004747646267682409 0 -0.00060288000065392903 -0.00047136445219129834 0 -0.00060273084170152217 -0.00046522867498860585 0 -0.00059832390411971356 -0.00047005623654880046 0 -0.00060288000065392903 -0.00047136445219129834 0 -0.00060273084170152217 -0.00046522867498860585 0 -0.00059627242384805703 -0.0004638433496841456 0 -0.00059832390411971356 -0.00047005623654880046 0 -0.00036213770063633899 -0.00042667597012199641 0 -0.00056922420960070974 -0.00048839801804095959 0 -7.011179884553316e-05 -0.00029619357590298328 0 -0.00015054684385975962 -0.00023944089462441085 0 -0.00011020902198700614 -0.00018835245710924128 0 -0.0002769381678851961 2.7765697733185647e-05 0 -0.00027785142007608922 -3.1306597549420343e-06 0 -0.00029989342326315496 4.3396335287177414e-06 0 -0.00019546971349839482 -8.3704735898401742e-05 0 -0.00043366028809611195 -0.0002267989555734874 0 -0.00027785142007608922 -3.1306597549420343e-06 0 -0.00029989342326315496 4.3396335287177414e-06 0 -0.00029274700047019658 -2.2835598049768823e-05 0 -0.00043366028809611195 -0.0002267989555734874 0 -0.0010000150508290826 -0.00020083473493347993 0 -0.00059560756733700588 -0.00047475453717284822 0 -0.00060289232358165556 -0.0004747646267682409 0 -0.00060067225683658359 -0.00047879892205185377 0 -0.00059832390411971356 -0.00047005623654880046 0 -0.00059560756733700588 -0.00047475453717284822 0 -0.00060289232358165556 -0.0004747646267682409 0 -0.0010000150508290826 -0.00020083473493347993 0 -0.0014755465806501251 1.7318443910782681e-05 0 -0.0012944326440773634 -3.911903966445449e-05 0 -0.0013648435295910096 -1.3656946795898294e-05 0 -0.0013184384232918921 7.4179699246639875e-05 0 -0.00043366028809611195 -0.0002267989555734874 0 -0.0010104800353125285 1.4494748292382045e-05 0 -0.0010000150508290826 -0.00020083473493347993 0 -0.0010104800353125285 1.4494748292382045e-05 0 -0.00080978336246833498 -0.00018370839357360484 0 -0.00076070785011790739 -0.00012257155583661784 0 -0.00084212567484559867 -9.2519325648284556e-05 0 -0.0010104800353125285 1.4494748292382045e-05 0 -0.0015678074998776445 0.00019512534830373876 0 -0.0013648435295910096 -1.3656946795898294e-05 0 -0.0013184384232918921 7.4179699246639875e-05 0 -0.0014085934398277852 0.00010837677146536588 0 -0.0014895442188723534 0.00010619456450180612 0 -0.0015678074998776445 0.00019512534830373876 0 -0.0016882902825998286 0.00014766602888821836 0 -0.0016817079679463795 0.00012543275908089667 0 -0.0016760144980255195 0.00010450578148933803 0 -0.0014895442188723534 0.00010619456450180612 0 -0.0014755465806501251 1.7318443910782681e-05 0 -0.0012944326440773634 -3.911903966445449e-05 0 -0.0013184384232918921 7.4179699246639875e-05 0 -0.00123124544456362 4.0696744483238537e-05 0 -0.0016882902825998286 0.00014766602888821836 0 -0.0016941444891561371 0.00014783958270086405 0 -0.0016817079679463795 0.00012543275908089667 0 -0.0016882902825998286 0.00014766602888821836 0 -0.0016941444891561371 0.00014783958270086405 0 -0.0016810963163529132 0.00015137735828570155 0 -0.0016941444891561371 0.00014783958270086405 0 -0.001683771379943366 0.00014357772916681193 0 -0.0016810963163529132 0.00015137735828570155 0 -0.0016941444891561371 0.00014783958270086405 0 -0.0017205221798451639 0.00014286193334509572 0 -0.001683771379943366 0.00014357772916681193 0 -0.0017205221798451639 0.00014286193334509572 0 -0.001683771379943366 0.00014357772916681193 0 -0.0016421487134021682 8.4099857190172124e-05 0 -0.001683771379943366 0.00014357772916681193 0 -0.0016408081084693387 0.00013235488236129143 0 -0.0016421487134021682 8.4099857190172124e-05 0 -0.0016408081084693387 0.00013235488236129143 0 -0.0016604483623532059 0.00015096949138591385 0 -0.0016180292687864215 0.00015494281681136205 0 -0.001683771379943366 0.00014357772916681193 0 -0.0016408081084693387 0.00013235488236129143 0 -0.0016604483623532059 0.00015096949138591385 0 -0.0016882902825998286 0.00014766602888821836 0 -0.0016810963163529132 0.00015137735828570155 0 -0.0016486293200299079 0.00017002283322636823 0 -0.0016604483623532059 0.00015096949138591385 0 -0.0016486293200299079 0.00017002283322636823 0 -0.0016180292687864215 0.00015494281681136205 0 -0.001683771379943366 0.00014357772916681193 0 -0.0016604483623532059 0.00015096949138591385 0 -0.0016810963163529132 0.00015137735828570155 0 -0.0016604483623532059 0.00015096949138591385 0 -0.0016810963163529132 0.00015137735828570155 0 -0.0016486293200299079 0.00017002283322636823 0 -0.0015009170105665147 0.00020370998944983353 0 -0.0015108529055427233 0.00020027701053980301 0 -0.001492165244543101 0.00017411805535479187 0 -0.0016445591290229966 0.00023448031544107421 0 -0.0016180292687864215 0.00015494281681136205 0 -0.001492165244543101 0.00017411805535479187 0 -0.0015678074998776445 0.00019512534830373876 0 -0.0015011959113374639 0.00018341379921570024 0 -0.0015678074998776445 0.00019512534830373876 0 -0.0016120308589573566 0.00017193916281093888 0 -0.0016180292687864215 0.00015494281681136205 0 -0.001492165244543101 0.00017411805535479187 0 -0.0015736373281271118 0.0001234448973395912 0 -0.0014360496680728035 0.00019638686774614065 0 -0.0014746724213454074 0.00020502985703686755 0 -0.001492165244543101 0.00017411805535479187 0 -0.0014463490428499061 0.00014959328308356755 0 -0.0014360496680728035 0.00019638686774614065 0 -0.001492165244543101 0.00017411805535479187 0 -0.0014746724213454074 0.00020502985703686755 0 -0.0015009170105665147 0.00020370998944983353 0 -0.001492165244543101 0.00017411805535479187 0 -0.0014463490428499061 0.00014959328308356755 0 -0.001492165244543101 0.00017411805535479187 0 -0.0014901708825593594 9.129413725299247e-05 0 -0.001492165244543101 0.00017411805535479187 0 -0.0014901708825593594 9.129413725299247e-05 0 -0.0015736373281271118 0.0001234448973395912 0 -0.0014901708825593594 9.129413725299247e-05 0 -0.0015736373281271118 0.0001234448973395912 0 -0.0016421487134021682 8.4099857190172124e-05 0 -0.001650624939940388 0.00013517361666984574 0 -0.0017117970225062446 9.920416029469754e-05 0 -0.0016408081084693387 0.00013235488236129143 0 -0.0016180292687864215 0.00015494281681136205 0 -0.0015736373281271118 0.0001234448973395912 0 -0.0016408081084693387 0.00013235488236129143 0 -0.0015736373281271118 0.0001234448973395912 0 -0.0016421487134021682 8.4099857190172124e-05 0 -0.0017519601394909608 0.00016574362250838502 0 -0.0017734500410429449 0.00010243038080241486 0 -0.0018048516822760385 0.00011009320951632094 0 -0.0017734500410429449 0.00010243038080241486 0 -0.0017988692124166509 9.2020285446788063e-05 0 -0.0018048516822760385 0.00011009320951632094 0 -0.001735953333825269 0.00012013373355716781 0 -0.0017519601394909608 0.00016574362250838502 0 -0.0017734500410429449 0.00010243038080241486 0 -0.001722182439924826 7.1075593582113806e-05 0 -0.0017734500410429449 0.00010243038080241486 0 -0.0017954160940587232 4.3809831682809556e-05 0 -0.001722182439924826 7.1075593582113806e-05 0 -0.001735953333825269 0.00012013373355716781 0 -0.0017734500410429449 0.00010243038080241486 0 -0.0017988692124166509 9.2020285446788063e-05 0 -0.0018158212382804314 6.6873515855543687e-05 0 -0.0017954160940587232 4.3809831682809556e-05 0 -0.0017734500410429449 0.00010243038080241486 0 -0.0017988692124166509 9.2020285446788063e-05 0 -0.0017954160940587232 4.3809831682809556e-05 0 -0.0017988692124166509 9.2020285446788063e-05 0 -0.0018158212382804314 6.6873515855543687e-05 0 -0.0017937641953684426 9.3557359737586534e-05 0 -0.0017937641953684426 9.3557359737586534e-05 0 -0.0017958385940240135 7.4371687849708774e-05 0 -0.0018167580764204523 5.7335785445741195e-05 0 -0.0018158212382804314 6.6873515855543687e-05 0 -0.0017937641953684426 9.3557359737586534e-05 0 -0.0018167580764204523 5.7335785445741195e-05 0 -0.0017562668748580708 9.3368902138567467e-05 0 -0.0017937641953684426 9.3557359737586534e-05 0 -0.0017958385940240135 7.4371687849708774e-05 0 -0.0017205221798451639 0.00014286193334509572 0 -0.0017562668748580708 9.3368902138567467e-05 0 -0.0016421487134021682 8.4099857190172124e-05 0 -0.0017988692124166509 9.2020285446788063e-05 0 -0.0017937641953684426 9.3557359737586534e-05 0 -0.0018048516822760385 0.00011009320951632094 0 -0.0017554134752297394 9.3033173632741569e-05 0 -0.0017117970225062446 9.920416029469754e-05 0 -0.0017562668748580708 9.3368902138567467e-05 0 -0.0017937641953684426 9.3557359737586534e-05 0 -0.0018048516822760385 0.00011009320951632094 0 -0.0016106700602850688 0.00028404721663533277 0 -0.0015020109579783098 0.00030970456438735581 0 -0.0016182674092591028 0.00028296494531981328 0 -0.0014473725151657047 0.00033703392149629586 0 -0.0015376311299702408 0.00022669633636065301 0 -0.001617413644659829 0.00030877615372384596 0 -0.0016182674092591028 0.00028296494531981328 0 -0.0015894113861149716 0.00031187566364358185 0 -0.0016182674092591028 0.00028296494531981328 0 -0.0015894113861149716 0.00031187566364358185 0 -0.0015521901845898937 0.00028762017489145531 0 -0.0017205221798451639 0.00014286193334509572 0 -0.0017562668748580708 9.3368902138567467e-05 0 -0.0018043949144285107 8.8009156861486613e-05 0 -0.0017562668748580708 9.3368902138567467e-05 0 -0.0018043949144285107 8.8009156861486613e-05 0 -0.0017958385940240135 7.4371687849708774e-05 0 -0.001617413644659829 0.00030877615372384596 0 -0.0016182674092591028 0.00028296494531981328 0 -0.0016910947443482395 0.00017340248256670162 0 -0.0017099185078876418 0.0001923713045137316 0 -0.0016970121674354805 0.00016835193265582972 0 -0.0017958385940240135 7.4371687849708774e-05 0 -0.0018382866693022113 4.1086720049140002e-05 0 -0.0018167580764204523 5.7335785445741195e-05 0 -0.0018043949144285107 8.8009156861486613e-05 0 -0.0017958385940240135 7.4371687849708774e-05 0 -0.0018382866693022113 4.1086720049140002e-05 0 -0.001617413644659829 0.00030877615372384596 0 -0.0015894113861149716 0.00031187566364358185 0 -0.0016008170944430068 0.00033386220496893818 0 -0.0017099185078876418 0.0001923713045137316 0 -0.0017191075656135823 0.00018808737293239168 0 -0.0015894113861149716 0.00031187566364358185 0 -0.0015521901845898937 0.00028762017489145531 0 -0.0015549206226802901 0.00033241632941860837 0 -0.0014473725151657047 0.00033703392149629586 0 -0.0013792158164496963 0.00029041972075335895 0 -0.0013520047779941582 0.00032388124195429995 0 -0.0015521901845898937 0.00028762017489145531 0 -0.0014816881577896374 0.00028931727164239042 0 -0.0015549206226802901 0.00033241632941860837 0 -0.0015020109579783098 0.00030970456438735581 0 -0.0014175924882316763 0.0003082533663326055 0 -0.0014473725151657047 0.00033703392149629586 0 -0.0013792158164496963 0.00029041972075335895 0 -0.0014149411612771057 0.00023316125621539876 0 -0.0014473725151657047 0.00033703392149629586 0 -0.0014149411612771057 0.00023316125621539876 0 -0.0015376311299702408 0.00022669633636065301 0 -0.0014149411612771057 0.00023316125621539876 0 -0.0015018572344093115 0.00015613319695221271 0 -0.0015376311299702408 0.00022669633636065301 0 -0.0013792158164496963 0.00029041972075335895 0 -0.0014149411612771057 0.00023316125621539876 0 -0.001323462904997869 0.0002295134327637387 0 -0.0014149411612771057 0.00023316125621539876 0 -0.0013713499969255606 0.00017713533920062324 0 -0.001323462904997869 0.0002295134327637387 0 -0.0013713499969255606 0.00017713533920062324 0 -0.0015018572344093115 0.00015613319695221271 0 -0.0014085450710893625 8.1840734702678459e-05 0 -0.0014149411612771057 0.00023316125621539876 0 -0.0013713499969255606 0.00017713533920062324 0 -0.0015018572344093115 0.00015613319695221271 0 -0.0015018572344093115 0.00015613319695221271 0 -0.0015946898860749266 0.00016122900723541191 0 -0.0015376311299702408 0.00022669633636065301 0 -0.0015018572344093115 0.00015613319695221271 0 -0.0015946898860749266 0.00016122900723541191 0 -0.0015803428850891602 0.00011198737976092324 0 -0.0015946898860749266 0.00016122900723541191 0 -0.0016607464739246379 0.00013845827483532048 0 -0.0015803428850891602 0.00011198737976092324 0 -0.0016182674092591028 0.00028296494531981328 0 -0.0015376311299702408 0.00022669633636065301 0 -0.0016910947443482395 0.00017340248256670162 0 -0.0015946898860749266 0.00016122900723541191 0 -0.0015376311299702408 0.00022669633636065301 0 -0.0016910947443482395 0.00017340248256670162 0 -0.0017205221798451639 0.00014286193334509572 0 -0.0018043949144285107 8.8009156861486613e-05 0 -0.0016910947443482395 0.00017340248256670162 0 -0.0016941444891561371 0.00014783958270086405 0 -0.0017205221798451639 0.00014286193334509572 0 -0.0016910947443482395 0.00017340248256670162 0 -0.0016941444891561371 0.00014783958270086405 0 -0.0016910947443482395 0.00017340248256670162 0 -0.0016607464739246379 0.00013845827483532048 0 -0.0015946898860749266 0.00016122900723541191 0 -0.0016910947443482395 0.00017340248256670162 0 -0.0016607464739246379 0.00013845827483532048 0 -0.0016941444891561371 0.00014783958270086405 0 -0.0016607464739246379 0.00013845827483532048 0 -0.0016817079679463795 0.00012543275908089667 0 -0.0016631531174876003 0.00010148743076125982 0 -0.0016920790907528833 6.5653944024898281e-05 0 -0.0015411562873957007 -4.3268662276216438e-06 0 -0.0016607464739246379 0.00013845827483532048 0 -0.0016817079679463795 0.00012543275908089667 0 -0.0016631531174876003 0.00010148743076125982 0 -0.0016817079679463795 0.00012543275908089667 0 -0.0016631531174876003 0.00010148743076125982 0 -0.0016760144980255195 0.00010450578148933803 0 -0.0016607464739246379 0.00013845827483532048 0 -0.0016631531174876003 0.00010148743076125982 0 -0.0015803428850891602 0.00011198737976092324 0 -0.0015706733895280874 2.5875981771323705e-05 0 -0.0014755465806501251 1.7318443910782681e-05 0 -0.0016631531174876003 0.00010148743076125982 0 -0.0015803428850891602 0.00011198737976092324 0 -0.0015411562873957007 -4.3268662276216438e-06 0 -0.0015803428850891602 0.00011198737976092324 0 -0.0015411562873957007 -4.3268662276216438e-06 0 -0.0015050295582116925 7.9412358573002594e-05 0 -0.0015018572344093115 0.00015613319695221271 0 -0.0015803428850891602 0.00011198737976092324 0 -0.0015050295582116925 7.9412358573002594e-05 0 -0.001301539631793192 -0.00012270309942871233 0 -0.0012407937803446914 -0.00014080686711578097 0 -0.0012673114028972888 -0.00015534314320977326 0 -0.0014755465806501251 1.7318443910782681e-05 0 -0.0013930286212460942 -7.7809214939010465e-05 0 -0.0012407937803446914 -0.00014080686711578097 0 -0.0012673114028972888 -0.00015534314320977326 0 -0.0012277464479430987 -0.00017802053241672101 0 -0.001328330987237301 -0.00015933533932932292 0 -0.0012918320187282624 -0.00015541874289523209 0 -0.0012686973558201293 -0.00018616598207866174 0 -0.001328330987237301 -0.00015933533932932292 0 -0.001301539631793192 -0.00012270309942871233 0 -0.0012918320187282624 -0.00015541874289523209 0 -0.001301539631793192 -0.00012270309942871233 0 -0.0012673114028972888 -0.00015534314320977326 0 -0.0012918320187282624 -0.00015541874289523209 0 -0.0012673114028972888 -0.00015534314320977326 0 -0.0012918320187282624 -0.00015541874289523209 0 -0.0012686973558201293 -0.00018616598207866174 0 -0.0010000150508290826 -0.00020083473493347993 0 -0.00092970242720444556 -0.00035165105272234214 0 -0.00060289232358165556 -0.0004747646267682409 0 -0.00060067225683658359 -0.00047879892205185377 0 -0.00061361398064970298 -0.00048019699135952969 0 -0.00060289232358165556 -0.0004747646267682409 0 -0.00060761017699090313 -0.00047481772700050189 0 -0.00061361398064970298 -0.00048019699135952969 0 -0.00060761017699090313 -0.00047481772700050189 0 -0.00061361398064970298 -0.00048019699135952969 0 -0.00061284754106563904 -0.00047655208585996778 0 -0.00092970242720444556 -0.00035165105272234214 0 -0.00091301095477353857 -0.00035103703318579364 0 -0.0012686973558201293 -0.00018616598207866174 0 -0.0011932671782367997 -0.00023146197978956784 0 -0.0012277464479430987 -0.00017802053241672101 0 -0.0012673114028972888 -0.00015534314320977326 0 -0.0012686973558201293 -0.00018616598207866174 0 -0.0012277464479430987 -0.00017802053241672101 0 -0.00061361398064970298 -0.00048019699135952969 0 -0.00061968712842483083 -0.00047546821635942885 0 -0.00062997545333088332 -0.00047254566512168293 0 -0.00061361398064970298 -0.00048019699135952969 0 -0.00061284754106563904 -0.00047655208585996778 0 -0.00061968712842483083 -0.00047546821635942885 0 -0.00061146210545845177 -0.00047666822491535102 0 -0.00061968712842483083 -0.00047546821635942885 0 -0.00061737909171193724 -0.0004749996813079766 0 -0.00061284754106563904 -0.00047655208585996778 0 -0.00061146210545845177 -0.00047666822491535102 0 -0.00061968712842483083 -0.00047546821635942885 0 -0.0006271575792227591 -0.00047328170451321137 0 -0.00061968712842483083 -0.00047546821635942885 0 -0.00062647303912181549 -0.00047278519703712005 0 -0.0006271575792227591 -0.00047328170451321137 0 -0.00061968712842483083 -0.00047546821635942885 0 -0.00061737909171193724 -0.0004749996813079766 0 -0.00061146210545845177 -0.00047666822491535102 0 -0.00061737909171193724 -0.0004749996813079766 0 -0.00059488868160568076 -0.00047527792881633924 0 -0.00062512282779452605 -0.00047411482147031867 0 -0.00061737909171193724 -0.0004749996813079766 0 -0.00059488868160568076 -0.00047527792881633924 0 -0.00058858299120424209 -0.00048343701479715317 0 -0.00060761017699090313 -0.00047481772700050189 0 -0.00059488868160568076 -0.00047527792881633924 0 -0.00060273084170152217 -0.00046522867498860585 0 -0.00060761017699090313 -0.00047481772700050189 0 -0.00060288000065392903 -0.00047136445219129834 0 -0.00060425828774338434 -0.00048340824560869273 0 -0.00060176700913001533 -0.00047027675800536626 0 -0.00060289232358165556 -0.0004747646267682409 0 -0.00060761017699090313 -0.00047481772700050189 0 -0.00060288000065392903 -0.00047136445219129834 0 -0.00060761017699090313 -0.00047481772700050189 0 -0.00061146210545845177 -0.00047666822491535102 0 -0.00059488868160568076 -0.00047527792881633924 0 -0.00060761017699090313 -0.00047481772700050189 0 -0.00061284754106563904 -0.00047655208585996778 0 -0.00061146210545845177 -0.00047666822491535102 0 -0.0006261591211596698 -0.00046895570857364319 0 -0.00062997545333088332 -0.00047254566512168293 0 -0.00062182040501446514 -0.00046335275392555414 0 -0.00091301095477353857 -0.00035103703318579364 0 -0.00082519202334552049 -0.00039304372552708561 0 -0.0011932671782367997 -0.00023146197978956784 0 -0.0011020200551455129 -0.00022129112624489714 0 -0.0010445837007160414 -0.0003294414893501119 0 -0.00061968712842483083 -0.00047546821635942885 0 -0.00062997545333088332 -0.00047254566512168293 0 -0.00062647303912181549 -0.00047278519703712005 0 -0.00062862051045105109 -0.00047178240234491006 0 -0.0006261591211596698 -0.00046895570857364319 0 -0.00062997545333088332 -0.00047254566512168293 0 -0.00062862051045105109 -0.00047178240234491006 0 -0.00062997545333088332 -0.00047254566512168293 0 -0.00062647303912181549 -0.00047278519703712005 0 -0.00062862051045105109 -0.00047178240234491006 0 -0.0006271575792227591 -0.00047328170451321137 0 -0.00062647303912181549 -0.00047278519703712005 0 -0.0011932671782367997 -0.00023146197978956784 0 -0.0012277464479430987 -0.00017802053241672101 0 -0.0011521028255838863 -0.00015751918496498333 0 -0.0011932671782367997 -0.00023146197978956784 0 -0.0011020200551455129 -0.00022129112624489714 0 -0.0011521028255838863 -0.00015751918496498333 0 -0.0013442188681366267 -8.2521443364107002e-05 0 -0.0014085450710893625 8.1840734702678459e-05 0 -0.0012092292112060479 0.00014551739753368599 0 -0.0013930286212460942 -7.7809214939010465e-05 0 -0.0012403910364248846 -0.00011825189130591245 0 -0.0012407937803446914 -0.00014080686711578097 0 -0.0012277464479430987 -0.00017802053241672101 0 -0.0011521028255838863 -0.00015751918496498333 0 -0.0015411562873957007 -4.3268662276216438e-06 0 -0.0013442188681366267 -8.2521443364107002e-05 0 -0.0014085450710893625 8.1840734702678459e-05 0 -0.0015411562873957007 -4.3268662276216438e-06 0 -0.0014085450710893625 8.1840734702678459e-05 0 -0.0015050295582116925 7.9412358573002594e-05 0 -0.0015018572344093115 0.00015613319695221271 0 -0.0014085450710893625 8.1840734702678459e-05 0 -0.0015050295582116925 7.9412358573002594e-05 0 -0.0013713499969255606 0.00017713533920062324 0 -0.0014085450710893625 8.1840734702678459e-05 0 -0.0012092292112060479 0.00014551739753368599 0 -0.0012092292112060479 0.00014551739753368599 0 -0.00091701478136331038 0.00018110006004896784 0 -0.00089020675294175673 0.00028876321032613339 0 -0.0012092292112060479 0.00014551739753368599 0 -0.00091701478136331038 0.00018110006004896784 0 -0.00090493171165384218 7.220021930068275e-05 0 -0.0012136804898000811 0.00014901786129445366 0 -0.0010898563264201636 0.00025096166019577724 0 -0.00087756189179821428 -4.1621257217995255e-05 0 -0.0010890805108049776 -1.0754257660880126e-05 0 -0.00099814860969633565 -0.00017310842890491015 0 -0.0012092292112060479 0.00014551739753368599 0 -0.00090493171165384218 7.220021930068275e-05 0 -0.0010890805108049776 -1.0754257660880126e-05 0 -0.00090493171165384218 7.220021930068275e-05 0 -0.00087756189179821428 -4.1621257217995255e-05 0 -0.0010890805108049776 -1.0754257660880126e-05 0 -0.0013442188681366267 -8.2521443364107002e-05 0 -0.0012092292112060479 0.00014551739753368599 0 -0.0010890805108049776 -1.0754257660880126e-05 0 -0.0012403910364248846 -0.00011825189130591245 0 -0.0010151633957772674 -0.00017482008504235902 0 -0.0011020200551455129 -0.00022129112624489714 0 -0.0011521028255838863 -0.00015751918496498333 0 -0.00099814860969633565 -0.00017310842890491015 0 -0.0011020200551455129 -0.00022129112624489714 0 -0.00099814860969633565 -0.00017310842890491015 0 -0.0010445837007160414 -0.0003294414893501119 0 -0.0013442188681366267 -8.2521443364107002e-05 0 -0.0010890805108049776 -1.0754257660880126e-05 0 -0.00099814860969633565 -0.00017310842890491015 0 -0.00099814860969633565 -0.00017310842890491015 0 -0.00085596015661442825 -0.00028602937624929478 0 -0.0007402283114901477 -0.00023349378774956576 0 -0.00087756189179821428 -4.1621257217995255e-05 0 -0.00099814860969633565 -0.00017310842890491015 0 -0.0007402283114901477 -0.00023349378774956576 0 -0.00063728528380434777 -0.00041792778637848426 0 -0.00085596015661442825 -0.00028602937624929478 0 -0.0007402283114901477 -0.00023349378774956576 0 -0.00063728528380434777 -0.00041792778637848426 0 -0.00085596015661442825 -0.00028602937624929478 0 -0.0010445837007160414 -0.0003294414893501119 0 -0.00099814860969633565 -0.00017310842890491015 0 -0.00085596015661442825 -0.00028602937624929478 0 -0.0010445837007160414 -0.0003294414893501119 0 -0.00065181034880550201 -0.00042198290298302754 0 -0.00082519202334552049 -0.00039304372552708561 0 -0.00045307898803518144 -0.00024099249540952627 0 -0.00056301281178940045 -0.00029789854383027546 0 -0.00059418323522122095 -0.00015101732054476939 0 -0.00043433273319019947 -0.00037518319261837081 0 -0.00045307898803518144 -0.00024099249540952627 0 -0.00056301281178940045 -0.00029789854383027546 0 -0.00056301281178940045 -0.00029789854383027546 0 -0.0007402283114901477 -0.00023349378774956576 0 -0.00059418323522122095 -0.00015101732054476939 0 -0.00063728528380434777 -0.00041792778637848426 0 -0.00056301281178940045 -0.00029789854383027546 0 -0.0007402283114901477 -0.00023349378774956576 0 -0.00087756189179821428 -4.1621257217995255e-05 0 -0.0007402283114901477 -0.00023349378774956576 0 -0.00059418323522122095 -0.00015101732054476939 0 -0.00045307898803518144 -0.00024099249540952627 0 -0.00059418323522122095 -0.00015101732054476939 0 -0.00045851121245499835 -7.3078634688437895e-05 0 -0.00059418323522122095 -0.00015101732054476939 0 -0.00045851121245499835 -7.3078634688437895e-05 0 -0.00053529305094664843 3.4078481999575406e-05 0 -0.00033867548517476471 4.054654666123947e-05 0 -0.00045851121245499835 -7.3078634688437895e-05 0 -0.00053529305094664843 3.4078481999575406e-05 0 -0.00087756189179821428 -4.1621257217995255e-05 0 -0.00059418323522122095 -0.00015101732054476939 0 -0.00053529305094664843 3.4078481999575406e-05 0 -0.00086563535278783574 -3.5282283467958577e-05 0 -0.00064451311245776704 3.9692421968355554e-05 0 -0.00090493171165384218 7.220021930068275e-05 0 -0.00087756189179821428 -4.1621257217995255e-05 0 -0.00073219111591530598 5.4765776454111369e-05 0 -0.00090493171165384218 7.220021930068275e-05 0 -0.00073219111591530598 5.4765776454111369e-05 0 -0.00081554139445574544 0.00014727738481061853 0 -0.00091701478136331038 0.00018110006004896784 0 -0.00090493171165384218 7.220021930068275e-05 0 -0.00081554139445574544 0.00014727738481061853 0 -0.00081554139445574544 0.00014727738481061853 0 -0.00073486400114211115 0.00016080058855476859 0 -0.00078133175113479707 0.00021256037614516914 0 -0.00081554139445574544 0.00014727738481061853 0 -0.00078133175113479707 0.00021256037614516914 0 -0.00084030860676158933 0.00021646979288007405 0 -0.00091701478136331038 0.00018110006004896784 0 -0.00081554139445574544 0.00014727738481061853 0 -0.00084030860676158933 0.00021646979288007405 0 -0.00091701478136331038 0.00018110006004896784 0 -0.00084030860676158933 0.00021646979288007405 0 -0.00087383672763104441 0.00023626996241613084 0 -0.00067508030254924433 0.00013981481892751964 0 -0.00073219111591530598 5.4765776454111369e-05 0 -0.00073486400114211115 0.00016080058855476859 0 -0.00073219111591530598 5.4765776454111369e-05 0 -0.00081554139445574544 0.00014727738481061853 0 -0.00073486400114211115 0.00016080058855476859 0 -0.00073486400114211115 0.00016080058855476859 0 -0.00072711075277577845 0.00023066793841757915 0 -0.00078133175113479707 0.00021256037614516914 0 -0.00067508030254924433 0.00013981481892751964 0 -0.00073486400114211115 0.00016080058855476859 0 -0.00068728850545724874 0.00019039540987381999 0 -0.00073486400114211115 0.00016080058855476859 0 -0.00068728850545724874 0.00019039540987381999 0 -0.00072711075277577845 0.00023066793841757915 0 -0.00067050958815524501 0.00023337651737693514 0 -0.00072711075277577845 0.00023066793841757915 0 -0.00070409707676703814 0.0002762355394497963 0 -0.00067050958815524501 0.00023337651737693514 0 -0.00068728850545724874 0.00019039540987381999 0 -0.00072711075277577845 0.00023066793841757915 0 -0.00072711075277577845 0.00023066793841757915 0 -0.00077412899679847288 0.00026034413641648279 0 -0.00078133175113479707 0.00021256037614516914 0 -0.00072711075277577845 0.00023066793841757915 0 -0.00074212975146746975 0.00027851724559201752 0 -0.00077412899679847288 0.00026034413641648279 0 -0.00074212975146746975 0.00027851724559201752 0 -0.00077864714854230708 0.00028916609439375994 0 -0.00077412899679847288 0.00026034413641648279 0 -0.00074212975146746975 0.00027851724559201752 0 -0.00072456385474264267 0.00030732379846956453 0 -0.00074764805986479884 0.00030234805713100801 0 -0.00074212975146746975 0.00027851724559201752 0 -0.00074764805986479884 0.00030234805713100801 0 -0.00077864714854230708 0.00028916609439375994 0 -0.00072711075277577845 0.00023066793841757915 0 -0.00074212975146746975 0.00027851724559201752 0 -0.00070409707676703814 0.0002762355394497963 0 -0.00074212975146746975 0.00027851724559201752 0 -0.00070409707676703814 0.0002762355394497963 0 -0.00072456385474264267 0.00030732379846956453 0 -0.00065183722163222337 0.00032421683286694506 0 -0.00069259748346803382 0.00030406882242376104 0 -0.00072906648153255515 0.00033283393922988065 0 -0.00069259748346803382 0.00030406882242376104 0 -0.00072456385474264267 0.00030732379846956453 0 -0.00072906648153255515 0.00033283393922988065 0 -0.0011636456707499784 0.0003161328821001998 0 -0.0012130211607207777 0.00027668733921572047 0 -0.0012128832186279386 0.00029657739886424108 0 -0.00070409707676703814 0.0002762355394497963 0 -0.00069259748346803382 0.00030406882242376104 0 -0.00072456385474264267 0.00030732379846956453 0 -0.00074764805986479884 0.00030234805713100801 0 -0.00072906648153255515 0.00033283393922988065 0 -0.00077864714854230708 0.00028916609439375994 0 -0.00072456385474264267 0.00030732379846956453 0 -0.00074764805986479884 0.00030234805713100801 0 -0.00072906648153255515 0.00033283393922988065 0 -0.0013170811610186458 0.00027574522212849386 0 -0.001305993580383953 0.00026277117279929193 0 -0.001285537835095972 0.00024005451991702037 0 -0.0012803643289325151 0.00027662287496025119 0 -0.0012822957211092536 0.00024617642421148112 0 -0.0012130211607207777 0.00027668733921572047 0 -0.0012128832186279386 0.00029657739886424108 0 -0.001285537835095972 0.00024005451991702037 0 -0.001305993580383953 0.00026277117279929193 0 -0.0013080721142964022 0.00026367986304247473 0 -0.0013158996348691292 0.00027384201309714077 0 -0.001305993580383953 0.00026277117279929193 0 -0.0013080721142964022 0.00026367986304247473 0 -0.00129774330841593 0.00025125330746626648 0 -0.0013170811610186458 0.00027574522212849386 0 -0.001305993580383953 0.00026277117279929193 0 -0.0013165765394226518 0.00027573660429406819 0 -0.001305993580383953 0.00026277117279929193 0 -0.001285537835095972 0.00024005451991702037 0 -0.00129774330841593 0.00025125330746626648 0 -0.00072906648153255515 0.00033283393922988065 0 -0.00083184108979547644 0.000287390743462019 0 -0.00089020675294175673 0.00028876321032613339 0 -0.0012130211607207777 0.00027668733921572047 0 -0.001285537835095972 0.00024005451991702037 0 -0.0012878716278319001 0.00022767157581976186 0 -0.00098509565944418856 0.00029974880532073329 0 -0.0010898563264201636 0.00025096166019577724 0 -0.00072906648153255515 0.00033283393922988065 0 -0.00083184108979547644 0.000287390743462019 0 -0.00077864714854230708 0.00028916609439375994 0 -0.00083184108979547644 0.000287390743462019 0 -0.00077864714854230708 0.00028916609439375994 0 -0.00080864762111864557 0.00025525812284304239 0 -0.00077864714854230708 0.00028916609439375994 0 -0.00077412899679847288 0.00026034413641648279 0 -0.00080864762111864557 0.00025525812284304239 0 -0.00080864762111864557 0.00025525812284304239 0 -0.00078133175113479707 0.00021256037614516914 0 -0.00084030860676158933 0.00021646979288007405 0 -0.00077412899679847288 0.00026034413641648279 0 -0.00080864762111864557 0.00025525812284304239 0 -0.00078133175113479707 0.00021256037614516914 0 -0.00083184108979547644 0.000287390743462019 0 -0.0008508461992296362 0.00025656925815086326 0 -0.00089020675294175673 0.00028876321032613339 0 -0.0008508461992296362 0.00025656925815086326 0 -0.00087383672763104441 0.00023626996241613084 0 -0.00089020675294175673 0.00028876321032613339 0 -0.00083184108979547644 0.000287390743462019 0 -0.00080864762111864557 0.00025525812284304239 0 -0.0008508461992296362 0.00025656925815086326 0 -0.0008508461992296362 0.00025656925815086326 0 -0.00084030860676158933 0.00021646979288007405 0 -0.00087383672763104441 0.00023626996241613084 0 -0.00080864762111864557 0.00025525812284304239 0 -0.0008508461992296362 0.00025656925815086326 0 -0.00084030860676158933 0.00021646979288007405 0 -0.00091701478136331038 0.00018110006004896784 0 -0.00087383672763104441 0.00023626996241613084 0 -0.00089020675294175673 0.00028876321032613339 0 -0.0012092292112060479 0.00014551739753368599 0 -0.0012878716278319001 0.00022767157581976186 0 -0.0012861059096241079 0.00022552157135561466 0 -0.0012878716278319001 0.00022767157581976186 0 -0.0012861059096241079 0.00022552157135561466 0 -0.0012907559482410453 0.00023667829867258825 0 -0.001285537835095972 0.00024005451991702037 0 -0.0012878716278319001 0.00022767157581976186 0 -0.0012907559482410453 0.00023667829867258825 0 -0.0012092292112060479 0.00014551739753368599 0 -0.0012861059096241079 0.00022552157135561466 0 -0.001323462904997869 0.0002295134327637387 0 -0.0013713499969255606 0.00017713533920062324 0 -0.0012092292112060479 0.00014551739753368599 0 -0.001323462904997869 0.0002295134327637387 0 -0.0012861059096241079 0.00022552157135561466 0 -0.001323462904997869 0.0002295134327637387 0 -0.0013270914985688892 0.00027146002058474556 0 -0.0013792158164496963 0.00029041972075335895 0 -0.001323462904997869 0.0002295134327637387 0 -0.0013270914985688892 0.00027146002058474556 0 -0.0012861059096241079 0.00022552157135561466 0 -0.001303565670688923 0.00025446564207339656 0 -0.0013270914985688892 0.00027146002058474556 0 -0.001285537835095972 0.00024005451991702037 0 -0.0012907559482410453 0.00023667829867258825 0 -0.00129774330841593 0.00025125330746626648 0 -0.0012907559482410453 0.00023667829867258825 0 -0.00129774330841593 0.00025125330746626648 0 -0.001303565670688923 0.00025446564207339656 0 -0.0012861059096241079 0.00022552157135561466 0 -0.0012907559482410453 0.00023667829867258825 0 -0.001303565670688923 0.00025446564207339656 0 -0.0013080721142964022 0.00026367986304247473 0 -0.00129774330841593 0.00025125330746626648 0 -0.001303565670688923 0.00025446564207339656 0 -0.0013080721142964022 0.00026367986304247473 0 -0.001303565670688923 0.00025446564207339656 0 -0.0013253337929633377 0.00028312674852029314 0 -0.001303565670688923 0.00025446564207339656 0 -0.0013253337929633377 0.00028312674852029314 0 -0.0013270914985688892 0.00027146002058474556 0 -0.0013792158164496963 0.00029041972075335895 0 -0.0013270914985688892 0.00027146002058474556 0 -0.0013520047779941582 0.00032388124195429995 0 -0.0013253337929633377 0.00028312674852029314 0 -0.0013270914985688892 0.00027146002058474556 0 -0.0013520047779941582 0.00032388124195429995 0 -0.0013520047779941582 0.00032388124195429995 0 -0.0013432417872639929 0.00029709975840114657 0 -0.0013706297477211039 0.00031107079856305307 0 -0.0013253337929633377 0.00028312674852029314 0 -0.0013520047779941582 0.00032388124195429995 0 -0.0013432417872639929 0.00029709975840114657 0 -0.0014175924882316763 0.0003082533663326055 0 -0.0013722758398145615 0.00031192527579205245 0 -0.0013432417872639929 0.00029709975840114657 0 -0.0013285991348136233 0.00029762598429896209 0 -0.001323566870594445 0.00028398111794212611 0 -0.0013432417872639929 0.00029709975840114657 0 -0.0013285991348136233 0.00029762598429896209 0 -0.0013706297477211039 0.00031107079856305307 0 -0.001315077632171961 0.00029862898933332647 0 -0.0013198815234642424 0.00031300935595648109 0 -0.0013285991348136233 0.00029762598429896209 0 -0.001315077632171961 0.00029862898933332647 0 -0.0013285991348136233 0.00029762598429896209 0 -0.0013154179888031432 0.00028823685225531616 0 -0.0013285991348136233 0.00029762598429896209 0 -0.0013195992311708874 0.00028292675860312722 0 -0.001323566870594445 0.00028398111794212611 0 -0.0013195992311708874 0.00028292675860312722 0 -0.0013165765394226518 0.00027573660429406819 0 -0.001323566870594445 0.00028398111794212611 0 -0.0013285991348136233 0.00029762598429896209 0 -0.0013195992311708874 0.00028292675860312722 0 -0.0013154179888031432 0.00028823685225531616 0 -0.0013170811610186458 0.00027574522212849386 0 -0.0013195992311708874 0.00028292675860312722 0 -0.0013154179888031432 0.00028823685225531616 0 -0.0013170811610186458 0.00027574522212849386 0 -0.0013195992311708874 0.00028292675860312722 0 -0.0013165765394226518 0.00027573660429406819 0 -0.001305993580383953 0.00026277117279929193 0 -0.0013165765394226518 0.00027573660429406819 0 -0.0013158996348691292 0.00027384201309714077 0 -0.0013165765394226518 0.00027573660429406819 0 -0.0013158996348691292 0.00027384201309714077 0 -0.001323566870594445 0.00028398111794212611 0 -0.0013432417872639929 0.00029709975840114657 0 -0.0013158996348691292 0.00027384201309714077 0 -0.001323566870594445 0.00028398111794212611 0 -0.0013253337929633377 0.00028312674852029314 0 -0.0013432417872639929 0.00029709975840114657 0 -0.0013158996348691292 0.00027384201309714077 0 -0.0013080721142964022 0.00026367986304247473 0 -0.0013253337929633377 0.00028312674852029314 0 -0.0013158996348691292 0.00027384201309714077 0 -0.0013397291421453896 0.00033489796991175108 0 -0.0013706297477211039 0.00031107079856305307 0 -0.0013991045112335693 0.00038499413743085104 0 -0.0013198267300869556 0.00036344879524616188 0 -0.0013397291421453896 0.00033489796991175108 0 -0.0013504267143502064 0.00037582872378581598 0 -0.0013397291421453896 0.00033489796991175108 0 -0.0013991045112335693 0.00038499413743085104 0 -0.0013504267143502064 0.00037582872378581598 0 -0.0013198815234642424 0.00031300935595648109 0 -0.0013285991348136233 0.00029762598429896209 0 -0.0013397291421453896 0.00033489796991175108 0 -0.0013285991348136233 0.00029762598429896209 0 -0.0013397291421453896 0.00033489796991175108 0 -0.0013706297477211039 0.00031107079856305307 0 -0.0014816881577896374 0.00028931727164239042 0 -0.0013706297477211039 0.00031107079856305307 0 -0.0014429055741524955 0.00035641225775809781 0 -0.0014816881577896374 0.00028931727164239042 0 -0.0014429055741524955 0.00035641225775809781 0 -0.0015133654653091758 0.00037356033079481265 0 -0.0014429055741524955 0.00035641225775809781 0 -0.0014681194874933631 0.0004063782304516262 0 -0.0015133654653091758 0.00037356033079481265 0 -0.0013706297477211039 0.00031107079856305307 0 -0.0014429055741524955 0.00035641225775809781 0 -0.0013991045112335693 0.00038499413743085104 0 -0.0014429055741524955 0.00035641225775809781 0 -0.0014681194874933631 0.0004063782304516262 0 -0.0013991045112335693 0.00038499413743085104 0 -0.0014681194874933631 0.0004063782304516262 0 -0.0014222132880447524 0.0004407831201017064 0 -0.0013991045112335693 0.00038499413743085104 0 -0.0014681194874933631 0.0004063782304516262 0 -0.0014896536908958532 0.00045125645252275004 0 -0.0015362432388779193 0.0004252698355523113 0 -0.0014681194874933631 0.0004063782304516262 0 -0.0014896536908958532 0.00045125645252275004 0 -0.0014222132880447524 0.0004407831201017064 0 -0.0014222132880447524 0.0004407831201017064 0 -0.0013991045112335693 0.00038499413743085104 0 -0.0013446098566511511 0.00042294700357970155 0 -0.0014222132880447524 0.0004407831201017064 0 -0.0013446098566511511 0.00042294700357970155 0 -0.0013860309479626764 0.00048762233605467102 0 -0.0013198267300869556 0.00036344879524616188 0 -0.0013504267143502064 0.00037582872378581598 0 -0.0013446098566511511 0.00042294700357970155 0 -0.0013991045112335693 0.00038499413743085104 0 -0.0013504267143502064 0.00037582872378581598 0 -0.0013446098566511511 0.00042294700357970155 0 -0.0013486710152510019 0.00048624599175713774 0 -0.001367878610834291 0.00042990584894494766 0 -0.0014022821606553501 0.00049941313032312966 0 -0.0013558117321544722 0.00042577859755610635 0 -0.0013941092596075945 0.00049425761592796912 0 -0.0014222132880447524 0.0004407831201017064 0 -0.0013860309479626764 0.00048762233605467102 0 -0.0014567581562290196 0.00050004904282745829 0 -0.0013860309479626764 0.00048762233605467102 0 -0.0014292110346658302 0.00056548547446247334 0 -0.0014567581562290196 0.00050004904282745829 0 -0.0013941092596075945 0.00049425761592796912 0 -0.0014272232191389069 0.00056136236606237164 0 -0.0013486710152510019 0.00048624599175713774 0 -0.0014022821606553501 0.00049941313032312966 0 -0.001376512995243772 0.00056057286297658035 0 -0.0014022821606553501 0.00049941313032312966 0 -0.001376512995243772 0.00056057286297658035 0 -0.0014292110346658302 0.00056548547446247334 0 -0.0027576927279210411 0.00038044798331388703 0 -0.0027652982538599836 0.00041171362317464055 0 -0.002840489212069558 0.00042549695060418796 0 -0.001376512995243772 0.00056057286297658035 0 -0.0014292110346658302 0.00056548547446247334 0 -0.0014249772385621195 0.0006097130237359261 0 -0.0020172405652846047 0.0004645234090175452 0 -0.0021672679390778971 0.00052789945037864168 0 -0.0014292110346658302 0.00056548547446247334 0 -0.0014249772385621195 0.0006097130237359261 0 -0.0014740468419466208 0.00058464416385594188 0 -0.0027652982538599836 0.00041171362317464055 0 -0.0028454580935581542 0.00044681399264083369 0 -0.002840489212069558 0.00042549695060418796 0 -0.0035114467827563772 0.00031509104124521475 0 -0.0035038930280859109 0.00033092991668914103 0 -0.0041975010743214754 0.00021264547716995467 0 -0.0042176965410602868 0.00022809360576400752 0 -0.004204621854915303 0.00022709713944852935 0 -0.0041780743488203419 0.00022587774968612731 0 -0.0041975010743214754 0.00021264547716995467 0 -0.004204621854915303 0.00022709713944852935 0 -0.0015659228647755511 0.00073138992978791641 0 -0.0015190163277617541 0.00053789520319819052 0 -0.0017268765387556994 0.00055584782715715673 0 -0.0014249772385621195 0.0006097130237359261 0 -0.0015659228647755511 0.00073138992978791641 0 -0.0014740468419466208 0.00058464416385594188 0 -0.0035038930280859109 0.00033092991668914103 0 -0.0036863822381022035 0.00037381642171338504 0 -0.0028454580935581542 0.00044681399264083369 0 -0.002840489212069558 0.00042549695060418796 0 -0.002924153945302948 0.00047448372411688992 0 -0.0028454580935581542 0.00044681399264083369 0 -0.002924153945302948 0.00047448372411688992 0 -0.0029265774549845865 0.0004858621396523139 0 -0.0015659228647755511 0.00073138992978791641 0 -0.0014740468419466208 0.00058464416385594188 0 -0.0015190163277617541 0.00053789520319819052 0 -0.0021672679390778971 0.00052789945037864168 0 -0.0021287059220995992 0.00060067301977961146 0 -0.0014292110346658302 0.00056548547446247334 0 -0.0014740468419466208 0.00058464416385594188 0 -0.0014680783570636673 0.00054146285644092332 0 -0.0014740468419466208 0.00058464416385594188 0 -0.0014680783570636673 0.00054146285644092332 0 -0.0015190163277617541 0.00053789520319819052 0 -0.0015190163277617541 0.00053789520319819052 0 -0.0015218452137884988 0.00050807931687528354 0 -0.001536561121447645 0.00053927970350751281 0 -0.0015698587149987643 0.00054405390403225234 0 -0.0015269244313234323 0.00053832571594608213 0 -0.0015190163277617541 0.00053789520319819052 0 -0.0015218452137884988 0.00050807931687528354 0 -0.0014567581562290196 0.00050004904282745829 0 -0.0014680783570636673 0.00054146285644092332 0 -0.0015190163277617541 0.00053789520319819052 0 -0.0014567581562290196 0.00050004904282745829 0 -0.0014292110346658302 0.00056548547446247334 0 -0.0014680783570636673 0.00054146285644092332 0 -0.0014567581562290196 0.00050004904282745829 0 -0.0014896536908958532 0.00045125645252275004 0 -0.0014222132880447524 0.0004407831201017064 0 -0.0014567581562290196 0.00050004904282745829 0 -0.0014896536908958532 0.00045125645252275004 0 -0.0015218452137884988 0.00050807931687528354 0 -0.0014567581562290196 0.00050004904282745829 0 -0.0014896536908958532 0.00045125645252275004 0 -0.0015218452137884988 0.00050807931687528354 0 -0.0015464384242658493 0.00047789929236761623 0 -0.0015464384242658493 0.00047789929236761623 0 -0.0015795259695225948 0.00050109156440529665 0 -0.0015868487427729244 0.00044650052346732034 0 -0.0015464384242658493 0.00047789929236761623 0 -0.0015795259695225948 0.00050109156440529665 0 -0.0015513602486180939 0.00051539094954261696 0 -0.0015218452137884988 0.00050807931687528354 0 -0.0015464384242658493 0.00047789929236761623 0 -0.0015513602486180939 0.00051539094954261696 0 -0.0015218452137884988 0.00050807931687528354 0 -0.0015513602486180939 0.00051539094954261696 0 -0.001536561121447645 0.00053927970350751281 0 -0.0015269244313234323 0.00053832571594608213 0 -0.002343720628847263 0.0003813746178431772 0 -0.0015513602486180939 0.00051539094954261696 0 -0.001536561121447645 0.00053927970350751281 0 -0.0015750131205226137 0.00054779262664348522 0 -0.0015795259695225948 0.00050109156440529665 0 -0.0015513602486180939 0.00051539094954261696 0 -0.0015750131205226137 0.00054779262664348522 0 -0.0016075741959345284 0.00033156816214653282 0 -0.002343720628847263 0.0003813746178431772 0 -0.001795353331709411 0.00013530773477048869 0 -0.0017836157682741217 0.00021566041668645192 0 -0.0018259636897868601 0.00018496806809222723 0 -0.0019400464066725292 0.00059424390029417249 0 -0.0017867597175132346 0.00072709516255403184 0 -0.0018928002284194451 0.00090168492236693406 0 -0.0015659228647755511 0.00073138992978791641 0 -0.0017268765387556994 0.00055584782715715673 0 -0.0017867597175132346 0.00072709516255403184 0 -0.0017268765387556994 0.00055584782715715673 0 -0.0019400464066725292 0.00059424390029417249 0 -0.0017867597175132346 0.00072709516255403184 0 -0.0039523610493578717 0.00034280080377093586 0 -0.0040284478824745042 0.00037336630175534746 0 -0.0040003716363300624 0.00039079394326617411 0 -0.0017836157682741217 0.00021566041668645192 0 -0.0018617812862015744 0.00024099886755602097 0 -0.0018259636897868601 0.00018496806809222723 0 -0.002343720628847263 0.0003813746178431772 0 -0.0030559217717283107 0.00030737946315787407 0 -0.0018617812862015744 0.00024099886755602097 0 -0.0018259636897868601 0.00018496806809222723 0 -0.0018639884982733005 0.00015388688122790878 0 -0.0018617812862015744 0.00024099886755602097 0 -0.0018639884982733005 0.00015388688122790878 0 -0.0019166309724778516 0.00019062122164074157 0 -0.001795353331709411 0.00013530773477048869 0 -0.0018259636897868601 0.00018496806809222723 0 -0.0018639884982733005 0.00015388688122790878 0 -0.001795353331709411 0.00013530773477048869 0 -0.0018639884982733005 0.00015388688122790878 0 -0.0018611832666210009 7.9191193470006476e-05 0 -0.001795353331709411 0.00013530773477048869 0 -0.0018611832666210009 7.9191193470006476e-05 0 -0.0018151273591968874 6.4436776575542916e-05 0 -0.0016075741959345284 0.00033156816214653282 0 -0.0017109630112477677 0.00025193754128089357 0 -0.0018639884982733005 0.00015388688122790878 0 -0.0018611832666210009 7.9191193470006476e-05 0 -0.0019211670703688298 9.6930164737468562e-05 0 -0.0018335982984784064 2.7416337153823682e-05 0 -0.0018151273591968874 6.4436776575542916e-05 0 -0.0018717094559605886 2.9360818356679527e-05 0 -0.0018611832666210009 7.9191193470006476e-05 0 -0.0018151273591968874 6.4436776575542916e-05 0 -0.0018717094559605886 2.9360818356679527e-05 0 -0.0018335982984784064 2.7416337153823682e-05 0 -0.0018455050650458382 2.5372028299152952e-05 0 -0.0018717094559605886 2.9360818356679527e-05 0 -0.0017124637593154278 0.00020980017557109399 0 -0.0017109630112477677 0.00025193754128089357 0 -0.0015947294126498275 0.00038748907731555622 0 -0.0015362432388779193 0.0004252698355523113 0 -0.0015133654653091758 0.00037356033079481265 0 -0.0015464384242658493 0.00047789929236761623 0 -0.0015868487427729244 0.00044650052346732034 0 -0.0015362432388779193 0.0004252698355523113 0 -0.0015947294126498275 0.00038748907731555622 0 -0.0015868487427729244 0.00044650052346732034 0 -0.0015362432388779193 0.0004252698355523113 0 -0.0014896536908958532 0.00045125645252275004 0 -0.0015464384242658493 0.00047789929236761623 0 -0.0015362432388779193 0.0004252698355523113 0 -0.0014681194874933631 0.0004063782304516262 0 -0.0015362432388779193 0.0004252698355523113 0 -0.0015133654653091758 0.00037356033079481265 0 -0.0015947294126498275 0.00038748907731555622 0 -0.0015133654653091758 0.00037356033079481265 0 -0.0015549206226802901 0.00033241632941860837 0 -0.0014816881577896374 0.00028931727164239042 0 -0.0015133654653091758 0.00037356033079481265 0 -0.0015549206226802901 0.00033241632941860837 0 -0.0015894113861149716 0.00031187566364358185 0 -0.0015549206226802901 0.00033241632941860837 0 -0.0016008170944430068 0.00033386220496893818 0 -0.0018382866693022113 4.1086720049140002e-05 0 -0.0018455050650458382 2.5372028299152952e-05 0 -0.0018167580764204523 5.7335785445741195e-05 0 -0.0018335982984784064 2.7416337153823682e-05 0 -0.0018382866693022113 4.1086720049140002e-05 0 -0.0018455050650458382 2.5372028299152952e-05 0 -0.0017124637593154278 0.00020980017557109399 0 -0.0017191075656135823 0.00018808737293239168 0 -0.0015947294126498275 0.00038748907731555622 0 -0.0015549206226802901 0.00033241632941860837 0 -0.0016008170944430068 0.00033386220496893818 0 -0.0018691126444403887 -5.3294788998832412e-06 0 -0.0018455050650458382 2.5372028299152952e-05 0 -0.0018349192172819827 3.989536241704807e-05 0 -0.0018455050650458382 2.5372028299152952e-05 0 -0.0018167580764204523 5.7335785445741195e-05 0 -0.0018349192172819827 3.989536241704807e-05 0 -0.0018158212382804314 6.6873515855543687e-05 0 -0.0018167580764204523 5.7335785445741195e-05 0 -0.0018349192172819827 3.989536241704807e-05 0 -0.0018158212382804314 6.6873515855543687e-05 0 -0.0018691126444403887 -5.3294788998832412e-06 0 -0.0018349192172819827 3.989536241704807e-05 0 -0.0018691126444403887 -5.3294788998832412e-06 0 -0.0017954160940587232 4.3809831682809556e-05 0 -0.0017682224792975633 -4.8836712029663953e-05 0 -0.0017954160940587232 4.3809831682809556e-05 0 -0.0017682224792975633 -4.8836712029663953e-05 0 -0.0017219593371718539 -1.5919813917440032e-05 0 -0.0018158212382804314 6.6873515855543687e-05 0 -0.0018691126444403887 -5.3294788998832412e-06 0 -0.0017954160940587232 4.3809831682809556e-05 0 -0.001722182439924826 7.1075593582113806e-05 0 -0.0017954160940587232 4.3809831682809556e-05 0 -0.0017219593371718539 -1.5919813917440032e-05 0 -0.0018797526992262231 -7.0755981488537577e-06 0 -0.0019127444296876538 -2.9874247837883709e-05 0 -0.0018691126444403887 -5.3294788998832412e-06 0 -0.0020510483361034565 -2.2504866629394502e-05 0 -0.0019420281283852061 2.8697071511422001e-05 0 -0.0020510483361034565 -2.2504866629394502e-05 0 -0.0020481417705994617 7.6521493854393274e-05 0 -0.0022166711240732074 1.160070720800718e-05 0 -0.0020510483361034565 -2.2504866629394502e-05 0 -0.0019420281283852061 2.8697071511422001e-05 0 -0.0020481417705994617 7.6521493854393274e-05 0 -0.0019420281283852061 2.8697071511422001e-05 0 -0.0018717094559605886 2.9360818356679527e-05 0 -0.0019211670703688298 9.6930164737468562e-05 0 -0.0018691126444403887 -5.3294788998832412e-06 0 -0.0019420281283852061 2.8697071511422001e-05 0 -0.0018717094559605886 2.9360818356679527e-05 0 -0.0018691126444403887 -5.3294788998832412e-06 0 -0.0018455050650458382 2.5372028299152952e-05 0 -0.0018717094559605886 2.9360818356679527e-05 0 -0.0019420281283852061 2.8697071511422001e-05 0 -0.0019211670703688298 9.6930164737468562e-05 0 -0.0020481417705994617 7.6521493854393274e-05 0 -0.0018611832666210009 7.9191193470006476e-05 0 -0.0018717094559605886 2.9360818356679527e-05 0 -0.0019211670703688298 9.6930164737468562e-05 0 -0.0019211670703688298 9.6930164737468562e-05 0 -0.0019983330579488633 0.00018776374434897406 0 -0.0020481417705994617 7.6521493854393274e-05 0 -0.0019211670703688298 9.6930164737468562e-05 0 -0.0019166309724778516 0.00019062122164074157 0 -0.0019983330579488633 0.00018776374434897406 0 -0.0018639884982733005 0.00015388688122790878 0 -0.0019211670703688298 9.6930164737468562e-05 0 -0.0019166309724778516 0.00019062122164074157 0 -0.0019166309724778516 0.00019062122164074157 0 -0.0019983330579488633 0.00018776374434897406 0 -0.0019484904487270679 0.00028009582740452576 0 -0.0019983330579488633 0.00018776374434897406 0 -0.0019484904487270679 0.00028009582740452576 0 -0.0020611036106324828 0.00032593008104950423 0 -0.0030559217717283107 0.00030737946315787407 0 -0.0029751831027397054 0.00035063537089972773 0 -0.0018617812862015744 0.00024099886755602097 0 -0.0019166309724778516 0.00019062122164074157 0 -0.0019484904487270679 0.00028009582740452576 0 -0.0019983330579488633 0.00018776374434897406 0 -0.0021088189530465086 0.00024568731504978207 0 -0.0020611036106324828 0.00032593008104950423 0 -0.0019983330579488633 0.00018776374434897406 0 -0.0021088189530465086 0.00024568731504978207 0 -0.0020931599517037425 0.00015396385247278482 0 -0.0021088189530465086 0.00024568731504978207 0 -0.0020931599517037425 0.00015396385247278482 0 -0.0022089870284267136 0.0002039333082868498 0 -0.0020931599517037425 0.00015396385247278482 0 -0.0020481417705994617 7.6521493854393274e-05 0 -0.0022169038459759422 9.7876317733203066e-05 0 -0.0019983330579488633 0.00018776374434897406 0 -0.0020931599517037425 0.00015396385247278482 0 -0.0020481417705994617 7.6521493854393274e-05 0 -0.0020481417705994617 7.6521493854393274e-05 0 -0.0022166711240732074 1.160070720800718e-05 0 -0.0022169038459759422 9.7876317733203066e-05 0 -0.0019798980310782263 -1.390394512955977e-05 0 -0.0021093114747171783 3.5793768089623332e-05 0 -0.0022166711240732074 1.160070720800718e-05 0 -0.0022169038459759422 9.7876317733203066e-05 0 -0.0023630418481102831 8.0993949660739182e-05 0 -0.0022169038459759422 9.7876317733203066e-05 0 -0.0023387775930410822 0.00010248326081761772 0 -0.0023630418481102831 8.0993949660739182e-05 0 -0.0022169038459759422 9.7876317733203066e-05 0 -0.0022089870284267136 0.0002039333082868498 0 -0.0023387775930410822 0.00010248326081761772 0 -0.0020931599517037425 0.00015396385247278482 0 -0.0022169038459759422 9.7876317733203066e-05 0 -0.0022089870284267136 0.0002039333082868498 0 -0.0022089870284267136 0.0002039333082868498 0 -0.0023387775930410822 0.00010248326081761772 0 -0.0023545171049358625 0.00027645368704734395 0 -0.0023579073967230834 0.00010877119867672822 0 -0.0023301019214008521 0.00010969308232389231 0 -0.0022089870284267136 0.0002039333082868498 0 -0.0023545171049358625 0.00027645368704734395 0 -0.0022060754923685618 0.00037913077112692017 0 -0.0021088189530465086 0.00024568731504978207 0 -0.0022089870284267136 0.0002039333082868498 0 -0.0022060754923685618 0.00037913077112692017 0 -0.0024796845560521616 -1.2602358953667611e-07 0 -0.0023793601281754972 -3.6979575389654201e-06 0 -0.0022515011673576997 9.4470387740496647e-06 0 -0.0024796845560521616 -1.2602358953667611e-07 0 -0.0023793601281754972 -3.6979575389654201e-06 0 -0.0024652339544064331 -1.0072048220261618e-05 0 -0.0024133830259219693 -7.6244701996563485e-06 0 -0.002384271359457161 1.1627874400958226e-05 0 -0.0024652339544064331 -1.0072048220261618e-05 0 -0.0023793601281754972 -3.6979575389654201e-06 0 -0.002384271359457161 1.1627874400958226e-05 0 -0.0024652339544064331 -1.0072048220261618e-05 0 -0.0023387775930410822 0.00010248326081761772 0 -0.002384271359457161 1.1627874400958226e-05 0 -0.0023544533892227008 3.9329209108984356e-05 0 -0.0023544533892227008 3.9329209108984356e-05 0 -0.0022515011673576997 9.4470387740496647e-06 0 -0.0023630418481102831 8.0993949660739182e-05 0 -0.0023793601281754972 -3.6979575389654201e-06 0 -0.002384271359457161 1.1627874400958226e-05 0 -0.0023544533892227008 3.9329209108984356e-05 0 -0.0023387775930410822 0.00010248326081761772 0 -0.0024133830259219693 -7.6244701996563485e-06 0 -0.002384271359457161 1.1627874400958226e-05 0 -0.0023793601281754972 -3.6979575389654201e-06 0 -0.0023544533892227008 3.9329209108984356e-05 0 -0.0022515011673576997 9.4470387740496647e-06 0 -0.0024796845560521616 -1.2602358953667611e-07 0 -0.0021884305526789134 1.786640449923456e-07 0 -0.0022515011673576997 9.4470387740496647e-06 0 -0.0021884305526789134 1.786640449923456e-07 0 -0.0022515011673576997 9.4470387740496647e-06 0 -0.0018538181101935166 1.2779009454283647e-05 0 -0.0021884305526789134 1.786640449923456e-07 0 -0.0018538181101935166 1.2779009454283647e-05 0 -0.0018974386523882278 -1.0125449582390294e-07 0 -0.0022258860186429347 1.4697901958908496e-05 0 -0.0021093114747171783 3.5793768089623332e-05 0 -0.0023387775930410822 0.00010248326081761772 0 -0.0023544533892227008 3.9329209108984356e-05 0 -0.0023630418481102831 8.0993949660739182e-05 0 -0.0017361308792591592 -4.6496193483723018e-05 0 -0.0018538181101935166 1.2779009454283647e-05 0 -0.0017805003193701735 -3.4185237751377598e-05 0 -0.0018538181101935166 1.2779009454283647e-05 0 -0.0018974386523882278 -1.0125449582390294e-07 0 -0.0017805003193701735 -3.4185237751377598e-05 0 -0.0018974386523882278 -1.0125449582390294e-07 0 -0.001606338341241296 -1.7296969192067959e-07 0 -0.0017805003193701735 -3.4185237751377598e-05 0 -0.001606338341241296 -1.7296969192067959e-07 0 -0.0016880122691106715 -3.736228301165396e-05 0 -0.0017805003193701735 -3.4185237751377598e-05 0 -0.0017682224792975633 -4.8836712029663953e-05 0 -0.0017361308792591592 -4.6496193483723018e-05 0 -0.0017219593371718539 -1.5919813917440032e-05 0 -0.0017361308792591592 -4.6496193483723018e-05 0 -0.0016880122691106715 -3.736228301165396e-05 0 -0.0017805003193701735 -3.4185237751377598e-05 0 -0.0017361308792591592 -4.6496193483723018e-05 0 -0.0016880122691106715 -3.736228301165396e-05 0 -0.0017219593371718539 -1.5919813917440032e-05 0 -0.0019127444296876538 -2.9874247837883709e-05 0 -0.0019798980310782263 -1.390394512955977e-05 0 -0.0016880122691106715 -3.736228301165396e-05 0 -0.0017219593371718539 -1.5919813917440032e-05 0 -0.0016518691761600068 1.7077051602327238e-05 0 -0.0016485335143117878 0.0001047768219893432 0 -0.001722182439924826 7.1075593582113806e-05 0 -0.0016518691761600068 1.7077051602327238e-05 0 -0.001722182439924826 7.1075593582113806e-05 0 -0.0017219593371718539 -1.5919813917440032e-05 0 -0.0016518691761600068 1.7077051602327238e-05 0 -0.001527513942304879 0.00012945413373390089 0 -0.0016518691761600068 1.7077051602327238e-05 0 -0.0015411211828175629 -2.0247666854238107e-05 0 -0.001527513942304879 0.00012945413373390089 0 -0.0013158842976601513 2.6951480423016235e-07 0 -0.0015411211828175629 -2.0247666854238107e-05 0 -0.001606338341241296 -1.7296969192067959e-07 0 -0.0013158842976601513 2.6951480423016235e-07 0 -0.0015411211828175629 -2.0247666854238107e-05 0 -0.001606338341241296 -1.7296969192067959e-07 0 -0.0016880122691106715 -3.736228301165396e-05 0 -0.0015411211828175629 -2.0247666854238107e-05 0 -0.0016880122691106715 -3.736228301165396e-05 0 -0.0016518691761600068 1.7077051602327238e-05 0 -0.0015411211828175629 -2.0247666854238107e-05 0 -0.0037444420182635579 2.3591189960916128e-06 0 -0.0035720147734967034 3.0448847116381322e-06 0 -0.0036300632780913011 3.7362132280557241e-05 0 -0.0037444420182635579 2.3591189960916128e-06 0 -0.0035720147734967034 3.0448847116381322e-06 0 -0.0035839997671531787 -2.7032789398907493e-08 0 -0.0035720147734967034 3.0448847116381322e-06 0 -0.0035839997671531787 -2.7032789398907493e-08 0 -0.0033129200698408766 4.6918029891725141e-08 0 -0.0037444420182635579 2.3591189960916128e-06 0 -0.0035839997671531787 -2.7032789398907493e-08 0 -0.0038787897357777375 -1.4483828249304731e-05 0 -0.0035839997671531787 -2.7032789398907493e-08 0 -0.0038787897357777375 -1.4483828249304731e-05 0 -0.0038550032528334517 -3.9315098823280856e-08 0 -0.0037444420182635579 2.3591189960916128e-06 0 -0.0039513286816857014 1.8072205625424573e-06 0 -0.0038787897357777375 -1.4483828249304731e-05 0 -0.0037444420182635579 2.3591189960916128e-06 0 -0.0038548083475928069 2.9270513346616794e-05 0 -0.0039513286816857014 1.8072205625424573e-06 0 -0.0040102321719876063 3.452971304191875e-05 0 -0.0038548083475928069 2.9270513346616794e-05 0 -0.0039513286816857014 1.8072205625424573e-06 0 -0.0039497988652857832 6.1475295907608329e-05 0 -0.0038548083475928069 2.9270513346616794e-05 0 -0.0038283604223287404 7.738605431782386e-05 0 -0.0040102321719876063 3.452971304191875e-05 0 -0.0039497988652857832 6.1475295907608329e-05 0 -0.0038548083475928069 2.9270513346616794e-05 0 -0.0037444420182635579 2.3591189960916128e-06 0 -0.0038548083475928069 2.9270513346616794e-05 0 -0.0036300632780913011 3.7362132280557241e-05 0 -0.0038283604223287404 7.738605431782386e-05 0 -0.0037074901212752276 0.00010330196823014777 0 -0.0036300632780913011 3.7362132280557241e-05 0 -0.0038548083475928069 2.9270513346616794e-05 0 -0.0038283604223287404 7.738605431782386e-05 0 -0.0036300632780913011 3.7362132280557241e-05 0 -0.0039497988652857832 6.1475295907608329e-05 0 -0.0038283604223287404 7.738605431782386e-05 0 -0.0039995812458843375 0.00010404286945614803 0 -0.0038283604223287404 7.738605431782386e-05 0 -0.0038853678424535746 0.00014712168835043078 0 -0.0039995812458843375 0.00010404286945614803 0 -0.0038283604223287404 7.738605431782386e-05 0 -0.0038853678424535746 0.00014712168835043078 0 -0.0037074901212752276 0.00010330196823014777 0 -0.0038853678424535746 0.00014712168835043078 0 -0.0037074901212752276 0.00010330196823014777 0 -0.0037815843295778001 0.00022999420582293576 0 -0.0038853678424535746 0.00014712168835043078 0 -0.0037815843295778001 0.00022999420582293576 0 -0.0039104728003527848 0.00022635955292903744 0 -0.0037074901212752276 0.00010330196823014777 0 -0.0034570611190488493 9.1225186437887069e-05 0 -0.0036300632780913011 3.7362132280557241e-05 0 -0.0037074901212752276 0.00010330196823014777 0 -0.0034570611190488493 9.1225186437887069e-05 0 -0.0037815843295778001 0.00022999420582293576 0 -0.0034570611190488493 9.1225186437887069e-05 0 -0.0036300632780913011 3.7362132280557241e-05 0 -0.0033129200698408766 4.6918029891725141e-08 0 -0.0035720147734967034 3.0448847116381322e-06 0 -0.0036300632780913011 3.7362132280557241e-05 0 -0.0033129200698408766 4.6918029891725141e-08 0 -0.0034570611190488493 9.1225186437887069e-05 0 -0.0033129200698408766 4.6918029891725141e-08 0 -0.0030418905638503542 -2.6777145903578546e-08 0 -0.0034570611190488493 9.1225186437887069e-05 0 -0.0030418905638503542 -2.6777145903578546e-08 0 -0.003080391481375106 2.4753261866527467e-05 0 -0.0034570611190488493 9.1225186437887069e-05 0 -0.0032227218170238622 4.4345679703970858e-05 0 -0.003080391481375106 2.4753261866527467e-05 0 -0.0034298916048559054 7.3028478538743211e-05 0 -0.0034438605290830885 0.00019635117813476097 0 -0.0032227218170238622 4.4345679703970858e-05 0 -0.003080391481375106 2.4753261866527467e-05 0 -0.003078222947399757 0.00015810219535489597 0 -0.0030418905638503542 -2.6777145903578546e-08 0 -0.003080391481375106 2.4753261866527467e-05 0 -0.0027711485046100874 4.4407392621382323e-07 0 -0.0027702291490727228 2.3127769527552089e-07 0 -0.0025340212380595417 5.3176891821722028e-05 0 -0.0024652339544064331 -1.0072048220261618e-05 0 -0.003080391481375106 2.4753261866527467e-05 0 -0.0027711485046100874 4.4407392621382323e-07 0 -0.003078222947399757 0.00015810219535489597 0 -0.0027706934723486089 6.2479662636840523e-08 0 -0.0027858444678247603 8.7857591365764161e-05 0 -0.0034438605290830885 0.00019635117813476097 0 -0.0029059555351891217 0.00031016579404490269 0 -0.0025340212380595417 5.3176891821722028e-05 0 -0.0024652339544064331 -1.0072048220261618e-05 0 -0.0024422249992110388 3.539546714880399e-05 0 -0.0032227218170238622 4.4345679703970858e-05 0 -0.003078222947399757 0.00015810219535489597 0 -0.0032062195390501398 0.00019618025171128182 0 -0.0027858444678247603 8.7857591365764161e-05 0 -0.0029059555351891217 0.00031016579404490269 0 -0.0024133830259219693 -7.6244701996563485e-06 0 -0.0024652339544064331 -1.0072048220261618e-05 0 -0.0024422249992110388 3.539546714880399e-05 0 -0.0024796845560521616 -1.2602358953667611e-07 0 -0.0027702291490727228 2.3127769527552089e-07 0 -0.0024652339544064331 -1.0072048220261618e-05 0 -0.0023301019214008521 0.00010969308232389231 0 -0.0029059555351891217 0.00031016579404490269 0 -0.0023545171049358625 0.00027645368704734395 0 -0.0022060754923685618 0.00037913077112692017 0 -0.002375198576970175 0.00042357682244962712 0 -0.0035601941321352576 0.00034063850216943227 0 -0.0036047878829684587 0.000496135350364074 0 -0.0037629706913765832 0.00039463405923928556 0 -0.0030285765665380559 0.0004622521429890734 0 -0.0029059555351891217 0.00031016579404490269 0 -0.0038140954239098122 0.00050704279405245625 0 -0.0036047878829684587 0.000496135350364074 0 -0.0037629706913765832 0.00039463405923928556 0 -0.0038140954239098122 0.00050704279405245625 0 -0.0037629706913765832 0.00039463405923928556 0 -0.0039349701333158647 0.00041960779259038824 0 -0.0037629706913765832 0.00039463405923928556 0 -0.0037815843295778001 0.00022999420582293576 0 -0.0038994556486508731 0.00031452024195131905 0 -0.0035601941321352576 0.00034063850216943227 0 -0.0037629706913765832 0.00039463405923928556 0 -0.0037815843295778001 0.00022999420582293576 0 -0.0034570611190488493 9.1225186437887069e-05 0 -0.0035601941321352576 0.00034063850216943227 0 -0.0037815843295778001 0.00022999420582293576 0 -0.0037815843295778001 0.00022999420582293576 0 -0.0039104728003527848 0.00022635955292903744 0 -0.0038994556486508731 0.00031452024195131905 0 -0.0039104728003527848 0.00022635955292903744 0 -0.0039791931273016612 0.00025951640143058208 0 -0.0039890481387616049 0.00018521655210013981 0 -0.0039104728003527848 0.00022635955292903744 0 -0.0039791931273016612 0.00025951640143058208 0 -0.0038994556486508731 0.00031452024195131905 0 -0.0040315568859721259 0.00022539725780215461 0 -0.0039791931273016612 0.00025951640143058208 0 -0.0040441674872898799 0.00027507091846845156 0 -0.0040315568859721259 0.00022539725780215461 0 -0.0039791931273016612 0.00025951640143058208 0 -0.0039890481387616049 0.00018521655210013981 0 -0.0039791931273016612 0.00025951640143058208 0 -0.0039886903555386433 0.00032775723111749567 0 -0.0040441674872898799 0.00027507091846845156 0 -0.0039886903555386433 0.00032775723111749567 0 -0.0039349701333158647 0.00041960779259038824 0 -0.0040190203535019446 0.00037725873680593939 0 -0.0039886903555386433 0.00032775723111749567 0 -0.0040380617486129112 0.00032958370753663512 0 -0.0040441674872898799 0.00027507091846845156 0 -0.0039886903555386433 0.00032775723111749567 0 -0.0040190203535019446 0.00037725873680593939 0 -0.0040380617486129112 0.00032958370753663512 0 -0.0039886903555386433 0.00032775723111749567 0 -0.0038994556486508731 0.00031452024195131905 0 -0.0039349701333158647 0.00041960779259038824 0 -0.0039791931273016612 0.00025951640143058208 0 -0.0039886903555386433 0.00032775723111749567 0 -0.0038994556486508731 0.00031452024195131905 0 -0.0037629706913765832 0.00039463405923928556 0 -0.0038994556486508731 0.00031452024195131905 0 -0.0039349701333158647 0.00041960779259038824 0 -0.0039349701333158647 0.00041960779259038824 0 -0.0040190203535019446 0.00037725873680593939 0 -0.0040158468932181245 0.00042882255258279379 0 -0.0039349701333158647 0.00041960779259038824 0 -0.0039756799268815621 0.00047794538621801657 0 -0.0040158468932181245 0.00042882255258279379 0 -0.0030285765665380559 0.0004622521429890734 0 -0.0030156616924715005 0.00039865088384278006 0 -0.0021088189530465086 0.00024568731504978207 0 -0.0022060754923685618 0.00037913077112692017 0 -0.0020611036106324828 0.00032593008104950423 0 -0.0038140954239098122 0.00050704279405245625 0 -0.0039349701333158647 0.00041960779259038824 0 -0.0039756799268815621 0.00047794538621801657 0 -0.0040542714793558865 0.00042446577114425648 0 -0.0040538755286845772 0.00040412414861302662 0 -0.0040636434721599531 0.00040518197361174348 0 -0.0040542714793558865 0.00042446577114425648 0 -0.0040636434721599531 0.00040518197361174348 0 -0.0040443832611257091 0.00040286096699193542 0 -0.0029751831027397054 0.00035063537089972773 0 -0.0030156616924715005 0.00039865088384278006 0 -0.0040542714793558865 0.00042446577114425648 0 -0.0040538755286845772 0.00040412414861302662 0 -0.0040158468932181245 0.00042882255258279379 0 -0.0040542714793558865 0.00042446577114425648 0 -0.0039756799268815621 0.00047794538621801657 0 -0.0040158468932181245 0.00042882255258279379 0 -0.0040190203535019446 0.00037725873680593939 0 -0.0040538755286845772 0.00040412414861302662 0 -0.0040158468932181245 0.00042882255258279379 0 -0.0040190203535019446 0.00037725873680593939 0 -0.0040538755286845772 0.00040412414861302662 0 -0.0040587283356855377 0.00035910663298403345 0 -0.0040538755286845772 0.00040412414861302662 0 -0.0040766813356174093 0.00038014610309735242 0 -0.0040587283356855377 0.00035910663298403345 0 -0.0040766813356174093 0.00038014610309735242 0 -0.0040730041758709687 0.00038990510259407041 0 -0.004099191332596985 0.00035227952441596014 0 -0.0040538755286845772 0.00040412414861302662 0 -0.0040766813356174093 0.00038014610309735242 0 -0.0040636434721599531 0.00040518197361174348 0 -0.0040636434721599531 0.00040518197361174348 0 -0.0040730041758709687 0.00038990510259407041 0 -0.0040559354424254757 0.00040706615367833751 0 -0.0040766813356174093 0.00038014610309735242 0 -0.0040636434721599531 0.00040518197361174348 0 -0.0040730041758709687 0.00038990510259407041 0 -0.0040766813356174093 0.00038014610309735242 0 -0.0040804932392560136 0.00034437537276814709 0 -0.004099191332596985 0.00035227952441596014 0 -0.0040804932392560136 0.00034437537276814709 0 -0.004099191332596985 0.00035227952441596014 0 -0.0041050090331554356 0.00031142135958476023 0 -0.004099191332596985 0.00035227952441596014 0 -0.0041050090331554356 0.00031142135958476023 0 -0.004124656512924524 0.00031870820176993329 0 -0.0040804932392560136 0.00034437537276814709 0 -0.0041050090331554356 0.00031142135958476023 0 -0.0040758139205043621 0.0003054835815967927 0 -0.0041050090331554356 0.00031142135958476023 0 -0.0040758139205043621 0.0003054835815967927 0 -0.0041250955253238752 0.00026787330396967486 0 -0.0041512611224326307 0.00028748307894555311 0 -0.004124656512924524 0.00031870820176993329 0 -0.0041615669091082047 0.00029535915215009176 0 -0.0041343053399463736 0.00028852163962182629 0 -0.0041512611224326307 0.00028748307894555311 0 -0.004124656512924524 0.00031870820176993329 0 -0.0041050090331554356 0.00031142135958476023 0 -0.0041343053399463736 0.00028852163962182629 0 -0.004124656512924524 0.00031870820176993329 0 -0.0040190203535019446 0.00037725873680593939 0 -0.0040587283356855377 0.00035910663298403345 0 -0.0040380617486129112 0.00032958370753663512 0 -0.0040766813356174093 0.00038014610309735242 0 -0.0040804932392560136 0.00034437537276814709 0 -0.0040587283356855377 0.00035910663298403345 0 -0.0040804932392560136 0.00034437537276814709 0 -0.0040587283356855377 0.00035910663298403345 0 -0.0040758139205043621 0.0003054835815967927 0 -0.0040587283356855377 0.00035910663298403345 0 -0.0040758139205043621 0.0003054835815967927 0 -0.0040380617486129112 0.00032958370753663512 0 -0.0040758139205043621 0.0003054835815967927 0 -0.0040380617486129112 0.00032958370753663512 0 -0.0040441674872898799 0.00027507091846845156 0 -0.0040758139205043621 0.0003054835815967927 0 -0.0040877691392010949 0.00026228524590940798 0 -0.0041250955253238752 0.00026787330396967486 0 -0.0040758139205043621 0.0003054835815967927 0 -0.0040441674872898799 0.00027507091846845156 0 -0.0040877691392010949 0.00026228524590940798 0 -0.0040877691392010949 0.00026228524590940798 0 -0.004079983602974434 0.00022886727747355938 0 -0.0041145957340829519 0.00023421531073747475 0 -0.0040315568859721259 0.00022539725780215461 0 -0.0040441674872898799 0.00027507091846845156 0 -0.004079983602974434 0.00022886727747355938 0 -0.0040441674872898799 0.00027507091846845156 0 -0.0040877691392010949 0.00026228524590940798 0 -0.004079983602974434 0.00022886727747355938 0 -0.0041343053399463736 0.00028852163962182629 0 -0.0041250955253238752 0.00026787330396967486 0 -0.0041600637475155029 0.00026392319619336949 0 -0.0041250955253238752 0.00026787330396967486 0 -0.0041583282525518616 0.00023075210089320943 0 -0.0041600637475155029 0.00026392319619336949 0 -0.0041343053399463736 0.00028852163962182629 0 -0.0041512611224326307 0.00028748307894555311 0 -0.0041600637475155029 0.00026392319619336949 0 -0.0041050090331554356 0.00031142135958476023 0 -0.0041343053399463736 0.00028852163962182629 0 -0.0041250955253238752 0.00026787330396967486 0 -0.0040877691392010949 0.00026228524590940798 0 -0.0041250955253238752 0.00026787330396967486 0 -0.0041145957340829519 0.00023421531073747475 0 -0.0041250955253238752 0.00026787330396967486 0 -0.0041145957340829519 0.00023421531073747475 0 -0.0041583282525518616 0.00023075210089320943 0 -0.0041583282525518616 0.00023075210089320943 0 -0.0041400468981347182 0.00020454812873159576 0 -0.0041674328097847336 0.00019248466181416094 0 -0.0041145957340829519 0.00023421531073747475 0 -0.0041400468981347182 0.00020454812873159576 0 -0.0041122223731263107 0.0002030866180110938 0 -0.0041145957340829519 0.00023421531073747475 0 -0.0041583282525518616 0.00023075210089320943 0 -0.0041400468981347182 0.00020454812873159576 0 -0.0041400468981347182 0.00020454812873159576 0 -0.0041674328097847336 0.00019248466181416094 0 -0.0041427913384349613 0.00016916113500954055 0 -0.0041400468981347182 0.00020454812873159576 0 -0.0041427913384349613 0.00016916113500954055 0 -0.0041122223731263107 0.0002030866180110938 0 -0.0041674328097847336 0.00019248466181416094 0 -0.0041761189104230576 0.0001574876494005331 0 -0.0041427913384349613 0.00016916113500954055 0 -0.0041761189104230576 0.0001574876494005331 0 -0.0041427913384349613 0.00016916113500954055 0 -0.0041776805335557226 0.00011933744824374629 0 -0.0041427913384349613 0.00016916113500954055 0 -0.0041198212117672653 0.00013672482128254979 0 -0.0041776805335557226 0.00011933744824374629 0 -0.0041427913384349613 0.00016916113500954055 0 -0.0041198212117672653 0.00013672482128254979 0 -0.004080363360489437 0.00018226901078880343 0 -0.0041427913384349613 0.00016916113500954055 0 -0.004080363360489437 0.00018226901078880343 0 -0.0041122223731263107 0.0002030866180110938 0 -0.004079983602974434 0.00022886727747355938 0 -0.0041145957340829519 0.00023421531073747475 0 -0.0041122223731263107 0.0002030866180110938 0 -0.0040315568859721259 0.00022539725780215461 0 -0.004079983602974434 0.00022886727747355938 0 -0.004080363360489437 0.00018226901078880343 0 -0.004079983602974434 0.00022886727747355938 0 -0.004080363360489437 0.00018226901078880343 0 -0.0041122223731263107 0.0002030866180110938 0 -0.0040315568859721259 0.00022539725780215461 0 -0.004080363360489437 0.00018226901078880343 0 -0.0039890481387616049 0.00018521655210013981 0 -0.004080363360489437 0.00018226901078880343 0 -0.0039890481387616049 0.00018521655210013981 0 -0.0040584666762961885 0.00014204395689155539 0 -0.0038853678424535746 0.00014712168835043078 0 -0.0039890481387616049 0.00018521655210013981 0 -0.0039995812458843375 0.00010404286945614803 0 -0.0038853678424535746 0.00014712168835043078 0 -0.0039104728003527848 0.00022635955292903744 0 -0.0039890481387616049 0.00018521655210013981 0 -0.0039890481387616049 0.00018521655210013981 0 -0.0039995812458843375 0.00010404286945614803 0 -0.0040584666762961885 0.00014204395689155539 0 -0.0039995812458843375 0.00010404286945614803 0 -0.0040584666762961885 0.00014204395689155539 0 -0.0041302969892433473 0.00010082160408044109 0 -0.0041198212117672653 0.00013672482128254979 0 -0.0040584666762961885 0.00014204395689155539 0 -0.0041302969892433473 0.00010082160408044109 0 -0.0041198212117672653 0.00013672482128254979 0 -0.004080363360489437 0.00018226901078880343 0 -0.0040584666762961885 0.00014204395689155539 0 -0.0039995812458843375 0.00010404286945614803 0 -0.0041302969892433473 0.00010082160408044109 0 -0.0040700508203188115 6.9523622393401986e-05 0 -0.0040102321719876063 3.452971304191875e-05 0 -0.0039497988652857832 6.1475295907608329e-05 0 -0.0040700508203188115 6.9523622393401986e-05 0 -0.0039497988652857832 6.1475295907608329e-05 0 -0.0039995812458843375 0.00010404286945614803 0 -0.0040700508203188115 6.9523622393401986e-05 0 -0.0040102321719876063 3.452971304191875e-05 0 -0.0040700508203188115 6.9523622393401986e-05 0 -0.0041601074251173906 5.6854100909456851e-05 0 -0.0040700508203188115 6.9523622393401986e-05 0 -0.004163593431156026 7.9714004858481282e-05 0 -0.0041601074251173906 5.6854100909456851e-05 0 -0.0041302969892433473 0.00010082160408044109 0 -0.004163593431156026 7.9714004858481282e-05 0 -0.0042178526712303545 9.4155441035630484e-05 0 -0.004163593431156026 7.9714004858481282e-05 0 -0.004233794446396582 8.6297252342963898e-05 0 -0.0041601074251173906 5.6854100909456851e-05 0 -0.0041302969892433473 0.00010082160408044109 0 -0.0040700508203188115 6.9523622393401986e-05 0 -0.004163593431156026 7.9714004858481282e-05 0 -0.004163593431156026 7.9714004858481282e-05 0 -0.0042178526712303545 9.4155441035630484e-05 0 -0.004233794446396582 8.6297252342963898e-05 0 -0.0042178526712303545 9.4155441035630484e-05 0 -0.0041776805335557226 0.00011933744824374629 0 -0.0042019416923201342 0.00010510629232438889 0 -0.0042178526712303545 9.4155441035630484e-05 0 -0.0042019416923201342 0.00010510629232438889 0 -0.0043140013773617673 0.00010707728640112186 0 -0.0041776805335557226 0.00011933744824374629 0 -0.0041970206696147561 0.00013776640413426741 0 -0.0042019416923201342 0.00010510629232438889 0 -0.0041761189104230576 0.0001574876494005331 0 -0.0041776805335557226 0.00011933744824374629 0 -0.0041970206696147561 0.00013776640413426741 0 -0.0041302969892433473 0.00010082160408044109 0 -0.0042178526712303545 9.4155441035630484e-05 0 -0.0041776805335557226 0.00011933744824374629 0 -0.0041198212117672653 0.00013672482128254979 0 -0.0041302969892433473 0.00010082160408044109 0 -0.0041776805335557226 0.00011933744824374629 0 -0.0042222102596534096 0.00013929016215949346 0 -0.0041970206696147561 0.00013776640413426741 0 -0.0042089849487691611 0.00016211341329891072 0 -0.0042222102596534096 0.00013929016215949346 0 -0.0041970206696147561 0.00013776640413426741 0 -0.0042019416923201342 0.00010510629232438889 0 -0.004350961398922118 0.00016455751206380715 0 -0.0043101964841385674 0.00013128683878796014 0 -0.0044623094885029588 0.00018669884867099427 0 -0.0044229129617705974 0.00016401823848671035 0 -0.0044449769147308039 0.00013786967521436846 0 -0.0044623094885029588 0.00018669884867099427 0 -0.0044776758826152781 0.00014869394354135218 0 -0.0044449769147308039 0.00013786967521436846 0 -0.0044776758826152781 0.00014869394354135218 0 -0.0045027424394936599 0.00017165515348317175 0 -0.004506028909437099 0.00012794415905582651 0 -0.0044623094885029588 0.00018669884867099427 0 -0.0044776758826152781 0.00014869394354135218 0 -0.0045027424394936599 0.00017165515348317175 0 -0.0043696756528030754 0.00020146648360079244 0 -0.0044844915374081138 0.00018675001639991266 0 -0.0042494247323859235 0.00022810698515254065 0 -0.0042534674102553179 0.00022782597657419808 0 -0.0042516739062895825 0.00022116794862669445 0 -0.0043696756528030754 0.00020146648360079244 0 -0.0043279134758063232 0.00020330776014892372 0 -0.0042494247323859235 0.00022810698515254065 0 -0.0042478904388633552 0.00023266676948829367 0 -0.0042499159593441319 0.00023177291348713927 0 -0.0044623094885029588 0.00018669884867099427 0 -0.0045027424394936599 0.00017165515348317175 0 -0.0044992349356245071 0.00021305840140980781 0 -0.004350961398922118 0.00016455751206380715 0 -0.0043279134758063232 0.00020330776014892372 0 -0.0042222102596534096 0.00013929016215949346 0 -0.0042366631680261944 0.00018706149349590796 0 -0.004254962442318347 0.00018602697888753621 0 -0.0042222102596534096 0.00013929016215949346 0 -0.0042366631680261944 0.00018706149349590796 0 -0.0042228705310385205 0.00018671626601514569 0 -0.0042366631680261944 0.00018706149349590796 0 -0.004254962442318347 0.00018602697888753621 0 -0.0042466608211294389 0.00021277085290990458 0 -0.0042366631680261944 0.00018706149349590796 0 -0.0042347187025392119 0.00021109578580542654 0 -0.0042228705310385205 0.00018671626601514569 0 -0.0043279134758063232 0.00020330776014892372 0 -0.0042347768933640147 0.00022541518546665971 0 -0.0042470027805055922 0.00021273996443230792 0 -0.0042466608211294389 0.00021277085290990458 0 -0.0042446582671506845 0.0002236231338404001 0 -0.0042478904388633552 0.00023266676948829367 0 -0.0042476784319208085 0.00023468645546044487 0 -0.0042499159593441319 0.00023177291348713927 0 -0.0043279134758063232 0.00020330776014892372 0 -0.0042798496164773705 0.00020878901648719941 0 -0.0042466608211294389 0.00021277085290990458 0 -0.0042435749274449281 0.00022478678046396848 0 -0.0042446582671506845 0.0002236231338404001 0 -0.0042466608211294389 0.00021277085290990458 0 -0.0042399293835357474 0.00022417522122999256 0 -0.0042435749274449281 0.00022478678046396848 0 -0.0042399293835357474 0.00022417522122999256 0 -0.0042435749274449281 0.00022478678046396848 0 -0.0042401089040099479 0.00023316138410119146 0 -0.0042347187025392119 0.00021109578580542654 0 -0.0042212888432784793 0.00021361985280979711 0 -0.0042228705310385205 0.00018671626601514569 0 -0.0042366631680261944 0.00018706149349590796 0 -0.0042466608211294389 0.00021277085290990458 0 -0.0042347187025392119 0.00021109578580542654 0 -0.0042466608211294389 0.00021277085290990458 0 -0.0042399293835357474 0.00022417522122999256 0 -0.0042347187025392119 0.00021109578580542654 0 -0.0042399293835357474 0.00022417522122999256 0 -0.0042347187025392119 0.00021109578580542654 0 -0.0042307089615091194 0.00022855045307952669 0 -0.0042347187025392119 0.00021109578580542654 0 -0.0042212888432784793 0.00021361985280979711 0 -0.0042307089615091194 0.00022855045307952669 0 -0.0042212888432784793 0.00021361985280979711 0 -0.0042201640123282168 0.00023083497135800197 0 -0.0042307089615091194 0.00022855045307952669 0 -0.0042212888432784793 0.00021361985280979711 0 -0.0042201640123282168 0.00023083497135800197 0 -0.00420744331639036 0.00022714477263438061 0 -0.0042076242320601498 0.00019657093790110788 0 -0.0041885176758216522 0.00021259999188003679 0 -0.00420744331639036 0.00022714477263438061 0 -0.0042212888432784793 0.00021361985280979711 0 -0.0042076242320601498 0.00019657093790110788 0 -0.00420744331639036 0.00022714477263438061 0 -0.0042212888432784793 0.00021361985280979711 0 -0.0042076242320601498 0.00019657093790110788 0 -0.0042228705310385205 0.00018671626601514569 0 -0.0042222102596534096 0.00013929016215949346 0 -0.0042228705310385205 0.00018671626601514569 0 -0.0042089849487691611 0.00016211341329891072 0 -0.0042076242320601498 0.00019657093790110788 0 -0.0042228705310385205 0.00018671626601514569 0 -0.0042089849487691611 0.00016211341329891072 0 -0.0041761189104230576 0.0001574876494005331 0 -0.0041970206696147561 0.00013776640413426741 0 -0.0041918626598855813 0.00018036112128423591 0 -0.0041970206696147561 0.00013776640413426741 0 -0.0042089849487691611 0.00016211341329891072 0 -0.0041918626598855813 0.00018036112128423591 0 -0.0042076242320601498 0.00019657093790110788 0 -0.0042089849487691611 0.00016211341329891072 0 -0.0041918626598855813 0.00018036112128423591 0 -0.0041674328097847336 0.00019248466181416094 0 -0.0041761189104230576 0.0001574876494005331 0 -0.0041918626598855813 0.00018036112128423591 0 -0.0041674328097847336 0.00019248466181416094 0 -0.0041918626598855813 0.00018036112128423591 0 -0.0041885176758216522 0.00021259999188003679 0 -0.0042076242320601498 0.00019657093790110788 0 -0.0041918626598855813 0.00018036112128423591 0 -0.0041885176758216522 0.00021259999188003679 0 -0.0041583282525518616 0.00023075210089320943 0 -0.0041674328097847336 0.00019248466181416094 0 -0.0041885176758216522 0.00021259999188003679 0 -0.0041583282525518616 0.00023075210089320943 0 -0.0041869862386888059 0.00024107767526278866 0 -0.0041600637475155029 0.00026392319619336949 0 -0.0041583282525518616 0.00023075210089320943 0 -0.0041885176758216522 0.00021259999188003679 0 -0.0041869862386888059 0.00024107767526278866 0 -0.0041885176758216522 0.00021259999188003679 0 -0.0041869862386888059 0.00024107767526278866 0 -0.00420744331639036 0.00022714477263438061 0 -0.0041869862386888059 0.00024107767526278866 0 -0.0041947348109668678 0.00025713527112456445 0 -0.0041812168127940627 0.00026119880780245939 0 -0.0041869862386888059 0.00024107767526278866 0 -0.0041947348109668678 0.00025713527112456445 0 -0.0042015420403950102 0.00024394889873820979 0 -0.0041947348109668678 0.00025713527112456445 0 -0.0041812168127940627 0.00026119880780245939 0 -0.004187160144781244 0.00027090849562406885 0 -0.0041812168127940627 0.00026119880780245939 0 -0.0041600637475155029 0.00026392319619336949 0 -0.0041721544895273041 0.0002771369229923241 0 -0.0041869862386888059 0.00024107767526278866 0 -0.0041812168127940627 0.00026119880780245939 0 -0.0041600637475155029 0.00026392319619336949 0 -0.0041512611224326307 0.00028748307894555311 0 -0.0041600637475155029 0.00026392319619336949 0 -0.0041721544895273041 0.0002771369229923241 0 -0.0042201640123282168 0.00023083497135800197 0 -0.00420744331639036 0.00022714477263438061 0 -0.0042143936801974594 0.00024462698864617416 0 -0.0042201640123282168 0.00023083497135800197 0 -0.0042143936801974594 0.00024462698864617416 0 -0.0042235653792551736 0.00024276801693689159 0 -0.00420744331639036 0.00022714477263438061 0 -0.0042015420403950102 0.00024394889873820979 0 -0.0042143936801974594 0.00024462698864617416 0 -0.0041869862386888059 0.00024107767526278866 0 -0.00420744331639036 0.00022714477263438061 0 -0.0042015420403950102 0.00024394889873820979 0 -0.0042015420403950102 0.00024394889873820979 0 -0.004206635550873852 0.00025676256390467453 0 -0.0042143936801974594 0.00024462698864617416 0 -0.0041947348109668678 0.00025713527112456445 0 -0.0042015420403950102 0.00024394889873820979 0 -0.004206635550873852 0.00025676256390467453 0 -0.004206635550873852 0.00025676256390467453 0 -0.0042143936801974594 0.00024462698864617416 0 -0.0042176672747290369 0.00025633225494142074 0 -0.0042143936801974594 0.00024462698864617416 0 -0.0042176672747290369 0.00025633225494142074 0 -0.0042235653792551736 0.00024276801693689159 0 -0.0042176672747290369 0.00025633225494142074 0 -0.0042107718565260015 0.00026546510900073709 0 -0.0042178587014237113 0.00026545619835491963 0 -0.004206635550873852 0.00025676256390467453 0 -0.0042176672747290369 0.00025633225494142074 0 -0.0042107718565260015 0.00026546510900073709 0 -0.0042107718565260015 0.00026546510900073709 0 -0.0041996498423958811 0.00026937944207556559 0 -0.0042059583307670397 0.0002723220014091532 0 -0.004206635550873852 0.00025676256390467453 0 -0.0042107718565260015 0.00026546510900073709 0 -0.0041996498423958811 0.00026937944207556559 0 -0.0041947348109668678 0.00025713527112456445 0 -0.004206635550873852 0.00025676256390467453 0 -0.0041996498423958811 0.00026937944207556559 0 -0.0041996498423958811 0.00026937944207556559 0 -0.0041994793064589328 0.0002777757493279382 0 -0.0041933821110051537 0.00027528096901589246 0 -0.0041996498423958811 0.00026937944207556559 0 -0.0041994793064589328 0.0002777757493279382 0 -0.0042059583307670397 0.0002723220014091532 0 -0.0041994793064589328 0.0002777757493279382 0 -0.0041866236442980589 0.00028184965033949843 0 -0.0042114464797930714 0.00028054332464966768 0 -0.0041994793064589328 0.0002777757493279382 0 -0.0042091673527445365 0.00027581151940702612 0 -0.0042114464797930714 0.00028054332464966768 0 -0.0041994793064589328 0.0002777757493279382 0 -0.0042091673527445365 0.00027581151940702612 0 -0.0042059583307670397 0.0002723220014091532 0 -0.0042091673527445365 0.00027581151940702612 0 -0.0042140336596292417 0.00027251980316319094 0 -0.0042121939873961626 0.0002760991648211561 0 -0.0042091673527445365 0.00027581151940702612 0 -0.0042059583307670397 0.0002723220014091532 0 -0.0042112791551925108 0.00027126610085251155 0 -0.0042107718565260015 0.00026546510900073709 0 -0.0042059583307670397 0.0002723220014091532 0 -0.0042112791551925108 0.00027126610085251155 0 -0.0042107718565260015 0.00026546510900073709 0 -0.0042112791551925108 0.00027126610085251155 0 -0.0042178587014237113 0.00026545619835491963 0 -0.0042112791551925108 0.00027126610085251155 0 -0.0042140336596292417 0.00027251980316319094 0 -0.0042178587014237113 0.00026545619835491963 0 -0.0042091673527445365 0.00027581151940702612 0 -0.0042112791551925108 0.00027126610085251155 0 -0.0042140336596292417 0.00027251980316319094 0 -0.0042178587014237113 0.00026545619835491963 0 -0.0042166573559065685 0.00027127282181603122 0 -0.0042199903333750644 0.00026696773045826002 0 -0.0042140336596292417 0.00027251980316319094 0 -0.0042178587014237113 0.00026545619835491963 0 -0.0042166573559065685 0.00027127282181603122 0 -0.004124656512924524 0.00031870820176993329 0 -0.0041615669091082047 0.00029535915215009176 0 -0.0042114464797930714 0.00028054332464966768 0 -0.004099191332596985 0.00035227952441596014 0 -0.004124656512924524 0.00031870820176993329 0 -0.0041928828112762504 0.0003800730562237297 0 -0.004124656512924524 0.00031870820176993329 0 -0.0041928828112762504 0.0003800730562237297 0 -0.0041931894456270057 0.00037864066565485076 0 -0.0040896103286195973 0.0003145048043968554 0 -0.0042923517844702533 0.00030740506340357635 0 -0.0041615669091082047 0.00029535915215009176 0 -0.0041721544895273041 0.0002771369229923241 0 -0.0041866236442980589 0.00028184965033949843 0 -0.0041512611224326307 0.00028748307894555311 0 -0.0041615669091082047 0.00029535915215009176 0 -0.0041721544895273041 0.0002771369229923241 0 -0.0041812168127940627 0.00026119880780245939 0 -0.0041721544895273041 0.0002771369229923241 0 -0.004187160144781244 0.00027090849562406885 0 -0.0041721544895273041 0.0002771369229923241 0 -0.004187160144781244 0.00027090849562406885 0 -0.0041866236442980589 0.00028184965033949843 0 -0.0041947348109668678 0.00025713527112456445 0 -0.0041996498423958811 0.00026937944207556559 0 -0.004187160144781244 0.00027090849562406885 0 -0.0041994793064589328 0.0002777757493279382 0 -0.0041933821110051537 0.00027528096901589246 0 -0.0041866236442980589 0.00028184965033949843 0 -0.004187160144781244 0.00027090849562406885 0 -0.0041933821110051537 0.00027528096901589246 0 -0.0041866236442980589 0.00028184965033949843 0 -0.0041996498423958811 0.00026937944207556559 0 -0.004187160144781244 0.00027090849562406885 0 -0.0041933821110051537 0.00027528096901589246 0 -0.0041615669091082047 0.00029535915215009176 0 -0.0041866236442980589 0.00028184965033949843 0 -0.0042114464797930714 0.00028054332464966768 0 -0.0040631865148658582 0.00035903192033736583 0 -0.0041859800329154826 0.00038399315292568872 0 -0.0040730041758709687 0.00038990510259407041 0 -0.004099191332596985 0.00035227952441596014 0 -0.0040346849131916327 0.00043168217194836615 0 -0.0040730041758709687 0.00038990510259407041 0 -0.0040517161410913768 0.00041152247345265625 0 -0.0040346849131916327 0.00043168217194836615 0 -0.0040730041758709687 0.00038990510259407041 0 -0.0040559354424254757 0.00040706615367833751 0 -0.0040517161410913768 0.00041152247345265625 0 -0.0040636434721599531 0.00040518197361174348 0 -0.0040559354424254757 0.00040706615367833751 0 -0.0040443832611257091 0.00040286096699193542 0 -0.0040559354424254757 0.00040706615367833751 0 -0.0040406583956055552 0.00041356990223354403 0 -0.0040443832611257091 0.00040286096699193542 0 -0.0040406583956055552 0.00041356990223354403 0 -0.0040517161410913768 0.00041152247345265625 0 -0.0040346849131916327 0.00043168217194836615 0 -0.0040559354424254757 0.00040706615367833751 0 -0.0040406583956055552 0.00041356990223354403 0 -0.0040517161410913768 0.00041152247345265625 0 -0.0041859800329154826 0.00038399315292568872 0 -0.0036850800154518202 0.00057710277126988045 0 -0.0041928828112762504 0.0003800730562237297 0 -0.0041931894456270057 0.00037864066565485076 0 -0.0041314140441724365 0.00036880569238395891 0 -0.0040346849131916327 0.00043168217194836615 0 -0.0040145184228801744 0.00041098926547735104 0 -0.0039468732746166368 0.00042083618645147102 0 -0.0042114464797930714 0.00028054332464966768 0 -0.0042121939873961626 0.0002760991648211561 0 -0.0042142702309406763 0.00027456425566142945 0 -0.0042091673527445365 0.00027581151940702612 0 -0.0042114464797930714 0.00028054332464966768 0 -0.0042121939873961626 0.0002760991648211561 0 -0.0042114464797930714 0.00028054332464966768 0 -0.0042142702309406763 0.00027456425566142945 0 -0.0042175250804035828 0.00027151475426070206 0 -0.0042166573559065685 0.00027127282181603122 0 -0.0042142702309406763 0.00027456425566142945 0 -0.0042175250804035828 0.00027151475426070206 0 -0.0042166573559065685 0.00027127282181603122 0 -0.0042175250804035828 0.00027151475426070206 0 -0.0042199903333750644 0.00026696773045826002 0 -0.0042140336596292417 0.00027251980316319094 0 -0.0042166573559065685 0.00027127282181603122 0 -0.0042142702309406763 0.00027456425566142945 0 -0.0042140336596292417 0.00027251980316319094 0 -0.0042121939873961626 0.0002760991648211561 0 -0.0042142702309406763 0.00027456425566142945 0 -0.0040406583956055552 0.00041356990223354403 0 -0.0040346849131916327 0.00043168217194836615 0 -0.0040145184228801744 0.00041098926547735104 0 -0.0040145184228801744 0.00041098926547735104 0 -0.0040003716363300624 0.00039079394326617411 0 -0.0039468732746166368 0.00042083618645147102 0 -0.0040145184228801744 0.00041098926547735104 0 -0.0040003716363300624 0.00039079394326617411 0 -0.0040443832611257091 0.00040286096699193542 0 -0.0040284478824745042 0.00037336630175534746 0 -0.0040003716363300624 0.00039079394326617411 0 -0.0040443832611257091 0.00040286096699193542 0 -0.0040284478824745042 0.00037336630175534746 0 -0.0040542714793558865 0.00042446577114425648 0 -0.0040443832611257091 0.00040286096699193542 0 -0.0040406583956055552 0.00041356990223354403 0 -0.0040145184228801744 0.00041098926547735104 0 -0.0040443832611257091 0.00040286096699193542 0 -0.0042238318769362649 0.00025296035774070879 0 -0.0042270079043987031 0.00025296487068415113 0 -0.0042259047391454783 0.0002417506207924385 0 -0.0017867597175132346 0.00072709516255403184 0 -0.0018154417973702973 0.00086526980115655917 0 -0.0018928002284194451 0.00090168492236693406 0 -0.0015659228647755511 0.00073138992978791641 0 -0.0017867597175132346 0.00072709516255403184 0 -0.0018154417973702973 0.00086526980115655917 0 -0.0042238318769362649 0.00025296035774070879 0 -0.0042259359691304357 0.00025549919278904581 0 -0.0042253111969995528 0.00025545697289226815 0 -0.0030439214251209287 0.00050665777790294994 0 -0.0036850800154518202 0.00057710277126988045 0 -0.002343720628847263 0.0003813746178431772 0 -0.0036850800154518202 0.00057710277126988045 0 -0.0039523610493578717 0.00034280080377093586 0 -0.0040003716363300624 0.00039079394326617411 0 -0.0039468732746166368 0.00042083618645147102 0 -0.0042114464797930714 0.00028054332464966768 0 -0.0042175250804035828 0.00027151475426070206 0 -0.0042238543897558352 0.00026456561713599164 0 -0.0036850800154518202 0.00057710277126988045 0 -0.0039583667989444363 0.00023855487127259875 0 -0.0042259359691304357 0.00025549919278904581 0 -0.0042260007622032299 0.00026053570105074729 0 -0.0042253111969995528 0.00025545697289226815 0 -0.0042923517844702533 0.00030740506340357635 0 -0.0036850800154518202 0.00057710277126988045 0 -0.0042238543897558352 0.00026456561713599164 0 -0.0042260007622032299 0.00026053570105074729 0 -0.0042238541623129833 0.00026333321640644721 0 -0.0042175250804035828 0.00027151475426070206 0 -0.0042238543897558352 0.00026456561713599164 0 -0.0042238541623129833 0.00026333321640644721 0 -0.0042175250804035828 0.00027151475426070206 0 -0.0042199903333750644 0.00026696773045826002 0 -0.0042238541623129833 0.00026333321640644721 0 -0.0042260007622032299 0.00026053570105074729 0 -0.0042238541623129833 0.00026333321640644721 0 -0.0042288599240635416 0.00025650028298189839 0 -0.0042238541623129833 0.00026333321640644721 0 -0.0042288599240635416 0.00025650028298189839 0 -0.0042280269882414316 0.00025663806066761921 0 -0.0042260007622032299 0.00026053570105074729 0 -0.0042288599240635416 0.00025650028298189839 0 -0.0042270079043987031 0.00025296487068415113 0 -0.0042260007622032299 0.00026053570105074729 0 -0.0042253111969995528 0.00025545697289226815 0 -0.0042270079043987031 0.00025296487068415113 0 -0.0042238318769362649 0.00025296035774070879 0 -0.0042253111969995528 0.00025545697289226815 0 -0.0042270079043987031 0.00025296487068415113 0 -0.0042288599240635416 0.00025650028298189839 0 -0.0042270079043987031 0.00025296487068415113 0 -0.0042315443517060526 0.00025125787354681427 0 -0.0042270079043987031 0.00025296487068415113 0 -0.0042315443517060526 0.00025125787354681427 0 -0.0042294450611089739 0.00024899912755666767 0 -0.0042315443517060526 0.00025125787354681427 0 -0.0042328711445995077 0.00025026472165652343 0 -0.0042362118048033187 0.00024545545922093862 0 -0.0042288599240635416 0.00025650028298189839 0 -0.0042328711445995077 0.00025026472165652343 0 -0.0042280269882414316 0.00025663806066761921 0 -0.0042288599240635416 0.00025650028298189839 0 -0.0042315443517060526 0.00025125787354681427 0 -0.0042328711445995077 0.00025026472165652343 0 -0.0042328711445995077 0.00025026472165652343 0 -0.0042294839103661601 0.00025154240701586155 0 -0.0042339719333759924 0.00024414570923210677 0 -0.0042328711445995077 0.00025026472165652343 0 -0.0042280269882414316 0.00025663806066761921 0 -0.0042294839103661601 0.00025154240701586155 0 -0.0042328711445995077 0.00025026472165652343 0 -0.0042376265245451039 0.00024107292388183502 0 -0.0042339719333759924 0.00024414570923210677 0 -0.0042328711445995077 0.00025026472165652343 0 -0.0042376265245451039 0.00024107292388183502 0 -0.0042362118048033187 0.00024545545922093862 0 -0.0042178587014237113 0.00026545619835491963 0 -0.0042199903333750644 0.00026696773045826002 0 -0.0042241006379809664 0.0002606764522095884 0 -0.0042178587014237113 0.00026545619835491963 0 -0.0042241006379809664 0.0002606764522095884 0 -0.0042247155896408851 0.00025315549432721151 0 -0.0042199903333750644 0.00026696773045826002 0 -0.0042238541623129833 0.00026333321640644721 0 -0.0042241006379809664 0.0002606764522095884 0 -0.0042241006379809664 0.0002606764522095884 0 -0.0042280269882414316 0.00025663806066761921 0 -0.0042294839103661601 0.00025154240701586155 0 -0.0042238541623129833 0.00026333321640644721 0 -0.0042241006379809664 0.0002606764522095884 0 -0.0042280269882414316 0.00025663806066761921 0 -0.0042294839103661601 0.00025154240701586155 0 -0.0042247155896408851 0.00025315549432721151 0 -0.0042305282648572411 0.00024091734360940232 0 -0.0042241006379809664 0.0002606764522095884 0 -0.0042294839103661601 0.00025154240701586155 0 -0.0042247155896408851 0.00025315549432721151 0 -0.0042176672747290369 0.00025633225494142074 0 -0.0042178587014237113 0.00026545619835491963 0 -0.0042247155896408851 0.00025315549432721151 0 -0.0042176672747290369 0.00025633225494142074 0 -0.0042247155896408851 0.00025315549432721151 0 -0.0042235653792551736 0.00024276801693689159 0 -0.0042247155896408851 0.00025315549432721151 0 -0.0042235653792551736 0.00024276801693689159 0 -0.0042305282648572411 0.00024091734360940232 0 -0.0042294839103661601 0.00025154240701586155 0 -0.0042305282648572411 0.00024091734360940232 0 -0.0042339719333759924 0.00024414570923210677 0 -0.0042305282648572411 0.00024091734360940232 0 -0.0042339719333759924 0.00024414570923210677 0 -0.00423645620979907 0.00023590213357410844 0 -0.0042305282648572411 0.00024091734360940232 0 -0.0042307089615091194 0.00022855045307952669 0 -0.00423645620979907 0.00023590213357410844 0 -0.0042399293835357474 0.00022417522122999256 0 -0.0042307089615091194 0.00022855045307952669 0 -0.00423645620979907 0.00023590213357410844 0 -0.0042235653792551736 0.00024276801693689159 0 -0.0042305282648572411 0.00024091734360940232 0 -0.0042307089615091194 0.00022855045307952669 0 -0.0042201640123282168 0.00023083497135800197 0 -0.0042235653792551736 0.00024276801693689159 0 -0.0042307089615091194 0.00022855045307952669 0 -0.0042376265245451039 0.00024107292388183502 0 -0.0042412673606735188 0.00023626043554855511 0 -0.0042362118048033187 0.00024545545922093862 0 -0.0042376265245451039 0.00024107292388183502 0 -0.0042339719333759924 0.00024414570923210677 0 -0.00423645620979907 0.00023590213357410844 0 -0.0042376265245451039 0.00024107292388183502 0 -0.00423645620979907 0.00023590213357410844 0 -0.0042401089040099479 0.00023316138410119146 0 -0.0042399293835357474 0.00022417522122999256 0 -0.00423645620979907 0.00023590213357410844 0 -0.0042401089040099479 0.00023316138410119146 0 -0.0042376265245451039 0.00024107292388183502 0 -0.0042401089040099479 0.00023316138410119146 0 -0.0042412673606735188 0.00023626043554855511 0 -0.0042435749274449281 0.00022478678046396848 0 -0.0042401089040099479 0.00023316138410119146 0 -0.0042412673606735188 0.00023626043554855511 0 -0.0042412673606735188 0.00023626043554855511 0 -0.0042382885444126918 0.00024275848603110331 0 -0.0042431792357790696 0.00023807314952693838 0 -0.0042412673606735188 0.00023626043554855511 0 -0.0042382885444126918 0.00024275848603110331 0 -0.0042362118048033187 0.00024545545922093862 0 -0.0042431792357790696 0.00023807314952693838 0 -0.004236711265339357 0.00024361457071832567 0 -0.0042445670507270253 0.00023859700998706527 0 -0.0042382885444126918 0.00024275848603110331 0 -0.0042431792357790696 0.00023807314952693838 0 -0.004236711265339357 0.00024361457071832567 0 -0.0042382885444126918 0.00024275848603110331 0 -0.004236711265339357 0.00024361457071832567 0 -0.0042334561506058108 0.00024506107119292279 0 -0.004236711265339357 0.00024361457071832567 0 -0.0042334561506058108 0.00024506107119292279 0 -0.0042269769745480329 0.00024421851528624915 0 -0.0042382885444126918 0.00024275848603110331 0 -0.0042362118048033187 0.00024545545922093862 0 -0.0042337954375757493 0.00024718376290521382 0 -0.0042382885444126918 0.00024275848603110331 0 -0.0042334561506058108 0.00024506107119292279 0 -0.0042337954375757493 0.00024718376290521382 0 -0.0042315443517060526 0.00025125787354681427 0 -0.0042362118048033187 0.00024545545922093862 0 -0.0042337954375757493 0.00024718376290521382 0 -0.0042315443517060526 0.00025125787354681427 0 -0.0042337954375757493 0.00024718376290521382 0 -0.0042294450611089739 0.00024899912755666767 0 -0.0042337954375757493 0.00024718376290521382 0 -0.0042294450611089739 0.00024899912755666767 0 -0.0042290882616578332 0.00024528015107502972 0 -0.0042334561506058108 0.00024506107119292279 0 -0.0042337954375757493 0.00024718376290521382 0 -0.0042290882616578332 0.00024528015107502972 0 -0.0042290882616578332 0.00024528015107502972 0 -0.0042226319761177657 0.00023898398787015757 0 -0.0042269769745480329 0.00024421851528624915 0 -0.0042334561506058108 0.00024506107119292279 0 -0.0042290882616578332 0.00024528015107502972 0 -0.0042269769745480329 0.00024421851528624915 0 -0.0042176965410602868 0.00022809360576400752 0 -0.0042259047391454783 0.0002417506207924385 0 -0.0042226319761177657 0.00023898398787015757 0 -0.0042290882616578332 0.00024528015107502972 0 -0.0042259047391454783 0.0002417506207924385 0 -0.0042226319761177657 0.00023898398787015757 0 -0.0021287059220995992 0.00060067301977961146 0 -0.0030439214251209287 0.00050665777790294994 0 -0.0030439214251209287 0.00050665777790294994 0 -0.0036863822381022035 0.00037381642171338504 0 -0.002924153945302948 0.00047448372411688992 0 -0.003011410197158255 0.0005294374255267987 0 -0.0029265774549845865 0.0004858621396523139 0 -0.0042294450611089739 0.00024899912755666767 0 -0.0042290882616578332 0.00024528015107502972 0 -0.0042259047391454783 0.0002417506207924385 0 -0.0042270079043987031 0.00025296487068415113 0 -0.0042294450611089739 0.00024899912755666767 0 -0.0042259047391454783 0.0002417506207924385 0 -0.0042133985650185122 0.00023702136311450073 0 -0.0042030661581642578 0.0002355846137127964 0 -0.004211642531012842 0.00024104641235041805 0 -0.0042133985650185122 0.00023702136311450073 0 -0.0042205353045308217 0.00024152737998484855 0 -0.004211642531012842 0.00024104641235041805 0 -0.004204621854915303 0.00022709713944852935 0 -0.0042133985650185122 0.00023702136311450073 0 -0.0042030661581642578 0.0002355846137127964 0 -0.0042133985650185122 0.00023702136311450073 0 -0.0042226319761177657 0.00023898398787015757 0 -0.0042205353045308217 0.00024152737998484855 0 -0.0042176965410602868 0.00022809360576400752 0 -0.0042133985650185122 0.00023702136311450073 0 -0.0042226319761177657 0.00023898398787015757 0 -0.0042176965410602868 0.00022809360576400752 0 -0.004204621854915303 0.00022709713944852935 0 -0.0042133985650185122 0.00023702136311450073 0 -0.0042226319761177657 0.00023898398787015757 0 -0.0042205353045308217 0.00024152737998484855 0 -0.0042269769745480329 0.00024421851528624915 0 -0.0042205353045308217 0.00024152737998484855 0 -0.0042269769745480329 0.00024421851528624915 0 -0.0042198668052794135 0.00024386853613813931 0 -0.0042269769745480329 0.00024421851528624915 0 -0.0042198668052794135 0.00024386853613813931 0 -0.0042283378332942647 0.00024501625434073454 0 -0.0042198668052794135 0.00024386853613813931 0 -0.0042146098776883936 0.00024400383437604893 0 -0.0042200582130057802 0.00024501352704238335 0 -0.0042198668052794135 0.00024386853613813931 0 -0.004211642531012842 0.00024104641235041805 0 -0.0042146098776883936 0.00024400383437604893 0 -0.0042205353045308217 0.00024152737998484855 0 -0.0042198668052794135 0.00024386853613813931 0 -0.004211642531012842 0.00024104641235041805 0 -0.004211642531012842 0.00024104641235041805 0 -0.0042146098776883936 0.00024400383437604893 0 -0.0042059518247115303 0.00024496579789057299 0 -0.0042030661581642578 0.0002355846137127964 0 -0.004211642531012842 0.00024104641235041805 0 -0.0042059518247115303 0.00024496579789057299 0 -0.0042146098776883936 0.00024400383437604893 0 -0.0042200582130057802 0.00024501352704238335 0 -0.0042059518247115303 0.00024496579789057299 0 -0.0042200582130057802 0.00024501352704238335 0 -0.0042304318159988065 0.00024624737315175212 0 -0.0042059518247115303 0.00024496579789057299 0 -0.0042200582130057802 0.00024501352704238335 0 -0.0042283378332942647 0.00024501625434073454 0 -0.0042304318159988065 0.00024624737315175212 0 -0.0042455625385668227 0.0002429954967611109 0 -0.0042298898357826884 0.00024178830432108883 0 -0.0042602581621311517 0.00024242767007239473 0 -0.0042640335060590917 0.00024008178224028663 0 -0.004261536615763761 0.00024218319978383944 0 -0.0042198668052794135 0.00024386853613813931 0 -0.0042200582130057802 0.00024501352704238335 0 -0.0042283378332942647 0.00024501625434073454 0 -0.0042283378332942647 0.00024501625434073454 0 -0.0042338200751372472 0.00024444078292753439 0 -0.0042304318159988065 0.00024624737315175212 0 -0.004236711265339357 0.00024361457071832567 0 -0.0042269769745480329 0.00024421851528624915 0 -0.0042283378332942647 0.00024501625434073454 0 -0.004236711265339357 0.00024361457071832567 0 -0.0042283378332942647 0.00024501625434073454 0 -0.0042338200751372472 0.00024444078292753439 0 -0.0042393464427536486 0.00024255285816874976 0 -0.0042304318159988065 0.00024624737315175212 0 -0.0042507886275999504 0.0002372009775850997 0 -0.004236711265339357 0.00024361457071832567 0 -0.0042393464427536486 0.00024255285816874976 0 -0.0042445670507270253 0.00023859700998706527 0 -0.004236711265339357 0.00024361457071832567 0 -0.0042338200751372472 0.00024444078292753439 0 -0.0042393464427536486 0.00024255285816874976 0 -0.0042338200751372472 0.00024444078292753439 0 -0.0042393464427536486 0.00024255285816874976 0 -0.0042304318159988065 0.00024624737315175212 0 -0.0042602581621311517 0.00024242767007239473 0 -0.0042580006309445315 0.00023952656785133249 0 -0.004261536615763761 0.00024218319978383944 0 -0.0042455625385668227 0.0002429954967611109 0 -0.004249123479855026 0.00023665753794677424 0 -0.0042602581621311517 0.00024242767007239473 0 -0.0042580006309445315 0.00023952656785133249 0 -0.0042507886275999504 0.0002372009775850997 0 -0.0042580006309445315 0.00023952656785133249 0 -0.0042587991952104413 0.00023535836046501666 0 -0.004261536615763761 0.00024218319978383944 0 -0.0042580006309445315 0.00023952656785133249 0 -0.0042587991952104413 0.00023535836046501666 0 -0.0042507886275999504 0.0002372009775850997 0 -0.0044508542414395903 0.00018012676613982358 0 -0.0044336395297909902 0.00018450471267741632 0 -0.0042587991952104413 0.00023535836046501666 0 -0.0042516747242044373 0.00023275271864456952 0 -0.0042589797181127008 0.00022717137264378058 0 -0.0042587991952104413 0.00023535836046501666 0 -0.0042516747242044373 0.00023275271864456952 0 -0.0042507886275999504 0.0002372009775850997 0 -0.0042516747242044373 0.00023275271864456952 0 -0.0042507886275999504 0.0002372009775850997 0 -0.0042445670507270253 0.00023859700998706527 0 -0.0042393464427536486 0.00024255285816874976 0 -0.0042507886275999504 0.0002372009775850997 0 -0.0042445670507270253 0.00023859700998706527 0 -0.0042431792357790696 0.00023807314952693838 0 -0.0042445670507270253 0.00023859700998706527 0 -0.0042475969973741487 0.00023473602372367004 0 -0.0042435749274449281 0.00022478678046396848 0 -0.0042412673606735188 0.00023626043554855511 0 -0.0042446582671506845 0.0002236231338404001 0 -0.0042475776365557983 0.00023781734590970144 0 -0.0042347768933640147 0.00022541518546665971 0 -0.0042431792357790696 0.00023807314952693838 0 -0.0042476784319208085 0.00023468645546044487 0 -0.0042475969973741487 0.00023473602372367004 0 -0.0042412673606735188 0.00023626043554855511 0 -0.0042431792357790696 0.00023807314952693838 0 -0.0042446582671506845 0.0002236231338404001 0 -0.0042476784319208085 0.00023468645546044487 0 -0.0042475969973741487 0.00023473602372367004 0 -0.0042499159593441319 0.00023177291348713927 0 -0.0042516747242044373 0.00023275271864456952 0 -0.0042445670507270253 0.00023859700998706527 0 -0.0042475969973741487 0.00023473602372367004 0 -0.0042475969973741487 0.00023473602372367004 0 -0.0042520890313412375 0.00023008866005259503 0 -0.0042499159593441319 0.00023177291348713927 0 -0.0042516747242044373 0.00023275271864456952 0 -0.0042475969973741487 0.00023473602372367004 0 -0.0042520890313412375 0.00023008866005259503 0 -0.0042520890313412375 0.00023008866005259503 0 -0.0042499159593441319 0.00023177291348713927 0 -0.0042534674102553179 0.00022782597657419808 0 -0.0042494247323859235 0.00022810698515254065 0 -0.0042499159593441319 0.00023177291348713927 0 -0.0042534674102553179 0.00022782597657419808 0 -0.0042534674102553179 0.00022782597657419808 0 -0.0042566072915954213 0.00022545381795768951 0 -0.0042590967814831763 0.00022271051015441382 0 -0.0042520890313412375 0.00023008866005259503 0 -0.0042534674102553179 0.00022782597657419808 0 -0.0042566072915954213 0.00022545381795768951 0 -0.0042566072915954213 0.00022545381795768951 0 -0.0042589797181127008 0.00022717137264378058 0 -0.0042547523167981395 0.00022876773093596326 0 -0.0042566072915954213 0.00022545381795768951 0 -0.0042589797181127008 0.00022717137264378058 0 -0.0042594142128891651 0.00022457690797438596 0 -0.0046362054463787127 0.00011435013616047259 0 -0.0046309651002890712 9.3041189423662159e-05 0 -0.0046497583531400904 0.00010273395438267252 0 -0.0044336395297909902 0.00018450471267741632 0 -0.0045545770377171399 8.915834697358306e-05 0 -0.0042516747242044373 0.00023275271864456952 0 -0.0042520890313412375 0.00023008866005259503 0 -0.0042547523167981395 0.00022876773093596326 0 -0.0042516747242044373 0.00023275271864456952 0 -0.0042589797181127008 0.00022717137264378058 0 -0.0042547523167981395 0.00022876773093596326 0 -0.0042520890313412375 0.00023008866005259503 0 -0.0042566072915954213 0.00022545381795768951 0 -0.0042547523167981395 0.00022876773093596326 0 -0.0046914353249075712 2.9626910217831222e-05 0 -0.0046871540096225439 1.6984237107749144e-05 0 -0.0047011723988299014 2.3557850009322777e-05 0 -0.0046914353249075712 2.9626910217831222e-05 0 -0.0047011723988299014 2.3557850009322777e-05 0 -0.004705551199719305 3.4810478278954155e-05 0 -0.0045756327759467466 1.5943449049966407e-05 0 -0.0045861073332630464 7.1255725088174678e-05 0 -0.0046373579429130037 3.4956732033499107e-05 0 -0.0046305068374482864 1.0001691179301237e-05 0 -0.0045545770377171399 8.915834697358306e-05 0 -0.0045545770377171399 8.915834697358306e-05 0 -0.004667093503874023 0.00010424505592776534 0 -0.0042566072915954213 0.00022545381795768951 0 -0.0042594142128891651 0.00022457690797438596 0 -0.0042578144070251197 0.00022652686928431094 0 -0.0045545770377171399 8.915834697358306e-05 0 -0.0044703834761763627 0.00012590903981742294 0 -0.0042566072915954213 0.00022545381795768951 0 -0.0042590967814831763 0.00022271051015441382 0 -0.0042578144070251197 0.00022652686928431094 0 -0.0042590967814831763 0.00022271051015441382 0 -0.0042713896856524146 0.00022787002841382844 0 -0.0042834474222248047 0.00022144422237269231 0 -0.0041721477306685259 0.00022191783485668985 0 -0.0044844915374081138 0.00018675001639991266 0 -0.0042534674102553179 0.00022782597657419808 0 -0.0042590967814831763 0.00022271051015441382 0 -0.0042516739062895825 0.00022116794862669445 0 -0.0042590967814831763 0.00022271051015441382 0 -0.0042713896856524146 0.00022787002841382844 0 -0.004266954057306321 0.0002350912398252963 0 -0.0042713896856524146 0.00022787002841382844 0 -0.004266954057306321 0.0002350912398252963 0 -0.0042765609177798638 0.00023742739072009394 0 -0.0044703834761763627 0.00012590903981742294 0 -0.0044740541429304052 0.00012900772928586569 0 -0.0042590967814831763 0.00022271051015441382 0 -0.0042578144070251197 0.00022652686928431094 0 -0.004266954057306321 0.0002350912398252963 0 -0.0047011723988299014 2.3557850009322777e-05 0 -0.004705551199719305 3.4810478278954155e-05 0 -0.0047135520057300121 3.1163336057679798e-05 0 -0.004705551199719305 3.4810478278954155e-05 0 -0.0047135520057300121 3.1163336057679798e-05 0 -0.0047141818990989051 3.8367187818739958e-05 0 -0.0044740541429304052 0.00012900772928586569 0 -0.0046093425344635435 0.00013207802554026908 0 -0.0047135520057300121 3.1163336057679798e-05 0 -0.0047141818990989051 3.8367187818739958e-05 0 -0.0047196232603545661 3.6416130719371584e-05 0 -0.0047141818990989051 3.8367187818739958e-05 0 -0.0047141064453963205 4.2194497456137023e-05 0 -0.0047136432209824459 4.3010915923926191e-05 0 -0.0047141818990989051 3.8367187818739958e-05 0 -0.0047141064453963205 4.2194497456137023e-05 0 -0.0047196232603545661 3.6416130719371584e-05 0 -0.0047136432209824459 4.3010915923926191e-05 0 -0.0047270445398070998 4.6777680377688559e-05 0 -0.0047210145845690589 4.1306614975274725e-05 0 -0.004705551199719305 3.4810478278954155e-05 0 -0.0047136432209824459 4.3010915923926191e-05 0 -0.0046955246007624046 4.2154331969154392e-05 0 -0.0047032772515150307 4.7272812183296864e-05 0 -0.004738627179303183 2.0792144464086056e-05 0 -0.004705551199719305 3.4810478278954155e-05 0 -0.0047141818990989051 3.8367187818739958e-05 0 -0.0047136432209824459 4.3010915923926191e-05 0 -0.0046305068374482864 1.0001691179301237e-05 0 -0.004738627179303183 2.0792144464086056e-05 0 -0.0046914353249075712 2.9626910217831222e-05 0 -0.004705551199719305 3.4810478278954155e-05 0 -0.0046955246007624046 4.2154331969154392e-05 0 -0.0045756327759467466 1.5943449049966407e-05 0 -0.0045674752929192233 -3.9173276656120389e-05 0 -0.0046334719416491607 -2.6418445590225264e-05 0 -0.0045756327759467466 1.5943449049966407e-05 0 -0.0046373579429130037 3.4956732033499107e-05 0 -0.0046334719416491607 -2.6418445590225264e-05 0 -0.0049643000320873055 -3.8070706447758202e-05 0 -0.0049566423821898299 -2.7212838276368194e-05 0 -0.0049415580405307849 -4.5420519229573781e-05 0 -0.004738627179303183 2.0792144464086056e-05 0 -0.0047918510346634255 -4.282412470983394e-05 0 -0.0049566423821898299 -2.7212838276368194e-05 0 -0.0049597763107097686 -1.9695569855549576e-05 0 -0.0049575823532650564 -1.6670635791878832e-05 0 -0.0049566423821898299 -2.7212838276368194e-05 0 -0.0049597763107097686 -1.9695569855549576e-05 0 -0.0049663029129335332 -2.1340013830373366e-05 0 -0.0049643000320873055 -3.8070706447758202e-05 0 -0.0049566423821898299 -2.7212838276368194e-05 0 -0.0049663029129335332 -2.1340013830373366e-05 0 -0.0047270445398070998 4.6777680377688559e-05 0 -0.0047251440797725433 3.6351165092457478e-05 0 -0.0047210145845690589 4.1306614975274725e-05 0 -0.004738627179303183 2.0792144464086056e-05 0 -0.0048482388872567337 7.861030332423066e-06 0 -0.0049663029129335332 -2.1340013830373366e-05 0 -0.0049610955811452513 -1.5196765980801329e-05 0 -0.0049670005319397519 -1.1864925969681342e-05 0 -0.0048482388872567337 7.861030332423066e-06 0 -0.0049259487405943726 -8.6891398362685794e-06 0 -0.0047251440797725433 3.6351165092457478e-05 0 -0.0047250821277019699 2.7752785465575615e-05 0 -0.0047201814427052929 3.1992513722759266e-05 0 -0.0049597763107097686 -1.9695569855549576e-05 0 -0.0049663029129335332 -2.1340013830373366e-05 0 -0.0049610955811452513 -1.5196765980801329e-05 0 -0.004971204630741864 -1.0023326677204375e-05 0 -0.0049259487405943726 -8.6891398362685794e-06 0 -0.004971204630741864 -1.0023326677204375e-05 0 -0.0049569102364843921 -1.7308562043375214e-05 0 -0.0049597763107097686 -1.9695569855549576e-05 0 -0.0049610955811452513 -1.5196765980801329e-05 0 -0.0049575823532650564 -1.6670635791878832e-05 0 -0.0049707296972798893 -1.1151724195395675e-05 0 -0.00496705653817255 -9.6883200577327931e-06 0 -0.0049691892964449386 -9.2102954418290941e-06 0 -0.0049707296972798893 -1.1151724195395675e-05 0 -0.00496705653817255 -9.6883200577327931e-06 0 -0.0049575823532650564 -1.6670635791878832e-05 0 -0.0049956750028545471 -7.9156890335207811e-06 0 -0.0049936049760919881 6.6618669484759388e-07 0 -0.0049702751779252784 -6.9128801323554123e-06 0 -0.00496705653817255 -9.6883200577327931e-06 0 -0.0049691892964449386 -9.2102954418290941e-06 0 -0.0049702751779252784 -6.9128801323554123e-06 0 -0.0049884752850223374 -7.6584422421176791e-06 0 -0.0049697093482896108 -7.6512479355971849e-06 0 -0.0049956750028545471 -7.9156890335207811e-06 0 -0.0049981109350074491 -3.3836726387393161e-06 0 -0.0049936049760919881 6.6618669484759388e-07 0 -0.0049956750028545471 -7.9156890335207811e-06 0 -0.005001128482730456 -4.3267360219486249e-06 0 -0.0049981109350074491 -3.3836726387393161e-06 0 -0.0049691892964449386 -9.2102954418290941e-06 0 -0.0049727799759062491 -9.4370775307701861e-06 0 -0.0049728279006925613 -9.1220468174902432e-06 0 -0.0049707296972798893 -1.1151724195395675e-05 0 -0.0049691892964449386 -9.2102954418290941e-06 0 -0.0049727799759062491 -9.4370775307701861e-06 0 -0.0049979025881468388 -1.9362769827584576e-06 0 -0.0049981818979612774 -1.9206007301334659e-06 0 -0.0050000010133423893 2.4558651340361159e-09 0 -0.0049884752850223374 -7.6584422421176791e-06 0 -0.0049463082179874362 -5.0348059130972786e-06 0 -0.0049259487405943726 -8.6891398362685794e-06 0 -0.0049463082179874362 -5.0348059130972786e-06 0 -0.0049463082179874362 -5.0348059130972786e-06 0 -0.004894933244041908 -5.6530490157154789e-06 0 -0.0049242386972801694 7.1997304858042241e-06 0 -0.004923951426523623 5.7013848702522029e-06 0 -0.0049210543998876553 5.6174153927362552e-06 0 -0.0049259487405943726 -8.6891398362685794e-06 0 -0.004894933244041908 -5.6530490157154789e-06 0 -0.005001128482730456 -4.3267360219486249e-06 0 -0.0049981109350074491 -3.3836726387393161e-06 0 -0.0049987585294338187 -5.4963269475791302e-07 0 -0.0049463082179874362 -5.0348059130972786e-06 0 -0.0050000284734314912 1.1395295316750024e-08 0 -0.005001128482730456 -4.3267360219486249e-06 0 -0.0049987585294338187 -5.4963269475791302e-07 0 -0.0050000113078651747 -2.388210274655797e-09 0 -0.0049987585294338187 -5.4963269475791302e-07 0 -0.0049999758659668861 8.0490149540815065e-09 0 -0.0050000113078651747 -2.388210274655797e-09 0 -0.0049999758659668861 8.0490149540815065e-09 0 -0.0049936049760919881 6.6618669484759388e-07 0 -0.0049889249551510299 3.6692519526953788e-06 0 -0.0049987585294338187 -5.4963269475791302e-07 0 -0.0049999758659668861 8.0490149540815065e-09 0 -0.0049936049760919881 6.6618669484759388e-07 0 -0.0049981109350074491 -3.3836726387393161e-06 0 -0.0049987585294338187 -5.4963269475791302e-07 0 -0.0049936049760919881 6.6618669484759388e-07 0 -0.0049594934570569502 2.3055609869516777e-06 0 -0.0050082072318138196 1.8819645537507734e-06 0 -0.0049910967117971893 -7.9966350441505388e-07 0 -0.0049960369096944237 -1.5859078902494264e-06 0 -0.0049948236443261296 -1.5464778301062895e-06 0 -0.0049992787799116433 -4.7975212612811217e-07 0 -0.0050005861064753342 1.7739624912509306e-06 0 -0.0049960369096944237 -1.5859078902494264e-06 0 -0.0049992787799116433 -4.7975212612811217e-07 0 -0.0049999694553165813 -1.8455284527598514e-07 0 -0.0049999921866214006 -7.4136708328903203e-09 0 -0.0049992787799116433 -4.7975212612811217e-07 0 -0.0049999694553165813 -1.8455284527598514e-07 0 -0.0050005861064753342 1.7739624912509306e-06 0 -0.0049992787799116433 -4.7975212612811217e-07 0 -0.0049960369096944237 -1.5859078902494264e-06 0 -0.0049999921866214006 -7.4136708328903203e-09 0 -0.0049999694553165813 -1.8455284527598514e-07 0 -0.0050000010133423893 2.4558651340361159e-09 0 -0.0049999921866214006 -7.4136708328903203e-09 0 -0.0049981818979612774 -1.9206007301334659e-06 0 -0.0049999694553165813 -1.8455284527598514e-07 0 -0.0050000010133423893 2.4558651340361159e-09 0 -0.0049981818979612774 -1.9206007301334659e-06 0 -0.0049999694553165813 -1.8455284527598514e-07 0 -0.0049996715020221875 -1.3002624978231808e-06 0 -0.0049979472691362497 -4.5575634374501832e-06 0 -0.0049594934570569502 2.3055609869516777e-06 0 -0.004894933244041908 -5.6530490157154789e-06 0 -0.0048269446838361697 8.3885776333675362e-06 0 -0.004723902034543725 2.7112090166675938e-05 0 -0.0047166946695866878 2.6919113386831063e-05 0 -0.0047201814427052929 3.1992513722759266e-05 0 -0.0048965401238349401 -5.482951159473634e-06 0 -0.0048975534157912944 -4.8482073639610344e-06 0 -0.0048975219550365301 -5.2900865640341273e-06 0 -0.004894933244041908 -5.6530490157154789e-06 0 -0.0049594934570569502 2.3055609869516777e-06 0 -0.0047250821277019699 2.7752785465575615e-05 0 -0.004723902034543725 2.7112090166675938e-05 0 -0.0047201814427052929 3.1992513722759266e-05 0 -0.0049910967117971893 -7.9966350441505388e-07 0 -0.0049926774068032431 -1.4475138671616943e-06 0 -0.0049948236443261296 -1.5464778301062895e-06 0 -0.0049914915207540708 -2.2649252207319653e-06 0 -0.0049932496360402881 -1.4400938272538468e-06 0 -0.0049943930953210971 -1.2131118326163863e-06 0 -0.0047389172896423774 1.117671638074082e-05 0 -0.0047321561476649449 1.5518938951550981e-05 0 -0.004727018062438834 1.0720390844936769e-05 0 -0.0048269446838361697 8.3885776333675362e-06 0 -0.0048858906965385104 1.2207376809105048e-05 0 -0.0049914915207540708 -2.2649252207319653e-06 0 -0.0049926774068032431 -1.4475138671616943e-06 0 -0.0049932496360402881 -1.4400938272538468e-06 0 -0.0049910967117971893 -7.9966350441505388e-07 0 -0.0049914915207540708 -2.2649252207319653e-06 0 -0.0049926774068032431 -1.4475138671616943e-06 0 -0.0049594934570569502 2.3055609869516777e-06 0 -0.0048269446838361697 8.3885776333675362e-06 0 -0.0049926774068032431 -1.4475138671616943e-06 0 -0.0049932496360402881 -1.4400938272538468e-06 0 -0.0049948236443261296 -1.5464778301062895e-06 0 -0.0047389172896423774 1.117671638074082e-05 0 -0.0047321561476649449 1.5518938951550981e-05 0 -0.0047343934060614648 2.1900839619090437e-05 0 -0.0048269446838361697 8.3885776333675362e-06 0 -0.0047175726191208004 3.4288456336855538e-05 0 -0.0047321561476649449 1.5518938951550981e-05 0 -0.0047343934060614648 2.1900839619090437e-05 0 -0.0047294458653858841 1.8734981718859919e-05 0 -0.0047166946695866878 2.6919113386831063e-05 0 -0.0047137908870685955 3.5442137937966764e-05 0 -0.0047201814427052929 3.1992513722759266e-05 0 -0.0047137908870685955 3.5442137937966764e-05 0 -0.0047201814427052929 3.1992513722759266e-05 0 -0.0047169254303193768 3.8378113989063201e-05 0 -0.0047251440797725433 3.6351165092457478e-05 0 -0.0047201814427052929 3.1992513722759266e-05 0 -0.0047169254303193768 3.8378113989063201e-05 0 -0.0047251440797725433 3.6351165092457478e-05 0 -0.0047169254303193768 3.8378113989063201e-05 0 -0.0047210145845690589 4.1306614975274725e-05 0 -0.0047136432209824459 4.3010915923926191e-05 0 -0.0047169254303193768 3.8378113989063201e-05 0 -0.0047210145845690589 4.1306614975274725e-05 0 -0.0047141064453963205 4.2194497456137023e-05 0 -0.0047137908870685955 3.5442137937966764e-05 0 -0.0047169254303193768 3.8378113989063201e-05 0 -0.0047141064453963205 4.2194497456137023e-05 0 -0.0047136432209824459 4.3010915923926191e-05 0 -0.0047169254303193768 3.8378113989063201e-05 0 -0.0047286175333306436 3.1336940170122452e-05 0 -0.0047343934060614648 2.1900839619090437e-05 0 -0.004724247215720811 2.6819191834970806e-05 0 -0.0047220525942074584 3.4499605660831325e-05 0 -0.0047175726191208004 3.4288456336855538e-05 0 -0.0048655151853003878 -8.0936187739566459e-06 0 -0.00482471911073245 2.4458559800596126e-06 0 -0.0048495755945346013 2.4799447177539184e-05 0 -0.0048655151853003878 -8.0936187739566459e-06 0 -0.0048495755945346013 2.4799447177539184e-05 0 -0.0048706946544488866 8.8137610890082433e-06 0 -0.0048888504795224271 -1.6034705718097495e-05 0 -0.0048655151853003878 -8.0936187739566459e-06 0 -0.0048706946544488866 8.8137610890082433e-06 0 -0.0048888504795224271 -1.6034705718097495e-05 0 -0.0048655151853003878 -8.0936187739566459e-06 0 -0.0048840869616926423 -2.234622437313951e-05 0 -0.0048655151853003878 -8.0936187739566459e-06 0 -0.0048622616973514228 -2.0289909300198002e-05 0 -0.00482471911073245 2.4458559800596126e-06 0 -0.0048655151853003878 -8.0936187739566459e-06 0 -0.0048840869616926423 -2.234622437313951e-05 0 -0.0048622616973514228 -2.0289909300198002e-05 0 -0.0048840869616926423 -2.234622437313951e-05 0 -0.0049237525171362565 -1.3143705849915456e-05 0 -0.0048622616973514228 -2.0289909300198002e-05 0 -0.0047343934060614648 2.1900839619090437e-05 0 -0.004724247215720811 2.6819191834970806e-05 0 -0.0047294458653858841 1.8734981718859919e-05 0 -0.0048229520449389563 -1.1887603068337876e-05 0 -0.0048858906965385104 1.2207376809105048e-05 0 -0.0048888504795224271 -1.6034705718097495e-05 0 -0.0048840869616926423 -2.234622437313951e-05 0 -0.0048835480317821964 -1.5899976856763751e-05 0 -0.004724247215720811 2.6819191834970806e-05 0 -0.0047294458653858841 1.8734981718859919e-05 0 -0.004727018062438834 1.0720390844936769e-05 0 -0.0047321561476649449 1.5518938951550981e-05 0 -0.0047294458653858841 1.8734981718859919e-05 0 -0.004727018062438834 1.0720390844936769e-05 0 -0.0049932496360402881 -1.4400938272538468e-06 0 -0.0049940857539587458 -8.371439837395597e-07 0 -0.0049943930953210971 -1.2131118326163863e-06 0 -0.0049940857539587458 -8.371439837395597e-07 0 -0.0049940359463719417 -4.1922257852106975e-08 0 -0.0049943930953210971 -1.2131118326163863e-06 0 -0.0049940857539587458 -8.371439837395597e-07 0 -0.0049940359463719417 -4.1922257852106975e-08 0 -0.0049948236443261296 -1.5464778301062895e-06 0 -0.0049932496360402881 -1.4400938272538468e-06 0 -0.0049940857539587458 -8.371439837395597e-07 0 -0.0049948236443261296 -1.5464778301062895e-06 0 -0.0049940359463719417 -4.1922257852106975e-08 0 -0.0049742986894498646 -5.287126956689781e-06 0 -0.0049911044172097612 -4.3936248445140834e-06 0 -0.0049940359463719417 -4.1922257852106975e-08 0 -0.0049971187331456441 1.8563804563469333e-05 0 -0.0049742986894498646 -5.287126956689781e-06 0 -0.0049200296871888885 4.2304600016523234e-06 0 -0.0048858906965385104 1.2207376809105048e-05 0 -0.0048858906965385104 1.2207376809105048e-05 0 -0.0049482584879872518 -1.0456893924272912e-05 0 -0.0049971187331456441 1.8563804563469333e-05 0 -0.0049237525171362565 -1.3143705849915456e-05 0 -0.0049742986894498646 -5.287126956689781e-06 0 -0.0048840869616926423 -2.234622437313951e-05 0 -0.0048835480317821964 -1.5899976856763751e-05 0 -0.0049237525171362565 -1.3143705849915456e-05 0 -0.0049237525171362565 -1.3143705849915456e-05 0 -0.0049742986894498646 -5.287126956689781e-06 0 -0.004988442411852226 -6.6186077578842004e-06 0 -0.0049237525171362565 -1.3143705849915456e-05 0 -0.0049999362896465966 -9.9627953173171061e-09 0 -0.004988442411852226 -6.6186077578842004e-06 0 -0.0049999362896465966 -9.9627953173171061e-09 0 -0.004988442411852226 -6.6186077578842004e-06 0 -0.0049999921866214006 -7.4136708328903203e-09 0 -0.004988442411852226 -6.6186077578842004e-06 0 -0.0049960369096944237 -1.5859078902494264e-06 0 -0.0049999921866214006 -7.4136708328903203e-09 0 -0.0049940359463719417 -4.1922257852106975e-08 0 -0.0049948236443261296 -1.5464778301062895e-06 0 -0.0049911044172097612 -4.3936248445140834e-06 0 -0.0049960369096944237 -1.5859078902494264e-06 0 -0.0049948236443261296 -1.5464778301062895e-06 0 -0.0049911044172097612 -4.3936248445140834e-06 0 -0.0049742986894498646 -5.287126956689781e-06 0 -0.004988442411852226 -6.6186077578842004e-06 0 -0.0049911044172097612 -4.3936248445140834e-06 0 -0.004988442411852226 -6.6186077578842004e-06 0 -0.0049960369096944237 -1.5859078902494264e-06 0 -0.0049911044172097612 -4.3936248445140834e-06 0 -0.0049997259380835666 -1.0408943963994217e-07 0 -0.0049525035022562102 -1.6139056496879273e-05 0 -0.0048993542089220314 -3.3121558367783173e-05 0 -0.0049237525171362565 -1.3143705849915456e-05 0 -0.0049999362896465966 -9.9627953173171061e-09 0 -0.0049525035022562102 -1.6139056496879273e-05 0 -0.0049999362896465966 -9.9627953173171061e-09 0 -0.0049997259380835666 -1.0408943963994217e-07 0 -0.0049525035022562102 -1.6139056496879273e-05 0 -0.0049237525171362565 -1.3143705849915456e-05 0 -0.0048720682175586163 -2.8963767761560667e-05 0 -0.004854818632010008 -2.4187428702139442e-05 0 -0.0049237525171362565 -1.3143705849915456e-05 0 -0.0049525035022562102 -1.6139056496879273e-05 0 -0.0048720682175586163 -2.8963767761560667e-05 0 -0.0049525035022562102 -1.6139056496879273e-05 0 -0.0048720682175586163 -2.8963767761560667e-05 0 -0.0048993542089220314 -3.3121558367783173e-05 0 -0.0048720682175586163 -2.8963767761560667e-05 0 -0.0047815995148876318 -1.8813953519725577e-05 0 -0.0048022016121612851 -2.9335474791913301e-05 0 -0.0048720682175586163 -2.8963767761560667e-05 0 -0.004854818632010008 -2.4187428702139442e-05 0 -0.0047815995148876318 -1.8813953519725577e-05 0 -0.0049237525171362565 -1.3143705849915456e-05 0 -0.004854818632010008 -2.4187428702139442e-05 0 -0.0048622616973514228 -2.0289909300198002e-05 0 -0.004854818632010008 -2.4187428702139442e-05 0 -0.0048622616973514228 -2.0289909300198002e-05 0 -0.0047815995148876318 -1.8813953519725577e-05 0 -0.00482471911073245 2.4458559800596126e-06 0 -0.0047815995148876318 -1.8813953519725577e-05 0 -0.0047616152640975826 1.5914918919026409e-05 0 -0.0048622616973514228 -2.0289909300198002e-05 0 -0.00482471911073245 2.4458559800596126e-06 0 -0.0047815995148876318 -1.8813953519725577e-05 0 -0.0047815995148876318 -1.8813953519725577e-05 0 -0.0046979897386978005 7.4009037768634051e-06 0 -0.0047616152640975826 1.5914918919026409e-05 0 -0.0046979897386978005 7.4009037768634051e-06 0 -0.0047121087015441071 6.6127589832427636e-05 0 -0.004592399093530734 3.1336519975384852e-05 0 -0.0046979897386978005 7.4009037768634051e-06 0 -0.0047121087015441071 6.6127589832427636e-05 0 -0.0047616152640975826 1.5914918919026409e-05 0 -0.0047121087015441071 6.6127589832427636e-05 0 -0.0045884758315426115 9.2440039724739749e-05 0 -0.004592399093530734 3.1336519975384852e-05 0 -0.0047121087015441071 6.6127589832427636e-05 0 -0.0048043707967304616 4.4204192785009079e-05 0 -0.0048137892772274421 0.00011280941877309199 0 -0.0047121087015441071 6.6127589832427636e-05 0 -0.0048137892772274421 0.00011280941877309199 0 -0.0047513053726104138 0.00014433062350432737 0 -0.0047121087015441071 6.6127589832427636e-05 0 -0.0048043707967304616 4.4204192785009079e-05 0 -0.0047616152640975826 1.5914918919026409e-05 0 -0.00482471911073245 2.4458559800596126e-06 0 -0.0048043707967304616 4.4204192785009079e-05 0 -0.0047616152640975826 1.5914918919026409e-05 0 -0.00482471911073245 2.4458559800596126e-06 0 -0.0048043707967304616 4.4204192785009079e-05 0 -0.0048495755945346013 2.4799447177539184e-05 0 -0.0048495755945346013 2.4799447177539184e-05 0 -0.0048706946544488866 8.8137610890082433e-06 0 -0.0048774526769962568 3.8868461710695489e-05 0 -0.0048495755945346013 2.4799447177539184e-05 0 -0.0048774526769962568 3.8868461710695489e-05 0 -0.0048507823505061758 6.6071828703744852e-05 0 -0.0048774526769962568 3.8868461710695489e-05 0 -0.0048751251180739709 7.2783464443052401e-05 0 -0.0048507823505061758 6.6071828703744852e-05 0 -0.0048043707967304616 4.4204192785009079e-05 0 -0.0048495755945346013 2.4799447177539184e-05 0 -0.0048507823505061758 6.6071828703744852e-05 0 -0.0048229520449389563 -1.1887603068337876e-05 0 -0.0046093425344635435 0.00013207802554026908 0 -0.0047286175333306436 3.1336940170122452e-05 0 -0.0047232397857655071 3.4240297095466993e-05 0 -0.0047196232603545661 3.6416130719371584e-05 0 -0.004724247215720811 2.6819191834970806e-05 0 -0.0047232397857655071 3.4240297095466993e-05 0 -0.0047216434286285001 3.7311990701051139e-05 0 -0.0048888504795224271 -1.6034705718097495e-05 0 -0.0048774526769962568 3.8868461710695489e-05 0 -0.0049032128465068296 7.5494232989028792e-05 0 -0.0048888504795224271 -1.6034705718097495e-05 0 -0.0048706946544488866 8.8137610890082433e-06 0 -0.0048774526769962568 3.8868461710695489e-05 0 -0.0047220525942074584 3.4499605660831325e-05 0 -0.0047200801104254307 3.6503540550994048e-05 0 -0.0047286175333306436 3.1336940170122452e-05 0 -0.004724247215720811 2.6819191834970806e-05 0 -0.0047232397857655071 3.4240297095466993e-05 0 -0.004266954057306321 0.0002350912398252963 0 -0.0042842882111116011 0.00024404987222716707 0 -0.0042765609177798638 0.00023742739072009394 0 -0.0047135520057300121 3.1163336057679798e-05 0 -0.0047196232603545661 3.6416130719371584e-05 0 -0.0047216434286285001 3.7311990701051139e-05 0 -0.0047232397857655071 3.4240297095466993e-05 0 -0.0047196232603545661 3.6416130719371584e-05 0 -0.0047216434286285001 3.7311990701051139e-05 0 -0.0049032128465068296 7.5494232989028792e-05 0 -0.0048751251180739709 7.2783464443052401e-05 0 -0.0048646218053448147 0.00010048486736803363 0 -0.0048774526769962568 3.8868461710695489e-05 0 -0.0049032128465068296 7.5494232989028792e-05 0 -0.0048751251180739709 7.2783464443052401e-05 0 -0.0048043707967304616 4.4204192785009079e-05 0 -0.0048507823505061758 6.6071828703744852e-05 0 -0.0048137892772274421 0.00011280941877309199 0 -0.0048751251180739709 7.2783464443052401e-05 0 -0.0048507823505061758 6.6071828703744852e-05 0 -0.0048646218053448147 0.00010048486736803363 0 -0.0049032128465068296 7.5494232989028792e-05 0 -0.0048646218053448147 0.00010048486736803363 0 -0.0048666101589139605 0.00014722369377984977 0 -0.0048646218053448147 0.00010048486736803363 0 -0.0048137892772274421 0.00011280941877309199 0 -0.0048666101589139605 0.00014722369377984977 0 -0.0048507823505061758 6.6071828703744852e-05 0 -0.0048646218053448147 0.00010048486736803363 0 -0.0048137892772274421 0.00011280941877309199 0 -0.0048666101589139605 0.00014722369377984977 0 -0.0048988935793543732 0.0002186357376264403 0 -0.0048008673838855296 0.00020439906796563095 0 -0.0048137892772274421 0.00011280941877309199 0 -0.0048666101589139605 0.00014722369377984977 0 -0.0048008673838855296 0.00020439906796563095 0 -0.0049032128465068296 7.5494232989028792e-05 0 -0.0048666101589139605 0.00014722369377984977 0 -0.0048988935793543732 0.0002186357376264403 0 -0.0042842882111116011 0.00024404987222716707 0 -0.0042765609177798638 0.00023742739072009394 0 -0.0042834474222248047 0.00022144422237269231 0 -0.0042713896856524146 0.00022787002841382844 0 -0.0042765609177798638 0.00023742739072009394 0 -0.0042834474222248047 0.00022144422237269231 0 -0.0046093425344635435 0.00013207802554026908 0 -0.0044844915374081138 0.00018675001639991266 0 -0.0044844915374081138 0.00018675001639991266 0 -0.0046774730030201047 0.0001663985922809122 0 -0.0044776758826152781 0.00014869394354135218 0 -0.004506028909437099 0.00012794415905582651 0 -0.0044704460269460837 0.00011846133577327248 0 -0.0044776758826152781 0.00014869394354135218 0 -0.0044449769147308039 0.00013786967521436846 0 -0.0044704460269460837 0.00011846133577327248 0 -0.0044449769147308039 0.00013786967521436846 0 -0.0044225020200103935 0.00010564280448394171 0 -0.0044704460269460837 0.00011846133577327248 0 -0.0044229129617705974 0.00016401823848671035 0 -0.0044449769147308039 0.00013786967521436846 0 -0.0044075369092849686 0.00011192797608010479 0 -0.0044449769147308039 0.00013786967521436846 0 -0.0044225020200103935 0.00010564280448394171 0 -0.0044075369092849686 0.00011192797608010479 0 -0.0047121087015441071 6.6127589832427636e-05 0 -0.0046718157522071709 0.0001929156545896545 0 -0.0045884758315426115 9.2440039724739749e-05 0 -0.0047121087015441071 6.6127589832427636e-05 0 -0.0046718157522071709 0.0001929156545896545 0 -0.0047513053726104138 0.00014433062350432737 0 -0.0046718157522071709 0.0001929156545896545 0 -0.0047513053726104138 0.00014433062350432737 0 -0.0048008673838855296 0.00020439906796563095 0 -0.0048137892772274421 0.00011280941877309199 0 -0.0047513053726104138 0.00014433062350432737 0 -0.0048008673838855296 0.00020439906796563095 0 -0.0045360013562558976 0.00014395027341619962 0 -0.0046774730030201047 0.0001663985922809122 0 -0.0044288894948052767 0.00010604861833390071 0 -0.0042804536121090952 7.6919653126971112e-05 0 -0.0043198173845249441 4.6879652034255503e-05 0 -0.0044288894948052767 0.00010604861833390071 0 -0.0043198173845249441 4.6879652034255503e-05 0 -0.0044434691564458201 4.8084888545368497e-05 0 -0.0044288894948052767 0.00010604861833390071 0 -0.0043140013773617673 0.00010707728640112186 0 -0.0042804536121090952 7.6919653126971112e-05 0 -0.0046718157522071709 0.0001929156545896545 0 -0.0044288894948052767 0.00010604861833390071 0 -0.0045884758315426115 9.2440039724739749e-05 0 -0.0045360013562558976 0.00014395027341619962 0 -0.0044441071132510354 0.00011414867776686077 0 -0.0044225020200103935 0.00010564280448394171 0 -0.0044288894948052767 0.00010604861833390071 0 -0.0044075369092849686 0.00011192797608010479 0 -0.0044288894948052767 0.00010604861833390071 0 -0.0044434691564458201 4.8084888545368497e-05 0 -0.0045884758315426115 9.2440039724739749e-05 0 -0.0043101964841385674 0.00013128683878796014 0 -0.004309447671077344 0.00010868992233725651 0 -0.0044288894948052767 0.00010604861833390071 0 -0.0044075369092849686 0.00011192797608010479 0 -0.0043140013773617673 0.00010707728640112186 0 -0.0044229129617705974 0.00016401823848671035 0 -0.0044075369092849686 0.00011192797608010479 0 -0.0043140013773617673 0.00010707728640112186 0 -0.0042178526712303545 9.4155441035630484e-05 0 -0.0043140013773617673 0.00010707728640112186 0 -0.004233794446396582 8.6297252342963898e-05 0 -0.0043140013773617673 0.00010707728640112186 0 -0.004233794446396582 8.6297252342963898e-05 0 -0.0042804536121090952 7.6919653126971112e-05 0 -0.004233794446396582 8.6297252342963898e-05 0 -0.0042804536121090952 7.6919653126971112e-05 0 -0.0041601074251173906 5.6854100909456851e-05 0 -0.0042804536121090952 7.6919653126971112e-05 0 -0.0041601074251173906 5.6854100909456851e-05 0 -0.0042084561296395311 3.2129497927734109e-05 0 -0.0040102321719876063 3.452971304191875e-05 0 -0.0041601074251173906 5.6854100909456851e-05 0 -0.0040970668631121294 1.2386071529946701e-05 0 -0.0041601074251173906 5.6854100909456851e-05 0 -0.0042084561296395311 3.2129497927734109e-05 0 -0.0040970668631121294 1.2386071529946701e-05 0 -0.0042084561296395311 3.2129497927734109e-05 0 -0.0043198173845249441 4.6879652034255503e-05 0 -0.004257816105287123 -1.0791200386391215e-05 0 -0.0042804536121090952 7.6919653126971112e-05 0 -0.0042084561296395311 3.2129497927734109e-05 0 -0.0043198173845249441 4.6879652034255503e-05 0 -0.0043198173845249441 4.6879652034255503e-05 0 -0.0044003927295707549 1.4149674721038165e-05 0 -0.004257816105287123 -1.0791200386391215e-05 0 -0.0043198173845249441 4.6879652034255503e-05 0 -0.0044003927295707549 1.4149674721038165e-05 0 -0.0044434691564458201 4.8084888545368497e-05 0 -0.0042084561296395311 3.2129497927734109e-05 0 -0.004257816105287123 -1.0791200386391215e-05 0 -0.0041546442177888632 -1.0939701577465034e-05 0 -0.004273593917737452 7.0043903062432693e-07 0 -0.0043305362128977891 -2.0492159299489103e-05 0 -0.004257816105287123 -1.0791200386391215e-05 0 -0.0044614602825441213 -1.004711370447893e-05 0 -0.0044482783625454155 -1.1473686740874091e-05 0 -0.0044003927295707549 1.4149674721038165e-05 0 -0.004257816105287123 -1.0791200386391215e-05 0 -0.0044614602825441213 -1.004711370447893e-05 0 -0.0044003927295707549 1.4149674721038165e-05 0 -0.0044614602825441213 -1.004711370447893e-05 0 -0.0045106714671693041 8.7103251324407303e-06 0 -0.0044614602825441213 -1.004711370447893e-05 0 -0.0045106714671693041 8.7103251324407303e-06 0 -0.0045736010756610721 -9.2316110900934837e-06 0 -0.0045106714671693041 8.7103251324407303e-06 0 -0.0046433570776740025 -4.668050353575442e-06 0 -0.0045736010756610721 -9.2316110900934837e-06 0 -0.0044003927295707549 1.4149674721038165e-05 0 -0.0045106714671693041 8.7103251324407303e-06 0 -0.0044434691564458201 4.8084888545368497e-05 0 -0.0045106714671693041 8.7103251324407303e-06 0 -0.0044434691564458201 4.8084888545368497e-05 0 -0.004592399093530734 3.1336519975384852e-05 0 -0.0044434691564458201 4.8084888545368497e-05 0 -0.0045884758315426115 9.2440039724739749e-05 0 -0.004592399093530734 3.1336519975384852e-05 0 -0.0046979897386978005 7.4009037768634051e-06 0 -0.004592399093530734 3.1336519975384852e-05 0 -0.0046433570776740025 -4.668050353575442e-06 0 -0.0045106714671693041 8.7103251324407303e-06 0 -0.004592399093530734 3.1336519975384852e-05 0 -0.0046433570776740025 -4.668050353575442e-06 0 -0.0047815995148876318 -1.8813953519725577e-05 0 -0.0046979897386978005 7.4009037768634051e-06 0 -0.0046433570776740025 -4.668050353575442e-06 0 -0.0047815995148876318 -1.8813953519725577e-05 0 -0.0046433570776740025 -4.668050353575442e-06 0 -0.0046957492505113278 -1.9695784055739767e-05 0 -0.0046433570776740025 -4.668050353575442e-06 0 -0.0045736010756610721 -9.2316110900934837e-06 0 -0.0046957492505113278 -1.9695784055739767e-05 0 -0.0045736010756610721 -9.2316110900934837e-06 0 -0.0046957492505113278 -1.9695784055739767e-05 0 -0.0045647386574616733 -1.6787670030398386e-05 0 -0.0046957492505113278 -1.9695784055739767e-05 0 -0.0047720777537199896 -3.4408274547097987e-05 0 -0.0046691703340494412 -3.093344679366604e-05 0 -0.0046957492505113278 -1.9695784055739767e-05 0 -0.0046691703340494412 -3.093344679366604e-05 0 -0.0045647386574616733 -1.6787670030398386e-05 0 -0.0047815995148876318 -1.8813953519725577e-05 0 -0.0046957492505113278 -1.9695784055739767e-05 0 -0.0048022016121612851 -2.9335474791913301e-05 0 -0.0046957492505113278 -1.9695784055739767e-05 0 -0.0048022016121612851 -2.9335474791913301e-05 0 -0.0047720777537199896 -3.4408274547097987e-05 0 -0.0048720682175586163 -2.8963767761560667e-05 0 -0.0048022016121612851 -2.9335474791913301e-05 0 -0.0048993542089220314 -3.3121558367783173e-05 0 -0.0047720777537199896 -3.4408274547097987e-05 0 -0.0048307299209569138 -4.3489154008955996e-05 0 -0.0048993542089220314 -3.3121558367783173e-05 0 -0.0048022016121612851 -2.9335474791913301e-05 0 -0.0047720777537199896 -3.4408274547097987e-05 0 -0.0048993542089220314 -3.3121558367783173e-05 0 -0.0047720777537199896 -3.4408274547097987e-05 0 -0.0046691703340494412 -3.093344679366604e-05 0 -0.0047136497538121007 -5.1612787416568411e-05 0 -0.0047720777537199896 -3.4408274547097987e-05 0 -0.0047136497538121007 -5.1612787416568411e-05 0 -0.0048307299209569138 -4.3489154008955996e-05 0 -0.0048307299209569138 -4.3489154008955996e-05 0 -0.0049880594517950037 -1.4444338899649435e-05 0 -0.0046813292399904534 -0.00013594955542064614 0 -0.0049999687452707883 -4.2258271645472799e-08 0 -0.0049880594517950037 -1.4444338899649435e-05 0 -0.005001287406005763 2.0929792516887239e-07 0 -0.0049531176731051844 -2.6573569813669584e-05 0 -0.0048643265075313359 -6.535369527362674e-05 0 -0.0047136497538121007 -5.1612787416568411e-05 0 -0.0048307299209569138 -4.3489154008955996e-05 0 -0.0046813292399904534 -0.00013594955542064614 0 -0.0049997259380835666 -1.0408943963994217e-07 0 -0.0049999687452707883 -4.2258271645472799e-08 0 -0.0049880594517950037 -1.4444338899649435e-05 0 -0.0049997259380835666 -1.0408943963994217e-07 0 -0.0049880594517950037 -1.4444338899649435e-05 0 -0.0048993542089220314 -3.3121558367783173e-05 0 -0.0048307299209569138 -4.3489154008955996e-05 0 -0.0049880594517950037 -1.4444338899649435e-05 0 -0.0048993542089220314 -3.3121558367783173e-05 0 -0.0049988247597867403 7.2456824962287313e-07 0 -0.0050000133407514932 2.1038311107664481e-08 0 -0.005001287406005763 2.0929792516887239e-07 0 -0.0046749130823824066 -1.9462896343219151e-06 0 -0.0049997787044444323 7.634141608664331e-09 0 -0.0049999687452707883 -4.2258271645472799e-08 0 -0.0050000133407514932 2.1038311107664481e-08 0 -0.005001287406005763 2.0929792516887239e-07 0 -0.0045430363442975465 -0.00011508330835830335 0 -0.0046813292399904534 -0.00013594955542064614 0 -0.0046109404553557444 -5.5072727266156725e-05 0 -0.0047136497538121007 -5.1612787416568411e-05 0 -0.0046813292399904534 -0.00013594955542064614 0 -0.0046109404553557444 -5.5072727266156725e-05 0 -0.0046749130823824066 -1.9462896343219151e-06 0 -0.0048643265075313359 -6.535369527362674e-05 0 -0.0046691703340494412 -3.093344679366604e-05 0 -0.0047136497538121007 -5.1612787416568411e-05 0 -0.0046109404553557444 -5.5072727266156725e-05 0 -0.0045430363442975465 -0.00011508330835830335 0 -0.0046109404553557444 -5.5072727266156725e-05 0 -0.0045326486251784596 -2.8404999136447027e-05 0 -0.0041625981068677273 0.0001810379891036687 0 -0.0041933358335231631 2.293053242373402e-05 0 -0.0042568499424983381 7.2923485692308766e-05 0 -0.0046749130823824066 -1.9462896343219151e-06 0 -0.0043270412350455128 7.8496046580896524e-06 0 -0.0043270412350455128 7.8496046580896524e-06 0 -0.0043305362128977891 -2.0492159299489103e-05 0 -0.0045326486251784596 -2.8404999136447027e-05 0 -0.0045647386574616733 -1.6787670030398386e-05 0 -0.0044482783625454155 -1.1473686740874091e-05 0 -0.0041933358335231631 2.293053242373402e-05 0 -0.0042174565577842802 -4.7789291903018371e-05 0 -0.0042542865146149847 7.3217653923473874e-06 0 -0.0046109404553557444 -5.5072727266156725e-05 0 -0.0045326486251784596 -2.8404999136447027e-05 0 -0.0045647386574616733 -1.6787670030398386e-05 0 -0.0046691703340494412 -3.093344679366604e-05 0 -0.0046109404553557444 -5.5072727266156725e-05 0 -0.0045647386574616733 -1.6787670030398386e-05 0 -0.0044614602825441213 -1.004711370447893e-05 0 -0.0045647386574616733 -1.6787670030398386e-05 0 -0.0044482783625454155 -1.1473686740874091e-05 0 -0.0044614602825441213 -1.004711370447893e-05 0 -0.0045736010756610721 -9.2316110900934837e-06 0 -0.0045647386574616733 -1.6787670030398386e-05 0 -0.0050001236796917044 3.337797029831206e-08 0 -0.0049727249142018475 1.9625599409931652e-06 0 -0.0049995170973511707 -6.6436243530331624e-08 0 -0.0042174565577842802 -4.7789291903018371e-05 0 -0.0042425608876921501 -3.0528317857129448e-05 0 -0.0042542865146149847 7.3217653923473874e-06 0 -0.0042425608876921501 -3.0528317857129448e-05 0 -0.0043065241268669388 2.8055264486816537e-05 0 -0.0043541524275011916 -1.5011960146728949e-05 0 -0.0042425608876921501 -3.0528317857129448e-05 0 -0.0043065241268669388 2.8055264486816537e-05 0 -0.0042542865146149847 7.3217653923473874e-06 0 -0.0043065241268669388 2.8055264486816537e-05 0 -0.0042542865146149847 7.3217653923473874e-06 0 -0.0043299342981205913 6.0130417286722925e-05 0 -0.0041933358335231631 2.293053242373402e-05 0 -0.0042542865146149847 7.3217653923473874e-06 0 -0.0042568499424983381 7.2923485692308766e-05 0 -0.0041625981068677273 0.0001810379891036687 0 -0.0042568499424983381 7.2923485692308766e-05 0 -0.0043932452163734058 0.00018683361620844288 0 -0.0042542865146149847 7.3217653923473874e-06 0 -0.0042568499424983381 7.2923485692308766e-05 0 -0.0043299342981205913 6.0130417286722925e-05 0 -0.0043546496677449829 5.6508262251111e-05 0 -0.004560395281353275 1.956679689447265e-05 0 -0.0043299342981205913 6.0130417286722925e-05 0 -0.0043932452163734058 0.00018683361620844288 0 -0.0047748482823062313 -4.8312209893845415e-05 0 -0.0043065241268669388 2.8055264486816537e-05 0 -0.0043299342981205913 6.0130417286722925e-05 0 -0.0043656343892265193 8.4603902791336848e-05 0 -0.0042568499424983381 7.2923485692308766e-05 0 -0.0043299342981205913 6.0130417286722925e-05 0 -0.0043932452163734058 0.00018683361620844288 0 -0.0046749130823824066 -1.9462896343219151e-06 0 -0.0046634578137340664 0.00010191978375448218 0 -0.0049980824545225767 6.2492060844147682e-06 0 -0.0050001236796917044 3.337797029831206e-08 0 -0.0049727249142018475 1.9625599409931652e-06 0 -0.0049727249142018475 1.9625599409931652e-06 0 -0.0049995170973511707 -6.6436243530331624e-08 0 -0.0048746019720913407 1.7445254678075334e-05 0 -0.0049995170973511707 -6.6436243530331624e-08 0 -0.0048746019720913407 1.7445254678075334e-05 0 -0.0046689321355208079 1.2726996088171224e-07 0 -0.0043932452163734058 0.00018683361620844288 0 -0.0047748482823062313 -4.8312209893845415e-05 0 -0.0048746019720913407 1.7445254678075334e-05 0 -0.0046634578137340664 0.00010191978375448218 0 -0.0048700221473978508 2.4194398821525635e-05 0 -0.004560395281353275 1.956679689447265e-05 0 -0.0046681750279759533 4.3450945608164136e-09 0 -0.0047748482823062313 -4.8312209893845415e-05 0 -0.0048746019720913407 1.7445254678075334e-05 0 -0.0046689321355208079 1.2726996088171224e-07 0 -0.0043656343892265193 8.4603902791336848e-05 0 -0.0046676773744671581 2.8993458723736242e-07 0 -0.0043541524275011916 -1.5011960146728949e-05 0 -0.0043065241268669388 2.8055264486816537e-05 0 -0.0043656343892265193 8.4603902791336848e-05 0 -0.0043541524275011916 -1.5011960146728949e-05 0 -0.0042425608876921501 -3.0528317857129448e-05 0 -0.0043541524275011916 -1.5011960146728949e-05 0 -0.0041859288318846803 -3.8520126837383292e-05 0 -0.0046676773744671581 2.8993458723736242e-07 0 -0.0043541524275011916 -1.5011960146728949e-05 0 -0.0043971383207768236 -1.5634685523340556e-07 0 -0.0043541524275011916 -1.5011960146728949e-05 0 -0.0043971383207768236 -1.5634685523340556e-07 0 -0.0041859288318846803 -3.8520126837383292e-05 0 -0.0043971383207768236 -1.5634685523340556e-07 0 -0.0041260305610822693 -3.5620750314905328e-08 0 -0.0041859288318846803 -3.8520126837383292e-05 0 -0.0041260305610822693 -3.5620750314905328e-08 0 -0.0041859288318846803 -3.8520126837383292e-05 0 -0.0040210134703398568 -2.060010453441183e-05 0 -0.0041859288318846803 -3.8520126837383292e-05 0 -0.0040650706103336452 -2.4228679887678599e-05 0 -0.0040210134703398568 -2.060010453441183e-05 0 -0.0042425608876921501 -3.0528317857129448e-05 0 -0.0041859288318846803 -3.8520126837383292e-05 0 -0.0041765399882255205 -4.0656572968950556e-05 0 -0.0042174565577842802 -4.7789291903018371e-05 0 -0.0042425608876921501 -3.0528317857129448e-05 0 -0.0041765399882255205 -4.0656572968950556e-05 0 -0.004257816105287123 -1.0791200386391215e-05 0 -0.0042174565577842802 -4.7789291903018371e-05 0 -0.0041765399882255205 -4.0656572968950556e-05 0 -0.004257816105287123 -1.0791200386391215e-05 0 -0.0041765399882255205 -4.0656572968950556e-05 0 -0.0041546442177888632 -1.0939701577465034e-05 0 -0.0041859288318846803 -3.8520126837383292e-05 0 -0.0041765399882255205 -4.0656572968950556e-05 0 -0.0040650706103336452 -2.4228679887678599e-05 0 -0.0041765399882255205 -4.0656572968950556e-05 0 -0.0041546442177888632 -1.0939701577465034e-05 0 -0.0040650706103336452 -2.4228679887678599e-05 0 -0.0041546442177888632 -1.0939701577465034e-05 0 -0.0040650706103336452 -2.4228679887678599e-05 0 -0.0040970668631121294 1.2386071529946701e-05 0 -0.0042084561296395311 3.2129497927734109e-05 0 -0.0041546442177888632 -1.0939701577465034e-05 0 -0.0040970668631121294 1.2386071529946701e-05 0 -0.0040102321719876063 3.452971304191875e-05 0 -0.0040970668631121294 1.2386071529946701e-05 0 -0.0039513286816857014 1.8072205625424573e-06 0 -0.0040650706103336452 -2.4228679887678599e-05 0 -0.0039513286816857014 1.8072205625424573e-06 0 -0.0038787897357777375 -1.4483828249304731e-05 0 -0.0040650706103336452 -2.4228679887678599e-05 0 -0.0040970668631121294 1.2386071529946701e-05 0 -0.0039513286816857014 1.8072205625424573e-06 0 -0.0038787897357777375 -1.4483828249304731e-05 0 -0.0038550032528334517 -3.9315098823280856e-08 0 -0.0040210134703398568 -2.060010453441183e-05 0 -0.0041260305610822693 -3.5620750314905328e-08 0 -0.0038550032528334517 -3.9315098823280856e-08 0 -0.0040210134703398568 -2.060010453441183e-05 0 -0.0040650706103336452 -2.4228679887678599e-05 0 -0.0038787897357777375 -1.4483828249304731e-05 0 -0.0040210134703398568 -2.060010453441183e-05 0 -0.0046954203470685723 9.2660225308607665e-05 0 -0.0047706354862616599 0.00013999400426789523 0 -0.0048546956746570637 0.00010565269961605257 0 -0.0048680029328132994 0.00013895338612020768 0 -0.0048655987679760973 0.00013808875237680948 0 -0.0045451892895307247 8.4881348659231087e-05 0 -0.0046520095174218045 3.0954012211665654e-05 0 -0.0046779546837424826 0.00014754003937025317 0 -0.0045451892895307247 8.4881348659231087e-05 0 -0.0046520095174218045 3.0954012211665654e-05 0 -0.0045010561992099244 -4.4163302810436099e-05 0 -0.0046520095174218045 3.0954012211665654e-05 0 -0.0047654894644593056 5.0063705742203269e-05 0 -0.004745771953516836 0.00011444847408119985 0 -0.0046520095174218045 3.0954012211665654e-05 0 -0.0047654894644593056 5.0063705742203269e-05 0 -0.0047206273869092562 -6.5446366678102144e-05 0 -0.0046471937190166561 0.0001709946202903783 0 -0.0046692834272956145 0.00018230400020662467 0 -0.0046712920798451241 0.00016908213450203267 0 -0.0046471937190166561 0.0001709946202903783 0 -0.0046649957234358207 0.00015558781279641733 0 -0.0046712920798451241 0.00016908213450203267 0 -0.0046692834272956145 0.00018230400020662467 0 -0.004659150290833588 0.00020672293475265595 0 -0.0046749931127478325 0.00020453240755855448 0 -0.0047654894644593056 5.0063705742203269e-05 0 -0.004745771953516836 0.00011444847408119985 0 -0.0048081104329153555 0.00014456831852673819 0 -0.004706999022461392 0.0001102705860118858 0 -0.0047310972615198441 0.0001822100745121937 0 -0.0046471937190166561 0.0001709946202903783 0 -0.0046692834272956145 0.00018230400020662467 0 -0.004659150290833588 0.00020672293475265595 0 -0.0046520095174218045 3.0954012211665654e-05 0 -0.004745771953516836 0.00011444847408119985 0 -0.0046779546837424826 0.00014754003937025317 0 -0.0048176570297748531 0.00015876638496986506 0 -0.0048586330402480759 0.00014284847045763118 0 -0.0048680029328132994 0.00013895338612020768 0 -0.004745771953516836 0.00011444847408119985 0 -0.0048176570297748531 0.00015876638496986506 0 -0.0046779546837424826 0.00014754003937025317 0 -0.0048087816053480961 0.00015577090934156091 0 -0.0047706354862616599 0.00013999400426789523 0 -0.0048081104329153555 0.00014456831852673819 0 -0.0048176570297748531 0.00015876638496986506 0 -0.0048185448271400233 0.00014793887481404951 0 -0.0047310972615198441 0.0001822100745121937 0 -0.0047686366305183499 0.00015143886355632678 0 -0.004745771953516836 0.00011444847408119985 0 -0.0048081104329153555 0.00014456831852673819 0 -0.0048176570297748531 0.00015876638496986506 0 -0.004659150290833588 0.00020672293475265595 0 -0.0046678506146392582 0.0002321818678568326 0 -0.0046749931127478325 0.00020453240755855448 0 -0.0048176570297748531 0.00015876638496986506 0 -0.0048330827031529923 0.0001424975280935006 0 -0.0048185448271400233 0.00014793887481404951 0 -0.0048330827031529923 0.0001424975280935006 0 -0.0048185448271400233 0.00014793887481404951 0 -0.0048403261359215091 0.00012779839478942973 0 -0.0047686366305183499 0.00015143886355632678 0 -0.0047753803012606745 0.00012283439780607126 0 -0.0048185977688493383 0.0001075292238429007 0 -0.0047992628249438783 0.00010202785740679729 0 -0.004821356495820054 8.9600328227902807e-05 0 -0.0048586330402480759 0.00014284847045763118 0 -0.004854805200926079 0.00013181277538704128 0 -0.004879319820311992 0.00013740367786308562 0 -0.0048176570297748531 0.00015876638496986506 0 -0.0048330827031529923 0.0001424975280935006 0 -0.0048586330402480759 0.00014284847045763118 0 -0.0048330827031529923 0.0001424975280935006 0 -0.0048586330402480759 0.00014284847045763118 0 -0.004854805200926079 0.00013181277538704128 0 -0.0048330827031529923 0.0001424975280935006 0 -0.004854805200926079 0.00013181277538704128 0 -0.0048403261359215091 0.00012779839478942973 0 -0.0048586330402480759 0.00014284847045763118 0 -0.004879319820311992 0.00013740367786308562 0 -0.0048655987679760973 0.00013808875237680948 0 -0.0048586330402480759 0.00014284847045763118 0 -0.0048680029328132994 0.00013895338612020768 0 -0.0048655987679760973 0.00013808875237680948 0 -0.0048546956746570637 0.00010565269961605257 0 -0.0048655987679760973 0.00013808875237680948 0 -0.0048401083561683622 0.00013400101423821086 0 -0.004879319820311992 0.00013740367786308562 0 -0.0048655987679760973 0.00013808875237680948 0 -0.0048506858898292203 0.00015536864700955644 0 -0.0048655987679760973 0.00013808875237680948 0 -0.0048401083561683622 0.00013400101423821086 0 -0.0048506858898292203 0.00015536864700955644 0 -0.0048323089289652246 0.00014725010966295344 0 -0.0048401083561683622 0.00013400101423821086 0 -0.0048506858898292203 0.00015536864700955644 0 -0.0048323089289652246 0.00014725010966295344 0 -0.0048131485632443008 0.00014007714955822288 0 -0.0048401083561683622 0.00013400101423821086 0 -0.0048323089289652246 0.00014725010966295344 0 -0.0048131485632443008 0.00014007714955822288 0 -0.0048246211297384095 0.00016306041272749858 0 -0.0048131485632443008 0.00014007714955822288 0 -0.0048401083561683622 0.00013400101423821086 0 -0.0048143242199115734 0.00010835827493349223 0 -0.0047810880368972788 0.00016198173754022177 0 -0.0047681976567988107 0.00012405447641166981 0 -0.0048143242199115734 0.00010835827493349223 0 -0.0047800903965472654 0.00016554357249239177 0 -0.0048203391580431479 0.00010198273097248881 0 -0.0047464410196562078 0.00017519499912729063 0 -0.0047403850435401573 0.00019496602706450849 0 -0.0047100368463167726 0.0001732432857966471 0 -0.0047464410196562078 0.00017519499912729063 0 -0.0047430354807624841 0.00014387068037524029 0 -0.0047100368463167726 0.0001732432857966471 0 -0.0047800903965472654 0.00016554357249239177 0 -0.0048754758486403912 0.0001333764216936415 0 -0.0047810880368972788 0.00016198173754022177 0 -0.0047464410196562078 0.00017519499912729063 0 -0.0047430354807624841 0.00014387068037524029 0 -0.0047810880368972788 0.00016198173754022177 0 -0.0047464410196562078 0.00017519499912729063 0 -0.0047580030781808821 0.00020745765876922266 0 -0.0047810880368972788 0.00016198173754022177 0 -0.0047430354807624841 0.00014387068037524029 0 -0.0047681976567988107 0.00012405447641166981 0 -0.0047430354807624841 0.00014387068037524029 0 -0.0047100368463167726 0.0001732432857966471 0 -0.0047142335628237225 0.00012275504585998267 0 -0.004739894378287297 9.9953296449260915e-05 0 -0.0047177613095729315 6.5339576528186783e-05 0 -0.0047142335628237225 0.00012275504585998267 0 -0.0047430354807624841 0.00014387068037524029 0 -0.004739894378287297 9.9953296449260915e-05 0 -0.0047142335628237225 0.00012275504585998267 0 -0.004739894378287297 9.9953296449260915e-05 0 -0.0047681976567988107 0.00012405447641166981 0 -0.0047761267040424523 8.092088039210021e-05 0 -0.0047430354807624841 0.00014387068037524029 0 -0.004739894378287297 9.9953296449260915e-05 0 -0.0047681976567988107 0.00012405447641166981 0 -0.004739894378287297 9.9953296449260915e-05 0 -0.0047761267040424523 8.092088039210021e-05 0 -0.0047435425681735298 6.5551297166064999e-05 0 -0.004739894378287297 9.9953296449260915e-05 0 -0.0047435425681735298 6.5551297166064999e-05 0 -0.0047177613095729315 6.5339576528186783e-05 0 -0.0043158106247374716 -7.3934862180515784e-05 0 -0.004242812294291025 -0.00010461411958425255 0 -0.0043158106247374716 -7.3934862180515784e-05 0 -0.0046114091743655033 6.9114760753309377e-05 0 -0.0040646633148081375 -0.00021372495215553461 0 -0.0040667020973775836 -0.00022103797352747239 0 -0.0040497669246128817 -0.00020414769040845465 0 -0.0048546956746570637 0.00010565269961605257 0 -0.0048401083561683622 0.00013400101423821086 0 -0.0048143242199115734 0.00010835827493349223 0 -0.0047681976567988107 0.00012405447641166981 0 -0.0047761267040424523 8.092088039210021e-05 0 -0.0048143242199115734 0.00010835827493349223 0 -0.0047761267040424523 8.092088039210021e-05 0 -0.0048143242199115734 0.00010835827493349223 0 -0.0048183709556208661 6.7115219879719274e-05 0 -0.0046954203470685723 9.2660225308607665e-05 0 -0.0046400087217986245 4.2822532828998755e-05 0 -0.0048546956746570637 0.00010565269961605257 0 -0.0048143242199115734 0.00010835827493349223 0 -0.0048183709556208661 6.7115219879719274e-05 0 -0.0045451892895307247 8.4881348659231087e-05 0 -0.0044263738804103921 1.0364102495398244e-05 0 -0.0045010561992099244 -4.4163302810436099e-05 0 -0.0044263738804103921 1.0364102495398244e-05 0 -0.0043912632116626183 -9.421455844769472e-05 0 -0.0045010561992099244 -4.4163302810436099e-05 0 -0.0046400087217986245 4.2822532828998755e-05 0 -0.0044464059387556753 -1.1455808883848743e-05 0 -0.0044263738804103921 1.0364102495398244e-05 0 -0.0043912632116626183 -9.421455844769472e-05 0 -0.0043229125738356031 -6.3360401580525238e-05 0 -0.0047761267040424523 8.092088039210021e-05 0 -0.0048183709556208661 6.7115219879719274e-05 0 -0.0047685075284642844 3.0238462089874551e-05 0 -0.0043374820241024329 -6.8134228422595057e-05 0 -0.0042282228938509978 -1.9484898231761172e-05 0 -0.0042353514848973775 -0.00014350811138885038 0 -0.0043374820241024329 -6.8134228422595057e-05 0 -0.0044519670246568393 -0.00012233425860893053 0 -0.004325251193976711 -0.000232665584416084 0 -0.004346164331964524 -7.0166644161548909e-05 0 -0.0044464059387556753 -1.1455808883848743e-05 0 -0.004346164331964524 -7.0166644161548909e-05 0 -0.0044464335085045454 -0.00011857149695380273 0 -0.0043912632116626183 -9.421455844769472e-05 0 -0.0044519670246568393 -0.00012233425860893053 0 -0.0045010561992099244 -4.4163302810436099e-05 0 -0.0036645367089122032 -7.3557564817930057e-05 0 -0.003946908022407122 -2.7462766474688971e-05 0 -0.0034952990094124061 -4.5314088221437812e-05 0 -0.0034748352956715549 2.6324556407414186e-05 0 -0.0034129928554005899 -8.0060427217999654e-05 0 -0.0043158106247374716 -7.3934862180515784e-05 0 -0.003946908022407122 -2.7462766474688971e-05 0 -0.0047435425681735298 6.5551297166064999e-05 0 -0.0047201904864287835 5.1499610094602628e-05 0 -0.0047384037718091682 4.339752091056317e-05 0 -0.003946908022407122 -2.7462766474688971e-05 0 -0.0042286580853892995 -1.0338871427712406e-05 0 -0.0047435425681735298 6.5551297166064999e-05 0 -0.0047177613095729315 6.5339576528186783e-05 0 -0.0047201904864287835 5.1499610094602628e-05 0 -0.0039024241535008252 -7.8073382863365153e-05 0 -0.003893119789602508 5.7305049626556793e-06 0 -0.0039639127001912236 -2.4723071094096634e-05 0 -0.0036645367089122032 -7.3557564817930057e-05 0 -0.0042286580853892995 -1.0338871427712406e-05 0 -0.0047435425681735298 6.5551297166064999e-05 0 -0.0047384037718091682 4.339752091056317e-05 0 -0.0047685075284642844 3.0238462089874551e-05 0 -0.0047761267040424523 8.092088039210021e-05 0 -0.0047435425681735298 6.5551297166064999e-05 0 -0.0047685075284642844 3.0238462089874551e-05 0 -0.0042286580853892995 -1.0338871427712406e-05 0 -0.0044464059387556753 -1.1455808883848743e-05 0 -0.0040015741723671517 8.2619706974185902e-05 0 -0.0042645433036663542 -3.1142177954034281e-05 0 -0.0039566498477779178 -0.00025285048537083851 0 -0.0042282228938509978 -1.9484898231761172e-05 0 -0.0042353514848973775 -0.00014350811138885038 0 -0.0041096215745962993 -0.00010374106877885824 0 -0.0044464059387556753 -1.1455808883848743e-05 0 -0.0036568562674138502 -0.00018911136853632738 0 -0.0035024610772739382 -0.00016621594770288318 0 -0.0033781940182042829 -0.00016593761213290389 0 -0.0032592821958847096 -0.00033660350862436668 0 -0.0038632654413905411 -3.84011887225237e-05 0 -0.0040015741723671517 8.2619706974185902e-05 0 -0.0039566498477779178 -0.00025285048537083851 0 -0.0034446506682693084 -3.2059215129871822e-05 0 -0.0035024610772739382 -0.00016621594770288318 0 -0.0034534791127140297 -8.1901928888471865e-05 0 -0.0036645367089122032 -7.3557564817930057e-05 0 -0.0036568562674138502 -0.00018911136853632738 0 -0.0034445267422862748 -3.2085584081048171e-05 0 -0.0033781940182042829 -0.00016593761213290389 0 -0.0034534791127140297 -8.1901928888471865e-05 0 -0.0035024610772739382 -0.00016621594770288318 0 -0.0033781940182042829 -0.00016593761213290389 0 -0.0034534791127140297 -8.1901928888471865e-05 0 -0.0036645367089122032 -7.3557564817930057e-05 0 -0.0036290100600297327 -5.7671078609928331e-05 0 -0.0032086186451157337 -0.00032955869492043015 0 -0.0031510797261689017 -0.00045340063354561301 0 -0.0030684718068729956 -0.00043086518936855887 0 -0.0036568562674138502 -0.00018911136853632738 0 -0.0037005980380815911 -0.00037624381261605936 0 -0.0032086186451157337 -0.00032955869492043015 0 -0.0031510797261689017 -0.00045340063354561301 0 -0.0032484147009642474 -0.00048814064934540679 0 -0.0036568562674138502 -0.00018911136853632738 0 -0.0031091109070778833 -0.0004079212909282677 0 -0.0042353514848973775 -0.00014350811138885038 0 -0.0041576959672304913 -0.00026857664325916498 0 -0.004325251193976711 -0.000232665584416084 0 -0.0042353514848973775 -0.00014350811138885038 0 -0.0041096215745962993 -0.00010374106877885824 0 -0.0041576959672304913 -0.00026857664325916498 0 -0.0037640025146422609 -0.00056893860609816694 0 -0.0037005980380815911 -0.00037624381261605936 0 -0.0031894851539554857 -0.00059553925263978362 0 -0.0032841692740255579 -0.00063920953665930463 0 -0.0032484147009642474 -0.00048814064934540679 0 -0.004201498681454521 -0.0004323112797599092 0 -0.0041576959672304913 -0.00026857664325916498 0 -0.0042997317872268178 -0.00035039148931228332 0 -0.0031894851539554857 -0.00059553925263978362 0 -0.0032484147009642474 -0.00048814064934540679 0 -0.0031451647053678733 -0.00052565554762457468 0 -0.0031510797261689017 -0.00045340063354561301 0 -0.0032484147009642474 -0.00048814064934540679 0 -0.0031451647053678733 -0.00052565554762457468 0 -0.0031894851539554857 -0.00059553925263978362 0 -0.0031451647053678733 -0.00052565554762457468 0 -0.0031047467694018211 -0.00060006998812239028 0 -0.0031510797261689017 -0.00045340063354561301 0 -0.0031451647053678733 -0.00052565554762457468 0 -0.0030953986343241996 -0.00049690427304475754 0 -0.0044519670246568393 -0.00012233425860893053 0 -0.0044393747238343599 -0.00022180707160913789 0 -0.004325251193976711 -0.000232665584416084 0 -0.0044519670246568393 -0.00012233425860893053 0 -0.0044393747238343599 -0.00022180707160913789 0 -0.0045270573688559884 -0.00020439424081485322 0 -0.0043374820241024329 -6.8134228422595057e-05 0 -0.0042353514848973775 -0.00014350811138885038 0 -0.004325251193976711 -0.000232665584416084 0 -0.004325251193976711 -0.000232665584416084 0 -0.0042997317872268178 -0.00035039148931228332 0 -0.0044489749863146797 -0.00033628656105346203 0 -0.0041576959672304913 -0.00026857664325916498 0 -0.004325251193976711 -0.000232665584416084 0 -0.0042997317872268178 -0.00035039148931228332 0 -0.0044393747238343599 -0.00022180707160913789 0 -0.004325251193976711 -0.000232665584416084 0 -0.0044489749863146797 -0.00033628656105346203 0 -0.0044393747238343599 -0.00022180707160913789 0 -0.0044489749863146797 -0.00033628656105346203 0 -0.0045270573688559884 -0.00020439424081485322 0 -0.0044266078933183073 -0.00032281734386314459 0 -0.0045219533233517512 -0.0002095410671555601 0 -0.0045199382546744892 -0.0002967398410929522 0 -0.0045929592691108844 -0.00022897912005013035 0 -0.0045270573688559884 -0.00020439424081485322 0 -0.004429084879594712 -0.00028605702250929661 0 -0.0045199382546744892 -0.0002967398410929522 0 -0.0045270573688559884 -0.00020439424081485322 0 -0.0046377814737896712 -0.00031017189738422149 0 -0.0045929592691108844 -0.00022897912005013035 0 -0.0046776296061969641 -0.00018420057159564265 0 -0.0045199382546744892 -0.0002967398410929522 0 -0.0046377814737896712 -0.00031017189738422149 0 -0.0045929592691108844 -0.00022897912005013035 0 -0.0045929592691108844 -0.00022897912005013035 0 -0.0046073633657378243 -0.00014947015460338328 0 -0.0046776296061969641 -0.00018420057159564265 0 -0.0045929592691108844 -0.00022897912005013035 0 -0.0045270573688559884 -0.00020439424081485322 0 -0.0046073633657378243 -0.00014947015460338328 0 -0.0045270573688559884 -0.00020439424081485322 0 -0.0045350100672947678 -0.00012089314309723688 0 -0.0046073633657378243 -0.00014947015460338328 0 -0.0045350100672947678 -0.00012089314309723688 0 -0.0046002835240299593 -7.4615692679327894e-05 0 -0.0045010561992099244 -4.4163302810436099e-05 0 -0.0044519670246568393 -0.00012233425860893053 0 -0.0045350100672947678 -0.00012089314309723688 0 -0.0045010561992099244 -4.4163302810436099e-05 0 -0.0044519670246568393 -0.00012233425860893053 0 -0.0045270573688559884 -0.00020439424081485322 0 -0.0045350100672947678 -0.00012089314309723688 0 -0.0045350100672947678 -0.00012089314309723688 0 -0.0046073633657378243 -0.00014947015460338328 0 -0.0046002835240299593 -7.4615692679327894e-05 0 -0.0046073633657378243 -0.00014947015460338328 0 -0.0046002835240299593 -7.4615692679327894e-05 0 -0.0047206273869092562 -6.5446366678102144e-05 0 -0.0046520095174218045 3.0954012211665654e-05 0 -0.0046002835240299593 -7.4615692679327894e-05 0 -0.0045010561992099244 -4.4163302810436099e-05 0 -0.0046520095174218045 3.0954012211665654e-05 0 -0.0046002835240299593 -7.4615692679327894e-05 0 -0.0047206273869092562 -6.5446366678102144e-05 0 -0.0046558735522077297 0.00014170203512139302 0 -0.0046381275627168754 0.00014092988756801304 0 -0.0046649957234358207 0.00015558781279641733 0 -0.0046471937190166561 0.0001709946202903783 0 -0.0046381275627168754 0.00014092988756801304 0 -0.0046649957234358207 0.00015558781279641733 0 -0.004706999022461392 0.0001102705860118858 0 -0.0046783199959228713 3.6943672426059118e-05 0 -0.0046783199959228713 3.6943672426059118e-05 0 -0.0046647077655164789 -2.1943767597340243e-05 0 -0.0046381275627168754 0.00014092988756801304 0 -0.0046439883174316122 0.00012759863339981549 0 -0.0046309370239382332 0.00012425334339398648 0 -0.0046073633657378243 -0.00014947015460338328 0 -0.0047206273869092562 -6.5446366678102144e-05 0 -0.0046776296061969641 -0.00018420057159564265 0 -0.0046558735522077297 0.00014170203512139302 0 -0.0046381275627168754 0.00014092988756801304 0 -0.0046508103971180329 0.00013249443321785813 0 -0.0046381275627168754 0.00014092988756801304 0 -0.0046508103971180329 0.00013249443321785813 0 -0.0046439883174316122 0.00012759863339981549 0 -0.0046558735522077297 0.00014170203512139302 0 -0.0046508103971180329 0.00013249443321785813 0 -0.0046568586476755979 0.00013904488596808888 0 -0.0045416080941926154 0.00011953675695602514 0 -0.0045732659597496218 0.00012011628217263957 0 -0.0046508103971180329 0.00013249443321785813 0 -0.0046439883174316122 0.00012759863339981549 0 -0.004653234054937558 0.00013447434994769605 0 -0.0046439883174316122 0.00012759863339981549 0 -0.0046430698857711028 0.00011268983198945086 0 -0.004653234054937558 0.00013447434994769605 0 -0.0044307924548978679 8.5898782597034103e-05 0 -0.0044794135785386317 7.388781275560081e-05 0 -0.0045015012366378653 0.00011762599656051265 0 -0.0046439883174316122 0.00012759863339981549 0 -0.0046309370239382332 0.00012425334339398648 0 -0.0046430698857711028 0.00011268983198945086 0 -0.0045421697163065345 -0.00013524818375825962 0 -0.0045416080941926154 0.00011953675695602514 0 -0.0044433616036079482 4.6327025276377331e-05 0 -0.0043718708165656145 5.0121474216306214e-05 0 -0.0044307924548978679 8.5898782597034103e-05 0 -0.004620978314304032 9.4416666082446264e-05 0 -0.0046309370239382332 0.00012425334339398648 0 -0.0046430698857711028 0.00011268983198945086 0 -0.0045421697163065345 -0.00013524818375825962 0 -0.0046647077655164789 -2.1943767597340243e-05 0 -0.0044978925418368912 3.8861998139015524e-05 0 -0.0044433616036079482 4.6327025276377331e-05 0 -0.0044794135785386317 7.388781275560081e-05 0 -0.0044433616036079482 4.6327025276377331e-05 0 -0.0044307924548978679 8.5898782597034103e-05 0 -0.0044794135785386317 7.388781275560081e-05 0 -0.0044978925418368912 3.8861998139015524e-05 0 -0.0045279233107771372 7.630469911046496e-05 0 -0.0045481684404171836 5.2922528561480702e-05 0 -0.0044978925418368912 3.8861998139015524e-05 0 -0.0045279233107771372 7.630469911046496e-05 0 -0.0044794135785386317 7.388781275560081e-05 0 -0.0045732659597496218 0.00012011628217263957 0 -0.0045985110259181405 0.00012955941954166447 0 -0.0045015012366378653 0.00011762599656051265 0 -0.0045643957836899738 0.00010511951945093992 0 -0.0046042326916282085 0.00012946071131568539 0 -0.0045279233107771372 7.630469911046496e-05 0 -0.0044794135785386317 7.388781275560081e-05 0 -0.0045015012366378653 0.00011762599656051265 0 -0.0045279233107771372 7.630469911046496e-05 0 -0.0045015012366378653 0.00011762599656051265 0 -0.0045643957836899738 0.00010511951945093992 0 -0.0045643957836899738 0.00010511951945093992 0 -0.0046003734582243105 0.00010834195226054408 0 -0.0046042326916282085 0.00012946071131568539 0 -0.0045279233107771372 7.630469911046496e-05 0 -0.0045643957836899738 0.00010511951945093992 0 -0.0045639921119284667 8.320874962308353e-05 0 -0.0045643957836899738 0.00010511951945093992 0 -0.0045639921119284667 8.320874962308353e-05 0 -0.0046003734582243105 0.00010834195226054408 0 -0.0045639921119284667 8.320874962308353e-05 0 -0.0045481684404171836 5.2922528561480702e-05 0 -0.0045816910333179245 6.6890759950844554e-05 0 -0.0045279233107771372 7.630469911046496e-05 0 -0.0045639921119284667 8.320874962308353e-05 0 -0.0045481684404171836 5.2922528561480702e-05 0 -0.0045750726137458817 3.4105589145519878e-05 0 -0.0045481684404171836 5.2922528561480702e-05 0 -0.0045816910333179245 6.6890759950844554e-05 0 -0.0045750726137458817 3.4105589145519878e-05 0 -0.0045816910333179245 6.6890759950844554e-05 0 -0.0046051189571332364 5.9303157457832124e-05 0 -0.0045816910333179245 6.6890759950844554e-05 0 -0.0046051189571332364 5.9303157457832124e-05 0 -0.0046071341853159888 8.7357600760654952e-05 0 -0.0046051189571332364 5.9303157457832124e-05 0 -0.00462727363960858 8.3546875656635841e-05 0 -0.0046297394006217909 5.3234703543134109e-05 0 -0.0046051189571332364 5.9303157457832124e-05 0 -0.00462727363960858 8.3546875656635841e-05 0 -0.0046071341853159888 8.7357600760654952e-05 0 -0.00462727363960858 8.3546875656635841e-05 0 -0.0046210090816387684 0.0001039963058957949 0 -0.0046071341853159888 8.7357600760654952e-05 0 -0.00462727363960858 8.3546875656635841e-05 0 -0.0046210090816387684 0.0001039963058957949 0 -0.004635870402463071 0.00010512627862191315 0 -0.0045816910333179245 6.6890759950844554e-05 0 -0.0046071341853159888 8.7357600760654952e-05 0 -0.0046003734582243105 0.00010834195226054408 0 -0.0045639921119284667 8.320874962308353e-05 0 -0.0045816910333179245 6.6890759950844554e-05 0 -0.0046003734582243105 0.00010834195226054408 0 -0.0046210090816387684 0.0001039963058957949 0 -0.0046071341853159888 8.7357600760654952e-05 0 -0.0046003734582243105 0.00010834195226054408 0 -0.0046003734582243105 0.00010834195226054408 0 -0.0046218490160660651 0.00011541839368834109 0 -0.0046228806565976168 0.00012342644548100502 0 -0.0046210090816387684 0.0001039963058957949 0 -0.0046003734582243105 0.00010834195226054408 0 -0.0046218490160660651 0.00011541839368834109 0 -0.0046218490160660651 0.00011541839368834109 0 -0.0046228806565976168 0.00012342644548100502 0 -0.004633422858178215 0.0001216345519028966 0 -0.004635870402463071 0.00010512627862191315 0 -0.0046338036034605365 0.00011515931679176662 0 -0.0046459396625733711 0.00011732287484061938 0 -0.0046210090816387684 0.0001039963058957949 0 -0.004635870402463071 0.00010512627862191315 0 -0.0046338036034605365 0.00011515931679176662 0 -0.0046210090816387684 0.0001039963058957949 0 -0.0046218490160660651 0.00011541839368834109 0 -0.0046338036034605365 0.00011515931679176662 0 -0.0046218490160660651 0.00011541839368834109 0 -0.0046338036034605365 0.00011515931679176662 0 -0.004633422858178215 0.0001216345519028966 0 -0.0046338036034605365 0.00011515931679176662 0 -0.0046423622808225489 0.00012138711176169865 0 -0.004633422858178215 0.0001216345519028966 0 -0.0046338036034605365 0.00011515931679176662 0 -0.0046423622808225489 0.00012138711176169865 0 -0.0046459396625733711 0.00011732287484061938 0 -0.0046423622808225489 0.00012138711176169865 0 -0.0046459396625733711 0.00011732287484061938 0 -0.0046519776604080501 0.00012424514690054543 0 -0.0046423622808225489 0.00012138711176169865 0 -0.0046467152557516612 0.00012427505297328529 0 -0.004633422858178215 0.0001216345519028966 0 -0.0046423622808225489 0.00012138711176169865 0 -0.0046467152557516612 0.00012427505297328529 0 -0.0046519776604080501 0.00012424514690054543 0 -0.0046228806565976168 0.00012342644548100502 0 -0.0046379501714599834 0.0001230226243576229 0 -0.004628235225261376 0.00012094091165101124 0 -0.0046228806565976168 0.00012342644548100502 0 -0.004633422858178215 0.0001216345519028966 0 -0.0046379501714599834 0.0001230226243576229 0 -0.0046467152557516612 0.00012427505297328529 0 -0.004633422858178215 0.0001216345519028966 0 -0.0046379501714599834 0.0001230226243576229 0 -0.0046379501714599834 0.0001230226243576229 0 -0.004628235225261376 0.00012094091165101124 0 -0.0046416739352002478 0.00012081230388256386 0 -0.004628235225261376 0.00012094091165101124 0 -0.004630304236869616 0.00012054083625212211 0 -0.0046348996808978906 0.0001192436614288989 0 -0.004628235225261376 0.00012094091165101124 0 -0.0046348996808978906 0.0001192436614288989 0 -0.0046416739352002478 0.00012081230388256386 0 -0.004630304236869616 0.00012054083625212211 0 -0.0046348996808978906 0.0001192436614288989 0 -0.00463658313240923 0.00011772343245774921 0 -0.0046348996808978906 0.0001192436614288989 0 -0.00463658313240923 0.00011772343245774921 0 -0.0046416739352002478 0.00012081230388256386 0 -0.0046637198316752219 0.00014024392161895389 0 -0.0046459669906779725 0.00012982704043567247 0 -0.0046874035073449713 0.00015889220740920301 0 -0.0046568586476755979 0.00013904488596808888 0 -0.0046431569623298736 0.00012757287783912204 0 -0.004630304236869616 0.00012054083625212211 0 -0.00463658313240923 0.00011772343245774921 0 -0.0046431569623298736 0.00012757287783912204 0 -0.0046558735522077297 0.00014170203512139302 0 -0.0046649957234358207 0.00015558781279641733 0 -0.0046652020524770438 0.0001476737945666768 0 -0.0046874035073449713 0.00015889220740920301 0 -0.0046649957234358207 0.00015558781279641733 0 -0.0046652020524770438 0.0001476737945666768 0 -0.0046874035073449713 0.00015889220740920301 0 -0.0046652020524770438 0.0001476737945666768 0 -0.0046568586476755979 0.00013904488596808888 0 -0.0046558735522077297 0.00014170203512139302 0 -0.0046652020524770438 0.0001476737945666768 0 -0.0046568586476755979 0.00013904488596808888 0 -0.004653234054937558 0.00013447434994769605 0 -0.0046431569623298736 0.00012757287783912204 0 -0.0046042326916282085 0.00012946071131568539 0 -0.0046508103971180329 0.00013249443321785813 0 -0.0046568586476755979 0.00013904488596808888 0 -0.0046431569623298736 0.00012757287783912204 0 -0.0046508103971180329 0.00013249443321785813 0 -0.004653234054937558 0.00013447434994769605 0 -0.0046431569623298736 0.00012757287783912204 0 -0.0046003734582243105 0.00010834195226054408 0 -0.0046228806565976168 0.00012342644548100502 0 -0.0046042326916282085 0.00012946071131568539 0 -0.0046228806565976168 0.00012342644548100502 0 -0.004628235225261376 0.00012094091165101124 0 -0.0046042326916282085 0.00012946071131568539 0 -0.004628235225261376 0.00012094091165101124 0 -0.004630304236869616 0.00012054083625212211 0 -0.0046042326916282085 0.00012946071131568539 0 -0.004630304236869616 0.00012054083625212211 0 -0.0046431569623298736 0.00012757287783912204 0 -0.0046042326916282085 0.00012946071131568539 0 -0.0042534028549564892 0.00022301816852547985 0 -0.0044638333186510868 0.00017983103543010398 0 -0.0042639777262955467 0.00023477050699208089 0 -0.0042636903557568395 0.00024007017859881258 0 -0.0042640335060590917 0.00024008178224028663 0 -0.0042534028549564892 0.00022301816852547985 0 -0.0042298898357826884 0.00024178830432108883 0 -0.0041780743488203419 0.00022587774968612731 0 -0.0042030661581642578 0.0002355846137127964 0 -0.0042059518247115303 0.00024496579789057299 0 -0.0041780743488203419 0.00022587774968612731 0 -0.004204621854915303 0.00022709713944852935 0 -0.0042030661581642578 0.0002355846137127964 0 -0.0045675035637394489 0.0001038804962581801 0 -0.0045970880570712644 0.00010782557551556141 0 -0.0045958909163898928 0.00013232812341579413 0 -0.0045970880570712644 0.00010782557551556141 0 -0.0046171498880327611 0.00013590209673020829 0 -0.0045958909163898928 0.00013232812341579413 0 -0.004751829750601671 1.2776354796255649e-05 0 -0.0046214497795312778 0.0001187207374553591 0 -0.0046171498880327611 0.00013590209673020829 0 -0.0045958909163898928 0.00013232812341579413 0 -0.0046246498028789376 0.0001442768045479007 0 -0.0046781036450529237 8.7904933474006281e-05 0 -0.0046542216581488419 7.7650532814816549e-05 0 -0.0046557692163791183 0.00010564894501038437 0 -0.0046487197224342209 4.7465939660063301e-05 0 -0.0046746576328730045 3.8363948500165608e-05 0 -0.0046542216581488419 7.7650532814816549e-05 0 -0.0046746576328730045 3.8363948500165608e-05 0 -0.0046781036450529237 8.7904933474006281e-05 0 -0.0046542216581488419 7.7650532814816549e-05 0 -0.00462727363960858 8.3546875656635841e-05 0 -0.0046542216581488419 7.7650532814816549e-05 0 -0.0046297394006217909 5.3234703543134109e-05 0 -0.0046487197224342209 4.7465939660063301e-05 0 -0.0046542216581488419 7.7650532814816549e-05 0 -0.0046297394006217909 5.3234703543134109e-05 0 -0.00462727363960858 8.3546875656635841e-05 0 -0.0046542216581488419 7.7650532814816549e-05 0 -0.0046441637160572515 9.3484513876231336e-05 0 -0.0046542216581488419 7.7650532814816549e-05 0 -0.0046441637160572515 9.3484513876231336e-05 0 -0.0046557692163791183 0.00010564894501038437 0 -0.004635870402463071 0.00010512627862191315 0 -0.0046441637160572515 9.3484513876231336e-05 0 -0.0046557692163791183 0.00010564894501038437 0 -0.00462727363960858 8.3546875656635841e-05 0 -0.004635870402463071 0.00010512627862191315 0 -0.0046441637160572515 9.3484513876231336e-05 0 -0.004635870402463071 0.00010512627862191315 0 -0.0046459396625733711 0.00011732287484061938 0 -0.0046557692163791183 0.00010564894501038437 0 -0.0046459396625733711 0.00011732287484061938 0 -0.0046568026366511058 0.00012252066697056345 0 -0.0046557692163791183 0.00010564894501038437 0 -0.0046459396625733711 0.00011732287484061938 0 -0.0046519776604080501 0.00012424514690054543 0 -0.0046568026366511058 0.00012252066697056345 0 -0.0046519776604080501 0.00012424514690054543 0 -0.0046568026366511058 0.00012252066697056345 0 -0.0046603718870408322 0.00012690820474715986 0 -0.0046568026366511058 0.00012252066697056345 0 -0.0046718785098045744 0.00012070811742340791 0 -0.0046620836407205626 0.00012940884316937592 0 -0.0046568026366511058 0.00012252066697056345 0 -0.0046620836407205626 0.00012940884316937592 0 -0.0046603718870408322 0.00012690820474715986 0 -0.0046568026366511058 0.00012252066697056345 0 -0.0046557692163791183 0.00010564894501038437 0 -0.0046718785098045744 0.00012070811742340791 0 -0.0046781036450529237 8.7904933474006281e-05 0 -0.0046557692163791183 0.00010564894501038437 0 -0.0046718785098045744 0.00012070811742340791 0 -0.0046214497795312778 0.0001187207374553591 0 -0.0046493506064359561 0.00012779558230759236 0 -0.0046718785098045744 0.00012070811742340791 0 -0.0046527722268679527 0.00013335232858896359 0 -0.0046620836407205626 0.00012940884316937592 0 -0.0046493506064359561 0.00012779558230759236 0 -0.004651334780608753 0.00013199088062480592 0 -0.0046246498028789376 0.0001442768045479007 0 -0.0046317204854575862 0.00014428499320141638 0 -0.0046527722268679527 0.00013335232858896359 0 -0.0046171498880327611 0.00013590209673020829 0 -0.0046246498028789376 0.0001442768045479007 0 -0.0046317204854575862 0.00014428499320141638 0 -0.0044638333186510868 0.00017983103543010398 0 -0.0044434115279466434 0.00019571816827776539 0 -0.0042636903557568395 0.00024007017859881258 0 -0.0042640335060590917 0.00024008178224028663 0 -0.004261536615763761 0.00024218319978383944 0 -0.0046392181620101116 0.00013074639042741566 0 -0.0046527722268679527 0.00013335232858896359 0 -0.0046508754897923547 0.00012216753459971509 0 -0.0046392181620101116 0.00013074639042741566 0 -0.0046317204854575862 0.00014428499320141638 0 -0.0046527722268679527 0.00013335232858896359 0 -0.0044508542414395903 0.00018012676613982358 0 -0.0044434115279466434 0.00019571816827776539 0 -0.0046527722268679527 0.00013335232858896359 0 -0.0046636701728178676 0.00012632763886312546 0 -0.0046620836407205626 0.00012940884316937592 0 -0.0046527722268679527 0.00013335232858896359 0 -0.0046636701728178676 0.00012632763886312546 0 -0.0046508754897923547 0.00012216753459971509 0 -0.0046636701728178676 0.00012632763886312546 0 -0.0046654631532042686 0.00012688610152565636 0 -0.0046740704291751986 0.00012103780901937971 0 -0.0046636701728178676 0.00012632763886312546 0 -0.0046620836407205626 0.00012940884316937592 0 -0.0046654631532042686 0.00012688610152565636 0 -0.0046620836407205626 0.00012940884316937592 0 -0.0046654631532042686 0.00012688610152565636 0 -0.0046603718870408322 0.00012690820474715986 0 -0.0046654631532042686 0.00012688610152565636 0 -0.0046603718870408322 0.00012690820474715986 0 -0.0046655506078974998 0.00012550041264194003 0 -0.0046519776604080501 0.00012424514690054543 0 -0.0046603718870408322 0.00012690820474715986 0 -0.0046584787592935844 0.00012600190972943066 0 -0.0046603718870408322 0.00012690820474715986 0 -0.0046655506078974998 0.00012550041264194003 0 -0.0046584787592935844 0.00012600190972943066 0 -0.0046655506078974998 0.00012550041264194003 0 -0.0046740704291751986 0.00012103780901937971 0 -0.0046709367364086568 0.0001224746788372031 0 -0.0046655506078974998 0.00012550041264194003 0 -0.0046584787592935844 0.00012600190972943066 0 -0.0046709367364086568 0.0001224746788372031 0 -0.0046654631532042686 0.00012688610152565636 0 -0.0046655506078974998 0.00012550041264194003 0 -0.0046740704291751986 0.00012103780901937971 0 -0.0046802171802046008 0.00011412252151108601 0 -0.0046740704291751986 0.00012103780901937971 0 -0.0046709367364086568 0.0001224746788372031 0 -0.0046802171802046008 0.00011412252151108601 0 -0.0046963314647304848 0.00010513544339817393 0 -0.0046740704291751986 0.00012103780901937971 0 -0.0046963314647304848 0.00010513544339817393 0 -0.0046830037977077027 0.0001073871989990143 0 -0.0046831444217644534 0.00010438454814411573 0 -0.0046802171802046008 0.00011412252151108601 0 -0.0046963314647304848 0.00010513544339817393 0 -0.0046830037977077027 0.0001073871989990143 0 -0.0046963314647304848 0.00010513544339817393 0 -0.0046703451465543644 0.00011728168680495726 0 -0.0046856592832340525 0.00010336690240124567 0 -0.0046963314647304848 0.00010513544339817393 0 -0.0046856592832340525 0.00010336690240124567 0 -0.004724803012727357 9.7625598663999221e-05 0 -0.0046963314647304848 0.00010513544339817393 0 -0.0046740704291751986 0.00012103780901937971 0 -0.0046703451465543644 0.00011728168680495726 0 -0.0046636701728178676 0.00012632763886312546 0 -0.0046740704291751986 0.00012103780901937971 0 -0.0046703451465543644 0.00011728168680495726 0 -0.0046703451465543644 0.00011728168680495726 0 -0.0046497583531400904 0.00010273395438267252 0 -0.0046508754897923547 0.00012216753459971509 0 -0.0046636701728178676 0.00012632763886312546 0 -0.0046703451465543644 0.00011728168680495726 0 -0.0046508754897923547 0.00012216753459971509 0 -0.0046703451465543644 0.00011728168680495726 0 -0.0046856592832340525 0.00010336690240124567 0 -0.0046497583531400904 0.00010273395438267252 0 -0.0046392181620101116 0.00013074639042741566 0 -0.0046362054463787127 0.00011435013616047259 0 -0.0046508754897923547 0.00012216753459971509 0 -0.0046362054463787127 0.00011435013616047259 0 -0.0046497583531400904 0.00010273395438267252 0 -0.0046508754897923547 0.00012216753459971509 0 -0.0046700544434857775 0.00012616335200123579 0 -0.0046698615446531169 0.00012850964315367351 0 -0.0046553329192473396 0.00012396710446616386 0 -0.0046700544434857775 0.00012616335200123579 0 -0.0046553329192473396 0.00012396710446616386 0 -0.0046613368272513823 0.00012534280335489185 0 -0.0046700544434857775 0.00012616335200123579 0 -0.0046698615446531169 0.00012850964315367351 0 -0.004684596164402575 0.00012543450857367046 0 -0.0047001170690831864 0.00016282009387837081 0 -0.0047124134687473963 0.00019059340494316214 0 -0.0046692834272956145 0.00018230400020662467 0 -0.0046932847773467415 0.00016563102218886569 0 -0.0046749931127478325 0.00020453240755855448 0 -0.004734928277838263 0.00018068314345270287 0 -0.0046932847773467415 0.00016563102218886569 0 -0.0047578513319419136 0.0001761367303153411 0 -0.0046637198316752219 0.00014024392161895389 0 -0.0047015257902551623 0.00015167815972304553 0 -0.0046874035073449713 0.00015889220740920301 0 -0.004734928277838263 0.00018068314345270287 0 -0.0046932847773467415 0.00016563102218886569 0 -0.0046692834272956145 0.00018230400020662467 0 -0.0046712920798451241 0.00016908213450203267 0 -0.0046932847773467415 0.00016563102218886569 0 -0.0046649957234358207 0.00015558781279641733 0 -0.0046712920798451241 0.00016908213450203267 0 -0.0046932847773467415 0.00016563102218886569 0 -0.0046874035073449713 0.00015889220740920301 0 -0.0046649957234358207 0.00015558781279641733 0 -0.0046932847773467415 0.00016563102218886569 0 -0.00463658313240923 0.00011772343245774921 0 -0.0046698615446531169 0.00012850964315367351 0 -0.0046553329192473396 0.00012396710446616386 0 -0.00463658313240923 0.00011772343245774921 0 -0.0046553329192473396 0.00012396710446616386 0 -0.0046416739352002478 0.00012081230388256386 0 -0.0046553329192473396 0.00012396710446616386 0 -0.0046416739352002478 0.00012081230388256386 0 -0.0046486910592670417 0.00012341673331800286 0 -0.0046379501714599834 0.0001230226243576229 0 -0.0046416739352002478 0.00012081230388256386 0 -0.0046486910592670417 0.00012341673331800286 0 -0.0046379501714599834 0.0001230226243576229 0 -0.0046486910592670417 0.00012341673331800286 0 -0.0046541098064899226 0.00012499988625783322 0 -0.0046467152557516612 0.00012427505297328529 0 -0.0046379501714599834 0.0001230226243576229 0 -0.0046541098064899226 0.00012499988625783322 0 -0.0046541098064899226 0.00012499988625783322 0 -0.0046641222765379511 0.0001248722352060736 0 -0.0046613368272513823 0.00012534280335489185 0 -0.0046553329192473396 0.00012396710446616386 0 -0.0046486910592670417 0.00012341673331800286 0 -0.0046613368272513823 0.00012534280335489185 0 -0.0046486910592670417 0.00012341673331800286 0 -0.0046541098064899226 0.00012499988625783322 0 -0.0046613368272513823 0.00012534280335489185 0 -0.0046467152557516612 0.00012427505297328529 0 -0.0046519776604080501 0.00012424514690054543 0 -0.0046584787592935844 0.00012600190972943066 0 -0.0046467152557516612 0.00012427505297328529 0 -0.0046541098064899226 0.00012499988625783322 0 -0.0046584787592935844 0.00012600190972943066 0 -0.0046541098064899226 0.00012499988625783322 0 -0.0046584787592935844 0.00012600190972943066 0 -0.0046641222765379511 0.0001248722352060736 0 -0.0046641222765379511 0.0001248722352060736 0 -0.0046709367364086568 0.0001224746788372031 0 -0.0046727323665383255 0.00012410019478653901 0 -0.0046584787592935844 0.00012600190972943066 0 -0.0046641222765379511 0.0001248722352060736 0 -0.0046709367364086568 0.0001224746788372031 0 -0.0046641222765379511 0.0001248722352060736 0 -0.0046613368272513823 0.00012534280335489185 0 -0.0046727323665383255 0.00012410019478653901 0 -0.0046700544434857775 0.00012616335200123579 0 -0.0046613368272513823 0.00012534280335489185 0 -0.0046727323665383255 0.00012410019478653901 0 -0.0046727323665383255 0.00012410019478653901 0 -0.0046815911042938797 0.00011994980250930471 0 -0.004684596164402575 0.00012543450857367046 0 -0.0046700544434857775 0.00012616335200123579 0 -0.0046727323665383255 0.00012410019478653901 0 -0.004684596164402575 0.00012543450857367046 0 -0.0046727323665383255 0.00012410019478653901 0 -0.0046815911042938797 0.00011994980250930471 0 -0.0046779248282492357 0.00011711177929089391 0 -0.0046815911042938797 0.00011994980250930471 0 -0.0046779248282492357 0.00011711177929089391 0 -0.0046828051900519915 0.00011144611534440855 0 -0.0046815911042938797 0.00011994980250930471 0 -0.0046949791586322663 0.00011653943422237444 0 -0.004684596164402575 0.00012543450857367046 0 -0.0046709367364086568 0.0001224746788372031 0 -0.0046727323665383255 0.00012410019478653901 0 -0.0046779248282492357 0.00011711177929089391 0 -0.0046802171802046008 0.00011412252151108601 0 -0.0046709367364086568 0.0001224746788372031 0 -0.0046779248282492357 0.00011711177929089391 0 -0.0046802171802046008 0.00011412252151108601 0 -0.0046779248282492357 0.00011711177929089391 0 -0.0046830037977077027 0.0001073871989990143 0 -0.0046836996612003197 0.000102676255472011 0 -0.0046830037977077027 0.0001073871989990143 0 -0.0046828051900519915 0.00011144611534440855 0 -0.0046779248282492357 0.00011711177929089391 0 -0.0046830037977077027 0.0001073871989990143 0 -0.0046828051900519915 0.00011144611534440855 0 -0.0046949791586322663 0.00011653943422237444 0 -0.0046828051900519915 0.00011144611534440855 0 -0.0046965658149286877 7.8982324434483128e-05 0 -0.0046836996612003197 0.000102676255472011 0 -0.0046828051900519915 0.00011144611534440855 0 -0.0046965658149286877 7.8982324434483128e-05 0 -0.0046815911042938797 0.00011994980250930471 0 -0.0046949791586322663 0.00011653943422237444 0 -0.0046828051900519915 0.00011144611534440855 0 -0.0046949791586322663 0.00011653943422237444 0 -0.0047253553288790877 0.00011838085725191254 0 -0.0046965658149286877 7.8982324434483128e-05 0 -0.0046949791586322663 0.00011653943422237444 0 -0.0047253553288790877 0.00011838085725191254 0 -0.004684596164402575 0.00012543450857367046 0 -0.0047015257902551623 0.00015167815972304553 0 -0.0047208305189157997 0.00011809095844469194 0 -0.0046698615446531169 0.00012850964315367351 0 -0.0047253553288790877 0.00011838085725191254 0 -0.004684596164402575 0.00012543450857367046 0 -0.0047686366305183499 0.00015143886355632678 0 -0.0047124134687473963 0.00019059340494316214 0 -0.004734928277838263 0.00018068314345270287 0 -0.0047578513319419136 0.0001761367303153411 0 -0.0047675188557375937 0.00013737977053419082 0 -0.0048185977688493383 0.0001075292238429007 0 -0.0047578513319419136 0.0001761367303153411 0 -0.0047675188557375937 0.00013737977053419082 0 -0.004734928277838263 0.00018068314345270287 0 -0.0047253553288790877 0.00011838085725191254 0 -0.0047675188557375937 0.00013737977053419082 0 -0.0047253553288790877 0.00011838085725191254 0 -0.0047786530618103172 0.00010675760953971236 0 -0.0048145773869039303 6.7737451758618204e-05 0 -0.0047253553288790877 0.00011838085725191254 0 -0.0047675188557375937 0.00013737977053419082 0 -0.0047786530618103172 0.00010675760953971236 0 -0.0047675188557375937 0.00013737977053419082 0 -0.0047786530618103172 0.00010675760953971236 0 -0.0047992628249438783 0.00010202785740679729 0 -0.0047786530618103172 0.00010675760953971236 0 -0.0047992628249438783 0.00010202785740679729 0 -0.0048145773869039303 6.7737451758618204e-05 0 -0.0048185977688493383 0.0001075292238429007 0 -0.0047675188557375937 0.00013737977053419082 0 -0.0047992628249438783 0.00010202785740679729 0 -0.0047992628249438783 0.00010202785740679729 0 -0.0048145773869039303 6.7737451758618204e-05 0 -0.004821356495820054 8.9600328227902807e-05 0 -0.0048145773869039303 6.7737451758618204e-05 0 -0.0048441565453396594 6.791537529379855e-05 0 -0.0048421120290378606 6.9890161284049169e-05 0 -0.0048441565453396594 6.791537529379855e-05 0 -0.0048421120290378606 6.9890161284049169e-05 0 -0.0048525059374747046 6.605389132298215e-05 0 -0.0048486212915338795 6.7321125694096612e-05 0 -0.0048421120290378606 6.9890161284049169e-05 0 -0.0048520126889873517 6.6608948750871116e-05 0 -0.0048421120290378606 6.9890161284049169e-05 0 -0.0048533766107089673 6.2354417724973826e-05 0 -0.0048520126889873517 6.6608948750871116e-05 0 -0.0048486212915338795 6.7321125694096612e-05 0 -0.0048520126889873517 6.6608948750871116e-05 0 -0.0048503459647007462 6.3304862027678855e-05 0 -0.0048486212915338795 6.7321125694096612e-05 0 -0.0048421120290378606 6.9890161284049169e-05 0 -0.0048525059374747046 6.605389132298215e-05 0 -0.0048145773869039303 6.7737451758618204e-05 0 -0.0048421120290378606 6.9890161284049169e-05 0 -0.0048533766107089673 6.2354417724973826e-05 0 -0.0047253553288790877 0.00011838085725191254 0 -0.0048145773869039303 6.7737451758618204e-05 0 -0.0046965658149286877 7.8982324434483128e-05 0 -0.0048126071293383274 6.7918390185544826e-05 0 -0.0047777522459365573 7.2603533754364664e-05 0 -0.0047777522459365573 7.2603533754364664e-05 0 -0.0047684693674928105 9.1323867232933408e-05 0 -0.0046836996612003197 0.000102676255472011 0 -0.0046965658149286877 7.8982324434483128e-05 0 -0.0046831444217644534 0.00010438454814411573 0 -0.0048533766107089673 6.2354417724973826e-05 0 -0.0048592706259271415 8.1780647263630409e-05 0 -0.0048552142940930104 6.5857179684261654e-05 0 -0.0046836996612003197 0.000102676255472011 0 -0.0046830037977077027 0.0001073871989990143 0 -0.0046831444217644534 0.00010438454814411573 0 -0.0048592706259271415 8.1780647263630409e-05 0 -0.0048552142940930104 6.5857179684261654e-05 0 -0.004841063256544707 5.5786554537973237e-05 0 -0.0049300763144582904 -5.03247859815688e-06 0 -0.004841063256544707 5.5786554537973237e-05 0 -0.0048505994044696849 -1.1875329293852157e-05 0 -0.0048888909895272283 2.8314517037192754e-05 0 -0.0048465507101338881 5.5555886625158145e-05 0 -0.0048552142940930104 6.5857179684261654e-05 0 -0.0048520217061525676 6.3343096504353885e-05 0 -0.004841063256544707 5.5786554537973237e-05 0 -0.0048533766107089673 6.2354417724973826e-05 0 -0.0048552142940930104 6.5857179684261654e-05 0 -0.0048520126889873517 6.6608948750871116e-05 0 -0.0048552142940930104 6.5857179684261654e-05 0 -0.0048520126889873517 6.6608948750871116e-05 0 -0.0048520217061525676 6.3343096504353885e-05 0 -0.0048520126889873517 6.6608948750871116e-05 0 -0.0048520217061525676 6.3343096504353885e-05 0 -0.0048503459647007462 6.3304862027678855e-05 0 -0.0048888909895272283 2.8314517037192754e-05 0 -0.0049078827654981229 1.1858455833586877e-05 0 -0.0048520217061525676 6.3343096504353885e-05 0 -0.0048485878326796177 5.1493296006399089e-05 0 -0.0048503459647007462 6.3304862027678855e-05 0 -0.0049300763144582904 -5.03247859815688e-06 0 -0.0048930110320912741 -2.7379559365575411e-05 0 -0.0048505994044696849 -1.1875329293852157e-05 0 -0.0048930110320912741 -2.7379559365575411e-05 0 -0.0049470768975966332 -3.0076855497407298e-05 0 -0.0048903600931843949 -3.7257607263052031e-05 0 -0.0049300763144582904 -5.03247859815688e-06 0 -0.0048930110320912741 -2.7379559365575411e-05 0 -0.0049470768975966332 -3.0076855497407298e-05 0 -0.0049476672894990673 -2.7671328118529403e-05 0 -0.0049398138245091081 -2.7428989053097471e-05 0 -0.0049300763144582904 -5.03247859815688e-06 0 -0.0049470768975966332 -3.0076855497407298e-05 0 -0.0049651287529976973 -2.6724014713134581e-05 0 -0.0049470768975966332 -3.0076855497407298e-05 0 -0.0049651287529976973 -2.6724014713134581e-05 0 -0.0049653968034647604 -2.4238291761724214e-05 0 -0.0048485878326796177 5.1493296006399089e-05 0 -0.0048613142317286201 5.6889555400084481e-05 0 -0.0048769262033806432 2.2595666994306523e-05 0 -0.0048485878326796177 5.1493296006399089e-05 0 -0.0048613142317286201 5.6889555400084481e-05 0 -0.0048503459647007462 6.3304862027678855e-05 0 -0.004882711054042475 4.7898058294513085e-05 0 -0.0048613142317286201 5.6889555400084481e-05 0 -0.004864870345147633 6.3152987583056425e-05 0 -0.004882711054042475 4.7898058294513085e-05 0 -0.0048613142317286201 5.6889555400084481e-05 0 -0.0048769262033806432 2.2595666994306523e-05 0 -0.0048441565453396594 6.791537529379855e-05 0 -0.004864870345147633 6.3152987583056425e-05 0 -0.0048525059374747046 6.605389132298215e-05 0 -0.0048613142317286201 5.6889555400084481e-05 0 -0.004864870345147633 6.3152987583056425e-05 0 -0.0048525059374747046 6.605389132298215e-05 0 -0.0048486212915338795 6.7321125694096612e-05 0 -0.0048525059374747046 6.605389132298215e-05 0 -0.0048503459647007462 6.3304862027678855e-05 0 -0.0048613142317286201 5.6889555400084481e-05 0 -0.0048525059374747046 6.605389132298215e-05 0 -0.0048503459647007462 6.3304862027678855e-05 0 -0.0045861073332630464 7.1255725088174678e-05 0 -0.0046497583531400904 0.00010273395438267252 0 -0.0046373579429130037 3.4956732033499107e-05 0 -0.0046497583531400904 0.00010273395438267252 0 -0.0046373579429130037 3.4956732033499107e-05 0 -0.0046877392705197418 6.6851880471141431e-05 0 -0.0046856592832340525 0.00010336690240124567 0 -0.0046497583531400904 0.00010273395438267252 0 -0.0046877392705197418 6.6851880471141431e-05 0 -0.0046373579429130037 3.4956732033499107e-05 0 -0.0046877392705197418 6.6851880471141431e-05 0 -0.0047030563474899385 -2.2258851423389243e-05 0 -0.0046877392705197418 6.6851880471141431e-05 0 -0.0047575694156013889 3.6162072480068426e-05 0 -0.004724803012727357 9.7625598663999221e-05 0 -0.0046877392705197418 6.6851880471141431e-05 0 -0.0047575694156013889 3.6162072480068426e-05 0 -0.0047030563474899385 -2.2258851423389243e-05 0 -0.0046856592832340525 0.00010336690240124567 0 -0.0046877392705197418 6.6851880471141431e-05 0 -0.004724803012727357 9.7625598663999221e-05 0 -0.0046963314647304848 0.00010513544339817393 0 -0.0046831444217644534 0.00010438454814411573 0 -0.004724803012727357 9.7625598663999221e-05 0 -0.0047684693674928105 9.1323867232933408e-05 0 -0.0047266875167634743 9.7091795829679753e-05 0 -0.0048592706259271415 8.1780647263630409e-05 0 -0.004724803012727357 9.7625598663999221e-05 0 -0.004841063256544707 5.5786554537973237e-05 0 -0.0047575694156013889 3.6162072480068426e-05 0 -0.004724803012727357 9.7625598663999221e-05 0 -0.004841063256544707 5.5786554537973237e-05 0 -0.0047575694156013889 3.6162072480068426e-05 0 -0.004841063256544707 5.5786554537973237e-05 0 -0.0048505994044696849 -1.1875329293852157e-05 0 -0.0048930110320912741 -2.7379559365575411e-05 0 -0.0048505994044696849 -1.1875329293852157e-05 0 -0.0048875646909240797 -3.1376903306144822e-05 0 -0.0048930110320912741 -2.7379559365575411e-05 0 -0.0048875646909240797 -3.1376903306144822e-05 0 -0.0048903600931843949 -3.7257607263052031e-05 0 -0.0048875646909240797 -3.1376903306144822e-05 0 -0.0049032987130406278 -4.5267834974575862e-05 0 -0.004920126664483211 -2.9051007101514957e-05 0 -0.0048517121948885656 -1.4111351129205661e-05 0 -0.0048057480594636886 -3.0853792840429476e-05 0 -0.0048505994044696849 -1.1875329293852157e-05 0 -0.0048875646909240797 -3.1376903306144822e-05 0 -0.0049032987130406278 -4.5267834974575862e-05 0 -0.0047575694156013889 3.6162072480068426e-05 0 -0.0048505994044696849 -1.1875329293852157e-05 0 -0.0047030563474899385 -2.2258851423389243e-05 0 -0.0048057480594636886 -3.0853792840429476e-05 0 -0.0047918510346634255 -4.282412470983394e-05 0 -0.0049032987130406278 -4.5267834974575862e-05 0 -0.0049415580405307849 -4.5420519229573781e-05 0 -0.004920126664483211 -2.9051007101514957e-05 0 -0.0049415580405307849 -4.5420519229573781e-05 0 -0.0049436093015989922 -2.6381129115879243e-05 0 -0.004920126664483211 -2.9051007101514957e-05 0 -0.0049566423821898299 -2.7212838276368194e-05 0 -0.0049415580405307849 -4.5420519229573781e-05 0 -0.0049436093015989922 -2.6381129115879243e-05 0 -0.0046373579429130037 3.4956732033499107e-05 0 -0.0047030563474899385 -2.2258851423389243e-05 0 -0.0046334719416491607 -2.6418445590225264e-05 0 -0.00496705653817255 -9.6883200577327931e-06 0 -0.0049575823532650564 -1.6670635791878832e-05 0 -0.0049702751779252784 -6.9128801323554123e-06 0 -0.0049575823532650564 -1.6670635791878832e-05 0 -0.0049388601956805037 -1.6791979585047575e-05 0 -0.0049702751779252784 -6.9128801323554123e-06 0 -0.0049575823532650564 -1.6670635791878832e-05 0 -0.0049436093015989922 -2.6381129115879243e-05 0 -0.0049388601956805037 -1.6791979585047575e-05 0 -0.0049566423821898299 -2.7212838276368194e-05 0 -0.0049575823532650564 -1.6670635791878832e-05 0 -0.0049436093015989922 -2.6381129115879243e-05 0 -0.004920126664483211 -2.9051007101514957e-05 0 -0.0049388601956805037 -1.6791979585047575e-05 0 -0.0049018312664765905 -1.6364610530028054e-05 0 -0.0049436093015989922 -2.6381129115879243e-05 0 -0.004920126664483211 -2.9051007101514957e-05 0 -0.0049388601956805037 -1.6791979585047575e-05 0 -0.0049388601956805037 -1.6791979585047575e-05 0 -0.0049355098575616166 3.1729284959899731e-07 0 -0.0049702751779252784 -6.9128801323554123e-06 0 -0.0049388601956805037 -1.6791979585047575e-05 0 -0.0049018312664765905 -1.6364610530028054e-05 0 -0.0049355098575616166 3.1729284959899731e-07 0 -0.0049499963768026099 -1.3287622123373549e-05 0 -0.004967277227016521 -1.4546524262953979e-06 0 -0.0048875646909240797 -3.1376903306144822e-05 0 -0.004920126664483211 -2.9051007101514957e-05 0 -0.0049018312664765905 -1.6364610530028054e-05 0 -0.0048875646909240797 -3.1376903306144822e-05 0 -0.0049018312664765905 -1.6364610530028054e-05 0 -0.0048903600931843949 -3.7257607263052031e-05 0 -0.0049499963768026099 -1.3287622123373549e-05 0 -0.0049398138245091081 -2.7428989053097471e-05 0 -0.0049982481092442259 -9.0484086905820942e-06 0 -0.0049849656021570352 -2.0209486032368228e-05 0 -0.0049929655221425621 -3.5051080075178129e-06 0 -0.0049982481092442259 -9.0484086905820942e-06 0 -0.0049984977921990453 -1.9296055906592316e-06 0 -0.0049929655221425621 -3.5051080075178129e-06 0 -0.0050000019272580772 2.584203089420209e-09 0 -0.0049984977921990453 -1.9296055906592316e-06 0 -0.0049929655221425621 -3.5051080075178129e-06 0 -0.0050000019272580772 2.584203089420209e-09 0 -0.0050003467280897891 -2.412540948522705e-08 0 -0.0049984977921990453 -1.9296055906592316e-06 0 -0.0050000019272580772 2.584203089420209e-09 0 -0.0050003467280897891 -2.412540948522705e-08 0 -0.0049999906892897661 -4.187538141764206e-09 0 -0.0049982481092442259 -9.0484086905820942e-06 0 -0.0049984977921990453 -1.9296055906592316e-06 0 -0.0049995173893505346 3.1024163570796756e-07 0 -0.0050003467280897891 -2.412540948522705e-08 0 -0.0049984977921990453 -1.9296055906592316e-06 0 -0.0049995173893505346 3.1024163570796756e-07 0 -0.0050003467280897891 -2.412540948522705e-08 0 -0.0049995173893505346 3.1024163570796756e-07 0 -0.0049889249551510299 3.6692519526953788e-06 0 -0.004967277227016521 -1.4546524262953979e-06 0 -0.0049845920245665159 3.3536737486249987e-06 0 -0.0050003467280897891 -2.412540948522705e-08 0 -0.0049999906892897661 -4.187538141764206e-09 0 -0.0049889249551510299 3.6692519526953788e-06 0 -0.0049999758659668861 8.0490149540815065e-09 0 -0.0049999906892897661 -4.187538141764206e-09 0 -0.0049889249551510299 3.6692519526953788e-06 0 -0.0049936049760919881 6.6618669484759388e-07 0 -0.0049889249551510299 3.6692519526953788e-06 0 -0.0049702751779252784 -6.9128801323554123e-06 0 -0.0049355098575616166 3.1729284959899731e-07 0 -0.0049889249551510299 3.6692519526953788e-06 0 -0.0049702751779252784 -6.9128801323554123e-06 0 -0.0049678805944324451 -2.0920031106541276e-05 0 -0.0049781879836664862 -1.1995876712381073e-05 0 -0.0049819365412274363 -4.5624935968329078e-06 0 -0.0049678805944324451 -2.0920031106541276e-05 0 -0.0049819365412274363 -4.5624935968329078e-06 0 -0.0049517039092859851 -3.5075238126034096e-06 0 -0.0049234338143811784 2.35801545714616e-06 0 -0.0049464227209850041 -3.5832974684139172e-06 0 -0.004882711054042475 4.7898058294513085e-05 0 -0.0048769262033806432 2.2595666994306523e-05 0 -0.0049210145735104228 2.6151821775519653e-05 0 -0.0049651287529976973 -2.6724014713134581e-05 0 -0.0049678805944324451 -2.0920031106541276e-05 0 -0.0049653968034647604 -2.4238291761724214e-05 0 -0.0049078827654981229 1.1858455833586877e-05 0 -0.0049234338143811784 2.35801545714616e-06 0 -0.0049678805944324451 -2.0920031106541276e-05 0 -0.0049653968034647604 -2.4238291761724214e-05 0 -0.0049781879836664862 -1.1995876712381073e-05 0 -0.0049653968034647604 -2.4238291761724214e-05 0 -0.0049849656021570352 -2.0209486032368228e-05 0 -0.0049781879836664862 -1.1995876712381073e-05 0 -0.0049470768975966332 -3.0076855497407298e-05 0 -0.0049653968034647604 -2.4238291761724214e-05 0 -0.0049849656021570352 -2.0209486032368228e-05 0 -0.0049849656021570352 -2.0209486032368228e-05 0 -0.0049781879836664862 -1.1995876712381073e-05 0 -0.0049929655221425621 -3.5051080075178129e-06 0 -0.0049781879836664862 -1.1995876712381073e-05 0 -0.0049901602464640432 -2.6741772951162562e-06 0 -0.0049819365412274363 -4.5624935968329078e-06 0 -0.0049781879836664862 -1.1995876712381073e-05 0 -0.0049901602464640432 -2.6741772951162562e-06 0 -0.0049929655221425621 -3.5051080075178129e-06 0 -0.0050000019272580772 2.584203089420209e-09 0 -0.0049929655221425621 -3.5051080075178129e-06 0 -0.0049999871905494139 -2.447311066123425e-09 0 -0.0049901602464640432 -2.6741772951162562e-06 0 -0.0049929655221425621 -3.5051080075178129e-06 0 -0.0049999871905494139 -2.447311066123425e-09 0 -0.0049901602464640432 -2.6741772951162562e-06 0 -0.0049999871905494139 -2.447311066123425e-09 0 -0.004999978422587292 3.655833494126856e-09 0 -0.0049901602464640432 -2.6741772951162562e-06 0 -0.004999978422587292 3.655833494126856e-09 0 -0.0049819365412274363 -4.5624935968329078e-06 0 -0.0049819365412274363 -4.5624935968329078e-06 0 -0.0049802569429226017 -1.9588557195837312e-07 0 -0.0049517039092859851 -3.5075238126034096e-06 0 -0.004999978422587292 3.655833494126856e-09 0 -0.0049802569429226017 -1.9588557195837312e-07 0 -0.0049999628670949663 -8.9914884443833968e-10 0 -0.004999978422587292 3.655833494126856e-09 0 -0.0049819365412274363 -4.5624935968329078e-06 0 -0.0049802569429226017 -1.9588557195837312e-07 0 -0.0049802569429226017 -1.9588557195837312e-07 0 -0.0049999628670949663 -8.9914884443833968e-10 0 -0.0049756808744533419 -8.6448980706797124e-07 0 -0.0049999628670949663 -8.9914884443833968e-10 0 -0.0049756808744533419 -8.6448980706797124e-07 0 -0.0049999727586716291 -3.0953794081612695e-09 0 -0.0049802569429226017 -1.9588557195837312e-07 0 -0.0049756808744533419 -8.6448980706797124e-07 0 -0.0049517039092859851 -3.5075238126034096e-06 0 -0.0049909877583334894 4.5363874581222543e-07 0 -0.0049999727586716291 -3.0953794081612695e-09 0 -0.0049999884802668015 4.2820989134287617e-10 0 -0.0049756808744533419 -8.6448980706797124e-07 0 -0.0049909877583334894 4.5363874581222543e-07 0 -0.0049999727586716291 -3.0953794081612695e-09 0 -0.0049756808744533419 -8.6448980706797124e-07 0 -0.0049909877583334894 4.5363874581222543e-07 0 -0.0049810233659848581 7.3613123818169727e-06 0 -0.0049909877583334894 4.5363874581222543e-07 0 -0.0049810233659848581 7.3613123818169727e-06 0 -0.0049941180567569963 3.4169842070043047e-06 0 -0.0049756808744533419 -8.6448980706797124e-07 0 -0.0049810233659848581 7.3613123818169727e-06 0 -0.0049545259492764331 1.1033710760966986e-05 0 -0.0049810233659848581 7.3613123818169727e-06 0 -0.0049723713887955441 2.4429391357173396e-05 0 -0.0049545259492764331 1.1033710760966986e-05 0 -0.0049723713887955441 2.4429391357173396e-05 0 -0.0049545259492764331 1.1033710760966986e-05 0 -0.0049311124664986666 3.6568429337364346e-05 0 -0.0049517039092859851 -3.5075238126034096e-06 0 -0.0049545259492764331 1.1033710760966986e-05 0 -0.0049210145735104228 2.6151821775519653e-05 0 -0.0049756808744533419 -8.6448980706797124e-07 0 -0.0049517039092859851 -3.5075238126034096e-06 0 -0.0049545259492764331 1.1033710760966986e-05 0 -0.0049545259492764331 1.1033710760966986e-05 0 -0.0049210145735104228 2.6151821775519653e-05 0 -0.0049311124664986666 3.6568429337364346e-05 0 -0.0048769262033806432 2.2595666994306523e-05 0 -0.0049517039092859851 -3.5075238126034096e-06 0 -0.0049210145735104228 2.6151821775519653e-05 0 -0.004882711054042475 4.7898058294513085e-05 0 -0.0049210145735104228 2.6151821775519653e-05 0 -0.0048958833691942006 5.1564910995540854e-05 0 -0.004882711054042475 4.7898058294513085e-05 0 -0.004864870345147633 6.3152987583056425e-05 0 -0.0048958833691942006 5.1564910995540854e-05 0 -0.004864870345147633 6.3152987583056425e-05 0 -0.0048958833691942006 5.1564910995540854e-05 0 -0.0048686782439041993 6.8818865261595233e-05 0 -0.0048441565453396594 6.791537529379855e-05 0 -0.004864870345147633 6.3152987583056425e-05 0 -0.0048686782439041993 6.8818865261595233e-05 0 -0.0048686782439041993 6.8818865261595233e-05 0 -0.0049051333755756243 5.9566446155594632e-05 0 -0.0048871266587745829 8.9836397800208327e-05 0 -0.0048958833691942006 5.1564910995540854e-05 0 -0.0048686782439041993 6.8818865261595233e-05 0 -0.0049051333755756243 5.9566446155594632e-05 0 -0.0048958833691942006 5.1564910995540854e-05 0 -0.0049311124664986666 3.6568429337364346e-05 0 -0.0049051333755756243 5.9566446155594632e-05 0 -0.0049210145735104228 2.6151821775519653e-05 0 -0.0048958833691942006 5.1564910995540854e-05 0 -0.0049311124664986666 3.6568429337364346e-05 0 -0.0049311124664986666 3.6568429337364346e-05 0 -0.0049218498392800784 5.580279605828949e-05 0 -0.0049051333755756243 5.9566446155594632e-05 0 -0.0049298732406960382 3.7023277675625936e-05 0 -0.0049429832338929976 5.1153626382665086e-05 0 -0.0049723713887955441 2.4429391357173396e-05 0 -0.0049311124664986666 3.6568429337364346e-05 0 -0.0049647311467938661 4.8665967145877533e-05 0 -0.0049723713887955441 2.4429391357173396e-05 0 -0.0049647311467938661 4.8665967145877533e-05 0 -0.0049820344590907964 3.8192048966343631e-05 0 -0.0049218498392800784 5.580279605828949e-05 0 -0.00491977499558906 8.3842729827181845e-05 0 -0.0049526820215387516 7.4595546935607481e-05 0 -0.0049429832338929976 5.1153626382665086e-05 0 -0.0049655755891687813 6.8062046841703368e-05 0 -0.0049218498392800784 5.580279605828949e-05 0 -0.0049051333755756243 5.9566446155594632e-05 0 -0.00491977499558906 8.3842729827181845e-05 0 -0.0049051333755756243 5.9566446155594632e-05 0 -0.0048871266587745829 8.9836397800208327e-05 0 -0.00491977499558906 8.3842729827181845e-05 0 -0.0048803274929828952 0.000138308967551158 0 -0.004889707497900961 0.00013792368629249774 0 -0.00491977499558906 8.3842729827181845e-05 0 -0.0049342183393762049 0.00012148310209923419 0 -0.0049449023708410863 9.523482889567408e-05 0 -0.004879319820311992 0.00013740367786308562 0 -0.00491977499558906 8.3842729827181845e-05 0 -0.0049342183393762049 0.00012148310209923419 0 -0.004879319820311992 0.00013740367786308562 0 -0.0048871266587745829 8.9836397800208327e-05 0 -0.0048618862165246777 0.00010695418598972219 0 -0.004879319820311992 0.00013740367786308562 0 -0.0048871266587745829 8.9836397800208327e-05 0 -0.00491977499558906 8.3842729827181845e-05 0 -0.004854805200926079 0.00013181277538704128 0 -0.004879319820311992 0.00013740367786308562 0 -0.0048618862165246777 0.00010695418598972219 0 -0.004854805200926079 0.00013181277538704128 0 -0.0048618862165246777 0.00010695418598972219 0 -0.0048403261359215091 0.00012779839478942973 0 -0.0047686366305183499 0.00015143886355632678 0 -0.004844562923162681 8.0259037105379348e-05 0 -0.0048208487346651559 9.750313001271841e-05 0 -0.004821356495820054 8.9600328227902807e-05 0 -0.0048429772636677639 6.8297849776626548e-05 0 -0.0048185448271400233 0.00014793887481404951 0 -0.0048403261359215091 0.00012779839478942973 0 -0.0048348849656580017 0.00010602015835291012 0 -0.0048145773869039303 6.7737451758618204e-05 0 -0.004821356495820054 8.9600328227902807e-05 0 -0.0048429772636677639 6.8297849776626548e-05 0 -0.0048145773869039303 6.7737451758618204e-05 0 -0.0048441565453396594 6.791537529379855e-05 0 -0.0048429772636677639 6.8297849776626548e-05 0 -0.0048618862165246777 0.00010695418598972219 0 -0.0048403261359215091 0.00012779839478942973 0 -0.0048348849656580017 0.00010602015835291012 0 -0.0048603654723455699 7.1892608128486189e-05 0 -0.004844562923162681 8.0259037105379348e-05 0 -0.0048441565453396594 6.791537529379855e-05 0 -0.0048686782439041993 6.8818865261595233e-05 0 -0.0048429772636677639 6.8297849776626548e-05 0 -0.0048686782439041993 6.8818865261595233e-05 0 -0.0048618862165246777 0.00010695418598972219 0 -0.0048348849656580017 0.00010602015835291012 0 -0.0048686782439041993 6.8818865261595233e-05 0 -0.0048871266587745829 8.9836397800208327e-05 0 -0.0048618862165246777 0.00010695418598972219 0 -0.0049971081557019245 6.8731004201560083e-05 0 -0.0050073133290147115 8.3869302575350401e-05 0 -0.0050122799085863187 4.9150844780673016e-05 0 -0.0049971081557019245 6.8731004201560083e-05 0 -0.0050073133290147115 8.3869302575350401e-05 0 -0.0049922333468863161 8.9214638891606669e-05 0 -0.0049653798428402791 6.8137473620588781e-05 0 -0.0049613995276739879 4.7682635105267377e-05 0 -0.0049747193536667962 5.4075049466538531e-05 0 -0.0048754758486403912 0.0001333764216936415 0 -0.0050021180468625033 3.401668566289256e-05 0 -0.0049653798428402791 6.8137473620588781e-05 0 -0.0049484217938816329 7.2526220367100859e-05 0 -0.0049613995276739879 4.7682635105267377e-05 0 -0.0047307408497416535 0.00021276519423126534 0 -0.0047403850435401573 0.00019496602706450849 0 -0.0047100368463167726 0.0001732432857966471 0 -0.0047464410196562078 0.00017519499912729063 0 -0.0047403850435401573 0.00019496602706450849 0 -0.0047580030781808821 0.00020745765876922266 0 -0.0047307408497416535 0.00021276519423126534 0 -0.0047403850435401573 0.00019496602706450849 0 -0.0047580030781808821 0.00020745765876922266 0 -0.004852480468957511 0.00013813837669618225 0 -0.0048754758486403912 0.0001333764216936415 0 -0.0050073133290147115 8.3869302575350401e-05 0 -0.0049922333468863161 8.9214638891606669e-05 0 -0.0049712175253303773 0.00010199537599289303 0 -0.0048754758486403912 0.0001333764216936415 0 -0.0049035182392410878 0.0001312089112589499 0 -0.0048131485632443008 0.00014007714955822288 0 -0.0048039164011660675 0.00016745077667543626 0 -0.0048246211297384095 0.00016306041272749858 0 -0.0049342183393762049 0.00012148310209923419 0 -0.0049712175253303773 0.00010199537599289303 0 -0.0049449023708410863 9.523482889567408e-05 0 -0.004889707497900961 0.00013792368629249774 0 -0.0049035182392410878 0.0001312089112589499 0 -0.0048323089289652246 0.00014725010966295344 0 -0.0048506858898292203 0.00015536864700955644 0 -0.0048246211297384095 0.00016306041272749858 0 -0.0049712175253303773 0.00010199537599289303 0 -0.0049526820215387516 7.4595546935607481e-05 0 -0.0049449023708410863 9.523482889567408e-05 0 -0.00491977499558906 8.3842729827181845e-05 0 -0.0049526820215387516 7.4595546935607481e-05 0 -0.0049449023708410863 9.523482889567408e-05 0 -0.0049919268053794036 8.8522140794314606e-05 0 -0.0049655755891687813 6.8062046841703368e-05 0 -0.0049971081557019245 6.8731004201560083e-05 0 -0.0049763088712013173 5.9129386549932731e-05 0 -0.0049957434761775266 5.5643078166708189e-05 0 -0.0049971081557019245 6.8731004201560083e-05 0 -0.0049922333468863161 8.9214638891606669e-05 0 -0.0049763088712013173 5.9129386549932731e-05 0 -0.0049922333468863161 8.9214638891606669e-05 0 -0.0049712175253303773 0.00010199537599289303 0 -0.0049526820215387516 7.4595546935607481e-05 0 -0.0049763088712013173 5.9129386549932731e-05 0 -0.0049876749920506327 4.6504323883678836e-05 0 -0.0049957434761775266 5.5643078166708189e-05 0 -0.0049876749920506327 4.6504323883678836e-05 0 -0.0049972332972588037 3.3668369786067568e-05 0 -0.0049957434761775266 5.5643078166708189e-05 0 -0.0049763088712013173 5.9129386549932731e-05 0 -0.0049876749920506327 4.6504323883678836e-05 0 -0.0049820344590907964 3.8192048966343631e-05 0 -0.0049647311467938661 4.8665967145877533e-05 0 -0.0049763088712013173 5.9129386549932731e-05 0 -0.0049820344590907964 3.8192048966343631e-05 0 -0.0049876749920506327 4.6504323883678836e-05 0 -0.0049820344590907964 3.8192048966343631e-05 0 -0.0049972332972588037 3.3668369786067568e-05 0 -0.0049820344590907964 3.8192048966343631e-05 0 -0.0049972332972588037 3.3668369786067568e-05 0 -0.0049913898359958521 1.5780455479960614e-05 0 -0.0049972332972588037 3.3668369786067568e-05 0 -0.0049957434761775266 5.5643078166708189e-05 0 -0.0050122799085863187 4.9150844780673016e-05 0 -0.0049971081557019245 6.8731004201560083e-05 0 -0.0049957434761775266 5.5643078166708189e-05 0 -0.0050122799085863187 4.9150844780673016e-05 0 -0.0049613995276739879 4.7682635105267377e-05 0 -0.0049837440420509851 3.3092547883597304e-05 0 -0.0049776262260110343 2.4632800624562812e-05 0 -0.0049972332972588037 3.3668369786067568e-05 0 -0.0050122799085863187 4.9150844780673016e-05 0 -0.0050101779276325665 2.4948308734348883e-05 0 -0.0050021180468625033 3.401668566289256e-05 0 -0.0049908948682525897 2.9819422560557898e-05 0 -0.0050012177558711821 1.679813131722059e-05 0 -0.0049996482234023164 9.9947933568743833e-06 0 -0.0050101779276325665 2.4948308734348883e-05 0 -0.0049972332972588037 3.3668369786067568e-05 0 -0.0050012177558711821 1.679813131722059e-05 0 -0.0050101779276325665 2.4948308734348883e-05 0 -0.0049972332972588037 3.3668369786067568e-05 0 -0.0050012177558711821 1.679813131722059e-05 0 -0.0049913898359958521 1.5780455479960614e-05 0 -0.0050012177558711821 1.679813131722059e-05 0 -0.0049913898359958521 1.5780455479960614e-05 0 -0.0049998736009617753 6.9430577248509556e-06 0 -0.0050012177558711821 1.679813131722059e-05 0 -0.0049998736009617753 6.9430577248509556e-06 0 -0.0049996482234023164 9.9947933568743833e-06 0 -0.0049913898359958521 1.5780455479960614e-05 0 -0.0049941180567569963 3.4169842070043047e-06 0 -0.0049998736009617753 6.9430577248509556e-06 0 -0.0049723713887955441 2.4429391357173396e-05 0 -0.0049820344590907964 3.8192048966343631e-05 0 -0.0049913898359958521 1.5780455479960614e-05 0 -0.0049810233659848581 7.3613123818169727e-06 0 -0.0049723713887955441 2.4429391357173396e-05 0 -0.0049913898359958521 1.5780455479960614e-05 0 -0.0049810233659848581 7.3613123818169727e-06 0 -0.0049913898359958521 1.5780455479960614e-05 0 -0.0049941180567569963 3.4169842070043047e-06 0 -0.0049941180567569963 3.4169842070043047e-06 0 -0.0049999960163772828 5.236733430582502e-10 0 -0.0049998736009617753 6.9430577248509556e-06 0 -0.0049909877583334894 4.5363874581222543e-07 0 -0.0049941180567569963 3.4169842070043047e-06 0 -0.0049999884802668015 4.2820989134287617e-10 0 -0.0049941180567569963 3.4169842070043047e-06 0 -0.0049999960163772828 5.236733430582502e-10 0 -0.0049999884802668015 4.2820989134287617e-10 0 -0.0049999960163772828 5.236733430582502e-10 0 -0.0049998736009617753 6.9430577248509556e-06 0 -0.0050000008006209455 4.2720284269480009e-09 0 -0.0049998736009617753 6.9430577248509556e-06 0 -0.0050000008006209455 4.2720284269480009e-09 0 -0.0050000462140208004 4.0211174945502221e-06 0 -0.0050000008006209455 4.2720284269480009e-09 0 -0.0050000462140208004 4.0211174945502221e-06 0 -0.0050000012858447901 1.9545648652800875e-09 0 -0.0049998736009617753 6.9430577248509556e-06 0 -0.0050000462140208004 4.0211174945502221e-06 0 -0.0049996482234023164 9.9947933568743833e-06 0 -0.0050000462140208004 4.0211174945502221e-06 0 -0.0050017114142982041 3.1089391742731355e-06 0 -0.0049996482234023164 9.9947933568743833e-06 0 -0.0050017114142982041 3.1089391742731355e-06 0 -0.0050047788889150749 7.2635975340957935e-06 0 -0.0049996482234023164 9.9947933568743833e-06 0 -0.0050000462140208004 4.0211174945502221e-06 0 -0.0050017114142982041 3.1089391742731355e-06 0 -0.0050000012858447901 1.9545648652800875e-09 0 -0.0050017114142982041 3.1089391742731355e-06 0 -0.005000854880725234 5.5938801953482967e-07 0 -0.0050011523129257765 5.9388529024992908e-07 0 -0.0050000012858447901 1.9545648652800875e-09 0 -0.005000854880725234 5.5938801953482967e-07 0 -0.0050000064091849398 1.4381027359432257e-09 0 -0.0050017114142982041 3.1089391742731355e-06 0 -0.0050000012858447901 1.9545648652800875e-09 0 -0.005000854880725234 5.5938801953482967e-07 0 -0.0048235697352799357 -5.1389833050495731e-05 0 -0.0048278403936025671 -4.0945301605791925e-05 0 -0.0048576243411408253 -6.2893991611827951e-05 0 -0.0050000005418344524 2.6596695321919863e-10 0 -0.0049998557592135584 -3.5117610574201139e-08 0 -0.0049998673048871085 -2.4537427740806478e-07 0 -0.004999905868771466 -2.0915409372723111e-08 0 -0.0049419511562244257 -6.3133487814635837e-06 0 -0.005000854880725234 5.5938801953482967e-07 0 -0.0050000064091849398 1.4381027359432257e-09 0 -0.0050006250415232925 4.2697925594008076e-07 0 -0.0049526851818605319 -4.7385709933514221e-06 0 -0.0049419511562244257 -6.3133487814635837e-06 0 -0.0048235697352799357 -5.1389833050495731e-05 0 -0.0048278403936025671 -4.0945301605791925e-05 0 -0.0048374981422335513 -4.8931338302493728e-05 0 -0.0049419511562244257 -6.3133487814635837e-06 0 -0.004911234512023444 -2.0504157536486977e-05 0 -0.0050017114142982041 3.1089391742731355e-06 0 -0.0050011523129257765 5.9388529024992908e-07 0 -0.0050047788889150749 7.2635975340957935e-06 0 -0.004911234512023444 -2.0504157536486977e-05 0 -0.0049677527810006398 -5.4671316325902659e-05 0 -0.0048278403936025671 -4.0945301605791925e-05 0 -0.0048374981422335513 -4.8931338302493728e-05 0 -0.0048107157401470549 -7.6972149183224646e-05 0 -0.0048374981422335513 -4.8931338302493728e-05 0 -0.0048107157401470549 -7.6972149183224646e-05 0 -0.0048519498303517842 -9.4214275828304292e-05 0 -0.0048107157401470549 -7.6972149183224646e-05 0 -0.0048519498303517842 -9.4214275828304292e-05 0 -0.0048247616966592428 -0.00011870174307726796 0 -0.0050040859325561574 1.9120746652397465e-05 0 -0.0049926862832370741 2.2583488865715857e-05 0 -0.0049996482234023164 9.9947933568743833e-06 0 -0.0049997294085294191 1.0520036896245783e-05 0 -0.0049908948682525897 2.9819422560557898e-05 0 -0.0049926862832370741 2.2583488865715857e-05 0 -0.0049996482234023164 9.9947933568743833e-06 0 -0.0049776262260110343 2.4632800624562812e-05 0 -0.0050047788889150749 7.2635975340957935e-06 0 -0.0050040859325561574 1.9120746652397465e-05 0 -0.0049996482234023164 9.9947933568743833e-06 0 -0.0049518840925493711 -1.9014108348500095e-05 0 -0.0049285191978941725 -5.2699865807622128e-05 0 -0.0049707322824148028 1.4896303407849711e-06 0 -0.004937871212264279 -2.6991096198464121e-05 0 -0.0049074710510046381 -3.3832857415664649e-05 0 -0.0049616917584411032 -8.0857101080750041e-06 0 -0.0049651611866188576 -2.4058531788201764e-05 0 -0.0049686397093160559 -3.7260885857100285e-06 0 -0.0049518840925493711 -1.9014108348500095e-05 0 -0.0049616917584411032 -8.0857101080750041e-06 0 -0.0049589042108077446 -1.0154567886304016e-05 0 -0.0049518840925493711 -1.9014108348500095e-05 0 -0.004937871212264279 -2.6991096198464121e-05 0 -0.0049616917584411032 -8.0857101080750041e-06 0 -0.0049518840925493711 -1.9014108348500095e-05 0 -0.004937871212264279 -2.6991096198464121e-05 0 -0.0049285191978941725 -5.2699865807622128e-05 0 -0.0049896887994612706 3.9029135148937587e-06 0 -0.0049961716466922811 2.4976846342197138e-06 0 -0.0050021852934769555 -1.5053760924460587e-06 0 -0.0049896887994612706 3.9029135148937587e-06 0 -0.0050021852934769555 -1.5053760924460587e-06 0 -0.0049707322824148028 1.4896303407849711e-06 0 -0.0049961716466922811 2.4976846342197138e-06 0 -0.0050000100463254132 1.710643090605674e-09 0 -0.0049999441368390662 8.4282760002421701e-09 0 -0.0049896887994612706 3.9029135148937587e-06 0 -0.0049961716466922811 2.4976846342197138e-06 0 -0.0049999441368390662 8.4282760002421701e-09 0 -0.0049961716466922811 2.4976846342197138e-06 0 -0.0050021852934769555 -1.5053760924460587e-06 0 -0.0050000100463254132 1.710643090605674e-09 0 -0.0050021852934769555 -1.5053760924460587e-06 0 -0.0050000100463254132 1.710643090605674e-09 0 -0.0049998673048871085 -2.4537427740806478e-07 0 -0.0049285191978941725 -5.2699865807622128e-05 0 -0.0049074710510046381 -3.3832857415664649e-05 0 -0.004886247248648906 -4.0877297688373276e-05 0 -0.004937871212264279 -2.6991096198464121e-05 0 -0.0049285191978941725 -5.2699865807622128e-05 0 -0.0049074710510046381 -3.3832857415664649e-05 0 -0.0048658636975583295 -3.7017146768893285e-05 0 -0.004886247248648906 -4.0877297688373276e-05 0 -0.0048770769887219543 -2.2057510846003112e-05 0 -0.0049074710510046381 -3.3832857415664649e-05 0 -0.004886247248648906 -4.0877297688373276e-05 0 -0.0048770769887219543 -2.2057510846003112e-05 0 -0.0048658636975583295 -3.7017146768893285e-05 0 -0.004886247248648906 -4.0877297688373276e-05 0 -0.0048576243411408253 -6.2893991611827951e-05 0 -0.0049651611866188576 -2.4058531788201764e-05 0 -0.0049227484257072318 -3.4498188436633919e-05 0 -0.0050000100463254132 1.710643090605674e-09 0 -0.0049998673048871085 -2.4537427740806478e-07 0 -0.0049999968056696547 -1.0150383575082836e-09 0 -0.0049285191978941725 -5.2699865807622128e-05 0 -0.004886247248648906 -4.0877297688373276e-05 0 -0.0048576243411408253 -6.2893991611827951e-05 0 -0.0050000005418344524 2.6596695321919863e-10 0 -0.0049998673048871085 -2.4537427740806478e-07 0 -0.0049999968056696547 -1.0150383575082836e-09 0 -0.0049419511562244257 -6.3133487814635837e-06 0 -0.0049227484257072318 -3.4498188436633919e-05 0 -0.0048278403936025671 -4.0945301605791925e-05 0 -0.0048658636975583295 -3.7017146768893285e-05 0 -0.0048576243411408253 -6.2893991611827951e-05 0 -0.0048278403936025671 -4.0945301605791925e-05 0 -0.0048658636975583295 -3.7017146768893285e-05 0 -0.0048808783858989239 -3.1380672365950576e-05 0 -0.0048278403936025671 -4.0945301605791925e-05 0 -0.0048107157401470549 -7.6972149183224646e-05 0 -0.00477431279796662 -5.9750945949559842e-05 0 -0.0048265296652491643 -4.2890412164020698e-05 0 -0.0048250282127097893 -4.8928771166016613e-05 0 -0.0048107157401470549 -7.6972149183224646e-05 0 -0.0047652954113050986 -9.3203013833682459e-05 0 -0.0047848225189100584 -0.00012124872381358484 0 -0.0048107157401470549 -7.6972149183224646e-05 0 -0.0047652954113050986 -9.3203013833682459e-05 0 -0.00477431279796662 -5.9750945949559842e-05 0 -0.0048250282127097893 -4.8928771166016613e-05 0 -0.0047896420986170384 -9.520781526572701e-05 0 -0.0047652954113050986 -9.3203013833682459e-05 0 -0.00477431279796662 -5.9750945949559842e-05 0 -0.0047252860952208906 -8.9405101756146032e-05 0 -0.0048658636975583295 -3.7017146768893285e-05 0 -0.0048808783858989239 -3.1380672365950576e-05 0 -0.0048770769887219543 -2.2057510846003112e-05 0 -0.0048808783858989239 -3.1380672365950576e-05 0 -0.0048770769887219543 -2.2057510846003112e-05 0 -0.0048579011331348568 -9.8220458188874352e-05 0 -0.0048777249788671748 -2.1821421455141152e-05 0 -0.0048738154019912546 -2.9646920691982527e-05 0 -0.0048770769887219543 -2.2057510846003112e-05 0 -0.0048579011331348568 -9.8220458188874352e-05 0 -0.0047889550215862928 -4.5449990138282878e-05 0 -0.0049074710510046381 -3.3832857415664649e-05 0 -0.0048770769887219543 -2.2057510846003112e-05 0 -0.0049616917584411032 -8.0857101080750041e-06 0 -0.0047944468611962054 -0.00010923998413506598 0 -0.0047889550215862928 -4.5449990138282878e-05 0 -0.0047431680286238028 -0.00010017379000191936 0 -0.0048579011331348568 -9.8220458188874352e-05 0 -0.0047944468611962054 -0.00010923998413506598 0 -0.0047889550215862928 -4.5449990138282878e-05 0 -0.0047397678949131087 -0.00014449721050157998 0 -0.0046978845844401736 -0.0002304208932399789 0 -0.0046694718528242987 -0.00016850749315633321 0 -0.0046785343880919646 -0.00012665298021567745 0 -0.0046350548032652898 -0.00016708976291410617 0 -0.0046694718528242987 -0.00016850749315633321 0 -0.0046785343880919646 -0.00012665298021567745 0 -0.0046917405400500635 -0.00015085287239628516 0 -0.0046694718528242987 -0.00016850749315633321 0 -0.0046917405400500635 -0.00015085287239628516 0 -0.0046884991544607632 -0.00016881962654771807 0 -0.0047944468611962054 -0.00010923998413506598 0 -0.0048017867286915591 -0.00017030333289773765 0 -0.0047400504992782047 -0.00015352100104113901 0 -0.0047896420986170384 -9.520781526572701e-05 0 -0.0047397678949131087 -0.00014449721050157998 0 -0.0048579011331348568 -9.8220458188874352e-05 0 -0.0047944468611962054 -0.00010923998413506598 0 -0.0048017867286915591 -0.00017030333289773765 0 -0.0047252860952208906 -8.9405101756146032e-05 0 -0.0046785343880919646 -0.00012665298021567745 0 -0.0047298551385962931 -0.0001307874751168199 0 -0.0046785343880919646 -0.00012665298021567745 0 -0.0046917405400500635 -0.00015085287239628516 0 -0.0047298551385962931 -0.0001307874751168199 0 -0.0046917405400500635 -0.00015085287239628516 0 -0.0047112608514754597 -0.00016326888044798191 0 -0.0047298551385962931 -0.0001307874751168199 0 -0.0046917405400500635 -0.00015085287239628516 0 -0.0046884991544607632 -0.00016881962654771807 0 -0.0047112608514754597 -0.00016326888044798191 0 -0.0047112608514754597 -0.00016326888044798191 0 -0.0047298551385962931 -0.0001307874751168199 0 -0.004749809006545291 -0.00017655805401570012 0 -0.0047298551385962931 -0.0001307874751168199 0 -0.0047848225189100584 -0.00012124872381358484 0 -0.004749809006545291 -0.00017655805401570012 0 -0.0047652954113050986 -9.3203013833682459e-05 0 -0.0047298551385962931 -0.0001307874751168199 0 -0.0047848225189100584 -0.00012124872381358484 0 -0.0047652954113050986 -9.3203013833682459e-05 0 -0.0047252860952208906 -8.9405101756146032e-05 0 -0.0047298551385962931 -0.0001307874751168199 0 -0.0047848225189100584 -0.00012124872381358484 0 -0.004749809006545291 -0.00017655805401570012 0 -0.0048105566909707438 -0.00015903020861201498 0 -0.0043459702893316734 -9.5912825646205755e-05 0 -0.0043263723208485771 -0.00010000092257831837 0 -0.0039125137654821051 -7.1408176125334726e-05 0 -0.0038766230932669732 -2.5681104040900305e-05 0 -0.003951282823450088 -1.1150056934113465e-05 0 -0.0039125137654821051 -7.1408176125334726e-05 0 -0.0038657786045836868 -7.7454685709906033e-05 0 -0.0038766230932669732 -2.5681104040900305e-05 0 -0.0038657786045836868 -7.7454685709906033e-05 0 -0.0038766230932669732 -2.5681104040900305e-05 0 -0.0038282047254164357 -5.3850676663209332e-05 0 -0.0038766230932669732 -2.5681104040900305e-05 0 -0.0038282047254164357 -5.3850676663209332e-05 0 -0.0038046938447763501 -4.087608294777989e-05 0 -0.0047112608514754597 -0.00016326888044798191 0 -0.004749809006545291 -0.00017655805401570012 0 -0.0046816638636737662 -0.00019280459801294684 0 -0.0043459702893316734 -9.5912825646205755e-05 0 -0.0041460761007313099 -0.00012269025348602634 0 -0.0046884991544607632 -0.00016881962654771807 0 -0.0047112608514754597 -0.00016326888044798191 0 -0.0046816638636737662 -0.00019280459801294684 0 -0.0037819076006009905 1.331445120902383e-06 0 -0.0041460761007313099 -0.00012269025348602634 0 -0.0038282047254164357 -5.3850676663209332e-05 0 -0.0037889050108655033 -8.2762572906612861e-05 0 -0.0038003310466467252 -3.797133897008649e-05 0 -0.0038657786045836868 -7.7454685709906033e-05 0 -0.0038282047254164357 -5.3850676663209332e-05 0 -0.003823400112571965 -9.0649088356112661e-05 0 -0.0038282047254164357 -5.3850676663209332e-05 0 -0.003823400112571965 -9.0649088356112661e-05 0 -0.0037889050108655033 -8.2762572906612861e-05 0 -0.0037889050108655033 -8.2762572906612861e-05 0 -0.0038003310466467252 -3.797133897008649e-05 0 -0.0037525839980569577 -4.6896746889469793e-05 0 -0.0037889050108655033 -8.2762572906612861e-05 0 -0.0037515638176561475 -0.00010652121605636943 0 -0.0037525839980569577 -4.6896746889469793e-05 0 -0.0045758305650749048 -0.00022999445627604309 0 -0.0043495057527352483 -0.00024632820217723738 0 -0.0041460761007313099 -0.00012269025348602634 0 -0.0043495057527352483 -0.00024632820217723738 0 -0.0042855810589475709 -0.00018866266660283964 0 -0.0043571205775777546 -0.00022791061592221666 0 -0.0044088305915418423 -0.00016599897436915108 0 -0.0046694718528242987 -0.00016850749315633321 0 -0.0046816638636737662 -0.00019280459801294684 0 -0.0046587936840349507 -0.00018029291605431267 0 -0.0041460761007313099 -0.00012269025348602634 0 -0.0045758305650749048 -0.00022999445627604309 0 -0.0046694718528242987 -0.00016850749315633321 0 -0.0046884991544607632 -0.00016881962654771807 0 -0.0046816638636737662 -0.00019280459801294684 0 -0.0046358302173684068 -0.00017463613356539172 0 -0.0045758305650749048 -0.00022999445627604309 0 -0.0046694718528242987 -0.00016850749315633321 0 -0.0046596218668802092 -0.00018050722328413264 0 -0.0046350548032652898 -0.00016708976291410617 0 -0.0049895727495481391 3.8462953790101646e-05 0 -0.0049977407222923202 4.6101124663385156e-05 0 -0.0049947932873291526 3.0388284654949674e-05 0 -0.0046591691916163134 2.9759314812139664e-06 0 -0.0050711148876560388 6.5008401662533757e-05 0 -0.0049895727495481391 3.8462953790101646e-05 0 -0.0049977407222923202 4.6101124663385156e-05 0 -0.0049824302257103041 4.4876943249862402e-05 0 -0.004028206917653882 3.474679491090526e-06 0 -0.0039920481270812845 -2.5340169821309587e-05 0 -0.0040166386988860128 -2.3270140885936712e-05 0 -0.0049779592691143269 4.858169944416957e-05 0 -0.0049813923633058605 4.7797839826296264e-05 0 -0.0049770421804329768 4.5918504437904597e-05 0 -0.0049779592691143269 4.858169944416957e-05 0 -0.0049813923633058605 4.7797839826296264e-05 0 -0.0049824302257103041 4.4876943249862402e-05 0 -0.0049813923633058605 4.7797839826296264e-05 0 -0.0049824302257103041 4.4876943249862402e-05 0 -0.0049747193536667962 5.4075049466538531e-05 0 -0.0049613995276739879 4.7682635105267377e-05 0 -0.0049824302257103041 4.4876943249862402e-05 0 -0.0049747193536667962 5.4075049466538531e-05 0 -0.0049613995276739879 4.7682635105267377e-05 0 -0.0049824302257103041 4.4876943249862402e-05 0 -0.0049837440420509851 3.3092547883597304e-05 0 -0.0049895727495481391 3.8462953790101646e-05 0 -0.0049824302257103041 4.4876943249862402e-05 0 -0.0049837440420509851 3.3092547883597304e-05 0 -0.0049895727495481391 3.8462953790101646e-05 0 -0.0049837440420509851 3.3092547883597304e-05 0 -0.0049947932873291526 3.0388284654949674e-05 0 -0.0049926862832370741 2.2583488865715857e-05 0 -0.0049837440420509851 3.3092547883597304e-05 0 -0.0049776262260110343 2.4632800624562812e-05 0 -0.0049926862832370741 2.2583488865715857e-05 0 -0.0049837440420509851 3.3092547883597304e-05 0 -0.0049947932873291526 3.0388284654949674e-05 0 -0.0050040859325561574 1.9120746652397465e-05 0 -0.0049926862832370741 2.2583488865715857e-05 0 -0.0049947932873291526 3.0388284654949674e-05 0 -0.0050040859325561574 1.9120746652397465e-05 0 -0.0049977407222923202 4.6101124663385156e-05 0 -0.0049947932873291526 3.0388284654949674e-05 0 -0.0049677527810006398 -5.4671316325902659e-05 0 -0.0046591691916163134 2.9759314812139664e-06 0 -0.0048519498303517842 -9.4214275828304292e-05 0 -0.0048641633024525113 -0.00014414818622641493 0 -0.0048247616966592428 -0.00011870174307726796 0 -0.0048107157401470549 -7.6972149183224646e-05 0 -0.0047848225189100584 -0.00012124872381358484 0 -0.0048247616966592428 -0.00011870174307726796 0 -0.0047848225189100584 -0.00012124872381358484 0 -0.0048247616966592428 -0.00011870174307726796 0 -0.0048105566909707438 -0.00015903020861201498 0 -0.0048641633024525113 -0.00014414818622641493 0 -0.0048247616966592428 -0.00011870174307726796 0 -0.0048105566909707438 -0.00015903020861201498 0 -0.004028206917653882 3.474679491090526e-06 0 -0.003951282823450088 -1.1150056934113465e-05 0 -0.0039920481270812845 -2.5340169821309587e-05 0 -0.0046591691916163134 2.9759314812139664e-06 0 -0.0043263723208485771 -0.00010000092257831837 0 -0.0039920481270812845 -2.5340169821309587e-05 0 -0.0040132104244593892 -3.5863748565912326e-05 0 -0.0040166386988860128 -2.3270140885936712e-05 0 -0.0039920481270812845 -2.5340169821309587e-05 0 -0.0039652942240320137 -6.3513076357926058e-05 0 -0.0040106022450952534 -5.8418258125481929e-05 0 -0.003951282823450088 -1.1150056934113465e-05 0 -0.0039920481270812845 -2.5340169821309587e-05 0 -0.0039652942240320137 -6.3513076357926058e-05 0 -0.0039920481270812845 -2.5340169821309587e-05 0 -0.0040106022450952534 -5.8418258125481929e-05 0 -0.0040132104244593892 -3.5863748565912326e-05 0 -0.0039125137654821051 -7.1408176125334726e-05 0 -0.003951282823450088 -1.1150056934113465e-05 0 -0.0039652942240320137 -6.3513076357926058e-05 0 -0.0039125137654821051 -7.1408176125334726e-05 0 -0.0039652942240320137 -6.3513076357926058e-05 0 -0.0039449533508028349 -0.0001059913106530219 0 -0.0039652942240320137 -6.3513076357926058e-05 0 -0.0039897587086916439 -0.00010517763408687956 0 -0.0039449533508028349 -0.0001059913106530219 0 -0.0039652942240320137 -6.3513076357926058e-05 0 -0.0040106022450952534 -5.8418258125481929e-05 0 -0.0039897587086916439 -0.00010517763408687956 0 -0.0040106022450952534 -5.8418258125481929e-05 0 -0.0040484500264868868 -0.00010744513444004293 0 -0.0039897587086916439 -0.00010517763408687956 0 -0.0040106022450952534 -5.8418258125481929e-05 0 -0.004035677098369792 -3.6937559514195347e-05 0 -0.0040484500264868868 -0.00010744513444004293 0 -0.0044614769875875194 5.1248932435232482e-07 0 -0.0042089427302778436 -4.07175223335035e-05 0 -0.0040106022450952534 -5.8418258125481929e-05 0 -0.0040132104244593892 -3.5863748565912326e-05 0 -0.004035677098369792 -3.6937559514195347e-05 0 -0.0046591691916163134 2.9759314812139664e-06 0 -0.0044614769875875194 5.1248932435232482e-07 0 -0.004028206917653882 3.474679491090526e-06 0 -0.004035677098369792 -3.6937559514195347e-05 0 -0.0040166386988860128 -2.3270140885936712e-05 0 -0.0040132104244593892 -3.5863748565912326e-05 0 -0.004035677098369792 -3.6937559514195347e-05 0 -0.0040166386988860128 -2.3270140885936712e-05 0 -0.004852480468957511 0.00013813837669618225 0 -0.0047777378900476716 0.00010104254982664099 0 -0.0049653798428402791 6.8137473620588781e-05 0 -0.0049747193536667962 5.4075049466538531e-05 0 -0.0049802903273882312 6.3331048460904405e-05 0 -0.0049813923633058605 4.7797839826296264e-05 0 -0.0049770421804329768 4.5918504437904597e-05 0 -0.0049779341382465581 4.6080033636743462e-05 0 -0.004968945235407648 2.2638838036983618e-05 0 -0.0047777378900476716 0.00010104254982664099 0 -0.0049813923633058605 4.7797839826296264e-05 0 -0.0049747193536667962 5.4075049466538531e-05 0 -0.0049802903273882312 6.3331048460904405e-05 0 -0.0044614769875875194 5.1248932435232482e-07 0 -0.0047777378900476716 0.00010104254982664099 0 -0.0044383372939158063 2.7221351662463227e-05 0 -0.0044339491164924801 1.3538571472988051e-05 0 -0.004437625864754869 1.2700343606083936e-05 0 -0.0047777378900476716 0.00010104254982664099 0 -0.0045417429056890234 9.8519495948962369e-05 0 -0.0047307408497416535 0.00021276519423126534 0 -0.0047044324558168553 0.00021782458944709742 0 -0.0047100368463167726 0.0001732432857966471 0 -0.0044338565999838663 2.8086805415636489e-05 0 -0.0044383372939158063 2.7221351662463227e-05 0 -0.0044339491164924801 1.3538571472988051e-05 0 -0.0044339491164924801 1.3538571472988051e-05 0 -0.004437625864754869 1.2700343606083936e-05 0 -0.0044331961082625876 -9.0717440483429031e-06 0 -0.0040484500264868868 -0.00010744513444004293 0 -0.0040188078769244481 -0.00015085333048328619 0 -0.0039897587086916439 -0.00010517763408687956 0 -0.0040484500264868868 -0.00010744513444004293 0 -0.0040188078769244481 -0.00015085333048328619 0 -0.0040604900975258588 -0.00017680127517607383 0 -0.0042089427302778436 -4.07175223335035e-05 0 -0.004242812294291025 -0.00010461411958425255 0 -0.0045417429056890234 9.8519495948962369e-05 0 -0.0046114091743655033 6.9114760753309377e-05 0 -0.004437625864754869 1.2700343606083936e-05 0 -0.0044331961082625876 -9.0717440483429031e-06 0 -0.0044356586274057405 -9.7268211545146022e-06 0 -0.0040188078769244481 -0.00015085333048328619 0 -0.0040604900975258588 -0.00017680127517607383 0 -0.0040304876013628321 -0.00018009416532484293 0 -0.0044304985920468514 -4.0082861580662162e-05 0 -0.0044331961082625876 -9.0717440483429031e-06 0 -0.0044356586274057405 -9.7268211545146022e-06 0 -0.0040604900975258588 -0.00017680127517607383 0 -0.0040453582821767149 -0.00018757302472262809 0 -0.0040497669246128817 -0.00020414769040845465 0 -0.0040604900975258588 -0.00017680127517607383 0 -0.0040453582821767149 -0.00018757302472262809 0 -0.0040304876013628321 -0.00018009416532484293 0 -0.0040188078769244481 -0.00015085333048328619 0 -0.0040304876013628321 -0.00018009416532484293 0 -0.0039987964361630664 -0.00018423314930075769 0 -0.0040453582821767149 -0.00018757302472262809 0 -0.004022058327396107 -0.00020589564155979365 0 -0.0040184330603796718 -0.00023825341029828445 0 -0.0040304876013628321 -0.00018009416532484293 0 -0.0039987964361630664 -0.00018423314930075769 0 -0.004022058327396107 -0.00020589564155979365 0 -0.0039987964361630664 -0.00018423314930075769 0 -0.0039981387417598446 -0.00021184235251845286 0 -0.004022058327396107 -0.00020589564155979365 0 -0.0040453582821767149 -0.00018757302472262809 0 -0.0040304876013628321 -0.00018009416532484293 0 -0.004022058327396107 -0.00020589564155979365 0 -0.004022058327396107 -0.00020589564155979365 0 -0.0040120149285216653 -0.00022141345900893815 0 -0.0040184330603796718 -0.00023825341029828445 0 -0.0040749433433219283 -0.00017509969761749495 0 -0.0037395596094466272 -0.00014263455642294935 0 -0.0039981387417598446 -0.00021184235251845286 0 -0.004022058327396107 -0.00020589564155979365 0 -0.0040120149285216653 -0.00022141345900893815 0 -0.0039981387417598446 -0.00021184235251845286 0 -0.0040095352923490476 -0.00023454128978567113 0 -0.0039838235756698183 -0.00022867120747083571 0 -0.0039981387417598446 -0.00021184235251845286 0 -0.0040120149285216653 -0.00022141345900893815 0 -0.0040095352923490476 -0.00023454128978567113 0 -0.0040120149285216653 -0.00022141345900893815 0 -0.0040095352923490476 -0.00023454128978567113 0 -0.0040184330603796718 -0.00023825341029828445 0 -0.0040095352923490476 -0.00023454128978567113 0 -0.0040198645991887999 -0.0002388526524880589 0 -0.0039731766359129162 -0.00025010109343547162 0 -0.0038315988075918084 -0.00017999885451410732 0 -0.0037395596094466272 -0.00014263455642294935 0 -0.0040453582821767149 -0.00018757302472262809 0 -0.0040307024080532272 -0.00020692240095860874 0 -0.0040497669246128817 -0.00020414769040845465 0 -0.0040667020973775836 -0.00022103797352747239 0 -0.0040307024080532272 -0.00020692240095860874 0 -0.0040497669246128817 -0.00020414769040845465 0 -0.0040646633148081375 -0.00021372495215553461 0 -0.0040604900975258588 -0.00017680127517607383 0 -0.0040497669246128817 -0.00020414769040845465 0 -0.003946908022407122 -2.7462766474688971e-05 0 -0.0037395596094466272 -0.00014263455642294935 0 -0.0039332310426618503 -0.00025596383812777221 0 -0.0039262403382215975 -0.00018492743695371186 0 -0.0038827242578162316 -0.00020580709369242211 0 -0.0039603175028797228 -0.00023191567284836396 0 -0.0039423630190219411 -0.00022802769355717635 0 -0.0039332310426618503 -0.00025596383812777221 0 -0.003959118002372787 -0.00020976258226958666 0 -0.0039262403382215975 -0.00018492743695371186 0 -0.0039030802999488082 -0.00026243285922136761 0 -0.0039731766359129162 -0.00025010109343547162 0 -0.003959118002372787 -0.00020976258226958666 0 -0.0040095352923490476 -0.00023454128978567113 0 -0.0039731766359129162 -0.00025010109343547162 0 -0.0039838235756698183 -0.00022867120747083571 0 -0.0039981387417598446 -0.00021184235251845286 0 -0.0039838235756698183 -0.00022867120747083571 0 -0.003959118002372787 -0.00020976258226958666 0 -0.0039731766359129162 -0.00025010109343547162 0 -0.0039838235756698183 -0.00022867120747083571 0 -0.003959118002372787 -0.00020976258226958666 0 -0.0039987964361630664 -0.00018423314930075769 0 -0.003959118002372787 -0.00020976258226958666 0 -0.0039603675670185391 -0.00015286977385230968 0 -0.0039987964361630664 -0.00018423314930075769 0 -0.0039981387417598446 -0.00021184235251845286 0 -0.003959118002372787 -0.00020976258226958666 0 -0.003959118002372787 -0.00020976258226958666 0 -0.0039262403382215975 -0.00018492743695371186 0 -0.0039603675670185391 -0.00015286977385230968 0 -0.0039262403382215975 -0.00018492743695371186 0 -0.0039603675670185391 -0.00015286977385230968 0 -0.0038970430557780733 -0.00013735888396854557 0 -0.0040188078769244481 -0.00015085333048328619 0 -0.0039603675670185391 -0.00015286977385230968 0 -0.0039897587086916439 -0.00010517763408687956 0 -0.0040188078769244481 -0.00015085333048328619 0 -0.0039987964361630664 -0.00018423314930075769 0 -0.0039603675670185391 -0.00015286977385230968 0 -0.0039603675670185391 -0.00015286977385230968 0 -0.0039897587086916439 -0.00010517763408687956 0 -0.0039449533508028349 -0.0001059913106530219 0 -0.0039603675670185391 -0.00015286977385230968 0 -0.0039449533508028349 -0.0001059913106530219 0 -0.0038970430557780733 -0.00013735888396854557 0 -0.0039125137654821051 -7.1408176125334726e-05 0 -0.0038657786045836868 -7.7454685709906033e-05 0 -0.0039011225507012332 -0.00014119128289761612 0 -0.0039125137654821051 -7.1408176125334726e-05 0 -0.0039449533508028349 -0.0001059913106530219 0 -0.0038970430557780733 -0.00013735888396854557 0 -0.0039112025441771147 -7.5440989798150854e-05 0 -0.003899247688046158 -0.00013842643672100079 0 -0.0038657786045836868 -7.7454685709906033e-05 0 -0.0038426317628439291 -0.000120672351151316 0 -0.0039011225507012332 -0.00014119128289761612 0 -0.0038657786045836868 -7.7454685709906033e-05 0 -0.003823400112571965 -9.0649088356112661e-05 0 -0.0038426317628439291 -0.000120672351151316 0 -0.0039011225507012332 -0.00014119128289761612 0 -0.0038331303425075897 -0.00017708485149431856 0 -0.003887266018112923 -0.00021244333197786554 0 -0.0038426317628439291 -0.000120672351151316 0 -0.0039011225507012332 -0.00014119128289761612 0 -0.0038331303425075897 -0.00017708485149431856 0 -0.003899247688046158 -0.00013842643672100079 0 -0.0038849094796990636 -0.00021012098063556066 0 -0.0037889050108655033 -8.2762572906612861e-05 0 -0.0037909252275775199 -0.00013119551496464376 0 -0.0037515638176561475 -0.00010652121605636943 0 -0.0037909252275775199 -0.00013119551496464376 0 -0.0037418113326902428 -0.00014855837554863006 0 -0.0037515638176561475 -0.00010652121605636943 0 -0.003823400112571965 -9.0649088356112661e-05 0 -0.0037889050108655033 -8.2762572906612861e-05 0 -0.0037909252275775199 -0.00013119551496464376 0 -0.003823400112571965 -9.0649088356112661e-05 0 -0.0038426317628439291 -0.000120672351151316 0 -0.0037909252275775199 -0.00013119551496464376 0 -0.0037909252275775199 -0.00013119551496464376 0 -0.0038331303425075897 -0.00017708485149431856 0 -0.0037644253235588686 -0.00019048116129847723 0 -0.0038426317628439291 -0.000120672351151316 0 -0.0037909252275775199 -0.00013119551496464376 0 -0.0038331303425075897 -0.00017708485149431856 0 -0.0037909252275775199 -0.00013119551496464376 0 -0.0037644253235588686 -0.00019048116129847723 0 -0.0037418113326902428 -0.00014855837554863006 0 -0.0037644253235588686 -0.00019048116129847723 0 -0.0037657622863184253 -0.00023144450467938493 0 -0.0037235972019255574 -0.00023657488344378522 0 -0.0037644253235588686 -0.00019048116129847723 0 -0.0038007467243640564 -0.00022033889983880407 0 -0.0037657622863184253 -0.00023144450467938493 0 -0.0038331303425075897 -0.00017708485149431856 0 -0.0037644253235588686 -0.00019048116129847723 0 -0.0038007467243640564 -0.00022033889983880407 0 -0.0038331303425075897 -0.00017708485149431856 0 -0.0038007467243640564 -0.00022033889983880407 0 -0.0038448503028347542 -0.00022576594992341787 0 -0.0038007467243640564 -0.00022033889983880407 0 -0.0038154676916520901 -0.00025085922213844748 0 -0.0038448503028347542 -0.00022576594992341787 0 -0.0038154676916520901 -0.00025085922213844748 0 -0.0037818577941576268 -0.00025468047804476064 0 -0.0037929333451936697 -0.00027452777867816627 0 -0.0038007467243640564 -0.00022033889983880407 0 -0.0038154676916520901 -0.00025085922213844748 0 -0.0037818577941576268 -0.00025468047804476064 0 -0.0038007467243640564 -0.00022033889983880407 0 -0.0037818577941576268 -0.00025468047804476064 0 -0.0037657622863184253 -0.00023144450467938493 0 -0.0037818577941576268 -0.00025468047804476064 0 -0.0037521496814164239 -0.00026260237968862604 0 -0.0037649004158267674 -0.00027668755600021518 0 -0.0037818577941576268 -0.00025468047804476064 0 -0.0037521496814164239 -0.00026260237968862604 0 -0.0037657622863184253 -0.00023144450467938493 0 -0.0039262403382215975 -0.00018492743695371186 0 -0.0038970430557780733 -0.00013735888396854557 0 -0.0038827242578162316 -0.00020580709369242211 0 -0.0038331303425075897 -0.00017708485149431856 0 -0.003887266018112923 -0.00021244333197786554 0 -0.0038448503028347542 -0.00022576594992341787 0 -0.0038448503028347542 -0.00022576594992341787 0 -0.0038721253368103081 -0.00028019840192390231 0 -0.0038399302620371039 -0.00026409172902333415 0 -0.003887266018112923 -0.00021244333197786554 0 -0.0038448503028347542 -0.00022576594992341787 0 -0.0038721253368103081 -0.00028019840192390231 0 -0.0038154676916520901 -0.00025085922213844748 0 -0.0038448503028347542 -0.00022576594992341787 0 -0.0038399302620371039 -0.00026409172902333415 0 -0.0039332310426618503 -0.00025596383812777221 0 -0.0038827242578162316 -0.00020580709369242211 0 -0.0038721253368103081 -0.00028019840192390231 0 -0.0038849094796990636 -0.00021012098063556066 0 -0.003873278105033314 -0.00027587134607441279 0 -0.0039332310426618503 -0.00025596383812777221 0 -0.0038721253368103081 -0.00028019840192390231 0 -0.0039007275721461222 -0.00030283845450386845 0 -0.0038721253368103081 -0.00028019840192390231 0 -0.00383374566252127 -0.00030428816371725871 0 -0.0039007275721461222 -0.00030283845450386845 0 -0.0037389966460201298 -0.00031233334728869024 0 -0.0034379918741900221 -0.00028703352546763638 0 -0.0038399302620371039 -0.00026409172902333415 0 -0.0038415155006322919 -0.00028257336822522748 0 -0.003818896479478676 -0.00028161109745159342 0 -0.0038721253368103081 -0.00028019840192390231 0 -0.0038399302620371039 -0.00026409172902333415 0 -0.0038415155006322919 -0.00028257336822522748 0 -0.0038415155006322919 -0.00028257336822522748 0 -0.00383374566252127 -0.00030428816371725871 0 -0.003818896479478676 -0.00028161109745159342 0 -0.0038721253368103081 -0.00028019840192390231 0 -0.0038415155006322919 -0.00028257336822522748 0 -0.00383374566252127 -0.00030428816371725871 0 -0.0029800430973116404 -0.00036775093152124433 0 -0.0029908729429334929 -0.00035574765736163811 0 -0.0029612176378958376 -0.00034908298057396064 0 -0.003565912270133381 -0.00031633880570597399 0 -0.0035695731274171284 -0.00029076696132272555 0 -0.0033377015364731318 -0.00027996524926225235 0 -0.0029800430973116404 -0.00036775093152124433 0 -0.0029503038608705992 -0.00036601546462648298 0 -0.0029612176378958376 -0.00034908298057396064 0 -0.0032984767152295633 -0.00033028068931559908 0 -0.0030473032339184227 -0.00031273569283844218 0 -0.003565912270133381 -0.00031633880570597399 0 -0.0033185391300001848 -0.00030716042999680293 0 -0.0033377015364731318 -0.00027996524926225235 0 -0.0026808821355372584 -0.00028813402672055058 0 -0.0026405288623673026 -0.00022536100346868038 0 -0.0025638509262198091 -0.00033777726158355212 0 -0.0030473032339184227 -0.00031273569283844218 0 -0.0026408669865243179 -0.00036980513050575536 0 -0.0026658684491160747 -0.00020318927091272999 0 -0.0026511998800422937 -0.00022492980388274644 0 -0.0027543370933976389 -0.00022681416727990598 0 -0.0034379918741900221 -0.00028703352546763638 0 -0.0030473032339184227 -0.00031273569283844218 0 -0.003565912270133381 -0.00031633880570597399 0 -0.0037533378064614439 -0.00030600239461248959 0 -0.0037491729826927616 -0.00029433004543573843 0 -0.0037533378064614439 -0.00030600239461248959 0 -0.0037491729826927616 -0.00029433004543573843 0 -0.0037348121880814819 -0.00029836043128269517 0 -0.0037533378064614439 -0.00030600239461248959 0 -0.0037454494881852809 -0.00028544833914993182 0 -0.0037649004158267674 -0.00027668755600021518 0 -0.0037533378064614439 -0.00030600239461248959 0 -0.0037454494881852809 -0.00028544833914993182 0 -0.0037348121880814819 -0.00029836043128269517 0 -0.0037521496814164239 -0.00026260237968862604 0 -0.0037454494881852809 -0.00028544833914993182 0 -0.0037649004158267674 -0.00027668755600021518 0 -0.0037533378064614439 -0.00030600239461248959 0 -0.0037649004158267674 -0.00027668755600021518 0 -0.0037929333451936697 -0.00027452777867816627 0 -0.0037818577941576268 -0.00025468047804476064 0 -0.0037649004158267674 -0.00027668755600021518 0 -0.0037929333451936697 -0.00027452777867816627 0 -0.0037533378064614439 -0.00030600239461248959 0 -0.0037929333451936697 -0.00027452777867816627 0 -0.003818896479478676 -0.00028161109745159342 0 -0.00383374566252127 -0.00030428816371725871 0 -0.0037533378064614439 -0.00030600239461248959 0 -0.003818896479478676 -0.00028161109745159342 0 -0.0037389966460201298 -0.00031233334728869024 0 -0.003732506541427605 -0.00030618713065621054 0 -0.0038154676916520901 -0.00025085922213844748 0 -0.0037929333451936697 -0.00027452777867816627 0 -0.003818896479478676 -0.00028161109745159342 0 -0.0038154676916520901 -0.00025085922213844748 0 -0.0038399302620371039 -0.00026409172902333415 0 -0.003818896479478676 -0.00028161109745159342 0 -0.0032984767152295633 -0.00033028068931559908 0 -0.0033582428981556332 -0.00033356590837470024 0 -0.0029800430973116404 -0.00036775093152124433 0 -0.0029908729429334929 -0.00035574765736163811 0 -0.0030083255471245298 -0.00036952347344521274 0 -0.003565912270133381 -0.00031633880570597399 0 -0.0035695731274171284 -0.00029076696132272555 0 -0.0037491729826927616 -0.00029433004543573843 0 -0.0029908729429334929 -0.00035574765736163811 0 -0.0030083255471245298 -0.00036952347344521274 0 -0.0030175578059194871 -0.00036359196531546186 0 -0.0027003245482354822 -0.00041973354769903016 0 -0.0026971432997080227 -0.00043610150445169774 0 -0.0023626202297951731 -0.00049776804830352643 0 -0.0023620371164371715 -0.00050400642378754031 0 -0.002361251193032573 -0.00050585504514303388 0 -0.0023844406763103196 -0.00047186662744440084 0 -0.0023626202297951731 -0.00049776804830352643 0 -0.002361251193032573 -0.00050585504514303388 0 -0.0023844406763103196 -0.00047186662744440084 0 -0.0023626202297951731 -0.00049776804830352643 0 -0.0024228417868882358 -0.00047267361751219384 0 -0.0023626202297951731 -0.00049776804830352643 0 -0.0023598715724157588 -0.00052463807370507092 0 -0.002359106575486145 -0.00050918515599726101 0 -0.0023626202297951731 -0.00049776804830352643 0 -0.0023598715724157588 -0.00052463807370507092 0 -0.0024228417868882358 -0.00047267361751219384 0 -0.0023626202297951731 -0.00049776804830352643 0 -0.0023620371164371715 -0.00050400642378754031 0 -0.002359106575486145 -0.00050918515599726101 0 -0.0025638509262198091 -0.00033777726158355212 0 -0.0027180216320760293 -0.00037236286305186185 0 -0.0026856767673574524 -0.00032713927877619131 0 -0.0026408669865243179 -0.00036980513050575536 0 -0.0026633640943873227 -0.00035986264837696872 0 -0.0025810625203394675 -0.00044577383234761905 0 -0.0025053280254872302 -0.00033586147344696139 0 -0.0027180216320760293 -0.00037236286305186185 0 -0.0026808821355372584 -0.00028813402672055058 0 -0.0025638509262198091 -0.00033777726158355212 0 -0.0026856767673574524 -0.00032713927877619131 0 -0.0025810625203394675 -0.00044577383234761905 0 -0.0025053280254872302 -0.00033586147344696139 0 -0.0024228417868882358 -0.00047267361751219384 0 -0.0023844406763103196 -0.00047186662744440084 0 -0.0024329173616690234 -0.00045956348273911541 0 -0.0024228417868882358 -0.00047267361751219384 0 -0.0027003245482354822 -0.00041973354769903016 0 -0.0026408669865243179 -0.00036980513050575536 0 -0.0026408669865243179 -0.00036980513050575536 0 -0.0024143582168636587 -0.00049584206214879135 0 -0.0023598715724157588 -0.00052463807370507092 0 -0.0025054705691727646 -0.00052779433586898556 0 -0.0025331750997344069 -0.00062946464372787335 0 -0.0023598715724157588 -0.00052463807370507092 0 -0.0024228417868882358 -0.00047267361751219384 0 -0.0025054705691727646 -0.00052779433586898556 0 -0.0025810625203394675 -0.00044577383234761905 0 -0.0024228417868882358 -0.00047267361751219384 0 -0.0025054705691727646 -0.00052779433586898556 0 -0.0025054705691727646 -0.00052779433586898556 0 -0.0026330407530468464 -0.00055819753933425789 0 -0.0025331750997344069 -0.00062946464372787335 0 -0.0025810625203394675 -0.00044577383234761905 0 -0.0026330407530468464 -0.00055819753933425789 0 -0.0027180216320760293 -0.00037236286305186185 0 -0.0025810625203394675 -0.00044577383234761905 0 -0.0025054705691727646 -0.00052779433586898556 0 -0.0026330407530468464 -0.00055819753933425789 0 -0.0026330407530468464 -0.00055819753933425789 0 -0.0027496757164467652 -0.0005622252380947739 0 -0.0026973952573716435 -0.0006130005667778453 0 -0.0026330407530468464 -0.00055819753933425789 0 -0.002775875767396129 -0.00045838236072811791 0 -0.0027731672272676825 -0.00031319197522720004 0 -0.0026330407530468464 -0.00055819753933425789 0 -0.0027496757164467652 -0.0005622252380947739 0 -0.002775875767396129 -0.00045838236072811791 0 -0.0026576397288940318 -0.00053324138143455544 0 -0.0027223883147244896 -0.00036294852023854005 0 -0.0027496757164467652 -0.0005622252380947739 0 -0.002775875767396129 -0.00045838236072811791 0 -0.0028383427925819933 -0.00053997937999569398 0 -0.002775875767396129 -0.00045838236072811791 0 -0.0028381158673646918 -0.00044747547398139018 0 -0.0028383427925819933 -0.00053997937999569398 0 -0.002775875767396129 -0.00045838236072811791 0 -0.002833625385481927 -0.00038878957347346859 0 -0.0028381158673646918 -0.00044747547398139018 0 -0.0026330407530468464 -0.00055819753933425789 0 -0.00277158577012217 -0.00037431134215535391 0 -0.0027180216320760293 -0.00037236286305186185 0 -0.002775875767396129 -0.00045838236072811791 0 -0.0027731672272676825 -0.00031319197522720004 0 -0.002833625385481927 -0.00038878957347346859 0 -0.00277158577012217 -0.00037431134215535391 0 -0.0027180216320760293 -0.00037236286305186185 0 -0.0027536128002227192 -0.00029946405463520938 0 -0.0027180216320760293 -0.00037236286305186185 0 -0.0026856767673574524 -0.00032713927877619131 0 -0.0027536128002227192 -0.00029946405463520938 0 -0.0029388321017935664 -0.00022439639065244442 0 -0.0029751331203253877 -0.00031490950836377609 0 -0.0028836968386069264 -0.00032947225466824703 0 -0.0029388321017935664 -0.00022439639065244442 0 -0.0029751331203253877 -0.00031490950836377609 0 -0.003072883374671675 -0.00020210588332523249 0 -0.0027731672272676825 -0.00031319197522720004 0 -0.0029388321017935664 -0.00022439639065244442 0 -0.0028836968386069264 -0.00032947225466824703 0 -0.0027731672272676825 -0.00031319197522720004 0 -0.0028836968386069264 -0.00032947225466824703 0 -0.002833625385481927 -0.00038878957347346859 0 -0.0029751331203253877 -0.00031490950836377609 0 -0.0028836968386069264 -0.00032947225466824703 0 -0.0029062046725983957 -0.00040113979357785941 0 -0.0028836968386069264 -0.00032947225466824703 0 -0.002833625385481927 -0.00038878957347346859 0 -0.0029062046725983957 -0.00040113979357785941 0 -0.0029751331203253877 -0.00031490950836377609 0 -0.0029062046725983957 -0.00040113979357785941 0 -0.0030722854145994434 -0.00038101517897440594 0 -0.0028383427925819933 -0.00053997937999569398 0 -0.0030280167725880349 -0.0004956601167948097 0 -0.0030282626754514481 -0.00038217694358119606 0 -0.0028383427925819933 -0.00053997937999569398 0 -0.0030280167725880349 -0.0004956601167948097 0 -0.0028051263824322077 -0.00063531818607491042 0 -0.0029914939478158098 -0.00050746093246631417 0 -0.0028137554331948787 -0.00063016693115177833 0 -0.0029062046725983957 -0.00040113979357785941 0 -0.0028383427925819933 -0.00053997937999569398 0 -0.0030722854145994434 -0.00038101517897440594 0 -0.0028551626726626956 -0.00053071669203161797 0 -0.0030524576529246117 -0.00037881076897469901 0 -0.0029062046725983957 -0.00040113979357785941 0 -0.0028381158673646918 -0.00044747547398139018 0 -0.0028383427925819933 -0.00053997937999569398 0 -0.002833625385481927 -0.00038878957347346859 0 -0.0029062046725983957 -0.00040113979357785941 0 -0.0028381158673646918 -0.00044747547398139018 0 -0.002951700177571332 -0.0005887728169884967 0 -0.0029353700102851018 -0.0005314973891309354 0 -0.0028980901622975746 -0.00062417814803727111 0 -0.0029914939478158098 -0.00050746093246631417 0 -0.0031091109070778833 -0.0004079212909282677 0 -0.0029353700102851018 -0.0005314973891309354 0 -0.0030317656908824932 -0.00052723048911092728 0 -0.0030684718068729956 -0.00043086518936855887 0 -0.002951700177571332 -0.0005887728169884967 0 -0.0029863116827298143 -0.00057189155707648178 0 -0.0029353700102851018 -0.0005314973891309354 0 -0.0029863116827298143 -0.00057189155707648178 0 -0.0029353700102851018 -0.0005314973891309354 0 -0.0030317656908824932 -0.00052723048911092728 0 -0.003081039910962727 -0.00054634031196979709 0 -0.0030386949642758451 -0.00058714717267130065 0 -0.0031047467694018211 -0.00060006998812239028 0 -0.0031451647053678733 -0.00052565554762457468 0 -0.003081039910962727 -0.00054634031196979709 0 -0.0031047467694018211 -0.00060006998812239028 0 -0.003081039910962727 -0.00054634031196979709 0 -0.0030386949642758451 -0.00058714717267130065 0 -0.0030317656908824932 -0.00052723048911092728 0 -0.0029863116827298143 -0.00057189155707648178 0 -0.0030386949642758451 -0.00058714717267130065 0 -0.0030317656908824932 -0.00052723048911092728 0 -0.0030317656908824932 -0.00052723048911092728 0 -0.0030953986343241996 -0.00049690427304475754 0 -0.0030684718068729956 -0.00043086518936855887 0 -0.003081039910962727 -0.00054634031196979709 0 -0.0030317656908824932 -0.00052723048911092728 0 -0.0030953986343241996 -0.00049690427304475754 0 -0.0031451647053678733 -0.00052565554762457468 0 -0.003081039910962727 -0.00054634031196979709 0 -0.0030953986343241996 -0.00049690427304475754 0 -0.0032592821958847096 -0.00033660350862436668 0 -0.0030282626754514481 -0.00038217694358119606 0 -0.0032313203336973538 -0.00021074287717842005 0 -0.0031510797261689017 -0.00045340063354561301 0 -0.0030953986343241996 -0.00049690427304475754 0 -0.0030684718068729956 -0.00043086518936855887 0 -0.0033781940182042829 -0.00016593761213290389 0 -0.0032592821958847096 -0.00033660350862436668 0 -0.0032313203336973538 -0.00021074287717842005 0 -0.0030524576529246117 -0.00037881076897469901 0 -0.0032421671469104137 -0.00020882503208029339 0 -0.0030280167725880349 -0.0004956601167948097 0 -0.0032592821958847096 -0.00033660350862436668 0 -0.0030282626754514481 -0.00038217694358119606 0 -0.0030722854145994434 -0.00038101517897440594 0 -0.003072883374671675 -0.00020210588332523249 0 -0.0033081448704176375 -0.00019148771895856922 0 -0.0029751331203253877 -0.00031490950836377609 0 -0.0030722854145994434 -0.00038101517897440594 0 -0.003072883374671675 -0.00020210588332523249 0 -0.0031912703726268269 -4.7982029493829717e-05 0 -0.003072883374671675 -0.00020210588332523249 0 -0.0029493543193802119 -3.5902359671444384e-05 0 -0.0031912703726268269 -4.7982029493829717e-05 0 -0.003072883374671675 -0.00020210588332523249 0 -0.0033081448704176375 -0.00019148771895856922 0 -0.0032023362309192968 -6.0848238429829602e-05 0 -0.0032524887080693015 -0.00012445349776645865 0 -0.0034952990094124061 -4.5314088221437812e-05 0 -0.0033081448704176375 -0.00019148771895856922 0 -0.0034129928554005899 -8.0060427217999654e-05 0 -0.0034445267422862748 -3.2085584081048171e-05 0 -0.0033781940182042829 -0.00016593761213290389 0 -0.0032313203336973538 -0.00021074287717842005 0 -0.0031912703726268269 -4.7982029493829717e-05 0 -0.0033081448704176375 -0.00019148771895856922 0 -0.0034129928554005899 -8.0060427217999654e-05 0 -0.0036645367089122032 -7.3557564817930057e-05 0 -0.0032421671469104137 -0.00020882503208029339 0 -0.0032023362309192968 -6.0848238429829602e-05 0 -0.0034054121329838861 -7.6008234866634423e-05 0 -0.0034748352956715549 2.6324556407414186e-05 0 -0.0032845852552943937 -7.4955649138705072e-05 0 -0.0034129928554005899 -8.0060427217999654e-05 0 -0.0034748352956715549 2.6324556407414186e-05 0 -0.0032696763300136787 0.00010750268066955607 0 -0.0032845852552943937 -7.4955649138705072e-05 0 -0.0032696763300136787 0.00010750268066955607 0 -0.0032845852552943937 -7.4955649138705072e-05 0 -0.0031553009684174797 -7.0419300345751678e-05 0 -0.0037395596094466272 -0.00014263455642294935 0 -0.0032524887080693015 -0.00012445349776645865 0 -0.0040198645991887999 -0.0002388526524880589 0 -0.0039731766359129162 -0.00025010109343547162 0 -0.003962666493783234 -0.00032628772203496147 0 -0.0039030802999488082 -0.00026243285922136761 0 -0.0039731766359129162 -0.00025010109343547162 0 -0.003962666493783234 -0.00032628772203496147 0 -0.0039603175028797228 -0.00023191567284836396 0 -0.0034379918741900221 -0.00028703352546763638 0 -0.0039030802999488082 -0.00026243285922136761 0 -0.0038527659068361897 -0.00032419115799980935 0 -0.003962666493783234 -0.00032628772203496147 0 -0.0026658684491160747 -0.00020318927091272999 0 -0.0027543370933976389 -0.00022681416727990598 0 -0.0028801746800543862 -0.0002070524920605907 0 -0.00277158577012217 -0.00037431134215535391 0 -0.0027536128002227192 -0.00029946405463520938 0 -0.0028801746800543862 -0.0002070524920605907 0 -0.0027543370933976389 -0.00022681416727990598 0 -0.0027536128002227192 -0.00029946405463520938 0 -0.0028801746800543862 -0.0002070524920605907 0 -0.0034379918741900221 -0.00028703352546763638 0 -0.0032524887080693015 -0.00012445349776645865 0 -0.0030473032339184227 -0.00031273569283844218 0 -0.0026299264443421688 -0.00023386122396882445 0 -0.0026808821355372584 -0.00028813402672055058 0 -0.0026405288623673026 -0.00022536100346868038 0 -0.0027543370933976389 -0.00022681416727990598 0 -0.0026808821355372584 -0.00028813402672055058 0 -0.0027543370933976389 -0.00022681416727990598 0 -0.0027536128002227192 -0.00029946405463520938 0 -0.0026808821355372584 -0.00028813402672055058 0 -0.0026856767673574524 -0.00032713927877619131 0 -0.0027536128002227192 -0.00029946405463520938 0 -0.0027223883147244896 -0.00036294852023854005 0 -0.0032524887080693015 -0.00012445349776645865 0 -0.0027731672272676825 -0.00031319197522720004 0 -0.0029388321017935664 -0.00022439639065244442 0 -0.0029493543193802119 -3.5902359671444384e-05 0 -0.0029388321017935664 -0.00022439639065244442 0 -0.003072883374671675 -0.00020210588332523249 0 -0.0029493543193802119 -3.5902359671444384e-05 0 -0.0032811852084853863 -0.00054347170021555298 0 -0.002424069728845092 -0.00067139013412372787 0 -0.0025543304052811507 -0.00065541333223502094 0 -0.0026796123323625581 -0.00055124748538137283 0 -0.0025384074036862532 -0.00050982024308791256 0 -0.0024669148905028903 -0.00055339115802203922 0 -0.0025543304052811507 -0.00065541333223502094 0 -0.0024162649516567694 -0.00059652073782174187 0 -0.0024669148905028903 -0.00055339115802203922 0 -0.0025543304052811507 -0.00065541333223502094 0 -0.0025384074036862532 -0.00050982024308791256 0 -0.0035072726768476548 -0.00030583059034317164 0 -0.0035883979861527273 -0.00031800579012902921 0 -0.0035750961451661962 -0.0002315675108015066 0 -0.0032811852084853863 -0.00054347170021555298 0 -0.0029360933403017497 -0.00043290376460432517 0 -0.0025504901210867976 -0.00073018892544031173 0 -0.0027253273753305436 -0.00076947088025900855 0 -0.0026796123323625581 -0.00055124748538137283 0 -0.0032811852084853863 -0.00054347170021555298 0 -0.0035382413903665829 -0.00074991698533191718 0 -0.0043764269256349152 -0.00071204415360933597 0 -0.0042755425797799335 -0.00069521609328436983 0 -0.004347761464530862 -0.00062428971604376875 0 -0.0029090351283048328 -0.00080865764148612426 0 -0.0028397158158458774 -0.0006484392943229291 0 -0.0029737810340170422 -0.00069092736732236809 0 -0.0027253273753305436 -0.00076947088025900855 0 -0.0029090351283048328 -0.00080865764148612426 0 -0.0028397158158458774 -0.0006484392943229291 0 -0.0035382413903665829 -0.00074991698533191718 0 -0.0035454316642534196 -0.00075103482586086172 0 -0.0028397158158458774 -0.0006484392943229291 0 -0.0028577866773968202 -0.00049672019429776557 0 -0.0029709489373559101 -0.00055222306584125564 0 -0.0028397158158458774 -0.0006484392943229291 0 -0.0026796123323625581 -0.00055124748538137283 0 -0.0028577866773968202 -0.00049672019429776557 0 -0.0027253273753305436 -0.00076947088025900855 0 -0.0028397158158458774 -0.0006484392943229291 0 -0.0026796123323625581 -0.00055124748538137283 0 -0.0026796123323625581 -0.00055124748538137283 0 -0.0027526333722865466 -0.00043845301092774466 0 -0.0028577866773968202 -0.00049672019429776557 0 -0.0026796123323625581 -0.00055124748538137283 0 -0.0027526333722865466 -0.00043845301092774466 0 -0.0026210055891632222 -0.00041862782436302102 0 -0.0027526333722865466 -0.00043845301092774466 0 -0.0028577866773968202 -0.00049672019429776557 0 -0.0028501335462970852 -0.0003890705945688921 0 -0.0028577866773968202 -0.00049672019429776557 0 -0.0028501335462970852 -0.0003890705945688921 0 -0.0029624072846710196 -0.00042729050766639816 0 -0.0028501335462970852 -0.0003890705945688921 0 -0.0029624072846710196 -0.00042729050766639816 0 -0.0029380046505175918 -0.00034189158140384622 0 -0.0028501335462970852 -0.0003890705945688921 0 -0.0027390384721271022 -0.00033144128959019972 0 -0.0028633887295169487 -0.00030722718027536476 0 -0.0029380046505175918 -0.00034189158140384622 0 -0.0029309336500394924 -0.00027003035365027973 0 -0.0028633887295169487 -0.00030722718027536476 0 -0.0028501335462970852 -0.0003890705945688921 0 -0.0029380046505175918 -0.00034189158140384622 0 -0.0028633887295169487 -0.00030722718027536476 0 -0.0027526333722865466 -0.00043845301092774466 0 -0.0027390384721271022 -0.00033144128959019972 0 -0.0026210055891632222 -0.00041862782436302102 0 -0.0027526333722865466 -0.00043845301092774466 0 -0.0028501335462970852 -0.0003890705945688921 0 -0.0027390384721271022 -0.00033144128959019972 0 -0.0027390384721271022 -0.00033144128959019972 0 -0.0026210055891632222 -0.00041862782436302102 0 -0.0025375432868027102 -0.00029203969285892471 0 -0.0026210055891632222 -0.00041862782436302102 0 -0.002504123892193736 -0.00039357775084362414 0 -0.0025375432868027102 -0.00029203969285892471 0 -0.0026210055891632222 -0.00041862782436302102 0 -0.0025384074036862532 -0.00050982024308791256 0 -0.002504123892193736 -0.00039357775084362414 0 -0.0026796123323625581 -0.00055124748538137283 0 -0.0026210055891632222 -0.00041862782436302102 0 -0.0025384074036862532 -0.00050982024308791256 0 -0.0025384074036862532 -0.00050982024308791256 0 -0.002504123892193736 -0.00039357775084362414 0 -0.0024348409406495784 -0.00045407607423035047 0 -0.0024669148905028903 -0.00055339115802203922 0 -0.0025384074036862532 -0.00050982024308791256 0 -0.0024348409406495784 -0.00045407607423035047 0 -0.002504123892193736 -0.00039357775084362414 0 -0.0024348409406495784 -0.00045407607423035047 0 -0.0023931688110807757 -0.00029596920653701556 0 -0.0023075439326698732 -0.00040098006633078375 0 -0.0024348409406495784 -0.00045407607423035047 0 -0.0023931688110807757 -0.00029596920653701556 0 -0.0023365853638869327 -0.00044022034143627168 0 -0.0023993105193101339 -0.00053891684715736484 0 -0.0023852166948439822 -0.00050413279101730419 0 -0.0023810543525634429 -0.00052376162698517361 0 -0.0024006424331962728 -0.00053895166240023045 0 -0.0023852166948439822 -0.00050413279101730419 0 -0.0023810543525634429 -0.00052376162698517361 0 -0.0023680881364525294 -0.00051258216191852159 0 -0.0023075439326698732 -0.00040098006633078375 0 -0.0024348409406495784 -0.00045407607423035047 0 -0.0024006424331962728 -0.00053895166240023045 0 -0.0024669148905028903 -0.00055339115802203922 0 -0.0024348409406495784 -0.00045407607423035047 0 -0.0024006424331962728 -0.00053895166240023045 0 -0.0023852166948439822 -0.00050413279101730419 0 -0.0023717387157027926 -0.00050082697677777835 0 -0.0023680881364525294 -0.00051258216191852159 0 -0.0023852166948439822 -0.00050413279101730419 0 -0.0023717387157027926 -0.00050082697677777835 0 -0.0023764182275289466 -0.00048943812049325006 0 -0.0023620371164371715 -0.00050400642378754031 0 -0.0023717387157027926 -0.00050082697677777835 0 -0.0023680881364525294 -0.00051258216191852159 0 -0.0023810543525634429 -0.00052376162698517361 0 -0.0023680881364525294 -0.00051258216191852159 0 -0.0023719956531641604 -0.00053981746562324292 0 -0.0023620371164371715 -0.00050400642378754031 0 -0.0023680881364525294 -0.00051258216191852159 0 -0.002361251193032573 -0.00050585504514303388 0 -0.0033582428981556332 -0.00033356590837470024 0 -0.0034217479974463522 -0.00033596971605361005 0 -0.0030083255471245298 -0.00036952347344521274 0 -0.0030175578059194871 -0.00036359196531546186 0 -0.0030316843564604061 -0.00037264226486206226 0 -0.0030316843564604061 -0.00037264226486206226 0 -0.0030398681480318574 -0.00037194172979604633 0 -0.0030525521979294324 -0.00037731178763761287 0 -0.0030175578059194871 -0.00036359196531546186 0 -0.0030316843564604061 -0.00037264226486206226 0 -0.0030398681480318574 -0.00037194172979604633 0 -0.0026971432997080227 -0.00043610150445169774 0 -0.0026686553397370586 -0.00044410575181003998 0 -0.0023680881364525294 -0.00051258216191852159 0 -0.002361251193032573 -0.00050585504514303388 0 -0.0023719956531641604 -0.00053981746562324292 0 -0.0034217479974463522 -0.00033596971605361005 0 -0.0030748488687112382 -0.00041214710280026008 0 -0.0036993512426477092 -0.00031554783010529289 0 -0.0037250718714103804 -0.00028056016942038621 0 -0.0036920076470632257 -0.0002664733940469191 0 -0.0036993512426477092 -0.00031554783010529289 0 -0.0036593389163246805 -0.00028911689846408494 0 -0.0036920076470632257 -0.0002664733940469191 0 -0.0036593389163246805 -0.00028911689846408494 0 -0.0036578638631268286 -0.0002577942822628613 0 -0.0036920076470632257 -0.0002664733940469191 0 -0.0037491729826927616 -0.00029433004543573843 0 -0.0036993512426477092 -0.00031554783010529289 0 -0.0037348121880814819 -0.00029836043128269517 0 -0.0036993512426477092 -0.00031554783010529289 0 -0.0037250718714103804 -0.00028056016942038621 0 -0.0037348121880814819 -0.00029836043128269517 0 -0.0037521496814164239 -0.00026260237968862604 0 -0.0037454494881852809 -0.00028544833914993182 0 -0.0037250718714103804 -0.00028056016942038621 0 -0.0037454494881852809 -0.00028544833914993182 0 -0.0037250718714103804 -0.00028056016942038621 0 -0.0037348121880814819 -0.00029836043128269517 0 -0.0024006424331962728 -0.00053895166240023045 0 -0.0023911654863887823 -0.00056587960860509517 0 -0.0024162649516567694 -0.00059652073782174187 0 -0.0024669148905028903 -0.00055339115802203922 0 -0.0024006424331962728 -0.00053895166240023045 0 -0.0024162649516567694 -0.00059652073782174187 0 -0.0023810543525634429 -0.00052376162698517361 0 -0.0023719956531641604 -0.00053981746562324292 0 -0.0024006424331962728 -0.00053895166240023045 0 -0.0023719956531641604 -0.00053981746562324292 0 -0.0024006424331962728 -0.00053895166240023045 0 -0.0023911654863887823 -0.00056587960860509517 0 -0.0026686553397370586 -0.00044410575181003998 0 -0.0030748488687112382 -0.00041214710280026008 0 -0.0036193290909579006 -0.00032207148402677889 0 -0.0036593389163246805 -0.00028911689846408494 0 -0.0036231951345991947 -0.00027430728094886525 0 -0.0036993512426477092 -0.00031554783010529289 0 -0.0036193290909579006 -0.00032207148402677889 0 -0.0036593389163246805 -0.00028911689846408494 0 -0.0036593389163246805 -0.00028911689846408494 0 -0.0036231951345991947 -0.00027430728094886525 0 -0.0036578638631268286 -0.0002577942822628613 0 -0.0036231951345991947 -0.00027430728094886525 0 -0.0035883979861527273 -0.00031800579012902921 0 -0.0035750961451661962 -0.0002315675108015066 0 -0.0036193290909579006 -0.00032207148402677889 0 -0.0036231951345991947 -0.00027430728094886525 0 -0.0035883979861527273 -0.00031800579012902921 0 -0.0030748488687112382 -0.00041214710280026008 0 -0.0029360933403017497 -0.00043290376460432517 0 -0.0036231951345991947 -0.00027430728094886525 0 -0.0035750961451661962 -0.0002315675108015066 0 -0.0036357449395262478 -0.00022662701492264555 0 -0.0036231951345991947 -0.00027430728094886525 0 -0.0036357449395262478 -0.00022662701492264555 0 -0.0036578638631268286 -0.0002577942822628613 0 -0.0036357449395262478 -0.00022662701492264555 0 -0.0036578638631268286 -0.0002577942822628613 0 -0.0036819076768717677 -0.00022004853399179542 0 -0.0036357449395262478 -0.00022662701492264555 0 -0.0036819076768717677 -0.00022004853399179542 0 -0.0036385167461912048 -0.00016753112650343349 0 -0.0035750961451661962 -0.0002315675108015066 0 -0.0036357449395262478 -0.00022662701492264555 0 -0.0036385167461912048 -0.00016753112650343349 0 -0.0041414301813340552 -0.00038142537323936386 0 -0.0040767089057807621 -0.0003436088454091971 0 -0.0044717007702549834 -0.00060142001860660386 0 -0.0045545748541142798 -0.00049440838655253835 0 -0.0044227021902717677 -0.00051099976523032815 0 -0.0037250718714103804 -0.00028056016942038621 0 -0.0037235972019255574 -0.00023657488344378522 0 -0.0036920076470632257 -0.0002664733940469191 0 -0.0037521496814164239 -0.00026260237968862604 0 -0.0037657622863184253 -0.00023144450467938493 0 -0.0037235972019255574 -0.00023657488344378522 0 -0.0037521496814164239 -0.00026260237968862604 0 -0.0037250718714103804 -0.00028056016942038621 0 -0.0037235972019255574 -0.00023657488344378522 0 -0.0037235972019255574 -0.00023657488344378522 0 -0.0036920076470632257 -0.0002664733940469191 0 -0.0036819076768717677 -0.00022004853399179542 0 -0.0036578638631268286 -0.0002577942822628613 0 -0.0036920076470632257 -0.0002664733940469191 0 -0.0036819076768717677 -0.00022004853399179542 0 -0.0037235972019255574 -0.00023657488344378522 0 -0.0036819076768717677 -0.00022004853399179542 0 -0.0037023004289874549 -0.00017753875835982297 0 -0.0036819076768717677 -0.00022004853399179542 0 -0.0037023004289874549 -0.00017753875835982297 0 -0.0036385167461912048 -0.00016753112650343349 0 -0.0037644253235588686 -0.00019048116129847723 0 -0.0037235972019255574 -0.00023657488344378522 0 -0.0037023004289874549 -0.00017753875835982297 0 -0.0037644253235588686 -0.00019048116129847723 0 -0.0037418113326902428 -0.00014855837554863006 0 -0.0037023004289874549 -0.00017753875835982297 0 -0.0037418113326902428 -0.00014855837554863006 0 -0.0037023004289874549 -0.00017753875835982297 0 -0.0036964327362576468 -0.0001069914991604588 0 -0.0037023004289874549 -0.00017753875835982297 0 -0.0036964327362576468 -0.0001069914991604588 0 -0.0036385167461912048 -0.00016753112650343349 0 -0.0037418113326902428 -0.00014855837554863006 0 -0.0036964327362576468 -0.0001069914991604588 0 -0.0037515638176561475 -0.00010652121605636943 0 -0.0045545748541142798 -0.00049440838655253835 0 -0.0045005764330273068 -0.00041479851989419721 0 -0.0044227021902717677 -0.00051099976523032815 0 -0.0045545748541142798 -0.00049440838655253835 0 -0.0045662148939403695 -0.00040113796577877486 0 -0.0045005764330273068 -0.00041479851989419721 0 -0.0046186422067152301 -0.00039925772068376871 0 -0.0045545748541142798 -0.00049440838655253835 0 -0.0045662148939403695 -0.00040113796577877486 0 -0.0041393695510455629 -0.00024517453335659681 0 -0.0040767089057807621 -0.0003436088454091971 0 -0.0045662148939403695 -0.00040113796577877486 0 -0.0045005764330273068 -0.00041479851989419721 0 -0.0045529817604456528 -0.00034558484959302946 0 -0.0045005764330273068 -0.00041479851989419721 0 -0.0044182195784573663 -0.00040933611374158391 0 -0.0044227021902717677 -0.00051099976523032815 0 -0.0045005764330273068 -0.00041479851989419721 0 -0.0044182195784573663 -0.00040933611374158391 0 -0.0044689893569744244 -0.00034446523796510602 0 -0.0044182195784573663 -0.00040933611374158391 0 -0.0043365017866978973 -0.00045068988680952338 0 -0.0043603168986349793 -0.00037760918571414214 0 -0.0043365017866978973 -0.00045068988680952338 0 -0.0044227021902717677 -0.00051099976523032815 0 -0.0043208759795989923 -0.00054306389692103634 0 -0.0044182195784573663 -0.00040933611374158391 0 -0.0043365017866978973 -0.00045068988680952338 0 -0.0044227021902717677 -0.00051099976523032815 0 -0.0044717007702549834 -0.00060142001860660386 0 -0.0044227021902717677 -0.00051099976523032815 0 -0.004347761464530862 -0.00062428971604376875 0 -0.0044227021902717677 -0.00051099976523032815 0 -0.0043208759795989923 -0.00054306389692103634 0 -0.004347761464530862 -0.00062428971604376875 0 -0.0043764269256349152 -0.00071204415360933597 0 -0.0044717007702549834 -0.00060142001860660386 0 -0.004347761464530862 -0.00062428971604376875 0 -0.0032811852084853863 -0.00054347170021555298 0 -0.0041414301813340552 -0.00038142537323936386 0 -0.0041693788608612847 -0.00068023357684307952 0 -0.0042401317353766088 -0.00059457703834135504 0 -0.0041414568196284883 -0.00059234202181801846 0 -0.0042755425797799335 -0.00069521609328436983 0 -0.0041693788608612847 -0.00068023357684307952 0 -0.0042401317353766088 -0.00059457703834135504 0 -0.0042755425797799335 -0.00069521609328436983 0 -0.004347761464530862 -0.00062428971604376875 0 -0.0042401317353766088 -0.00059457703834135504 0 -0.0043208759795989923 -0.00054306389692103634 0 -0.0042401317353766088 -0.00059457703834135504 0 -0.0042628142732891875 -0.00050420805431305234 0 -0.0043208759795989923 -0.00054306389692103634 0 -0.004347761464530862 -0.00062428971604376875 0 -0.0042401317353766088 -0.00059457703834135504 0 -0.0042401317353766088 -0.00059457703834135504 0 -0.0041735983382759183 -0.00051164640314027316 0 -0.0041414568196284883 -0.00059234202181801846 0 -0.0042401317353766088 -0.00059457703834135504 0 -0.0041735983382759183 -0.00051164640314027316 0 -0.0042628142732891875 -0.00050420805431305234 0 -0.0041735983382759183 -0.00051164640314027316 0 -0.0042584465546331276 -0.00042406761809232182 0 -0.004105835453506939 -0.00040790149245090293 0 -0.0041735983382759183 -0.00051164640314027316 0 -0.0042628142732891875 -0.00050420805431305234 0 -0.0042584465546331276 -0.00042406761809232182 0 -0.0043365017866978973 -0.00045068988680952338 0 -0.0043208759795989923 -0.00054306389692103634 0 -0.0042628142732891875 -0.00050420805431305234 0 -0.0043365017866978973 -0.00045068988680952338 0 -0.0042628142732891875 -0.00050420805431305234 0 -0.0042584465546331276 -0.00042406761809232182 0 -0.0043365017866978973 -0.00045068988680952338 0 -0.0043049318559988895 -0.00039350649611348749 0 -0.0042584465546331276 -0.00042406761809232182 0 -0.0043365017866978973 -0.00045068988680952338 0 -0.0043049318559988895 -0.00039350649611348749 0 -0.0043603168986349793 -0.00037760918571414214 0 -0.0043049318559988895 -0.00039350649611348749 0 -0.0042584465546331276 -0.00042406761809232182 0 -0.0042642553544799859 -0.00037113606817475582 0 -0.0042584465546331276 -0.00042406761809232182 0 -0.0042115648238965665 -0.00040415762186902198 0 -0.0041744710351027991 -0.00042934284521748886 0 -0.00424867654637575 -0.00042234340163203871 0 -0.0041418416651591884 -0.00041930940718536993 0 -0.0042584465546331276 -0.00042406761809232182 0 -0.0042115648238965665 -0.00040415762186902198 0 -0.0042642553544799859 -0.00037113606817475582 0 -0.0042642553544799859 -0.00037113606817475582 0 -0.0042645033089147169 -0.00031340408510873282 0 -0.0041988482418078774 -0.00033581609395729974 0 -0.0042645033089147169 -0.00031340408510873282 0 -0.0041988482418078774 -0.00033581609395729974 0 -0.0042176724076233296 -0.00027755417677574493 0 -0.0042645033089147169 -0.00031340408510873282 0 -0.0042835457946000209 -0.00025785955653214338 0 -0.0042176724076233296 -0.00027755417677574493 0 -0.0043239224136151447 -0.00029241711743597642 0 -0.0043539208721025619 -0.00024659974613779712 0 -0.0042835457946000209 -0.00025785955653214338 0 -0.0042645033089147169 -0.00031340408510873282 0 -0.0043239224136151447 -0.00029241711743597642 0 -0.0042835457946000209 -0.00025785955653214338 0 -0.0042645033089147169 -0.00031340408510873282 0 -0.0043239224136151447 -0.00029241711743597642 0 -0.0043142780116410904 -0.00034371342317395784 0 -0.0043239224136151447 -0.00029241711743597642 0 -0.0043142780116410904 -0.00034371342317395784 0 -0.0043714058876110195 -0.00031424165360782383 0 -0.0042642553544799859 -0.00037113606817475582 0 -0.0042645033089147169 -0.00031340408510873282 0 -0.0043142780116410904 -0.00034371342317395784 0 -0.0043049318559988895 -0.00039350649611348749 0 -0.0042642553544799859 -0.00037113606817475582 0 -0.0043142780116410904 -0.00034371342317395784 0 -0.0043049318559988895 -0.00039350649611348749 0 -0.0043142780116410904 -0.00034371342317395784 0 -0.0043603168986349793 -0.00037760918571414214 0 -0.0043142780116410904 -0.00034371342317395784 0 -0.0043603168986349793 -0.00037760918571414214 0 -0.0043714058876110195 -0.00031424165360782383 0 -0.0044182195784573663 -0.00040933611374158391 0 -0.0043603168986349793 -0.00037760918571414214 0 -0.0044093822758182145 -0.00034393171376667983 0 -0.0043603168986349793 -0.00037760918571414214 0 -0.0044093822758182145 -0.00034393171376667983 0 -0.0043714058876110195 -0.00031424165360782383 0 -0.0044182195784573663 -0.00040933611374158391 0 -0.0044093822758182145 -0.00034393171376667983 0 -0.0044689893569744244 -0.00034446523796510602 0 -0.0044093822758182145 -0.00034393171376667983 0 -0.0044689893569744244 -0.00034446523796510602 0 -0.0044283434157451106 -0.00027569637279268574 0 -0.0044689893569744244 -0.00034446523796510602 0 -0.0044283434157451106 -0.00027569637279268574 0 -0.0044851040049613327 -0.00028876608174472322 0 -0.0044283434157451106 -0.00027569637279268574 0 -0.0044735183708622334 -0.00024093392955001729 0 -0.0044851040049613327 -0.00028876608174472322 0 -0.0044283434157451106 -0.00027569637279268574 0 -0.0043714058876110195 -0.00031424165360782383 0 -0.0043539208721025619 -0.00024659974613779712 0 -0.0044093822758182145 -0.00034393171376667983 0 -0.0044283434157451106 -0.00027569637279268574 0 -0.0043714058876110195 -0.00031424165360782383 0 -0.0043239224136151447 -0.00029241711743597642 0 -0.0043714058876110195 -0.00031424165360782383 0 -0.0043539208721025619 -0.00024659974613779712 0 -0.0044283434157451106 -0.00027569637279268574 0 -0.0043539208721025619 -0.00024659974613779712 0 -0.0044312313928348591 -0.00020333779806959969 0 -0.0043539208721025619 -0.00024659974613779712 0 -0.0044312313928348591 -0.00020333779806959969 0 -0.0043462115495763844 -0.00017528810386415768 0 -0.0044283434157451106 -0.00027569637279268574 0 -0.0044735183708622334 -0.00024093392955001729 0 -0.0044312313928348591 -0.00020333779806959969 0 -0.0044735183708622334 -0.00024093392955001729 0 -0.0044312313928348591 -0.00020333779806959969 0 -0.0045188600838548375 -0.00020442533669307489 0 -0.0044312313928348591 -0.00020333779806959969 0 -0.0044852500159623405 -0.00015769212523584377 0 -0.0045188600838548375 -0.00020442533669307489 0 -0.0044312313928348591 -0.00020333779806959969 0 -0.0044852500159623405 -0.00015769212523584377 0 -0.0044238816331637898 -0.00013894776706600731 0 -0.0044238816331637898 -0.00013894776706600731 0 -0.0043462115495763844 -0.00017528810386415768 0 -0.0043468223472977645 -0.00011399335002791849 0 -0.0044312313928348591 -0.00020333779806959969 0 -0.0044238816331637898 -0.00013894776706600731 0 -0.0043462115495763844 -0.00017528810386415768 0 -0.0045388954810122832 -9.0066221278556501e-05 0 -0.0046209968316850243 -5.6735526397161772e-05 0 -0.0043462115495763844 -0.00017528810386415768 0 -0.0042439180620673792 -0.00016280975456536335 0 -0.0043468223472977645 -0.00011399335002791849 0 -0.0043462115495763844 -0.00017528810386415768 0 -0.0042439180620673792 -0.00016280975456536335 0 -0.0042931590949453393 -0.00020284809385740695 0 -0.0049786527346148326 2.8748268475174966e-05 0 -0.0049801043953312885 -6.9537275847802344e-06 0 -0.0049879644252598179 1.804650691835424e-05 0 -0.0045426545121516563 -6.1768278488139418e-05 0 -0.0045591149290301969 -5.3831555603728837e-05 0 -0.004558816942721344 -7.4058756785303113e-05 0 -0.0045388954810122832 -9.0066221278556501e-05 0 -0.0046695891314644886 -4.2419426290997803e-05 0 -0.0042421055794088563 -0.00016336979759230019 0 -0.0042510599717452621 -0.00021203141257858491 0 -0.0042253247058917382 -0.00017182858812883004 0 -0.0045388954810122832 -9.0066221278556501e-05 0 -0.0044008876057095442 -0.00015146163231363096 0 -0.0045388954810122832 -9.0066221278556501e-05 0 -0.0042508234778146324 -0.00015006893548531546 0 -0.0042421055794088563 -0.00016336979759230019 0 -0.0042510599717452621 -0.00021203141257858491 0 -0.0042931590949453393 -0.00020284809385740695 0 -0.0042510599717452621 -0.00021203141257858491 0 -0.0042835457946000209 -0.00025785955653214338 0 -0.0042931590949453393 -0.00020284809385740695 0 -0.0042510599717452621 -0.00021203141257858491 0 -0.0042835457946000209 -0.00025785955653214338 0 -0.0042176724076233296 -0.00027755417677574493 0 -0.0042510599717452621 -0.00021203141257858491 0 -0.0042176724076233296 -0.00027755417677574493 0 -0.0042253247058917382 -0.00017182858812883004 0 -0.0043539208721025619 -0.00024659974613779712 0 -0.0042835457946000209 -0.00025785955653214338 0 -0.0042931590949453393 -0.00020284809385740695 0 -0.0043539208721025619 -0.00024659974613779712 0 -0.0043462115495763844 -0.00017528810386415768 0 -0.0042931590949453393 -0.00020284809385740695 0 -0.0043495057527352483 -0.00024632820217723738 0 -0.004682942021954236 -0.00032604988102328332 0 -0.0046591520687588248 -0.00028767538271148722 0 -0.0046917696358197833 -0.00030917254057188204 0 -0.0046310338663449755 -0.00032611964055752942 0 -0.0045758305650749048 -0.00022999445627604309 0 -0.0046978845844401736 -0.0002304208932399789 0 -0.0047122492319267286 -0.00028224747099964929 0 -0.0046865288122338138 -0.00028613713045992607 0 -0.0046917696358197833 -0.00030917254057188204 0 -0.0047122492319267286 -0.00028224747099964929 0 -0.0046865288122338138 -0.00028613713045992607 0 -0.004682452571798351 -0.00026571851808293996 0 -0.0046865288122338138 -0.00028613713045992607 0 -0.0046591520687588248 -0.00028767538271148722 0 -0.004682452571798351 -0.00026571851808293996 0 -0.0046584550592234019 -0.00028192121375805165 0 -0.0046978845844401736 -0.0002304208932399789 0 -0.0046865288122338138 -0.00028613713045992607 0 -0.0046591520687588248 -0.00028767538271148722 0 -0.0046917696358197833 -0.00030917254057188204 0 -0.0036964327362576468 -0.0001069914991604588 0 -0.0037515638176561475 -0.00010652121605636943 0 -0.0037525839980569577 -4.6896746889469793e-05 0 -0.0041393695510455629 -0.00024517453335659681 0 -0.0043495057527352483 -0.00024632820217723738 0 -0.0046186422067152301 -0.00039925772068376871 0 -0.0045662148939403695 -0.00040113796577877486 0 -0.0046147302657908711 -0.00033779420998470647 0 -0.0046186422067152301 -0.00039925772068376871 0 -0.0046696757815103754 -0.0003251562930567135 0 -0.0046147302657908711 -0.00033779420998470647 0 -0.0046591520687588248 -0.00028767538271148722 0 -0.0046310338663449755 -0.00032611964055752942 0 -0.0045980223366428666 -0.00028392344669663573 0 -0.0046310338663449755 -0.00032611964055752942 0 -0.0045980223366428666 -0.00028392344669663573 0 -0.0045529817604456528 -0.00034558484959302946 0 -0.0045980223366428666 -0.00028392344669663573 0 -0.0045529817604456528 -0.00034558484959302946 0 -0.0045398414917164212 -0.00025692784428884598 0 -0.0045662148939403695 -0.00040113796577877486 0 -0.0046147302657908711 -0.00033779420998470647 0 -0.0045529817604456528 -0.00034558484959302946 0 -0.004682942021954236 -0.00032604988102328332 0 -0.0045362328918254723 -0.00034828030048553681 0 -0.0044689893569744244 -0.00034446523796510602 0 -0.0045529817604456528 -0.00034558484959302946 0 -0.0044851040049613327 -0.00028876608174472322 0 -0.0045005764330273068 -0.00041479851989419721 0 -0.0044689893569744244 -0.00034446523796510602 0 -0.0045529817604456528 -0.00034558484959302946 0 -0.0045529817604456528 -0.00034558484959302946 0 -0.0044851040049613327 -0.00028876608174472322 0 -0.0045398414917164212 -0.00025692784428884598 0 -0.0044735183708622334 -0.00024093392955001729 0 -0.0045398414917164212 -0.00025692784428884598 0 -0.0045188600838548375 -0.00020442533669307489 0 -0.0044735183708622334 -0.00024093392955001729 0 -0.0044851040049613327 -0.00028876608174472322 0 -0.0045398414917164212 -0.00025692784428884598 0 -0.0045188600838548375 -0.00020442533669307489 0 -0.0045414136352995432 -0.00015492936531427576 0 -0.0046023830097712591 -0.00020998733398858028 0 -0.0044852500159623405 -0.00015769212523584377 0 -0.0045188600838548375 -0.00020442533669307489 0 -0.0045414136352995432 -0.00015492936531427576 0 -0.0045420527722413425 -0.00015488483495965449 0 -0.0046307312558570802 -0.00020407637905526862 0 -0.0045414136352995432 -0.00015492936531427576 0 -0.0046545277568600637 -0.00019357955465591959 0 -0.004646927779011197 -0.00012660352827794941 0 -0.0045398414917164212 -0.00025692784428884598 0 -0.0045188600838548375 -0.00020442533669307489 0 -0.0046023830097712591 -0.00020998733398858028 0 -0.0045980223366428666 -0.00028392344669663573 0 -0.0045398414917164212 -0.00025692784428884598 0 -0.0046023830097712591 -0.00020998733398858028 0 -0.0046591520687588248 -0.00028767538271148722 0 -0.0045980223366428666 -0.00028392344669663573 0 -0.0046023830097712591 -0.00020998733398858028 0 -0.0046307312558570802 -0.00020407637905526862 0 -0.0046978845844401736 -0.0002304208932399789 0 -0.0046591520687588248 -0.00028767538271148722 0 -0.0046023830097712591 -0.00020998733398858028 0 -0.0046875553202109458 -0.00026037040235942562 0 -0.0046545277568600637 -0.00019357955465591959 0 -0.0047400504992782047 -0.00015352100104113901 0 -0.004694716989947896 -0.0001223453726972138 0 -0.0046545277568600637 -0.00019357955465591959 0 -0.004694716989947896 -0.0001223453726972138 0 -0.004646927779011197 -0.00012660352827794941 0 -0.0048017867286915591 -0.00017030333289773765 0 -0.0047400504992782047 -0.00015352100104113901 0 -0.0047403150586056673 -0.00023380447472909609 0 -0.0046545277568600637 -0.00019357955465591959 0 -0.0047400504992782047 -0.00015352100104113901 0 -0.0047403150586056673 -0.00023380447472909609 0 -0.0049616917584411032 -8.0857101080750041e-06 0 -0.0049454185484950263 -2.1979006563794929e-05 0 -0.0049589042108077446 -1.0154567886304016e-05 0 -0.0048738154019912546 -2.9646920691982527e-05 0 -0.0047985415400975924 -7.1480759058958876e-05 0 -0.0049616917584411032 -8.0857101080750041e-06 0 -0.0049454185484950263 -2.1979006563794929e-05 0 -0.0049213082794537701 -7.3936630449900406e-05 0 -0.0047889550215862928 -4.5449990138282878e-05 0 -0.0047431680286238028 -0.00010017379000191936 0 -0.004687927477469051 -7.4314262954225797e-05 0 -0.0047944468611962054 -0.00010923998413506598 0 -0.0047400504992782047 -0.00015352100104113901 0 -0.0047431680286238028 -0.00010017379000191936 0 -0.0047400504992782047 -0.00015352100104113901 0 -0.0047431680286238028 -0.00010017379000191936 0 -0.004694716989947896 -0.0001223453726972138 0 -0.0047431680286238028 -0.00010017379000191936 0 -0.004694716989947896 -0.0001223453726972138 0 -0.004687927477469051 -7.4314262954225797e-05 0 -0.004694716989947896 -0.0001223453726972138 0 -0.004687927477469051 -7.4314262954225797e-05 0 -0.004646927779011197 -0.00012660352827794941 0 -0.0049454185484950263 -2.1979006563794929e-05 0 -0.0049213082794537701 -7.3936630449900406e-05 0 -0.0048928393644496089 -5.7749198341559389e-06 0 -0.0049213082794537701 -7.3936630449900406e-05 0 -0.0048928393644496089 -5.7749198341559389e-06 0 -0.0048167944371746273 -1.0077310759033996e-05 0 -0.0048167944371746273 -1.0077310759033996e-05 0 -0.0045930873967589625 -0.00010912991008701322 0 -0.0045975917886713555 -1.1204992436025255e-05 0 -0.0048928393644496089 -5.7749198341559389e-06 0 -0.0047604772811133582 2.0413551233289279e-05 0 -0.0048167944371746273 -1.0077310759033996e-05 0 -0.0047604772811133582 2.0413551233289279e-05 0 -0.0048167944371746273 -1.0077310759033996e-05 0 -0.0047241226667785819 -2.4355313636392431e-05 0 -0.0049213082794537701 -7.3936630449900406e-05 0 -0.0048167944371746273 -1.0077310759033996e-05 0 -0.0045930873967589625 -0.00010912991008701322 0 -0.0048015917278745835 -5.8850051963948573e-06 0 -0.0046471214104443345 -2.4406034988033239e-05 0 -0.004687927477469051 -7.4314262954225797e-05 0 -0.004646927779011197 -0.00012660352827794941 0 -0.0045930873967589625 -0.00010912991008701322 0 -0.0047985415400975924 -7.1480759058958876e-05 0 -0.0046076080593862624 -0.00010889723362647506 0 -0.0045930873967589625 -0.00010912991008701322 0 -0.0045365579079270479 -7.2393242613495818e-05 0 -0.0045975917886713555 -1.1204992436025255e-05 0 -0.0045414136352995432 -0.00015492936531427576 0 -0.004646927779011197 -0.00012660352827794941 0 -0.0045930873967589625 -0.00010912991008701322 0 -0.0044852500159623405 -0.00015769212523584377 0 -0.0045414136352995432 -0.00015492936531427576 0 -0.0045351099325473777 -0.00011666864995169674 0 -0.0045414136352995432 -0.00015492936531427576 0 -0.0045930873967589625 -0.00010912991008701322 0 -0.0045351099325473777 -0.00011666864995169674 0 -0.0045351099325473777 -0.00011666864995169674 0 -0.0045365579079270479 -7.2393242613495818e-05 0 -0.0044946657945065943 -7.7449750705714494e-05 0 -0.0045930873967589625 -0.00010912991008701322 0 -0.0045351099325473777 -0.00011666864995169674 0 -0.0045365579079270479 -7.2393242613495818e-05 0 -0.0047604772811133582 2.0413551233289279e-05 0 -0.0047241226667785819 -2.4355313636392431e-05 0 -0.0046317404257955773 -4.2451994381989338e-05 0 -0.0046471214104443345 -2.4406034988033239e-05 0 -0.0046537651374651901 -3.4193059207134891e-05 0 -0.004817120773266432 5.2140626554704137e-06 0 -0.0046537651374651901 -3.4193059207134891e-05 0 -0.0048482080448802572 -2.2182213603932674e-06 0 -0.0048150828483146044 6.5755279836090893e-07 0 -0.0047686029229170165 -3.8602052196480788e-05 0 -0.0045365579079270479 -7.2393242613495818e-05 0 -0.0045975917886713555 -1.1204992436025255e-05 0 -0.0044687711745773863 -4.2692735974150835e-05 0 -0.0049990243775959384 4.4300025985482398e-06 0 -0.0049995166538951558 3.1465043040424124e-06 0 -0.0049996970818606849 2.856882302794373e-06 0 -0.0049990243775959384 4.4300025985482398e-06 0 -0.0049995166538951558 3.1465043040424124e-06 0 -0.0049998582684997522 3.13051086878317e-06 0 -0.0049996970818606849 2.856882302794373e-06 0 -0.0049999989411381616 -4.884063515970756e-10 0 -0.0049999998063564016 3.4455662707625061e-09 0 -0.0049995166538951558 3.1465043040424124e-06 0 -0.0049996970818606849 2.856882302794373e-06 0 -0.0049999998063564016 3.4455662707625061e-09 0 -0.0049996970818606849 2.856882302794373e-06 0 -0.0049999989411381616 -4.884063515970756e-10 0 -0.0049979553254778609 3.6839327972532297e-06 0 -0.0049999989411381616 -4.884063515970756e-10 0 -0.0049979553254778609 3.6839327972532297e-06 0 -0.0049914996731231717 3.2668233134593832e-06 0 -0.004817120773266432 5.2140626554704137e-06 0 -0.0049241732096640244 1.9738653799629612e-05 0 -0.0049990243775959384 4.4300025985482398e-06 0 -0.0049996970818606849 2.856882302794373e-06 0 -0.0049976266841833417 9.1500128599907539e-06 0 -0.0048482080448802572 -2.2182213603932674e-06 0 -0.0048150828483146044 6.5755279836090893e-07 0 -0.0048836004740880311 1.9336039797283181e-05 0 -0.0049996970818606849 2.856882302794373e-06 0 -0.0049979553254778609 3.6839327972532297e-06 0 -0.0049976266841833417 9.1500128599907539e-06 0 -0.0049009525739622181 2.5997668193982758e-06 0 -0.0049405709850996226 1.2452324612853982e-05 0 -0.0049979553254778609 3.6839327972532297e-06 0 -0.0049976266841833417 9.1500128599907539e-06 0 -0.0049914996731231717 3.2668233134593832e-06 0 -0.0048482080448802572 -2.2182213603932674e-06 0 -0.0048836004740880311 1.9336039797283181e-05 0 -0.0049416407572575377 1.5761265846211154e-05 0 -0.0049405709850996226 1.2452324612853982e-05 0 -0.004963391425338662 1.3774204859089609e-05 0 -0.0049976266841833417 9.1500128599907539e-06 0 -0.0049914996731231717 3.2668233134593832e-06 0 -0.0049700893290362588 1.3034932598315965e-05 0 -0.0048928393644496089 -5.7749198341559389e-06 0 -0.0047604772811133582 2.0413551233289279e-05 0 -0.0049416407572575377 1.5761265846211154e-05 0 -0.0048836004740880311 1.9336039797283181e-05 0 -0.0049416407572575377 1.5761265846211154e-05 0 -0.0049700893290362588 1.3034932598315965e-05 0 -0.0049454185484950263 -2.1979006563794929e-05 0 -0.0048928393644496089 -5.7749198341559389e-06 0 -0.0049492903858178745 -1.0557790461954428e-06 0 -0.0048928393644496089 -5.7749198341559389e-06 0 -0.0049416407572575377 1.5761265846211154e-05 0 -0.0049492903858178745 -1.0557790461954428e-06 0 -0.0049416407572575377 1.5761265846211154e-05 0 -0.0049576939384947689 8.192603233469924e-06 0 -0.0049492903858178745 -1.0557790461954428e-06 0 -0.0049416407572575377 1.5761265846211154e-05 0 -0.0049700893290362588 1.3034932598315965e-05 0 -0.0049576939384947689 8.192603233469924e-06 0 -0.0049999989411381616 -4.884063515970756e-10 0 -0.0049914996731231717 3.2668233134593832e-06 0 -0.0049999441368390662 8.4282760002421701e-09 0 -0.0049914996731231717 3.2668233134593832e-06 0 -0.0049999441368390662 8.4282760002421701e-09 0 -0.0049700893290362588 1.3034932598315965e-05 0 -0.0049838557683425933 5.8211006340790896e-06 0 -0.0049707322824148028 1.4896303407849711e-06 0 -0.0049700893290362588 1.3034932598315965e-05 0 -0.0049999441368390662 8.4282760002421701e-09 0 -0.0049838557683425933 5.8211006340790896e-06 0 -0.0049700893290362588 1.3034932598315965e-05 0 -0.0049896887994612706 3.9029135148937587e-06 0 -0.0049999441368390662 8.4282760002421701e-09 0 -0.0049838557683425933 5.8211006340790896e-06 0 -0.0049896887994612706 3.9029135148937587e-06 0 -0.0049838557683425933 5.8211006340790896e-06 0 -0.0049707322824148028 1.4896303407849711e-06 0 -0.0049518840925493711 -1.9014108348500095e-05 0 -0.0049707322824148028 1.4896303407849711e-06 0 -0.0049589042108077446 -1.0154567886304016e-05 0 -0.0049707322824148028 1.4896303407849711e-06 0 -0.0049700893290362588 1.3034932598315965e-05 0 -0.0049576939384947689 8.192603233469924e-06 0 -0.0049707322824148028 1.4896303407849711e-06 0 -0.0049576939384947689 8.192603233469924e-06 0 -0.0049492903858178745 -1.0557790461954428e-06 0 -0.0049707322824148028 1.4896303407849711e-06 0 -0.0049492903858178745 -1.0557790461954428e-06 0 -0.0049589042108077446 -1.0154567886304016e-05 0 -0.0049454185484950263 -2.1979006563794929e-05 0 -0.0049492903858178745 -1.0557790461954428e-06 0 -0.0049589042108077446 -1.0154567886304016e-05 0 -0.0049924501946657113 -1.123824030297904e-05 0 -0.0049882470261581732 -1.1237607794279942e-05 0 -0.0049945190167889368 -1.3688170616361232e-05 0 -0.0049944333977001388 -1.1041330095912506e-05 0 -0.0049924501946657113 -1.123824030297904e-05 0 -0.0049945190167889368 -1.3688170616361232e-05 0 -0.0049944333977001388 -1.1041330095912506e-05 0 -0.0049924501946657113 -1.123824030297904e-05 0 -0.004994544626051825 -7.6490728177176988e-06 0 -0.0049944333977001388 -1.1041330095912506e-05 0 -0.0049966899335583499 -9.0432416495312411e-06 0 -0.004994544626051825 -7.6490728177176988e-06 0 -0.0049924501946657113 -1.123824030297904e-05 0 -0.0049882470261581732 -1.1237607794279942e-05 0 -0.004994544626051825 -7.6490728177176988e-06 0 -0.0049900563576140882 -9.8101490758496508e-06 0 -0.0049882470261581732 -1.1237607794279942e-05 0 -0.004994544626051825 -7.6490728177176988e-06 0 -0.0049900563576140882 -9.8101490758496508e-06 0 -0.0049861241885086303 -1.6756962105694989e-05 0 -0.0049902062446982752 -5.0474963086538892e-06 0 -0.0050120415800145876 7.1949312595190223e-06 0 -0.004990734202096358 -4.8017437261802915e-06 0 -0.0049900563576140882 -9.8101490758496508e-06 0 -0.004985735133507572 -1.2714003159260582e-05 0 -0.0049861241885086303 -1.6756962105694989e-05 0 -0.0049900563576140882 -9.8101490758496508e-06 0 -0.004985735133507572 -1.2714003159260582e-05 0 -0.0049882470261581732 -1.1237607794279942e-05 0 -0.0050120415800145876 7.1949312595190223e-06 0 -0.0046695891314644886 -4.2419426290997803e-05 0 -0.0049786527346148326 2.8748268475174966e-05 0 -0.0049801043953312885 -6.9537275847802344e-06 0 -0.0049001471357653847 1.967551425599792e-06 0 -0.0049861241885086303 -1.6756962105694989e-05 0 -0.0049801043953312885 -6.9537275847802344e-06 0 -0.0049879644252598179 1.804650691835424e-05 0 -0.004985735133507572 -1.2714003159260582e-05 0 -0.0049882470261581732 -1.1237607794279942e-05 0 -0.0049801043953312885 -6.9537275847802344e-06 0 -0.004985735133507572 -1.2714003159260582e-05 0 -0.0049861241885086303 -1.6756962105694989e-05 0 -0.0049801043953312885 -6.9537275847802344e-06 0 -0.0049801043953312885 -6.9537275847802344e-06 0 -0.0049001471357653847 1.967551425599792e-06 0 -0.0048986464743828121 -2.8463166780146834e-05 0 -0.0049625842735613428 -1.1448221970771021e-05 0 -0.0049857639233919469 -1.5788750817470827e-05 0 -0.0049882470261581732 -1.1237607794279942e-05 0 -0.0049801043953312885 -6.9537275847802344e-06 0 -0.0049945190167889368 -1.3688170616361232e-05 0 -0.0044238816331637898 -0.00013894776706600731 0 -0.0043468223472977645 -0.00011399335002791849 0 -0.0044595601128578641 -5.8087529217799332e-05 0 -0.0049857639233919469 -1.5788750817470827e-05 0 -0.0047162385922647739 -2.8927837701082024e-05 0 -0.0049001471357653847 1.967551425599792e-06 0 -0.0048986464743828121 -2.8463166780146834e-05 0 -0.0047981683393695145 -4.553789053927826e-05 0 -0.0046209968316850243 -5.6735526397161772e-05 0 -0.0047162385922647739 -2.8927837701082024e-05 0 -0.0044238816331637898 -0.00013894776706600731 0 -0.0044814329439101224 -0.00011159303342052462 0 -0.0044595601128578641 -5.8087529217799332e-05 0 -0.0044852500159623405 -0.00015769212523584377 0 -0.0045351099325473777 -0.00011666864995169674 0 -0.0044814329439101224 -0.00011159303342052462 0 -0.0044852500159623405 -0.00015769212523584377 0 -0.0044238816331637898 -0.00013894776706600731 0 -0.0044814329439101224 -0.00011159303342052462 0 -0.0045314148265802141 -5.9508381753538015e-05 0 -0.0047162385922647739 -2.8927837701082024e-05 0 -0.0045365579079270479 -7.2393242613495818e-05 0 -0.0044946657945065943 -7.7449750705714494e-05 0 -0.0044687711745773863 -4.2692735974150835e-05 0 -0.0044814329439101224 -0.00011159303342052462 0 -0.0044946657945065943 -7.7449750705714494e-05 0 -0.0044492134103543239 -4.7278437853923282e-05 0 -0.0045351099325473777 -0.00011666864995169674 0 -0.0044814329439101224 -0.00011159303342052462 0 -0.0044946657945065943 -7.7449750705714494e-05 0 -0.0049990243775959384 4.4300025985482398e-06 0 -0.0049996766872851999 3.6906715532840052e-06 0 -0.0049998582684997522 3.13051086878317e-06 0 -0.0049009525739622181 2.5997668193982758e-06 0 -0.0049147776927316025 -3.4648548312343498e-05 0 -0.0048150828483146044 6.5755279836090893e-07 0 -0.0047686029229170165 -3.8602052196480788e-05 0 -0.0047518546997527547 -2.4440284733599067e-05 0 -0.0044946657945065943 -7.7449750705714494e-05 0 -0.0044687711745773863 -4.2692735974150835e-05 0 -0.0044492134103543239 -4.7278437853923282e-05 0 -0.0047162385922647739 -2.8927837701082024e-05 0 -0.0049147776927316025 -3.4648548312343498e-05 0 -0.0046537651374651901 -3.4193059207134891e-05 0 -0.0047162385922647739 -2.8927837701082024e-05 0 -0.0047686029229170165 -3.8602052196480788e-05 0 -0.0047583183547279745 -4.0604814291860726e-05 0 -0.0047518546997527547 -2.4440284733599067e-05 0 -0.00500020856099856 -1.1048835523301812e-05 0 -0.0049966899335583499 -9.0432416495312411e-06 0 -0.0049993627056890049 -4.5860486191627888e-06 0 -0.0049945190167889368 -1.3688170616361232e-05 0 -0.0049930112472881122 -1.219694385071226e-05 0 -0.0049945777851489806 -1.2914480826506552e-05 0 -0.0049944333977001388 -1.1041330095912506e-05 0 -0.0049945190167889368 -1.3688170616361232e-05 0 -0.0049945777851489806 -1.2914480826506552e-05 0 -0.0049944333977001388 -1.1041330095912506e-05 0 -0.0049945777851489806 -1.2914480826506552e-05 0 -0.0049966899335583499 -9.0432416495312411e-06 0 -0.0049147776927316025 -3.4648548312343498e-05 0 -0.0050151913210989959 -3.0982933900518075e-06 0 -0.0049930112472881122 -1.219694385071226e-05 0 -0.0049930979273830941 -1.2777427618195746e-05 0 -0.0049945777851489806 -1.2914480826506552e-05 0 -0.00500020856099856 -1.1048835523301812e-05 0 -0.0049945777851489806 -1.2914480826506552e-05 0 -0.0049966899335583499 -9.0432416495312411e-06 0 -0.0049147776927316025 -3.4648548312343498e-05 0 -0.0050057976983447234 4.8850449150882937e-07 0 -0.0049966899335583499 -9.0432416495312411e-06 0 -0.0049993627056890049 -4.5860486191627888e-06 0 -0.004994544626051825 -7.6490728177176988e-06 0 -0.0049996766872851999 3.6906715532840052e-06 0 -0.0050005988943784491 2.084825984639743e-06 0 -0.0049998582684997522 3.13051086878317e-06 0 -0.0049995166538951558 3.1465043040424124e-06 0 -0.0049998582684997522 3.13051086878317e-06 0 -0.0049999998063564016 3.4455662707625061e-09 0 -0.0050005988943784491 2.084825984639743e-06 0 -0.0049998582684997522 3.13051086878317e-06 0 -0.0049999998063564016 3.4455662707625061e-09 0 -0.0050005988943784491 2.084825984639743e-06 0 -0.0049999998063564016 3.4455662707625061e-09 0 -0.0050000025522035996 -1.9872711952166726e-10 0 -0.0050057976983447234 4.8850449150882937e-07 0 -0.0049999978222259626 6.2042068270954553e-10 0 -0.0049993627056890049 -4.5860486191627888e-06 0 -0.0050000000643361207 -1.326491795598744e-09 0 -0.0049976654742605858 -2.8310688217220407e-06 0 -0.0050000000643361207 -1.326491795598744e-09 0 -0.0049999964823698034 -1.2808619027447745e-09 0 -0.0049976654742605858 -2.8310688217220407e-06 0 -0.0049999964823698034 -1.2808619027447745e-09 0 -0.0049976654742605858 -2.8310688217220407e-06 0 -0.0049960603209669233 -2.3463938806604624e-06 0 -0.0049976654742605858 -2.8310688217220407e-06 0 -0.004994544626051825 -7.6490728177176988e-06 0 -0.0049960603209669233 -2.3463938806604624e-06 0 -0.0049993627056890049 -4.5860486191627888e-06 0 -0.0049976654742605858 -2.8310688217220407e-06 0 -0.004994544626051825 -7.6490728177176988e-06 0 -0.0049900563576140882 -9.8101490758496508e-06 0 -0.004994544626051825 -7.6490728177176988e-06 0 -0.0049960603209669233 -2.3463938806604624e-06 0 -0.0049900563576140882 -9.8101490758496508e-06 0 -0.0049902062446982752 -5.0474963086538892e-06 0 -0.0049960603209669233 -2.3463938806604624e-06 0 -0.0049902062446982752 -5.0474963086538892e-06 0 -0.0049999899021820875 7.9124952925465912e-11 0 -0.0049960603209669233 -2.3463938806604624e-06 0 -0.0049999964823698034 -1.2808619027447745e-09 0 -0.0049999899021820875 7.9124952925465912e-11 0 -0.0049960603209669233 -2.3463938806604624e-06 0 -0.004990734202096358 -4.8017437261802915e-06 0 -0.0049999969748416471 2.4717918086214739e-09 0 -0.0049999920718131986 7.6512911546586937e-10 0 -0.0049968768240080076 6.8899609336844292e-07 0 -0.004999999541951676 -7.6249431050126906e-10 0 -0.0049942121928584649 1.4262206521598247e-06 0 -0.0049999920718131986 7.6512911546586937e-10 0 -0.0049968768240080076 6.8899609336844292e-07 0 -0.004999999541951676 -7.6249431050126906e-10 0 -0.0049960747184897986 8.4343923280695395e-07 0 -0.0049999822264129509 5.0611110657458872e-09 0 -0.0049968768240080076 6.8899609336844292e-07 0 -0.004999999541951676 -7.6249431050126906e-10 0 -0.0049960747184897986 8.4343923280695395e-07 0 -0.0051027482970100041 2.6957488995579109e-05 0 -0.0044715326854599113 4.93182969458714e-05 0 -0.0049960747184897986 8.4343923280695395e-07 0 -0.0049929962103362159 2.5690868955659858e-06 0 -0.0049911288038385054 3.690483444574967e-06 0 -0.0049968768240080076 6.8899609336844292e-07 0 -0.0049960747184897986 8.4343923280695395e-07 0 -0.0049929962103362159 2.5690868955659858e-06 0 -0.0049942121928584649 1.4262206521598247e-06 0 -0.0049968768240080076 6.8899609336844292e-07 0 -0.0049929962103362159 2.5690868955659858e-06 0 -0.0049893279656016299 3.8102819736265053e-06 0 -0.0049942121928584649 1.4262206521598247e-06 0 -0.0049929962103362159 2.5690868955659858e-06 0 -0.0049893279656016299 3.8102819736265053e-06 0 -0.0049929962103362159 2.5690868955659858e-06 0 -0.0049899011637684378 5.0351115883900481e-06 0 -0.0049929962103362159 2.5690868955659858e-06 0 -0.0049899011637684378 5.0351115883900481e-06 0 -0.0049911288038385054 3.690483444574967e-06 0 -0.0046494234903321262 5.8001183986612022e-06 0 -0.0044715326854599113 4.93182969458714e-05 0 -0.0049893279656016299 3.8102819736265053e-06 0 -0.0049899011637684378 5.0351115883900481e-06 0 -0.0049853916124778198 6.9457798893058169e-06 0 -0.0046494234903321262 5.8001183986612022e-06 0 -0.0046695891314644886 -4.2419426290997803e-05 0 -0.0037980773359014021 -5.1342078774999867e-05 0 -0.0037316930268150614 -2.2675222274752859e-05 0 -0.0037108485733636253 -7.7215057073530958e-05 0 -0.0037980773359014021 -5.1342078774999867e-05 0 -0.0037809679555431295 3.3346336851608587e-05 0 -0.0037316930268150614 -2.2675222274752859e-05 0 -0.0037980773359014021 -5.1342078774999867e-05 0 -0.0038522043489496918 3.8989541992263796e-05 0 -0.0037809679555431295 3.3346336851608587e-05 0 -0.0038840710692749874 -6.2435776680996259e-05 0 -0.0044715326854599113 4.93182969458714e-05 0 -0.0042737140421277168 1.7377060150121771e-05 0 -0.0040823735683328021 -4.436648234360021e-05 0 -0.0041547494252233341 0.00010894671753770532 0 -0.0044715326854599113 4.93182969458714e-05 0 -0.0046205561454258776 1.7454776255919738e-05 0 -0.0038522043489496918 3.8989541992263796e-05 0 -0.0037809679555431295 3.3346336851608587e-05 0 -0.0037697190054158539 0.00010503842300446058 0 -0.0037809679555431295 3.3346336851608587e-05 0 -0.0037137272797723637 3.7547167645752313e-05 0 -0.0037316930268150614 -2.2675222274752859e-05 0 -0.0046205561454258776 1.7454776255919738e-05 0 -0.0042048038277211468 -1.7830556554976656e-05 0 -0.0037809679555431295 3.3346336851608587e-05 0 -0.0037697190054158539 0.00010503842300446058 0 -0.0037137272797723637 3.7547167645752313e-05 0 -0.0046205561454258776 1.7454776255919738e-05 0 -0.0050507020406653762 -0.00011659821505238501 0 -0.0049960747184897986 8.4343923280695395e-07 0 -0.0049896288682108195 -1.9075268297351663e-06 0 -0.0049885111826235068 1.2461376401105155e-07 0 -0.0049960747184897986 8.4343923280695395e-07 0 -0.0049885111826235068 1.2461376401105155e-07 0 -0.0049999822264129509 5.0611110657458872e-09 0 -0.0050000540340869393 -3.1297936241725044e-08 0 -0.0049999561839968246 2.7281184655669004e-08 0 -0.0050093730764879376 -3.4348338156271712e-05 0 -0.0046205561454258776 1.7454776255919738e-05 0 -0.0050003628593347895 1.4891210427028934e-07 0 -0.0050079193400202658 -3.1304829736946411e-05 0 -0.0050000540340869393 -3.1297936241725044e-08 0 -0.0050093730764879376 -3.4348338156271712e-05 0 -0.0049999561839968246 2.7281184655669004e-08 0 -0.0050093730764879376 -3.4348338156271712e-05 0 -0.0050092438835330592 -6.5762573370976943e-05 0 -0.0049999561839968246 2.7281184655669004e-08 0 -0.0050092438835330592 -6.5762573370976943e-05 0 -0.0050002491155095655 -2.5659012295859297e-07 0 -0.0050092438835330592 -6.5762573370976943e-05 0 -0.0050045478246282448 -0.00011208566159999336 0 -0.005010530172201785 -8.0035174283137227e-05 0 -0.0050295552768526656 -5.7379116428524998e-05 0 -0.0050118307669359185 -6.0506708783046171e-05 0 -0.005010530172201785 -8.0035174283137227e-05 0 -0.0050093730764879376 -3.4348338156271712e-05 0 -0.0050092438835330592 -6.5762573370976943e-05 0 -0.0050118307669359185 -6.0506708783046171e-05 0 -0.0050092438835330592 -6.5762573370976943e-05 0 -0.0050118307669359185 -6.0506708783046171e-05 0 -0.005010530172201785 -8.0035174283137227e-05 0 -0.0050295552768526656 -5.7379116428524998e-05 0 -0.0050093730764879376 -3.4348338156271712e-05 0 -0.0050118307669359185 -6.0506708783046171e-05 0 -0.0049991162110545433 5.5981554523730515e-07 0 -0.0049914204987658879 -8.5736800794976805e-05 0 -0.0048861362282651482 -0.00027497216964228314 0 -0.0050092438835330592 -6.5762573370976943e-05 0 -0.0049914204987658879 -8.5736800794976805e-05 0 -0.0050002491155095655 -2.5659012295859297e-07 0 -0.0049991162110545433 5.5981554523730515e-07 0 -0.0049914204987658879 -8.5736800794976805e-05 0 -0.0050002491155095655 -2.5659012295859297e-07 0 -0.0050092438835330592 -6.5762573370976943e-05 0 -0.0049914204987658879 -8.5736800794976805e-05 0 -0.0050045478246282448 -0.00011208566159999336 0 -0.0049914204987658879 -8.5736800794976805e-05 0 -0.0048861362282651482 -0.00027497216964228314 0 -0.0050045478246282448 -0.00011208566159999336 0 -0.0042588981132411653 -0.00018747829976044524 0 -0.0043435798820076121 -0.00011485519424002066 0 -0.0036791767931985595 -0.0001361287530519195 0 -0.0036604937364122913 -6.5688163528152159e-05 0 -0.0036352696609616118 -8.057156777593709e-05 0 -0.0036604937364122913 -6.5688163528152159e-05 0 -0.0036352696609616118 -8.057156777593709e-05 0 -0.0036308053744848654 -5.2685712981031116e-05 0 -0.0036604937364122913 -6.5688163528152159e-05 0 -0.0036308053744848654 -5.2685712981031116e-05 0 -0.0035745764393199583 -5.338315194445022e-05 0 -0.0036604937364122913 -6.5688163528152159e-05 0 -0.0035745764393199583 -5.338315194445022e-05 0 -0.0036293949341554238 -4.7943974095791033e-05 0 -0.0043435798820076121 -0.00011485519424002066 0 -0.0042048038277211468 -1.7830556554976656e-05 0 -0.0036352696609616118 -8.057156777593709e-05 0 -0.0036371563426770936 -6.067687521366873e-05 0 -0.0036397638346608854 -5.9473737484758657e-05 0 -0.0036352696609616118 -8.057156777593709e-05 0 -0.0036308053744848654 -5.2685712981031116e-05 0 -0.0036397638346608854 -5.9473737484758657e-05 0 -0.0036308053744848654 -5.2685712981031116e-05 0 -0.003651042111523054 -4.9479178459905089e-05 0 -0.0036272714021590717 -7.1501486290232019e-05 0 -0.0036308053744848654 -5.2685712981031116e-05 0 -0.0036397638346608854 -5.9473737484758657e-05 0 -0.003651042111523054 -4.9479178459905089e-05 0 -0.0036371563426770936 -6.067687521366873e-05 0 -0.0036397638346608854 -5.9473737484758657e-05 0 -0.003651042111523054 -4.9479178459905089e-05 0 -0.003651042111523054 -4.9479178459905089e-05 0 -0.0037316930268150614 -2.2675222274752859e-05 0 -0.0037108485733636253 -7.7215057073530958e-05 0 -0.0042048038277211468 -1.7830556554976656e-05 0 -0.0035165816757493384 -0.00010194297597997309 0 -0.0037137272797723637 3.7547167645752313e-05 0 -0.003651042111523054 -4.9479178459905089e-05 0 -0.0037316930268150614 -2.2675222274752859e-05 0 -0.003651042111523054 -4.9479178459905089e-05 0 -0.0037108485733636253 -7.7215057073530958e-05 0 -0.0036721472538393599 -0.0001092084275513297 0 -0.003651042111523054 -4.9479178459905089e-05 0 -0.0036721472538393599 -0.0001092084275513297 0 -0.0036272714021590717 -7.1501486290232019e-05 0 -0.0036721472538393599 -0.0001092084275513297 0 -0.0036272714021590717 -7.1501486290232019e-05 0 -0.0036087185195725641 -0.00012835044770029372 0 -0.0036721472538393599 -0.0001092084275513297 0 -0.0037143741524688872 -0.00017884565472937639 0 -0.0037473850628296783 -0.00012011705394356126 0 -0.0037108485733636253 -7.7215057073530958e-05 0 -0.0036721472538393599 -0.0001092084275513297 0 -0.0037473850628296783 -0.00012011705394356126 0 -0.0036308053744848654 -5.2685712981031116e-05 0 -0.0035745764393199583 -5.338315194445022e-05 0 -0.0036272714021590717 -7.1501486290232019e-05 0 -0.0035596567233733552 -5.136243036716904e-05 0 -0.003529060931713819 -5.9064365563004742e-05 0 -0.0035745764393199583 -5.338315194445022e-05 0 -0.0036272714021590717 -7.1501486290232019e-05 0 -0.0036087185195725641 -0.00012835044770029372 0 -0.0035745764393199583 -5.338315194445022e-05 0 -0.0035159431274194822 9.8081555949600373e-06 0 -0.0035659302162694738 3.899769725931874e-06 0 -0.0035745764393199583 -5.338315194445022e-05 0 -0.0034294812907577914 1.7745754336504109e-05 0 -0.0035159431274194822 9.8081555949600373e-06 0 -0.003425460087380084 7.9786483382406691e-05 0 -0.0034409472399133194 0.00011000003863169859 0 -0.0034977497446429784 6.1525873822978092e-05 0 -0.0035159431274194822 9.8081555949600373e-06 0 -0.003425460087380084 7.9786483382406691e-05 0 -0.0034977497446429784 6.1525873822978092e-05 0 -0.0034294812907577914 1.7745754336504109e-05 0 -0.003425460087380084 7.9786483382406691e-05 0 -0.0033671572559180606 9.1972879832757736e-05 0 -0.003529060931713819 -5.9064365563004742e-05 0 -0.0034762443963298052 -1.4966546220149889e-05 0 -0.0034294812907577914 1.7745754336504109e-05 0 -0.0035159431274194822 9.8081555949600373e-06 0 -0.003425460087380084 7.9786483382406691e-05 0 -0.003425460087380084 7.9786483382406691e-05 0 -0.0033918354964782753 0.00012306472561644092 0 -0.0034409472399133194 0.00011000003863169859 0 -0.003425460087380084 7.9786483382406691e-05 0 -0.0033918354964782753 0.00012306472561644092 0 -0.0033671572559180606 9.1972879832757736e-05 0 -0.0033918354964782753 0.00012306472561644092 0 -0.0034409472399133194 0.00011000003863169859 0 -0.0034095944103480951 0.00013598257280430238 0 -0.0036721472538393599 -0.0001092084275513297 0 -0.0036087185195725641 -0.00012835044770029372 0 -0.0036462638570268382 -0.00018573583044772417 0 -0.0036721472538393599 -0.0001092084275513297 0 -0.0037143741524688872 -0.00017884565472937639 0 -0.0036462638570268382 -0.00018573583044772417 0 -0.0033918354964782753 0.00012306472561644092 0 -0.0033671572559180606 9.1972879832757736e-05 0 -0.0033679130213325518 0.00013410024024462634 0 -0.0034762443963298052 -1.4966546220149889e-05 0 -0.0036989033619059058 -0.0001791049679454362 0 -0.0033671572559180606 9.1972879832757736e-05 0 -0.0033425414482957873 0.0001363404010768311 0 -0.0033679130213325518 0.00013410024024462634 0 -0.0039553606229027864 -0.00031347659424448975 0 -0.0039661613951035811 -0.00036043157355867671 0 -0.0039120137300028895 -0.00039969166263961774 0 -0.0038402830737745285 -0.00027097175681607509 0 -0.0036989033619059058 -0.0001791049679454362 0 -0.0037143741524688872 -0.00017884565472937639 0 -0.0036462638570268382 -0.00018573583044772417 0 -0.0036850170771357167 -0.00024020277182537113 0 -0.0039661613951035811 -0.00036043157355867671 0 -0.003993474792455722 -0.00037049544107789657 0 -0.0040047634594808888 -0.00032764013480389502 0 -0.0039661613951035811 -0.00036043157355867671 0 -0.003993474792455722 -0.00037049544107789657 0 -0.0039682392759443283 -0.00038927870220554161 0 -0.003993474792455722 -0.00037049544107789657 0 -0.0040369690519985761 -0.00036124005568296928 0 -0.0040421930619779318 -0.00041389361886753949 0 -0.003993474792455722 -0.00037049544107789657 0 -0.0040047634594808888 -0.00032764013480389502 0 -0.0040369690519985761 -0.00036124005568296928 0 -0.0040047634594808888 -0.00032764013480389502 0 -0.0040564514215696299 -0.00033024972543213988 0 -0.0040369690519985761 -0.00036124005568296928 0 -0.0039553606229027864 -0.00031347659424448975 0 -0.0039661613951035811 -0.00036043157355867671 0 -0.0040047634594808888 -0.00032764013480389502 0 -0.0039553606229027864 -0.00031347659424448975 0 -0.0039894606485744426 -0.00027920715275723992 0 -0.0040131611224102325 -0.00019523750229069535 0 -0.0039894606485744426 -0.00027920715275723992 0 -0.0040397453975750267 -0.00029403648272234388 0 -0.00406565705125896 -0.00024603219770283076 0 -0.0039976835680604781 -0.00027792785456702562 0 -0.0040935197677490001 -0.00023885959691735548 0 -0.0038402830737745285 -0.00027097175681607509 0 -0.0038888494705900355 -0.00014717132874593171 0 -0.0039553606229027864 -0.00031347659424448975 0 -0.0040047634594808888 -0.00032764013480389502 0 -0.0039894606485744426 -0.00027920715275723992 0 -0.0040047634594808888 -0.00032764013480389502 0 -0.0040397453975750267 -0.00029403648272234388 0 -0.0040564514215696299 -0.00033024972543213988 0 -0.0040047634594808888 -0.00032764013480389502 0 -0.0039894606485744426 -0.00027920715275723992 0 -0.0040397453975750267 -0.00029403648272234388 0 -0.0040917442795154685 -0.00028616211053500619 0 -0.0040397453975750267 -0.00029403648272234388 0 -0.00406565705125896 -0.00024603219770283076 0 -0.0040917442795154685 -0.00028616211053500619 0 -0.0040397453975750267 -0.00029403648272234388 0 -0.0040564514215696299 -0.00033024972543213988 0 -0.0040917442795154685 -0.00028616211053500619 0 -0.0040564514215696299 -0.00033024972543213988 0 -0.0041023771606016014 -0.00032909478115924795 0 -0.0040564514215696299 -0.00033024972543213988 0 -0.0040872894303444606 -0.00036536685061223359 0 -0.0041023771606016014 -0.00032909478115924795 0 -0.0040369690519985761 -0.00036124005568296928 0 -0.0040872894303444606 -0.00036536685061223359 0 -0.0040421930619779318 -0.00041389361886753949 0 -0.0040564514215696299 -0.00033024972543213988 0 -0.0040369690519985761 -0.00036124005568296928 0 -0.0040872894303444606 -0.00036536685061223359 0 -0.0040872894303444606 -0.00036536685061223359 0 -0.0041375630955967054 -0.00034949646702708007 0 -0.0041604796011994851 -0.00039044967692223009 0 -0.0040872894303444606 -0.00036536685061223359 0 -0.0041375630955967054 -0.00034949646702708007 0 -0.0041023771606016014 -0.00032909478115924795 0 -0.0041375630955967054 -0.00034949646702708007 0 -0.0041023771606016014 -0.00032909478115924795 0 -0.0041477259101796371 -0.00030229910025407155 0 -0.0042588441121318901 -0.00037179511850562959 0 -0.0041537138601447626 -0.00038909776576008873 0 -0.0042642553544799859 -0.00037113606817475582 0 -0.0041988482418078774 -0.00033581609395729974 0 -0.0041604796011994851 -0.00039044967692223009 0 -0.0041375630955967054 -0.00034949646702708007 0 -0.0041988482418078774 -0.00033581609395729974 0 -0.0041477259101796371 -0.00030229910025407155 0 -0.0041375630955967054 -0.00034949646702708007 0 -0.0041988482418078774 -0.00033581609395729974 0 -0.0041604796011994851 -0.00039044967692223009 0 -0.0041988482418078774 -0.00033581609395729974 0 -0.0042176724076233296 -0.00027755417677574493 0 -0.0041477259101796371 -0.00030229910025407155 0 -0.0042176724076233296 -0.00027755417677574493 0 -0.0041477259101796371 -0.00030229910025407155 0 -0.0041435055726159733 -0.00020910807995850209 0 -0.0040917442795154685 -0.00028616211053500619 0 -0.0041477259101796371 -0.00030229910025407155 0 -0.0041435055726159733 -0.00020910807995850209 0 -0.0040917442795154685 -0.00028616211053500619 0 -0.0041023771606016014 -0.00032909478115924795 0 -0.0041477259101796371 -0.00030229910025407155 0 -0.0041841372905043403 -0.00019540272728427229 0 -0.0040935197677490001 -0.00023885959691735548 0 -0.004255745275235763 -0.00017505109988857459 0 -0.0041724594642017125 -0.00012085474200262222 0 -0.0041173813073762163 -0.00023506812977290705 0 -0.0040917442795154685 -0.00028616211053500619 0 -0.0041435055726159733 -0.00020910807995850209 0 -0.00406565705125896 -0.00024603219770283076 0 -0.0042176724076233296 -0.00027755417677574493 0 -0.0041435055726159733 -0.00020910807995850209 0 -0.0042235603461678109 -0.00017041445970171322 0 -0.0041769578361168938 -0.00028161322903180291 0 -0.0044008876057095442 -0.00015146163231363096 0 -0.0042737140421277168 1.7377060150121771e-05 0 -0.004299068674553228 -8.9527841757312913e-05 0 -0.0043949830271320968 -7.503375872401005e-05 0 -0.0041841372905043403 -0.00019540272728427229 0 -0.0044008876057095442 -0.00015146163231363096 0 -0.004255745275235763 -0.00017505109988857459 0 -0.0043936350301151707 -0.0001105679462660585 0 -0.004299068674553228 -8.9527841757312913e-05 0 -0.0043936350301151707 -0.0001105679462660585 0 -0.004299068674553228 -8.9527841757312913e-05 0 -0.0043949830271320968 -7.503375872401005e-05 0 -0.0044008876057095442 -0.00015146163231363096 0 -0.0046695891314644886 -4.2419426290997803e-05 0 -0.004255745275235763 -0.00017505109988857459 0 -0.004299068674553228 -8.9527841757312913e-05 0 -0.0041724594642017125 -0.00012085474200262222 0 -0.0042737140421277168 1.7377060150121771e-05 0 -0.004299068674553228 -8.9527841757312913e-05 0 -0.0041724594642017125 -0.00012085474200262222 0 -0.0040823735683328021 -4.436648234360021e-05 0 -0.0041724594642017125 -0.00012085474200262222 0 -0.0040131611224102325 -0.00019523750229069535 0 -0.0042737140421277168 1.7377060150121771e-05 0 -0.0040823735683328021 -4.436648234360021e-05 0 -0.0041724594642017125 -0.00012085474200262222 0 -0.0037980773359014021 -5.1342078774999867e-05 0 -0.0037108485733636253 -7.7215057073530958e-05 0 -0.0037473850628296783 -0.00012011705394356126 0 -0.0038840710692749874 -6.2435776680996259e-05 0 -0.0038888494705900355 -0.00014717132874593171 0 -0.0039894606485744426 -0.00027920715275723992 0 -0.0040131611224102325 -0.00019523750229069535 0 -0.0041173813073762163 -0.00023506812977290705 0 -0.0041724594642017125 -0.00012085474200262222 0 -0.0040131611224102325 -0.00019523750229069535 0 -0.0041173813073762163 -0.00023506812977290705 0 -0.0043780585839322192 -2.3815185531495724e-07 0 -0.0047320806460677354 1.5679742885030071e-07 0 -0.0048536024120913032 1.6078968006826613e-05 0 -0.0043774050679832024 -5.8893048777540563e-08 0 -0.0043889350913618825 -0.00010291292015605905 0 -0.0043780585839322192 -2.3815185531495724e-07 0 -0.0046579576110615329 -5.8228116703071752e-05 0 -0.0047320806460677354 1.5679742885030071e-07 0 -0.003967504553334637 -0.00014593189625662848 0 -0.0040923735098347793 -0.00019013064081376753 0 -0.0039363708806298588 -0.00026304997065651259 0 -0.003967504553334637 -0.00014593189625662848 0 -0.0040923735098347793 -0.00019013064081376753 0 -0.0039906301810039941 -6.0125313846087334e-05 0 -0.0046579576110615329 -5.8228116703071752e-05 0 -0.0047546820867295893 -1.6801132697748095e-05 0 -0.0048250833610884152 -4.4869576251410257e-05 0 -0.0043889350913618825 -0.00010291292015605905 0 -0.0042982985800156456 -0.00011957373999687693 0 -0.0047546820867295893 -1.6801132697748095e-05 0 -0.0047320806460677354 1.5679742885030071e-07 0 -0.0048144231830090645 3.5649040245094384e-06 0 -0.0046579576110615329 -5.8228116703071752e-05 0 -0.0047546820867295893 -1.6801132697748095e-05 0 -0.0047320806460677354 1.5679742885030071e-07 0 -0.0047320806460677354 1.5679742885030071e-07 0 -0.0048144231830090645 3.5649040245094384e-06 0 -0.0048528612456703001 1.9443094072841883e-05 0 -0.0045815544551851654 -9.115067372681615e-05 0 -0.0042982985800156456 -0.00011957373999687693 0 -0.0047546820867295893 -1.6801132697748095e-05 0 -0.0048144231830090645 3.5649040245094384e-06 0 -0.0048250833610884152 -4.4869576251410257e-05 0 -0.0043780585839322192 -2.3815185531495724e-07 0 -0.0048536024120913032 1.6078968006826613e-05 0 -0.0049997851154573725 1.3357815905529399e-07 0 -0.0048536024120913032 1.6078968006826613e-05 0 -0.0049997851154573725 1.3357815905529399e-07 0 -0.0049997352613592077 -3.3622466694270599e-08 0 -0.0049997352613592077 -3.3622466694270599e-08 0 -0.0048528612456703001 1.9443094072841883e-05 0 -0.0048630402968786388 2.1233868526477031e-05 0 -0.0048536024120913032 1.6078968006826613e-05 0 -0.0049997352613592077 -3.3622466694270599e-08 0 -0.0048528612456703001 1.9443094072841883e-05 0 -0.0048144231830090645 3.5649040245094384e-06 0 -0.0048528612456703001 1.9443094072841883e-05 0 -0.0048630402968786388 2.1233868526477031e-05 0 -0.0047320806460677354 1.5679742885030071e-07 0 -0.0048536024120913032 1.6078968006826613e-05 0 -0.0048528612456703001 1.9443094072841883e-05 0 -0.0049777906558614721 -3.832806937215582e-07 0 -0.0043353019079319698 -6.9271545824825856e-05 0 -0.0049943237799778091 -1.9866464043738036e-06 0 -0.0049945164201496001 -2.2952981724401459e-06 0 -0.004988420603966915 -4.9315907935300507e-06 0 -0.0049999953367012217 -1.6934136479257636e-10 0 -0.0049943237799778091 -1.9866464043738036e-06 0 -0.0049999902261964541 -2.0854158947210598e-09 0 -0.0049726207488044972 1.336856562366269e-05 0 -0.0049777906558614721 -3.832806937215582e-07 0 -0.0049999902261964541 -2.0854158947210598e-09 0 -0.0049945164201496001 -2.2952981724401459e-06 0 -0.0049966134280011749 -1.6693577772745749e-06 0 -0.0049943237799778091 -1.9866464043738036e-06 0 -0.0049999902261964541 -2.0854158947210598e-09 0 -0.0049945164201496001 -2.2952981724401459e-06 0 -0.0049945164201496001 -2.2952981724401459e-06 0 -0.004988420603966915 -4.9315907935300507e-06 0 -0.0049926776090564997 -3.9551799270472386e-06 0 -0.0043353019079319698 -6.9271545824825856e-05 0 -0.0043699742090616191 -5.2263052682189704e-05 0 -0.0037568046353033328 -0.00010003246403288726 0 -0.0037221687998583068 -8.8610976325992336e-05 0 -0.0037322093592591756 -0.00010849341759751125 0 -0.0048144231830090645 3.5649040245094384e-06 0 -0.0048630402968786388 2.1233868526477031e-05 0 -0.0048454450955533745 -3.4687188171307161e-06 0 -0.0048144231830090645 3.5649040245094384e-06 0 -0.0048454450955533745 -3.4687188171307161e-06 0 -0.0048184358461226765 -1.5457368281720351e-05 0 -0.0043353019079319698 -6.9271545824825856e-05 0 -0.0042982985800156456 -0.00011957373999687693 0 -0.0037198003403982258 -0.00012897644668343256 0 -0.0037680633848764218 -0.00015934215307668962 0 -0.0037234268019502 -6.4343131335424541e-05 0 -0.003967504553334637 -0.00014593189625662848 0 -0.0039363708806298588 -0.00026304997065651259 0 -0.0038611337483299246 -7.8971636719890544e-05 0 -0.0037198003403982258 -0.00012897644668343256 0 -0.0036769995173549586 -9.5887635100996911e-05 0 -0.0037234268019502 -6.4343131335424541e-05 0 -0.0037154701649584191 -0.00018475954955934248 0 -0.0037198003403982258 -0.00012897644668343256 0 -0.0037680633848764218 -0.00015934215307668962 0 -0.0042982985800156456 -0.00011957373999687693 0 -0.0037428643826977409 -7.6014595053478274e-05 0 -0.0037154701649584191 -0.00018475954955934248 0 -0.0037198003403982258 -0.00012897644668343256 0 -0.0036769995173549586 -9.5887635100996911e-05 0 -0.0037568046353033328 -0.00010003246403288726 0 -0.0037412847526237607 -6.8588066464394997e-05 0 -0.0037221687998583068 -8.8610976325992336e-05 0 -0.0037412847526237607 -6.8588066464394997e-05 0 -0.0037221687998583068 -8.8610976325992336e-05 0 -0.0037044065913798959 -5.4286549583803117e-05 0 -0.0043353019079319698 -6.9271545824825856e-05 0 -0.0036545808369524606 -7.2410149231702916e-05 0 -0.0037221687998583068 -8.8610976325992336e-05 0 -0.0036894487065553981 -6.1617157982005641e-05 0 -0.0037044065913798959 -5.4286549583803117e-05 0 -0.0037221687998583068 -8.8610976325992336e-05 0 -0.0037235826450278714 -0.00010214260464411615 0 -0.0036894487065553981 -6.1617157982005641e-05 0 -0.0037235826450278714 -0.00010214260464411615 0 -0.0036668364176455043 -5.8328902719068138e-05 0 -0.0036894487065553981 -6.1617157982005641e-05 0 -0.0037235826450278714 -0.00010214260464411615 0 -0.0037483022027913855 -0.0001136715440616624 0 -0.0037322093592591756 -0.00010849341759751125 0 -0.0037235826450278714 -0.00010214260464411615 0 -0.0037483022027913855 -0.0001136715440616624 0 -0.0037936379320073679 -0.00011303797217849887 0 -0.0037221687998583068 -8.8610976325992336e-05 0 -0.0037235826450278714 -0.00010214260464411615 0 -0.0037322093592591756 -0.00010849341759751125 0 -0.0049999902261964541 -2.0854158947210598e-09 0 -0.0049966134280011749 -1.6693577772745749e-06 0 -0.0049999923004658354 -1.9234864325199358e-09 0 -0.0049926776090564997 -3.9551799270472386e-06 0 -0.0049966134280011749 -1.6693577772745749e-06 0 -0.0049955018532494688 -2.5714110660415018e-06 0 -0.0049945164201496001 -2.2952981724401459e-06 0 -0.0049926776090564997 -3.9551799270472386e-06 0 -0.0049966134280011749 -1.6693577772745749e-06 0 -0.0043699742090616191 -5.2263052682189704e-05 0 -0.0043676154568763606 -5.8578916498312322e-05 0 -0.0049966134280011749 -1.6693577772745749e-06 0 -0.0049955018532494688 -2.5714110660415018e-06 0 -0.0049999923004658354 -1.9234864325199358e-09 0 -0.0037483022027913855 -0.0001136715440616624 0 -0.0037322093592591756 -0.00010849341759751125 0 -0.0037321806067879834 -0.0001073126003090779 0 -0.0037483022027913855 -0.0001136715440616624 0 -0.0037321806067879834 -0.0001073126003090779 0 -0.0038271926312742808 -0.00012833905804515066 0 -0.0037321806067879834 -0.0001073126003090779 0 -0.0038271926312742808 -0.00012833905804515066 0 -0.00399392885556545 -0.00012640183585385721 0 -0.0037483022027913855 -0.0001136715440616624 0 -0.0038271926312742808 -0.00012833905804515066 0 -0.0037936379320073679 -0.00011303797217849887 0 -0.0038271926312742808 -0.00012833905804515066 0 -0.0038659747269118548 -0.00012135075984107155 0 -0.0037936379320073679 -0.00011303797217849887 0 -0.0038659747269118548 -0.00012135075984107155 0 -0.003805462143746257 -0.00010650130172585047 0 -0.0037936379320073679 -0.00011303797217849887 0 -0.0038659747269118548 -0.00012135075984107155 0 -0.00399392885556545 -0.00012640183585385721 0 -0.003805462143746257 -0.00010650130172585047 0 -0.0038271926312742808 -0.00012833905804515066 0 -0.0038659747269118548 -0.00012135075984107155 0 -0.00399392885556545 -0.00012640183585385721 0 -0.0043676154568763606 -5.8578916498312322e-05 0 -0.0045463721701747865 -4.148855068526252e-05 0 -0.0049955018532494688 -2.5714110660415018e-06 0 -0.0049999923004658354 -1.9234864325199358e-09 0 -0.0049985130603546358 -9.598861061755405e-07 0 -0.0037321806067879834 -0.0001073126003090779 0 -0.0041016501369104509 -5.202007610812232e-05 0 -0.00399392885556545 -0.00012640183585385721 0 -0.0050000002340798485 3.3152913287480397e-10 0 -0.0049999923004658354 -1.9234864325199358e-09 0 -0.0049985130603546358 -9.598861061755405e-07 0 -0.0049991162110545433 5.5981554523730515e-07 0 -0.0048861362282651482 -0.00027497216964228314 0 -0.0041016501369104509 -5.202007610812232e-05 0 -0.0049998204823944892 -2.971583157577151e-10 0 -0.0045463721701747865 -4.148855068526252e-05 0 -0.0036791767931985595 -0.0001361287530519195 0 -0.00399392885556545 -0.00012640183585385721 0 -0.003805462143746257 -0.00010650130172585047 0 -0.0048861362282651482 -0.00027497216964228314 0 -0.0041016501369104509 -5.202007610812232e-05 0 -0.00399392885556545 -0.00012640183585385721 0 -0.0042588981132411653 -0.00018747829976044524 0 -0.0040043708698011254 -0.00013020705237575114 0 -0.0036604937364122913 -6.5688163528152159e-05 0 -0.003805462143746257 -0.00010650130172585047 0 -0.0037178983254714366 -8.276880856396271e-05 0 -0.0036791767931985595 -0.0001361287530519195 0 -0.0036604937364122913 -6.5688163528152159e-05 0 -0.003805462143746257 -0.00010650130172585047 0 -0.0037235826450278714 -0.00010214260464411615 0 -0.0037936379320073679 -0.00011303797217849887 0 -0.0037178983254714366 -8.276880856396271e-05 0 -0.003805462143746257 -0.00010650130172585047 0 -0.0037936379320073679 -0.00011303797217849887 0 -0.0037178983254714366 -8.276880856396271e-05 0 -0.0037235826450278714 -0.00010214260464411615 0 -0.0037178983254714366 -8.276880856396271e-05 0 -0.0036668364176455043 -5.8328902719068138e-05 0 -0.0037178983254714366 -8.276880856396271e-05 0 -0.0036293949341554238 -4.7943974095791033e-05 0 -0.0036668364176455043 -5.8328902719068138e-05 0 -0.0036604937364122913 -6.5688163528152159e-05 0 -0.0037178983254714366 -8.276880856396271e-05 0 -0.0036293949341554238 -4.7943974095791033e-05 0 -0.0035745764393199583 -5.338315194445022e-05 0 -0.0036293949341554238 -4.7943974095791033e-05 0 -0.0035659302162694738 3.899769725931874e-06 0 -0.0036293949341554238 -4.7943974095791033e-05 0 -0.0036668364176455043 -5.8328902719068138e-05 0 -0.0036162982937019 -1.1172178721250436e-05 0 -0.0036293949341554238 -4.7943974095791033e-05 0 -0.0036162982937019 -1.1172178721250436e-05 0 -0.0035659302162694738 3.899769725931874e-06 0 -0.0036162982937019 -1.1172178721250436e-05 0 -0.0035659302162694738 3.899769725931874e-06 0 -0.0035730374934640733 3.2734489871491911e-05 0 -0.0035159431274194822 9.8081555949600373e-06 0 -0.0035659302162694738 3.899769725931874e-06 0 -0.0034977497446429784 6.1525873822978092e-05 0 -0.0035659302162694738 3.899769725931874e-06 0 -0.0034977497446429784 6.1525873822978092e-05 0 -0.0035229774239746575 6.6541693701742532e-05 0 -0.0034409472399133194 0.00011000003863169859 0 -0.0034977497446429784 6.1525873822978092e-05 0 -0.0034767760519072233 0.00011469683481981476 0 -0.0034977497446429784 6.1525873822978092e-05 0 -0.0034767760519072233 0.00011469683481981476 0 -0.0035229774239746575 6.6541693701742532e-05 0 -0.0034409472399133194 0.00011000003863169859 0 -0.0034767760519072233 0.00011469683481981476 0 -0.0034304295107448037 0.00015005121717926936 0 -0.0034767760519072233 0.00011469683481981476 0 -0.0035229774239746575 6.6541693701742532e-05 0 -0.0035079633465322549 0.00011222810400494491 0 -0.0034767760519072233 0.00011469683481981476 0 -0.0035079633465322549 0.00011222810400494491 0 -0.0034601865134055972 0.00014721352541823674 0 -0.0035229774239746575 6.6541693701742532e-05 0 -0.0035606214552283823 6.5958554986448028e-05 0 -0.0035079633465322549 0.00011222810400494491 0 -0.0035659302162694738 3.899769725931874e-06 0 -0.0035229774239746575 6.6541693701742532e-05 0 -0.0035730374934640733 3.2734489871491911e-05 0 -0.0035229774239746575 6.6541693701742532e-05 0 -0.0035730374934640733 3.2734489871491911e-05 0 -0.0035606214552283823 6.5958554986448028e-05 0 -0.0035730374934640733 3.2734489871491911e-05 0 -0.0035606214552283823 6.5958554986448028e-05 0 -0.0036303982474524331 8.0961917957813698e-06 0 -0.0035606214552283823 6.5958554986448028e-05 0 -0.0035079633465322549 0.00011222810400494491 0 -0.0035292863884966706 0.00011780442390703721 0 -0.0035606214552283823 6.5958554986448028e-05 0 -0.0035792839102591844 8.880090050806806e-05 0 -0.0036167320200819297 5.150050506682724e-05 0 -0.0035606214552283823 6.5958554986448028e-05 0 -0.0035292863884966706 0.00011780442390703721 0 -0.0035792839102591844 8.880090050806806e-05 0 -0.0035792839102591844 8.880090050806806e-05 0 -0.0036167320200819297 5.150050506682724e-05 0 -0.003633695091413982 7.7183089691208083e-05 0 -0.0036254668121662812 4.6981060996855282e-05 0 -0.0036752888283535876 -1.85872094167059e-05 0 -0.0035606214552283823 6.5958554986448028e-05 0 -0.0036167320200819297 5.150050506682724e-05 0 -0.0036303982474524331 8.0961917957813698e-06 0 -0.0036303982474524331 8.0961917957813698e-06 0 -0.0036721138984363248 -3.0630347273290341e-05 0 -0.0037022728851383441 -1.1715601226234197e-05 0 -0.0036167320200819297 5.150050506682724e-05 0 -0.0036303982474524331 8.0961917957813698e-06 0 -0.0037022728851383441 -1.1715601226234197e-05 0 -0.0036162982937019 -1.1172178721250436e-05 0 -0.0035730374934640733 3.2734489871491911e-05 0 -0.0036303982474524331 8.0961917957813698e-06 0 -0.0036162982937019 -1.1172178721250436e-05 0 -0.0036303982474524331 8.0961917957813698e-06 0 -0.0036546437571880574 -3.3504436443188572e-05 0 -0.0036303982474524331 8.0961917957813698e-06 0 -0.0036546437571880574 -3.3504436443188572e-05 0 -0.0036721138984363248 -3.0630347273290341e-05 0 -0.0036668364176455043 -5.8328902719068138e-05 0 -0.0036162982937019 -1.1172178721250436e-05 0 -0.0036546437571880574 -3.3504436443188572e-05 0 -0.0036668364176455043 -5.8328902719068138e-05 0 -0.0036546437571880574 -3.3504436443188572e-05 0 -0.0036894487065553981 -6.1617157982005641e-05 0 -0.0037044065913798959 -5.4286549583803117e-05 0 -0.0036721138984363248 -3.0630347273290341e-05 0 -0.0037022728851383441 -1.1715601226234197e-05 0 -0.0036894487065553981 -6.1617157982005641e-05 0 -0.0037044065913798959 -5.4286549583803117e-05 0 -0.0036721138984363248 -3.0630347273290341e-05 0 -0.0036546437571880574 -3.3504436443188572e-05 0 -0.0036894487065553981 -6.1617157982005641e-05 0 -0.0036721138984363248 -3.0630347273290341e-05 0 -0.0036545808369524606 -7.2410149231702916e-05 0 -0.0036752888283535876 -1.85872094167059e-05 0 -0.0036769995173549586 -9.5887635100996911e-05 0 -0.0037234268019502 -6.4343131335424541e-05 0 -0.0036415518062172902 -1.3640562655548565e-05 0 -0.0037412847526237607 -6.8588066464394997e-05 0 -0.0037044065913798959 -5.4286549583803117e-05 0 -0.0037022728851383441 -1.1715601226234197e-05 0 -0.0038611337483299246 -7.8971636719890544e-05 0 -0.0038754014439084344 -1.9154590625477958e-05 0 -0.0039906301810039941 -6.0125313846087334e-05 0 -0.0037428643826977409 -7.6014595053478274e-05 0 -0.0037236343817232871 1.1368455532384725e-05 0 -0.0038611337483299246 -7.8971636719890544e-05 0 -0.0038754014439084344 -1.9154590625477958e-05 0 -0.0037683977124581161 -8.0289025186676593e-07 0 -0.0038754014439084344 -1.9154590625477958e-05 0 -0.0037683977124581161 -8.0289025186676593e-07 0 -0.0038390839297840216 2.0963379876964404e-05 0 -0.0037234268019502 -6.4343131335424541e-05 0 -0.0036777677198295612 1.8972365850412401e-05 0 -0.0036415518062172902 -1.3640562655548565e-05 0 -0.0037683977124581161 -8.0289025186676593e-07 0 -0.003633695091413982 7.7183089691208083e-05 0 -0.0037436033615912811 4.693261750977166e-05 0 -0.0036167320200819297 5.150050506682724e-05 0 -0.0036777677198295612 1.8972365850412401e-05 0 -0.0036415518062172902 -1.3640562655548565e-05 0 -0.0036167320200819297 5.150050506682724e-05 0 -0.0036777677198295612 1.8972365850412401e-05 0 -0.003633695091413982 7.7183089691208083e-05 0 -0.0037236343817232871 1.1368455532384725e-05 0 -0.0036453508434194331 8.0584481159124533e-05 0 -0.003633695091413982 7.7183089691208083e-05 0 -0.0036670805935527821 0.00010336091401185313 0 -0.0037436033615912811 4.693261750977166e-05 0 -0.0035792839102591844 8.880090050806806e-05 0 -0.003633695091413982 7.7183089691208083e-05 0 -0.0035452828608583623 0.00014774182803530681 0 -0.0036670805935527821 0.00010336091401185313 0 -0.0037901444735950452 5.9015497143604708e-05 0 -0.0037436033615912811 4.693261750977166e-05 0 -0.0036670805935527821 0.00010336091401185313 0 -0.0037901444735950452 5.9015497143604708e-05 0 -0.0037353417127709977 0.00010028017686330621 0 -0.0037901444735950452 5.9015497143604708e-05 0 -0.0037436033615912811 4.693261750977166e-05 0 -0.0038390839297840216 2.0963379876964404e-05 0 -0.0037683977124581161 -8.0289025186676593e-07 0 -0.0037436033615912811 4.693261750977166e-05 0 -0.0038390839297840216 2.0963379876964404e-05 0 -0.0039010843485442867 3.0630044856668953e-05 0 -0.0040017768651478061 1.7250455119353495e-05 0 -0.0039372852443917651 7.0195564844807105e-06 0 -0.0037901444735950452 5.9015497143604708e-05 0 -0.0038390839297840216 2.0963379876964404e-05 0 -0.0039010843485442867 3.0630044856668953e-05 0 -0.0038390839297840216 2.0963379876964404e-05 0 -0.0039010843485442867 3.0630044856668953e-05 0 -0.0039372852443917651 7.0195564844807105e-06 0 -0.0037901444735950452 5.9015497143604708e-05 0 -0.0039010843485442867 3.0630044856668953e-05 0 -0.0038351620359390005 5.2649041220197093e-05 0 -0.0037901444735950452 5.9015497143604708e-05 0 -0.0038351620359390005 5.2649041220197093e-05 0 -0.0037353417127709977 0.00010028017686330621 0 -0.0039010843485442867 3.0630044856668953e-05 0 -0.0038351620359390005 5.2649041220197093e-05 0 -0.0039287910898596172 8.0548513326626329e-08 0 -0.0038351620359390005 5.2649041220197093e-05 0 -0.0039287910898596172 8.0548513326626329e-08 0 -0.0037050176460736843 8.3258012466604319e-09 0 -0.0039010843485442867 3.0630044856668953e-05 0 -0.0039287910898596172 8.0548513326626329e-08 0 -0.0040017768651478061 1.7250455119353495e-05 0 -0.0039287910898596172 8.0548513326626329e-08 0 -0.0040017768651478061 1.7250455119353495e-05 0 -0.0041531533399465671 1.4617275538513075e-07 0 -0.0040017768651478061 1.7250455119353495e-05 0 -0.0039372852443917651 7.0195564844807105e-06 0 -0.0041351228031376109 -2.9408220087992705e-06 0 -0.0040017768651478061 1.7250455119353495e-05 0 -0.0041531533399465671 1.4617275538513075e-07 0 -0.0041351228031376109 -2.9408220087992705e-06 0 -0.0038754014439084344 -1.9154590625477958e-05 0 -0.0039372852443917651 7.0195564844807105e-06 0 -0.0039906301810039941 -6.0125313846087334e-05 0 -0.0039372852443917651 7.0195564844807105e-06 0 -0.0039906301810039941 -6.0125313846087334e-05 0 -0.0041351228031376109 -2.9408220087992705e-06 0 -0.0038754014439084344 -1.9154590625477958e-05 0 -0.0038390839297840216 2.0963379876964404e-05 0 -0.0039372852443917651 7.0195564844807105e-06 0 -0.0040923735098347793 -0.00019013064081376753 0 -0.0039906301810039941 -6.0125313846087334e-05 0 -0.0041351228031376109 -2.9408220087992705e-06 0 -0.003967504553334637 -0.00014593189625662848 0 -0.0038611337483299246 -7.8971636719890544e-05 0 -0.0039906301810039941 -6.0125313846087334e-05 0 -0.0043769201040386712 -4.7761752790695877e-07 0 -0.0040923735098347793 -0.00019013064081376753 0 -0.0041351228031376109 -2.9408220087992705e-06 0 -0.0043769201040386712 -4.7761752790695877e-07 0 -0.0041531533399465671 1.4617275538513075e-07 0 -0.0041351228031376109 -2.9408220087992705e-06 0 -0.0032511413791946348 9.8111730076273179e-06 0 -0.0031309985188977194 2.0999852080080369e-08 0 -0.0034178409604948621 4.5670191316992051e-08 0 -0.0028712765361086868 0.00051116729058914474 0 -0.0030256006895466271 0.00057893399037073497 0 -0.0029840630902918468 0.00036118569903403208 0 -0.0034716269501780333 0.0001943889176187364 0 -0.0032773368827373 0.00048820696117157796 0 -0.0028712765361086868 0.00051116729058914474 0 -0.002889562079736552 0.00072377298768615478 0 -0.0030256006895466271 0.00057893399037073497 0 -0.0030203652027502212 0.00030774724037451747 0 -0.0034716269501780333 0.0001943889176187364 0 -0.0032511413791946348 9.8111730076273179e-06 0 -0.0034178409604948621 4.5670191316992051e-08 0 -0.0034473004644265132 -8.5646577416052519e-06 0 -0.0034178409604948621 4.5670191316992051e-08 0 -0.0034473004644265132 -8.5646577416052519e-06 0 -0.0037043881929793854 -9.6020101255628116e-08 0 -0.0034716269501780333 0.0001943889176187364 0 -0.0037048538271186805 -3.0251018490546441e-07 0 -0.0038833339637432147 -1.2872505193405675e-05 0 -0.0034716269501780333 0.0001943889176187364 0 -0.0038351620359390005 5.2649041220197093e-05 0 -0.0038263038103305896 -0.0001318910940714151 0 -0.0037050176460736843 8.3258012466604319e-09 0 -0.0038351620359390005 5.2649041220197093e-05 0 -0.0037998763748572314 0.00020049948523892977 0 -0.0037331216387062717 0.00014687206535433415 0 -0.0038351620359390005 5.2649041220197093e-05 0 -0.0037331216387062717 0.00014687206535433415 0 -0.0037353417127709977 0.00010028017686330621 0 -0.0037998763748572314 0.00020049948523892977 0 -0.0036530723212854343 0.00020592468665835134 0 -0.0036018657774452758 0.00030729012769022601 0 -0.0037998763748572314 0.00020049948523892977 0 -0.0037331216387062717 0.00014687206535433415 0 -0.0036530723212854343 0.00020592468665835134 0 -0.0036530723212854343 0.00020592468665835134 0 -0.0035199078162805831 0.00021499383891879212 0 -0.0036018657774452758 0.00030729012769022601 0 -0.0036530723212854343 0.00020592468665835134 0 -0.0036262851489584479 0.00016115080327052677 0 -0.0035199078162805831 0.00021499383891879212 0 -0.0037331216387062717 0.00014687206535433415 0 -0.0036530723212854343 0.00020592468665835134 0 -0.0036262851489584479 0.00016115080327052677 0 -0.0037331216387062717 0.00014687206535433415 0 -0.0036262851489584479 0.00016115080327052677 0 -0.0037353417127709977 0.00010028017686330621 0 -0.0036670805935527821 0.00010336091401185313 0 -0.0036262851489584479 0.00016115080327052677 0 -0.0037353417127709977 0.00010028017686330621 0 -0.003633695091413982 7.7183089691208083e-05 0 -0.0036670805935527821 0.00010336091401185313 0 -0.0035452828608583623 0.00014774182803530681 0 -0.0036670805935527821 0.00010336091401185313 0 -0.0036262851489584479 0.00016115080327052677 0 -0.0035452828608583623 0.00014774182803530681 0 -0.0035452828608583623 0.00014774182803530681 0 -0.0035199078162805831 0.00021499383891879212 0 -0.0034423473575578988 0.00022635961877380702 0 -0.0036262851489584479 0.00016115080327052677 0 -0.0035452828608583623 0.00014774182803530681 0 -0.0035199078162805831 0.00021499383891879212 0 -0.0035199078162805831 0.00021499383891879212 0 -0.0034029405645566594 0.0002874473382020268 0 -0.0034423473575578988 0.00022635961877380702 0 -0.0035199078162805831 0.00021499383891879212 0 -0.0034029405645566594 0.0002874473382020268 0 -0.0036018657774452758 0.00030729012769022601 0 -0.0034029405645566594 0.0002874473382020268 0 -0.0036018657774452758 0.00030729012769022601 0 -0.0032462448411201155 0.00036888726520985655 0 -0.0032773368827373 0.00048820696117157796 0 -0.0032855687599637183 0.00034911101048069545 0 -0.0030256006895466271 0.00057893399037073497 0 -0.0032462448411201155 0.00036888726520985655 0 -0.0029840630902918468 0.00036118569903403208 0 -0.0034029405645566594 0.0002874473382020268 0 -0.0032462448411201155 0.00036888726520985655 0 -0.0033328144210455655 0.00029259047733644789 0 -0.0032462448411201155 0.00036888726520985655 0 -0.0033328144210455655 0.00029259047733644789 0 -0.0032697507053975395 0.00028247606464893549 0 -0.0033328144210455655 0.00029259047733644789 0 -0.0033820374065564574 0.00024655196624282373 0 -0.0033158106701985531 0.00026036288686600515 0 -0.0033328144210455655 0.00029259047733644789 0 -0.0033158106701985531 0.00026036288686600515 0 -0.0032697507053975395 0.00028247606464893549 0 -0.0033820374065564574 0.00024655196624282373 0 -0.0033783138875086161 0.00022792022248363652 0 -0.0033158106701985531 0.00026036288686600515 0 -0.0033328144210455655 0.00029259047733644789 0 -0.0033820374065564574 0.00024655196624282373 0 -0.0034423473575578988 0.00022635961877380702 0 -0.0034029405645566594 0.0002874473382020268 0 -0.0033328144210455655 0.00029259047733644789 0 -0.0034423473575578988 0.00022635961877380702 0 -0.0033820374065564574 0.00024655196624282373 0 -0.0034423473575578988 0.00022635961877380702 0 -0.0034514744961799525 0.00018080668006363533 0 -0.0035452828608583623 0.00014774182803530681 0 -0.0034423473575578988 0.00022635961877380702 0 -0.0034514744961799525 0.00018080668006363533 0 -0.0035292863884966706 0.00011780442390703721 0 -0.0035452828608583623 0.00014774182803530681 0 -0.0034514744961799525 0.00018080668006363533 0 -0.0035292863884966706 0.00011780442390703721 0 -0.0035792839102591844 8.880090050806806e-05 0 -0.0035452828608583623 0.00014774182803530681 0 -0.0035079633465322549 0.00011222810400494491 0 -0.0035292863884966706 0.00011780442390703721 0 -0.0034514744961799525 0.00018080668006363533 0 -0.0035079633465322549 0.00011222810400494491 0 -0.0034514744961799525 0.00018080668006363533 0 -0.0034601865134055972 0.00014721352541823674 0 -0.0033820374065564574 0.00024655196624282373 0 -0.0034514744961799525 0.00018080668006363533 0 -0.0033783138875086161 0.00022792022248363652 0 -0.0034514744961799525 0.00018080668006363533 0 -0.0033991002776708533 0.00019274763541608095 0 -0.0033783138875086161 0.00022792022248363652 0 -0.0034514744961799525 0.00018080668006363533 0 -0.0033991002776708533 0.00019274763541608095 0 -0.0034601865134055972 0.00014721352541823674 0 -0.0034767760519072233 0.00011469683481981476 0 -0.0034601865134055972 0.00014721352541823674 0 -0.0034304295107448037 0.00015005121717926936 0 -0.0033991002776708533 0.00019274763541608095 0 -0.0034601865134055972 0.00014721352541823674 0 -0.0034304295107448037 0.00015005121717926936 0 -0.0034304295107448037 0.00015005121717926936 0 -0.0033931678650017233 0.00017721796895458177 0 -0.0034084510590836922 0.00015135862329530983 0 -0.0033991002776708533 0.00019274763541608095 0 -0.0033931678650017233 0.00017721796895458177 0 -0.0033574661214912579 0.00020213890287406962 0 -0.0033991002776708533 0.00019274763541608095 0 -0.0034304295107448037 0.00015005121717926936 0 -0.0033931678650017233 0.00017721796895458177 0 -0.0033991002776708533 0.00019274763541608095 0 -0.0033469786767722888 0.00022957900163604706 0 -0.0033574661214912579 0.00020213890287406962 0 -0.0033469786767722888 0.00022957900163604706 0 -0.0033574661214912579 0.00020213890287406962 0 -0.0033281293409847756 0.00022291912234284267 0 -0.0033469786767722888 0.00022957900163604706 0 -0.0033783138875086161 0.00022792022248363652 0 -0.0033158106701985531 0.00026036288686600515 0 -0.0033991002776708533 0.00019274763541608095 0 -0.0033469786767722888 0.00022957900163604706 0 -0.0033783138875086161 0.00022792022248363652 0 -0.0033469786767722888 0.00022957900163604706 0 -0.0033158106701985531 0.00026036288686600515 0 -0.0033019262622522444 0.00023372008726608748 0 -0.0033469786767722888 0.00022957900163604706 0 -0.0033019262622522444 0.00023372008726608748 0 -0.0033281293409847756 0.00022291912234284267 0 -0.0033019262622522444 0.00023372008726608748 0 -0.0032763291813803046 0.00024462007324318991 0 -0.0032583642733512823 0.00020472732979715346 0 -0.0033158106701985531 0.00026036288686600515 0 -0.0033019262622522444 0.00023372008726608748 0 -0.0032763291813803046 0.00024462007324318991 0 -0.0032763291813803046 0.00024462007324318991 0 -0.0032583642733512823 0.00020472732979715346 0 -0.0032232446035103867 0.00023818745558844094 0 -0.0033019262622522444 0.00023372008726608748 0 -0.0032583642733512823 0.00020472732979715346 0 -0.0032920430726346146 0.00020482424558764092 0 -0.0032583642733512823 0.00020472732979715346 0 -0.0032303907295553281 0.00013930446050550778 0 -0.0032725612486039389 0.0001629340956738172 0 -0.0032303907295553281 0.00013930446050550778 0 -0.003178108784600123 0.00017731457701532206 0 -0.0031532858399662619 0.00010837739639270818 0 -0.0032583642733512823 0.00020472732979715346 0 -0.0032303907295553281 0.00013930446050550778 0 -0.003178108784600123 0.00017731457701532206 0 -0.0032583642733512823 0.00020472732979715346 0 -0.003178108784600123 0.00017731457701532206 0 -0.0032232446035103867 0.00023818745558844094 0 -0.003178108784600123 0.00017731457701532206 0 -0.0031120607274689391 0.00020648045903273355 0 -0.0032232446035103867 0.00023818745558844094 0 -0.003178108784600123 0.00017731457701532206 0 -0.0030231584698770524 0.00012689617628876769 0 -0.0031532858399662619 0.00010837739639270818 0 -0.003178108784600123 0.00017731457701532206 0 -0.0031120607274689391 0.00020648045903273355 0 -0.0030231584698770524 0.00012689617628876769 0 -0.0031120607274689391 0.00020648045903273355 0 -0.0029829000249123679 0.00018169978129913038 0 -0.0030231584698770524 0.00012689617628876769 0 -0.0031120607274689391 0.00020648045903273355 0 -0.0031871502196414467 0.00027348306548417048 0 -0.0032232446035103867 0.00023818745558844094 0 -0.0031871502196414467 0.00027348306548417048 0 -0.0032232446035103867 0.00023818745558844094 0 -0.0032697507053975395 0.00028247606464893549 0 -0.0033158106701985531 0.00026036288686600515 0 -0.0032763291813803046 0.00024462007324318991 0 -0.0032697507053975395 0.00028247606464893549 0 -0.0032763291813803046 0.00024462007324318991 0 -0.0032232446035103867 0.00023818745558844094 0 -0.0032697507053975395 0.00028247606464893549 0 -0.0032462448411201155 0.00036888726520985655 0 -0.0031871502196414467 0.00027348306548417048 0 -0.0032697507053975395 0.00028247606464893549 0 -0.0032462448411201155 0.00036888726520985655 0 -0.0031871502196414467 0.00027348306548417048 0 -0.0030227624456621925 0.00024402775880373365 0 -0.0032462448411201155 0.00036888726520985655 0 -0.0030227624456621925 0.00024402775880373365 0 -0.0029840630902918468 0.00036118569903403208 0 -0.0030227624456621925 0.00024402775880373365 0 -0.0029012698192682415 0.00020289314887923191 0 -0.0028913753623524235 0.00025674892028159171 0 -0.0030227624456621925 0.00024402775880373365 0 -0.0028913753623524235 0.00025674892028159171 0 -0.0029840630902918468 0.00036118569903403208 0 -0.0031120607274689391 0.00020648045903273355 0 -0.0031871502196414467 0.00027348306548417048 0 -0.0030227624456621925 0.00024402775880373365 0 -0.0031120607274689391 0.00020648045903273355 0 -0.0030227624456621925 0.00024402775880373365 0 -0.0029829000249123679 0.00018169978129913038 0 -0.0029829000249123679 0.00018169978129913038 0 -0.0028999725921916605 0.0001263976098175147 0 -0.0030231584698770524 0.00012689617628876769 0 -0.0028999725921916605 0.0001263976098175147 0 -0.0028449553765983763 0.00013757320835231887 0 -0.0027440774285566985 6.53484933779621e-05 0 -0.0029829000249123679 0.00018169978129913038 0 -0.0028999725921916605 0.0001263976098175147 0 -0.0028449553765983763 0.00013757320835231887 0 -0.0029829000249123679 0.00018169978129913038 0 -0.0028449553765983763 0.00013757320835231887 0 -0.0029012698192682415 0.00020289314887923191 0 -0.0030227624456621925 0.00024402775880373365 0 -0.0029829000249123679 0.00018169978129913038 0 -0.0029012698192682415 0.00020289314887923191 0 -0.0028449553765983763 0.00013757320835231887 0 -0.0029012698192682415 0.00020289314887923191 0 -0.0027612774743643481 0.00020398741489609815 0 -0.0029012698192682415 0.00020289314887923191 0 -0.0027612774743643481 0.00020398741489609815 0 -0.0028913753623524235 0.00025674892028159171 0 -0.0027612774743643481 0.00020398741489609815 0 -0.0025613818928292599 3.7724198157143194e-05 0 -0.0027440774285566985 6.53484933779621e-05 0 -0.0028449553765983763 0.00013757320835231887 0 -0.0027612774743643481 0.00020398741489609815 0 -0.0027440774285566985 6.53484933779621e-05 0 -0.0025573702165397104 2.0874015697891935e-07 0 -0.0027191616208232759 6.6312470280145639e-06 0 -0.0025613818928292599 3.7724198157143194e-05 0 -0.0027362384518337364 0.00010863921178894371 0 -0.0025916236804706611 3.658151528002234e-05 0 -0.0025573702165397104 2.0874015697891935e-07 0 -0.0027191616208232759 6.6312470280145639e-06 0 -0.0028441915643129044 -4.1673008730488587e-08 0 -0.0027191616208232759 6.6312470280145639e-06 0 -0.0028441915643129044 -4.1673008730488587e-08 0 -0.0029873510957008093 1.350505869302135e-06 0 -0.0027362384518337364 0.00010863921178894371 0 -0.0029223987114832361 0.00015763235322344862 0 -0.0027612774743643481 0.00020398741489609815 0 -0.0028913753623524235 0.00025674892028159171 0 -0.002852128181617202 0.00030477321195280214 0 -0.0028913753623524235 0.00025674892028159171 0 -0.0029840630902918468 0.00036118569903403208 0 -0.002852128181617202 0.00030477321195280214 0 -0.0028712765361086868 0.00051116729058914474 0 -0.0029840630902918468 0.00036118569903403208 0 -0.002852128181617202 0.00030477321195280214 0 -0.0031309985188977194 2.0999852080080369e-08 0 -0.0028441915643129044 -4.1673008730488587e-08 0 -0.0029873510957008093 1.350505869302135e-06 0 -0.0030203652027502212 0.00030774724037451747 0 -0.0029223987114832361 0.00015763235322344862 0 -0.0032511413791946348 9.8111730076273179e-06 0 -0.0031309985188977194 2.0999852080080369e-08 0 -0.0029873510957008093 1.350505869302135e-06 0 -0.0034930801205433027 -0.00042805466560578227 0 -0.0035057768448638633 -0.00043850530902549519 0 -0.0034825805715598258 -0.00044028317306772912 0 -0.0034930801205433027 -0.00042805466560578227 0 -0.0035057768448638633 -0.00043850530902549519 0 -0.0035121671972497145 -0.00042621388605398755 0 -0.0035057768448638633 -0.00043850530902549519 0 -0.0035121671972497145 -0.00042621388605398755 0 -0.0035314853977568795 -0.00043622582841408418 0 -0.0035051858190001338 -0.00041539981803666114 0 -0.003523539552663383 -0.00041729287745928198 0 -0.0035156298567941761 -0.00039677643257589199 0 -0.0035121671972497145 -0.00042621388605398755 0 -0.0035051858190001338 -0.00041539981803666114 0 -0.003523539552663383 -0.00041729287745928198 0 -0.0035051858190001338 -0.00041539981803666114 0 -0.0034932597323600267 -0.00041423619549835661 0 -0.0035008744056580204 -0.00040732570634702004 0 -0.0034930801205433027 -0.00042805466560578227 0 -0.0035121671972497145 -0.00042621388605398755 0 -0.0035051858190001338 -0.00041539981803666114 0 -0.0034930801205433027 -0.00042805466560578227 0 -0.0035051858190001338 -0.00041539981803666114 0 -0.0034932597323600267 -0.00041423619549835661 0 -0.003479691066581725 -0.00041684177514972895 0 -0.0034777285779604007 -0.00041661441611492609 0 -0.0034825805715598258 -0.00044028317306772912 0 -0.0034965595586391954 -0.00063343688873310818 0 -0.0035114997956433064 -0.00065157019780774617 0 -0.0034930801205433027 -0.00042805466560578227 0 -0.0034932597323600267 -0.00041423619549835661 0 -0.003479691066581725 -0.00041684177514972895 0 -0.0035454316642534196 -0.00075103482586086172 0 -0.0035114997956433064 -0.00065157019780774617 0 -0.0041693788608612847 -0.00068023357684307952 0 -0.0040560048722765142 -0.00066135948016938649 0 -0.0041414568196284883 -0.00059234202181801846 0 -0.0041735983382759183 -0.00051164640314027316 0 -0.0041414568196284883 -0.00059234202181801846 0 -0.0040636343373171456 -0.00051218132840775304 0 -0.0040560048722765142 -0.00066135948016938649 0 -0.0041414568196284883 -0.00059234202181801846 0 -0.0040636343373171456 -0.00051218132840775304 0 -0.0035114997956433064 -0.00065157019780774617 0 -0.0038880542317056592 -0.0004396271456900297 0 -0.0034930801205433027 -0.00042805466560578227 0 -0.003479691066581725 -0.00041684177514972895 0 -0.0034825805715598258 -0.00044028317306772912 0 -0.004044008687233403 -0.00046255664831709476 0 -0.004105835453506939 -0.00040790149245090293 0 -0.0039391396881652508 -0.00040190933450995439 0 -0.0040419150256382061 -0.00052352376818000964 0 -0.004044008687233403 -0.00046255664831709476 0 -0.0039391396881652508 -0.00040190933450995439 0 -0.0038880542317056592 -0.0004396271456900297 0 -0.0039657198083690162 -0.00047997353401728094 0 -0.0041735983382759183 -0.00051164640314027316 0 -0.004044008687233403 -0.00046255664831709476 0 -0.004105835453506939 -0.00040790149245090293 0 -0.004223554310005451 -0.00051706088684671289 0 -0.0038880542317056592 -0.0004396271456900297 0 -0.0041735983382759183 -0.00051164640314027316 0 -0.0040422258706147495 -0.00051828755635684859 0 -0.004044008687233403 -0.00046255664831709476 0 -0.0042115648238965665 -0.00040415762186902198 0 -0.0042642553544799859 -0.00037113606817475582 0 -0.0041446160844559191 -0.00038746482607035916 0 -0.0042115648238965665 -0.00040415762186902198 0 -0.0041744710351027991 -0.00042934284521748886 0 -0.0041446160844559191 -0.00038746482607035916 0 -0.0041418416651591884 -0.00041930940718536993 0 -0.0040004664778794429 -0.00041636148390761371 0 -0.0041744710351027991 -0.00042934284521748886 0 -0.0041446160844559191 -0.00038746482607035916 0 -0.004076036689304713 -0.0004332597289657869 0 -0.0041537138601447626 -0.00038909776576008873 0 -0.0040328044731434724 -0.00041133060050092953 0 -0.0041446160844559191 -0.00038746482607035916 0 -0.004076036689304713 -0.0004332597289657869 0 -0.0040262938712166815 -0.00040893513487725452 0 -0.0040004664778794429 -0.00041636148390761371 0 -0.0039047423648863469 -0.00043589362926174354 0 -0.004076036689304713 -0.0004332597289657869 0 -0.0040262938712166815 -0.00040893513487725452 0 -0.0039826676232320524 -0.00043640279926892921 0 -0.0040872894303444606 -0.00036536685061223359 0 -0.0041604796011994851 -0.00039044967692223009 0 -0.0040421930619779318 -0.00041389361886753949 0 -0.0038267249874925197 -0.00052818570106145154 0 -0.0039391396881652508 -0.00040190933450995439 0 -0.0037660804995450058 -0.00040202927591674554 0 -0.0036492457489528331 -0.00050379458731175794 0 -0.0038880542317056592 -0.0004396271456900297 0 -0.0038267249874925197 -0.00052818570106145154 0 -0.0040419150256382061 -0.00052352376818000964 0 -0.0039391396881652508 -0.00040190933450995439 0 -0.0038267249874925197 -0.00052818570106145154 0 -0.0037660804995450058 -0.00040202927591674554 0 -0.0036811755139193499 -0.00044903846774730017 0 -0.003993474792455722 -0.00037049544107789657 0 -0.0040421930619779318 -0.00041389361886753949 0 -0.0039682392759443283 -0.00038927870220554161 0 -0.0040421930619779318 -0.00041389361886753949 0 -0.0039682392759443283 -0.00038927870220554161 0 -0.0039250455536754538 -0.00042026796480109312 0 -0.0040328044731434724 -0.00041133060050092953 0 -0.0039208538961002567 -0.00042988204304166748 0 -0.0040262938712166815 -0.00040893513487725452 0 -0.0039826676232320524 -0.00043640279926892921 0 -0.0039148967014786115 -0.00043065456915719478 0 -0.0039047423648863469 -0.00043589362926174354 0 -0.0035964696555807717 -0.00024258362192597954 0 -0.0039682392759443283 -0.00038927870220554161 0 -0.0039250455536754538 -0.00042026796480109312 0 -0.0039120137300028895 -0.00039969166263961774 0 -0.0040421930619779318 -0.00041389361886753949 0 -0.0039148967014786115 -0.00043065456915719478 0 -0.0039250455536754538 -0.00042026796480109312 0 -0.0039826676232320524 -0.00043640279926892921 0 -0.0039148967014786115 -0.00043065456915719478 0 -0.0038919505628703349 -0.00044114752741897066 0 -0.0039661613951035811 -0.00036043157355867671 0 -0.0039682392759443283 -0.00038927870220554161 0 -0.0039120137300028895 -0.00039969166263961774 0 -0.0039148967014786115 -0.00043065456915719478 0 -0.003908905963011391 -0.00039870180442104882 0 -0.0038919505628703349 -0.00044114752741897066 0 -0.0036989033619059058 -0.0001791049679454362 0 -0.0035964696555807717 -0.00024258362192597954 0 -0.0039148967014786115 -0.00043065456915719478 0 -0.0039250455536754538 -0.00042026796480109312 0 -0.003908905963011391 -0.00039870180442104882 0 -0.0038492105253460991 -0.00036883554570778612 0 -0.0036989033619059058 -0.0001791049679454362 0 -0.0035964696555807717 -0.00024258362192597954 0 -0.0033533327727586675 9.6442449024551302e-05 0 -0.0033425414482957873 0.0001363404010768311 0 -0.0033679130213325518 0.00013410024024462634 0 -0.0033527989277340646 0.00015618964154175602 0 -0.0033751614937401119 0.00014762187763868003 0 -0.0033527989277340646 0.00015618964154175602 0 -0.0033848817093728501 0.00015842846917419096 0 -0.0033679130213325518 0.00013410024024462634 0 -0.0033751614937401119 0.00014762187763868003 0 -0.0033834881318503952 0.00013948252247172191 0 -0.0033679130213325518 0.00013410024024462634 0 -0.0033751614937401119 0.00014762187763868003 0 -0.0033527989277340646 0.00015618964154175602 0 -0.003473860904775943 -5.6341232878706216e-05 0 -0.0034117495402953171 -5.6970401190737354e-05 0 -0.0034449765591008795 -0.00011898481598210969 0 -0.0034117495402953171 -5.6970401190737354e-05 0 -0.0034318220885431456 -0.00011931910777885329 0 -0.0034449765591008795 -0.00011898481598210969 0 -0.0035964696555807717 -0.00024258362192597954 0 -0.0034447594886026453 -0.0001914508542413026 0 -0.0035942183226273369 -0.00040427845798333793 0 -0.0035943191146027256 -0.00049058283373811093 0 -0.0035371655191735614 -0.00053111867786195636 0 -0.0035942183226273369 -0.00040427845798333793 0 -0.0035943191146027256 -0.00049058283373811093 0 -0.0036240931026492425 -0.00045548957994331261 0 -0.0035943191146027256 -0.00049058283373811093 0 -0.0036098443676948169 -0.00052793108217452731 0 -0.0035371655191735614 -0.00053111867786195636 0 -0.0035691063618724121 -0.0004771046728137174 0 -0.0035217841386920253 -0.00038393900483622183 0 -0.0036811755139193499 -0.00044903846774730017 0 -0.0036240931026492425 -0.00045548957994331261 0 -0.0036107439462061464 -0.00053136106006558483 0 -0.0035943191146027256 -0.00049058283373811093 0 -0.0036240931026492425 -0.00045548957994331261 0 -0.0036107439462061464 -0.00053136106006558483 0 -0.0038267249874925197 -0.00052818570106145154 0 -0.0036811755139193499 -0.00044903846774730017 0 -0.0036107439462061464 -0.00053136106006558483 0 -0.0037660804995450058 -0.00040202927591674554 0 -0.0035942183226273369 -0.00040427845798333793 0 -0.0036811755139193499 -0.00044903846774730017 0 -0.0035942183226273369 -0.00040427845798333793 0 -0.0036811755139193499 -0.00044903846774730017 0 -0.0036240931026492425 -0.00045548957994331261 0 -0.0034409472399133194 0.00011000003863169859 0 -0.0034304295107448037 0.00015005121717926936 0 -0.0034084510590836922 0.00015135862329530983 0 -0.0034409472399133194 0.00011000003863169859 0 -0.0034084510590836922 0.00015135862329530983 0 -0.0034095944103480951 0.00013598257280430238 0 -0.0033931678650017233 0.00017721796895458177 0 -0.0034084510590836922 0.00015135862329530983 0 -0.0033856653410759365 0.00016723086582022493 0 -0.0034084510590836922 0.00015135862329530983 0 -0.0034095944103480951 0.00013598257280430238 0 -0.0033915433109628435 0.0001536444902632692 0 -0.0034084510590836922 0.00015135862329530983 0 -0.0033915433109628435 0.0001536444902632692 0 -0.0033856653410759365 0.00016723086582022493 0 -0.0033915433109628435 0.0001536444902632692 0 -0.003385348103575062 0.00015523480485843432 0 -0.0033856653410759365 0.00016723086582022493 0 -0.0033915433109628435 0.0001536444902632692 0 -0.0033869683295302184 0.00015064955317151314 0 -0.003385348103575062 0.00015523480485843432 0 -0.0033915433109628435 0.0001536444902632692 0 -0.003392118312649941 0.00014163305220574646 0 -0.0033869683295302184 0.00015064955317151314 0 -0.0033918354964782753 0.00012306472561644092 0 -0.0034095944103480951 0.00013598257280430238 0 -0.003392118312649941 0.00014163305220574646 0 -0.0034095944103480951 0.00013598257280430238 0 -0.0033915433109628435 0.0001536444902632692 0 -0.003392118312649941 0.00014163305220574646 0 -0.0033918354964782753 0.00012306472561644092 0 -0.0033679130213325518 0.00013410024024462634 0 -0.0033834881318503952 0.00013948252247172191 0 -0.0033918354964782753 0.00012306472561644092 0 -0.003392118312649941 0.00014163305220574646 0 -0.0033834881318503952 0.00013948252247172191 0 -0.003392118312649941 0.00014163305220574646 0 -0.0033834881318503952 0.00013948252247172191 0 -0.0033869683295302184 0.00015064955317151314 0 -0.0033751614937401119 0.00014762187763868003 0 -0.0033834881318503952 0.00013948252247172191 0 -0.0033869683295302184 0.00015064955317151314 0 -0.0033561177949778878 0.00012824423149670566 0 -0.0033533327727586675 9.6442449024551302e-05 0 -0.0033751614937401119 0.00014762187763868003 0 -0.0033869683295302184 0.00015064955317151314 0 -0.0033848817093728501 0.00015842846917419096 0 -0.0033676778853688081 0.00018367609528130235 0 -0.0033574661214912579 0.00020213890287406962 0 -0.0033663215136903219 0.0001817912837986971 0 -0.0033618996011564686 0.00017370491114083347 0 -0.0033676778853688081 0.00018367609528130235 0 -0.0033663215136903219 0.0001817912837986971 0 -0.0033533327727586675 9.6442449024551302e-05 0 -0.0033839927216793055 6.8151699703423854e-07 0 -0.0033533327727586675 9.6442449024551302e-05 0 -0.0033914719177535134 0.00015349073475467138 0 -0.0033618996011564686 0.00017370491114083347 0 -0.0033676778853688081 0.00018367609528130235 0 -0.0033856653410759365 0.00016723086582022493 0 -0.0033676778853688081 0.00018367609528130235 0 -0.0033856653410759365 0.00016723086582022493 0 -0.0033574661214912579 0.00020213890287406962 0 -0.0033931678650017233 0.00017721796895458177 0 -0.0033856653410759365 0.00016723086582022493 0 -0.0033574661214912579 0.00020213890287406962 0 -0.0033574661214912579 0.00020213890287406962 0 -0.0033235922675077271 0.0002133770409318471 0 -0.0033281293409847756 0.00022291912234284267 0 -0.0033574661214912579 0.00020213890287406962 0 -0.0033235922675077271 0.0002133770409318471 0 -0.0033044431691600816 0.00020055052141414661 0 -0.0033379399953579439 0.00025305302771960644 0 -0.0033839927216793055 6.8151699703423854e-07 0 -0.0033235922675077271 0.0002133770409318471 0 -0.0033151034432772133 0.00021418394249769315 0 -0.003316576565916001 0.00021797261868665083 0 -0.0033235922675077271 0.0002133770409318471 0 -0.0033110931559656451 0.00020985168613934442 0 -0.0033044431691600816 0.00020055052141414661 0 -0.0033235922675077271 0.0002133770409318471 0 -0.0033110931559656451 0.00020985168613934442 0 -0.0033151034432772133 0.00021418394249769315 0 -0.0033110931559656451 0.00020985168613934442 0 -0.0033151034432772133 0.00021418394249769315 0 -0.0033115156872634086 0.00021223294684393087 0 -0.0033151034432772133 0.00021418394249769315 0 -0.0033115156872634086 0.00021223294684393087 0 -0.0033136903716410454 0.00021454518551666246 0 -0.0033136903716410454 0.00021454518551666246 0 -0.0033140258729228577 0.00021540199681566199 0 -0.003316576565916001 0.00021797261868665083 0 -0.0033151034432772133 0.00021418394249769315 0 -0.0033136903716410454 0.00021454518551666246 0 -0.003316576565916001 0.00021797261868665083 0 -0.0033136903716410454 0.00021454518551666246 0 -0.0033140258729228577 0.00021540199681566199 0 -0.0033137719050695285 0.00021421494633043091 0 -0.0033140258729228577 0.00021540199681566199 0 -0.0033125368577833487 0.00021583983746791766 0 -0.003316576565916001 0.00021797261868665083 0 -0.0033140258729228577 0.00021540199681566199 0 -0.0033125368577833487 0.00021583983746791766 0 -0.0033153479845828321 0.00021337676238955701 0 -0.0033125368577833487 0.00021583983746791766 0 -0.003316576565916001 0.00021797261868665083 0 -0.0033111211889745302 0.00021998437590772067 0 -0.0033235922675077271 0.0002133770409318471 0 -0.003316576565916001 0.00021797261868665083 0 -0.0033281293409847756 0.00022291912234284267 0 -0.0033019262622522444 0.00023372008726608748 0 -0.0033111211889745302 0.00021998437590772067 0 -0.0033281293409847756 0.00022291912234284267 0 -0.003316576565916001 0.00021797261868665083 0 -0.0033111211889745302 0.00021998437590772067 0 -0.0033281293409847756 0.00022291912234284267 0 -0.0036492457489528331 -0.00050379458731175794 0 -0.0035217841386920253 -0.00038393900483622183 0 -0.0035121671972497145 -0.00042621388605398755 0 -0.0035314853977568795 -0.00043622582841408418 0 -0.003523539552663383 -0.00041729287745928198 0 -0.0033858843754898727 -0.00017732483161364876 0 -0.0033889818703562963 -0.00013496445682752332 0 -0.003364434017490538 -0.00012093198737343522 0 -0.0035217841386920253 -0.00038393900483622183 0 -0.0034382224545133622 -0.00025718218997761405 0 -0.0033858843754898727 -0.00017732483161364876 0 -0.0034134363576927124 -0.00017586526030557721 0 -0.003406912493098472 -0.00016634277113413223 0 -0.0035217841386920253 -0.00038393900483622183 0 -0.0034447594886026453 -0.0001914508542413026 0 -0.0033858843754898727 -0.00017732483161364876 0 -0.0034004026450433354 -0.00015855183860006062 0 -0.0033889818703562963 -0.00013496445682752332 0 -0.0033858843754898727 -0.00017732483161364876 0 -0.003406912493098472 -0.00016634277113413223 0 -0.0034004026450433354 -0.00015855183860006062 0 -0.0034538112611752518 -9.8083898601945339e-05 0 -0.0034274042737956209 -9.9348814977685501e-05 0 -0.0034429571317306715 -6.427956670299776e-05 0 -0.0033839927216793055 6.8151699703423854e-07 0 -0.0034447594886026453 -0.0001914508542413026 0 -0.0034134363576927124 -0.00017586526030557721 0 -0.003406912493098472 -0.00016634277113413223 0 -0.0034192454400508859 -0.00016246337003078553 0 -0.0034447594886026453 -0.0001914508542413026 0 -0.0033985147254342379 -2.1618188875963621e-05 0 -0.003406912493098472 -0.00016634277113413223 0 -0.0034192454400508859 -0.00016246337003078553 0 -0.0034074381249090788 -0.00015714740947636666 0 -0.0033110931559656451 0.00020985168613934442 0 -0.0033044431691600816 0.00020055052141414661 0 -0.0033063343289672785 0.00020958158064390424 0 -0.0033839927216793055 6.8151699703423854e-07 0 -0.0033985147254342379 -2.1618188875963621e-05 0 -0.0033115156872634086 0.00021223294684393087 0 -0.0033063343289672785 0.00020958158064390424 0 -0.0033117797111817588 0.0002121066207673499 0 -0.0034192454400508859 -0.00016246337003078553 0 -0.0034074381249090788 -0.00015714740947636666 0 -0.0034031946619840145 -0.00014125771478126046 0 -0.0033110931559656451 0.00020985168613934442 0 -0.0033115156872634086 0.00021223294684393087 0 -0.0033063343289672785 0.00020958158064390424 0 -0.0034004026450433354 -0.00015855183860006062 0 -0.0034031946619840145 -0.00014125771478126046 0 -0.0033889818703562963 -0.00013496445682752332 0 -0.0034074381249090788 -0.00015714740947636666 0 -0.0034004026450433354 -0.00015855183860006062 0 -0.0034031946619840145 -0.00014125771478126046 0 -0.003406912493098472 -0.00016634277113413223 0 -0.0034074381249090788 -0.00015714740947636666 0 -0.0034004026450433354 -0.00015855183860006062 0 -0.0033117797111817588 0.0002121066207673499 0 -0.0033156609908470908 0.00021410770428499803 0 -0.0033235927041847238 0.00021432195279373414 0 -0.0034031946619840145 -0.00014125771478126046 0 -0.0033889818703562963 -0.00013496445682752332 0 -0.0033952211575425948 -9.2065018315889204e-05 0 -0.0034192454400508859 -0.00016246337003078553 0 -0.0034031946619840145 -0.00014125771478126046 0 -0.0033952211575425948 -9.2065018315889204e-05 0 -0.0033063343289672785 0.00020958158064390424 0 -0.0033117797111817588 0.0002121066207673499 0 -0.0033235927041847238 0.00021432195279373414 0 -0.0033889818703562963 -0.00013496445682752332 0 -0.0033810057626465391 -0.00010765791914538441 0 -0.0033952211575425948 -9.2065018315889204e-05 0 -0.0033985147254342379 -2.1618188875963621e-05 0 -0.0033530001029546106 7.0677544896937251e-05 0 -0.0033117797111817588 0.0002121066207673499 0 -0.0033137719050695285 0.00021421494633043091 0 -0.0033156609908470908 0.00021410770428499803 0 -0.0033115156872634086 0.00021223294684393087 0 -0.0033136903716410454 0.00021454518551666246 0 -0.0033117797111817588 0.0002121066207673499 0 -0.0033136903716410454 0.00021454518551666246 0 -0.0033117797111817588 0.0002121066207673499 0 -0.0033137719050695285 0.00021421494633043091 0 -0.0033140258729228577 0.00021540199681566199 0 -0.0033137719050695285 0.00021421494633043091 0 -0.0033156609908470908 0.00021410770428499803 0 -0.0033156609908470908 0.00021410770428499803 0 -0.0033153479845828321 0.00021337676238955701 0 -0.0033235927041847238 0.00021432195279373414 0 -0.0033140258729228577 0.00021540199681566199 0 -0.0033156609908470908 0.00021410770428499803 0 -0.0033153479845828321 0.00021337676238955701 0 -0.0033889818703562963 -0.00013496445682752332 0 -0.0033810057626465391 -0.00010765791914538441 0 -0.003364434017490538 -0.00012093198737343522 0 -0.0033810057626465391 -0.00010765791914538441 0 -0.003364434017490538 -0.00012093198737343522 0 -0.003349688384053715 -8.1998248071689069e-05 0 -0.0033810057626465391 -0.00010765791914538441 0 -0.0033952211575425948 -9.2065018315889204e-05 0 -0.0033283904679930706 -5.9683302939135953e-05 0 -0.0033952211575425948 -9.2065018315889204e-05 0 -0.0033647704788679705 -1.1094081199306633e-05 0 -0.0033283904679930706 -5.9683302939135953e-05 0 -0.0034382224545133622 -0.00025718218997761405 0 -0.0034033543845397433 -0.0002217076022648031 0 -0.0033418381226774934 -5.6480307080860768e-05 0 -0.0034033543845397433 -0.0002217076022648031 0 -0.0033153479845828321 0.00021337676238955701 0 -0.0033154312426098352 0.00020631677031755544 0 -0.0033080060103795376 0.00020675817361999588 0 -0.0033153479845828321 0.00021337676238955701 0 -0.0033235927041847238 0.00021432195279373414 0 -0.0033154312426098352 0.00020631677031755544 0 -0.0033235927041847238 0.00021432195279373414 0 -0.0033154312426098352 0.00020631677031755544 0 -0.0033172381210631822 0.00018818348658153363 0 -0.0033154312426098352 0.00020631677031755544 0 -0.0033172381210631822 0.00018818348658153363 0 -0.0033080060103795376 0.00020675817361999588 0 -0.0033235927041847238 0.00021432195279373414 0 -0.0033172381210631822 0.00018818348658153363 0 -0.0033416194138759141 0.00015966741563060066 0 -0.0033172381210631822 0.00018818348658153363 0 -0.0032989749186759388 0.00017942284242002891 0 -0.0033108137090299711 0.00015418257550246352 0 -0.0033172381210631822 0.00018818348658153363 0 -0.0033416194138759141 0.00015966741563060066 0 -0.0033108137090299711 0.00015418257550246352 0 -0.0033530001029546106 7.0677544896937251e-05 0 -0.0033521099479515868 7.0769888684364419e-05 0 -0.0033019262622522444 0.00023372008726608748 0 -0.0033111211889745302 0.00021998437590772067 0 -0.0032920430726346146 0.00020482424558764092 0 -0.0033111211889745302 0.00021998437590772067 0 -0.0033080060103795376 0.00020675817361999588 0 -0.0032920430726346146 0.00020482424558764092 0 -0.0033125368577833487 0.00021583983746791766 0 -0.0033111211889745302 0.00021998437590772067 0 -0.0033080060103795376 0.00020675817361999588 0 -0.0033125368577833487 0.00021583983746791766 0 -0.0033153479845828321 0.00021337676238955701 0 -0.0033080060103795376 0.00020675817361999588 0 -0.0033080060103795376 0.00020675817361999588 0 -0.0032989749186759388 0.00017942284242002891 0 -0.0032920430726346146 0.00020482424558764092 0 -0.0033172381210631822 0.00018818348658153363 0 -0.0033080060103795376 0.00020675817361999588 0 -0.0032989749186759388 0.00017942284242002891 0 -0.0032989749186759388 0.00017942284242002891 0 -0.0032920430726346146 0.00020482424558764092 0 -0.0032725612486039389 0.0001629340956738172 0 -0.0032583642733512823 0.00020472732979715346 0 -0.0032920430726346146 0.00020482424558764092 0 -0.0032725612486039389 0.0001629340956738172 0 -0.0032725612486039389 0.0001629340956738172 0 -0.0032913414328167782 0.00012986528587410071 0 -0.00326096961652182 0.00010245690616079615 0 -0.0032989749186759388 0.00017942284242002891 0 -0.0032725612486039389 0.0001629340956738172 0 -0.0032913414328167782 0.00012986528587410071 0 -0.0032989749186759388 0.00017942284242002891 0 -0.0032913414328167782 0.00012986528587410071 0 -0.0033108137090299711 0.00015418257550246352 0 -0.0032913414328167782 0.00012986528587410071 0 -0.00326096961652182 0.00010245690616079615 0 -0.0032928645413492301 7.3339930337829788e-05 0 -0.0032303907295553281 0.00013930446050550778 0 -0.0032725612486039389 0.0001629340956738172 0 -0.00326096961652182 0.00010245690616079615 0 -0.0032303907295553281 0.00013930446050550778 0 -0.00326096961652182 0.00010245690616079615 0 -0.003223537052703878 5.7761267301428053e-05 0 -0.0033521099479515868 7.0769888684364419e-05 0 -0.0033359399760555571 5.8826514383187719e-05 0 -0.0033647704788679705 -1.1094081199306633e-05 0 -0.0033326728302562987 5.3721645772028458e-05 0 -0.0033161299877090783 2.6868965218848012e-05 0 -0.0033416194138759141 0.00015966741563060066 0 -0.0033140277977901146 0.00010473192502302619 0 -0.0033326728302562987 5.3721645772028458e-05 0 -0.0032913414328167782 0.00012986528587410071 0 -0.0033140277977901146 0.00010473192502302619 0 -0.0033108137090299711 0.00015418257550246352 0 -0.0033416194138759141 0.00015966741563060066 0 -0.0033140277977901146 0.00010473192502302619 0 -0.0033108137090299711 0.00015418257550246352 0 -0.0032913414328167782 0.00012986528587410071 0 -0.0033140277977901146 0.00010473192502302619 0 -0.0032928645413492301 7.3339930337829788e-05 0 -0.0033140277977901146 0.00010473192502302619 0 -0.0032928645413492301 7.3339930337829788e-05 0 -0.0033326728302562987 5.3721645772028458e-05 0 -0.0033021286872505552 2.7519572981316262e-05 0 -0.0033161299877090783 2.6868965218848012e-05 0 -0.0033130146636869795 3.4653389448770509e-05 0 -0.0033326728302562987 5.3721645772028458e-05 0 -0.0033161299877090783 2.6868965218848012e-05 0 -0.0033130146636869795 3.4653389448770509e-05 0 -0.0033156705686072947 -0.00011215355558804081 0 -0.0032401792772716181 -5.7718967575225669e-05 0 -0.0031915888601867833 -0.00012341332821581581 0 -0.0033156705686072947 -0.00011215355558804081 0 -0.0032401792772716181 -5.7718967575225669e-05 0 -0.0032770812463624554 1.2495461146963544e-05 0 -0.0033075668220777388 -4.3072523503557619e-05 0 -0.0032796122324172871 1.2125381560986816e-05 0 -0.0033156705686072947 -0.00011215355558804081 0 -0.0032991762481755496 -0.00022124980042239175 0 -0.0031915888601867833 -0.00012341332821581581 0 -0.0033156705686072947 -0.00011215355558804081 0 -0.0033569644499189997 -0.00021346703623057855 0 -0.0032991762481755496 -0.00022124980042239175 0 -0.0033021286872505552 2.7519572981316262e-05 0 -0.0033161299877090783 2.6868965218848012e-05 0 -0.0033077415832791696 -1.3761337392914629e-06 0 -0.0033075668220777388 -4.3072523503557619e-05 0 -0.0033279651725904194 -9.973084658543768e-05 0 -0.0033647704788679705 -1.1094081199306633e-05 0 -0.0033161299877090783 2.6868965218848012e-05 0 -0.0033077415832791696 -1.3761337392914629e-06 0 -0.0033279651725904194 -9.973084658543768e-05 0 -0.0034033543845397433 -0.0002217076022648031 0 -0.0034244126918034179 -0.00031711953952502691 0 -0.0034033543845397433 -0.0002217076022648031 0 -0.0033569644499189997 -0.00021346703623057855 0 -0.0032991762481755496 -0.00022124980042239175 0 -0.00339814385292546 -0.00030892302641756004 0 -0.0033647704788679705 -1.1094081199306633e-05 0 -0.0033077415832791696 -1.3761337392914629e-06 0 -0.0033283904679930706 -5.9683302939135953e-05 0 -0.0034952990460927471 -0.00037720992620078934 0 -0.0034896719504439594 -0.00040257112850238848 0 -0.0035156298567941761 -0.00039677643257589199 0 -0.0034896719504439594 -0.00040257112850238848 0 -0.0035008744056580204 -0.00040732570634702004 0 -0.0035156298567941761 -0.00039677643257589199 0 -0.0034932597323600267 -0.00041423619549835661 0 -0.0034896719504439594 -0.00040257112850238848 0 -0.0035008744056580204 -0.00040732570634702004 0 -0.0035051858190001338 -0.00041539981803666114 0 -0.0035008744056580204 -0.00040732570634702004 0 -0.0035156298567941761 -0.00039677643257589199 0 -0.0029090351283048328 -0.00080865764148612426 0 -0.0030913752979151734 -0.00084292313528146114 0 -0.0029737810340170422 -0.00069092736732236809 0 -0.0030913752979151734 -0.00084292313528146114 0 -0.0029737810340170422 -0.00069092736732236809 0 -0.0030926010516284181 -0.00062710612019369961 0 -0.0035114997956433064 -0.00065157019780774617 0 -0.0032613855396165102 -0.00052058098503139812 0 -0.003476713407606608 -0.00041654231800551363 0 -0.0034896719504439594 -0.00040257112850238848 0 -0.003471247761103048 -0.00038753512201266147 0 -0.0034932597323600267 -0.00041423619549835661 0 -0.003479691066581725 -0.00041684177514972895 0 -0.0034896719504439594 -0.00040257112850238848 0 -0.003479691066581725 -0.00041684177514972895 0 -0.003476713407606608 -0.00041654231800551363 0 -0.0034896719504439594 -0.00040257112850238848 0 -0.0034952990460927471 -0.00037720992620078934 0 -0.0034896719504439594 -0.00040257112850238848 0 -0.003471247761103048 -0.00038753512201266147 0 -0.0028397158158458774 -0.0006484392943229291 0 -0.0029737810340170422 -0.00069092736732236809 0 -0.0029709489373559101 -0.00055222306584125564 0 -0.0029737810340170422 -0.00069092736732236809 0 -0.0030926010516284181 -0.00062710612019369961 0 -0.0029709489373559101 -0.00055222306584125564 0 -0.0029709489373559101 -0.00055222306584125564 0 -0.0031090286454529127 -0.00041263386339679262 0 -0.0029624072846710196 -0.00042729050766639816 0 -0.0030926010516284181 -0.00062710612019369961 0 -0.0029709489373559101 -0.00055222306584125564 0 -0.0031090286454529127 -0.00041263386339679262 0 -0.0028577866773968202 -0.00049672019429776557 0 -0.0029709489373559101 -0.00055222306584125564 0 -0.0029624072846710196 -0.00042729050766639816 0 -0.0032613855396165102 -0.00052058098503139812 0 -0.0032423850802296363 -0.00029813067298278177 0 -0.0034952990460927471 -0.00037720992620078934 0 -0.003471247761103048 -0.00038753512201266147 0 -0.0034684104185247213 -0.00035355335907491953 0 -0.0034244126918034179 -0.00031711953952502691 0 -0.0032423850802296363 -0.00029813067298278177 0 -0.0031382794804451167 -0.00043932965690890793 0 -0.0030769118894488552 -0.00038150328500959887 0 -0.0031713412101308245 1.7830261234822352e-05 0 -0.0032423850802296363 -0.00029813067298278177 0 -0.0031908096086096329 -0.00031064629167138402 0 -0.0029624072846710196 -0.00042729050766639816 0 -0.0030143112663892986 -0.00037423431946995953 0 -0.0029380046505175918 -0.00034189158140384622 0 -0.0031090286454529127 -0.00041263386339679262 0 -0.0030769118894488552 -0.00038150328500959887 0 -0.0030143112663892986 -0.00037423431946995953 0 -0.0031090286454529127 -0.00041263386339679262 0 -0.0029624072846710196 -0.00042729050766639816 0 -0.0030143112663892986 -0.00037423431946995953 0 -0.0030769118894488552 -0.00038150328500959887 0 -0.0030143112663892986 -0.00037423431946995953 0 -0.0030030100889085155 -0.00029358657010074632 0 -0.0030030100889085155 -0.00029358657010074632 0 -0.0029380046505175918 -0.00034189158140384622 0 -0.0029309336500394924 -0.00027003035365027973 0 -0.0030143112663892986 -0.00037423431946995953 0 -0.0030030100889085155 -0.00029358657010074632 0 -0.0029380046505175918 -0.00034189158140384622 0 -0.0030030100889085155 -0.00029358657010074632 0 -0.0029779527838669092 -4.8894259497491159e-05 0 -0.0031713412101308245 1.7830261234822352e-05 0 -0.0030030100889085155 -0.00029358657010074632 0 -0.0029309336500394924 -0.00027003035365027973 0 -0.002959515555770089 -0.00021396214633806536 0 -0.0030005070111853043 -0.00027822903922377127 0 -0.0029728001398042383 -0.00012745195618190042 0 -0.0029309336500394924 -0.00027003035365027973 0 -0.002959515555770089 -0.00021396214633806536 0 -0.0028461407324682267 -0.00022088963703201158 0 -0.0032423850802296363 -0.00029813067298278177 0 -0.003149662797247231 1.5264207618326307e-05 0 -0.0032401792772716181 -5.7718967575225669e-05 0 -0.0031713412101308245 1.7830261234822352e-05 0 -0.0032770812463624554 1.2495461146963544e-05 0 -0.0030769118894488552 -0.00038150328500959887 0 -0.0030030100889085155 -0.00029358657010074632 0 -0.0031713412101308245 1.7830261234822352e-05 0 -0.0032401792772716181 -5.7718967575225669e-05 0 -0.0031915888601867833 -0.00012341332821581581 0 -0.0031713412101308245 1.7830261234822352e-05 0 -0.0031713412101308245 1.7830261234822352e-05 0 -0.0032663568766356124 8.1572540334893783e-05 0 -0.0032770812463624554 1.2495461146963544e-05 0 -0.0031713412101308245 1.7830261234822352e-05 0 -0.0029689337408415604 0.00014041164975194971 0 -0.0032663568766356124 8.1572540334893783e-05 0 -0.0031487646479624169 -3.94719819825571e-05 0 -0.0031542532649755004 -3.8246856361744307e-05 0 -0.0031550260456004011 -4.3118749097549036e-05 0 -0.003027076761769477 -3.9920379346257928e-05 0 -0.0032137746280744861 3.181801385491005e-05 0 -0.0029779527838669092 -4.8894259497491159e-05 0 -0.0031713412101308245 1.7830261234822352e-05 0 -0.0029689337408415604 0.00014041164975194971 0 -0.002959515555770089 -0.00021396214633806536 0 -0.0029344267425594618 -0.00010481781279653197 0 -0.0028461407324682267 -0.00022088963703201158 0 -0.0029728001398042383 -0.00012745195618190042 0 -0.003027076761769477 -3.9920379346257928e-05 0 -0.0031487646479624169 -3.94719819825571e-05 0 -0.003151439904368821 -3.6973884222429305e-05 0 -0.0031505640358602256 -3.7142162357751712e-05 0 -0.003027076761769477 -3.9920379346257928e-05 0 -0.0030777440690973545 6.4879385308558619e-05 0 -0.0031487646479624169 -3.94719819825571e-05 0 -0.0031520729560280463 -3.7513230540313705e-05 0 -0.003151439904368821 -3.6973884222429305e-05 0 -0.0031487646479624169 -3.94719819825571e-05 0 -0.0031542532649755004 -3.8246856361744307e-05 0 -0.0031520729560280463 -3.7513230540313705e-05 0 -0.0031542532649755004 -3.8246856361744307e-05 0 -0.0031532811062411504 -3.5264568235282673e-05 0 -0.0031581301132022344 -3.3784598320475488e-05 0 -0.0031542532649755004 -3.8246856361744307e-05 0 -0.0031520729560280463 -3.7513230540313705e-05 0 -0.0031532811062411504 -3.5264568235282673e-05 0 -0.0031520729560280463 -3.7513230540313705e-05 0 -0.0031532811062411504 -3.5264568235282673e-05 0 -0.003151439904368821 -3.6973884222429305e-05 0 -0.0031532811062411504 -3.5264568235282673e-05 0 -0.003151439904368821 -3.6973884222429305e-05 0 -0.0031516051738272898 -3.8867656706666828e-05 0 -0.003151439904368821 -3.6973884222429305e-05 0 -0.0031516051738272898 -3.8867656706666828e-05 0 -0.0031505640358602256 -3.7142162357751712e-05 0 -0.0031516051738272898 -3.8867656706666828e-05 0 -0.0031503981510646079 -4.1104305792731121e-05 0 -0.0031505640358602256 -3.7142162357751712e-05 0 -0.0031767380842227097 -2.8531542496671841e-05 0 -0.0031581301132022344 -3.3784598320475488e-05 0 -0.0031566783360333843 -2.4412555153547582e-05 0 -0.0031581301132022344 -3.3784598320475488e-05 0 -0.0031554175687311821 -3.2435597683260879e-05 0 -0.0031566783360333843 -2.4412555153547582e-05 0 -0.0031532811062411504 -3.5264568235282673e-05 0 -0.0031581301132022344 -3.3784598320475488e-05 0 -0.0031554175687311821 -3.2435597683260879e-05 0 -0.0031542532649755004 -3.8246856361744307e-05 0 -0.0031581301132022344 -3.3784598320475488e-05 0 -0.0031550260456004011 -4.3118749097549036e-05 0 -0.0031581301132022344 -3.3784598320475488e-05 0 -0.0031711971601922949 -3.5435593469166858e-05 0 -0.0031550260456004011 -4.3118749097549036e-05 0 -0.0031767380842227097 -2.8531542496671841e-05 0 -0.0031581301132022344 -3.3784598320475488e-05 0 -0.0031711971601922949 -3.5435593469166858e-05 0 -0.0032531828336889749 -2.2173818213861273e-06 0 -0.0032137746280744861 3.181801385491005e-05 0 -0.0031711971601922949 -3.5435593469166858e-05 0 -0.003185526884298618 -4.6716873763920339e-05 0 -0.0031550260456004011 -4.3118749097549036e-05 0 -0.0033302958362437791 4.115336031789535e-05 0 -0.0032663568766356124 8.1572540334893783e-05 0 -0.0032770812463624554 1.2495461146963544e-05 0 -0.0033021286872505552 2.7519572981316262e-05 0 -0.0032770812463624554 1.2495461146963544e-05 0 -0.0033130146636869795 3.4653389448770509e-05 0 -0.0033302958362437791 4.115336031789535e-05 0 -0.0032770812463624554 1.2495461146963544e-05 0 -0.0033130146636869795 3.4653389448770509e-05 0 -0.0033302958362437791 4.115336031789535e-05 0 -0.0033130146636869795 3.4653389448770509e-05 0 -0.0033183032089628018 4.6247543983790033e-05 0 -0.0032928645413492301 7.3339930337829788e-05 0 -0.0033326728302562987 5.3721645772028458e-05 0 -0.0033183032089628018 4.6247543983790033e-05 0 -0.0033326728302562987 5.3721645772028458e-05 0 -0.0033130146636869795 3.4653389448770509e-05 0 -0.0033183032089628018 4.6247543983790033e-05 0 -0.0032928645413492301 7.3339930337829788e-05 0 -0.0033183032089628018 4.6247543983790033e-05 0 -0.003257613067718451 3.1561957451269949e-06 0 -0.0033302958362437791 4.115336031789535e-05 0 -0.0033183032089628018 4.6247543983790033e-05 0 -0.003257613067718451 3.1561957451269949e-06 0 -0.003185526884298618 -4.6716873763920339e-05 0 -0.003257613067718451 3.1561957451269949e-06 0 -0.003209046534486231 -2.481544256695008e-05 0 -0.0032531828336889749 -2.2173818213861273e-06 0 -0.0032536493278650849 2.4599520862408494e-06 0 -0.00326096961652182 0.00010245690616079615 0 -0.0032531759487315222 4.7757027479140759e-05 0 -0.003223537052703878 5.7761267301428053e-05 0 -0.0032928645413492301 7.3339930337829788e-05 0 -0.003257613067718451 3.1561957451269949e-06 0 -0.0032531759487315222 4.7757027479140759e-05 0 -0.00326096961652182 0.00010245690616079615 0 -0.0032928645413492301 7.3339930337829788e-05 0 -0.0032531759487315222 4.7757027479140759e-05 0 -0.003257613067718451 3.1561957451269949e-06 0 -0.0032531759487315222 4.7757027479140759e-05 0 -0.003232509910299562 4.9599068846201557e-06 0 -0.003257613067718451 3.1561957451269949e-06 0 -0.003232509910299562 4.9599068846201557e-06 0 -0.0032320231541115782 -1.8715979566722099e-05 0 -0.0032531759487315222 4.7757027479140759e-05 0 -0.003232509910299562 4.9599068846201557e-06 0 -0.003223537052703878 5.7761267301428053e-05 0 -0.0032296401530100861 5.2668119400296417e-06 0 -0.0031752653481654336 -5.3191667361209481e-06 0 -0.003232509910299562 4.9599068846201557e-06 0 -0.003223537052703878 5.7761267301428053e-05 0 -0.0032083875873937292 -8.3521856151139313e-07 0 -0.003232509910299562 4.9599068846201557e-06 0 -0.0031972277240061666 -5.4703947940156005e-05 0 -0.0031613022406842711 -5.2679508646646288e-05 0 -0.003232509910299562 4.9599068846201557e-06 0 -0.0031434705908880436 -5.9777694119878825e-06 0 -0.0031613022406842711 -5.2679508646646288e-05 0 -0.003232509910299562 4.9599068846201557e-06 0 -0.0032207522200168553 -3.2719762746530463e-05 0 -0.0032320231541115782 -1.8715979566722099e-05 0 -0.003232509910299562 4.9599068846201557e-06 0 -0.0032207522200168553 -3.2719762746530463e-05 0 -0.0031972277240061666 -5.4703947940156005e-05 0 -0.0032207522200168553 -3.2719762746530463e-05 0 -0.0032115895668315833 -5.0330672440308461e-05 0 -0.0032113804840959042 -3.4084682565175158e-05 0 -0.0032115895668315833 -5.0330672440308461e-05 0 -0.0031972277240061666 -5.4703947940156005e-05 0 -0.0031967475065409015 -7.0574208265798235e-05 0 -0.0032115895668315833 -5.0330672440308461e-05 0 -0.0031967475065409015 -7.0574208265798235e-05 0 -0.0032086138309964608 -5.5565651779756408e-05 0 -0.0032207522200168553 -3.2719762746530463e-05 0 -0.0032115895668315833 -5.0330672440308461e-05 0 -0.0031972277240061666 -5.4703947940156005e-05 0 -0.0031972277240061666 -5.4703947940156005e-05 0 -0.003171516173029988 -8.2957594966963472e-05 0 -0.0031967475065409015 -7.0574208265798235e-05 0 -0.0031972277240061666 -5.4703947940156005e-05 0 -0.003171516173029988 -8.2957594966963472e-05 0 -0.0031613022406842711 -5.2679508646646288e-05 0 -0.0031767380842227097 -2.8531542496671841e-05 0 -0.0031711971601922949 -3.5435593469166858e-05 0 -0.003209046534486231 -2.481544256695008e-05 0 -0.0031711971601922949 -3.5435593469166858e-05 0 -0.003185526884298618 -4.6716873763920339e-05 0 -0.003209046534486231 -2.481544256695008e-05 0 -0.003257613067718451 3.1561957451269949e-06 0 -0.003209046534486231 -2.481544256695008e-05 0 -0.0032320231541115782 -1.8715979566722099e-05 0 -0.003209046534486231 -2.481544256695008e-05 0 -0.0032320231541115782 -1.8715979566722099e-05 0 -0.0032113804840959042 -3.4084682565175158e-05 0 -0.0032207522200168553 -3.2719762746530463e-05 0 -0.0032320231541115782 -1.8715979566722099e-05 0 -0.0032113804840959042 -3.4084682565175158e-05 0 -0.0032115895668315833 -5.0330672440308461e-05 0 -0.0032113804840959042 -3.4084682565175158e-05 0 -0.0031864809103967877 -3.8526364405992825e-05 0 -0.0032113804840959042 -3.4084682565175158e-05 0 -0.0031803656486624307 -3.1451091038772733e-05 0 -0.0031864809103967877 -3.8526364405992825e-05 0 -0.003209046534486231 -2.481544256695008e-05 0 -0.0032113804840959042 -3.4084682565175158e-05 0 -0.0031803656486624307 -3.1451091038772733e-05 0 -0.0031767380842227097 -2.8531542496671841e-05 0 -0.003209046534486231 -2.481544256695008e-05 0 -0.0031803656486624307 -3.1451091038772733e-05 0 -0.0031767380842227097 -2.8531542496671841e-05 0 -0.0031803656486624307 -3.1451091038772733e-05 0 -0.0031566783360333843 -2.4412555153547582e-05 0 -0.0031803656486624307 -3.1451091038772733e-05 0 -0.0031380798981999721 -1.2111456483007662e-05 0 -0.0031864809103967877 -3.8526364405992825e-05 0 -0.0031803656486624307 -3.1451091038772733e-05 0 -0.0031380798981999721 -1.2111456483007662e-05 0 -0.0031566783360333843 -2.4412555153547582e-05 0 -0.0031380798981999721 -1.2111456483007662e-05 0 -0.0031864809103967877 -3.8526364405992825e-05 0 -0.0032148526471543785 -5.1624343998137558e-05 0 -0.0031380798981999721 -1.2111456483007662e-05 0 -0.0030117484437798023 -2.5702125447338189e-05 0 -0.002925492224910575 6.279674734053207e-05 0 -0.0031315640415862833 -8.3657432973947038e-06 0 -0.0030650855849791007 1.0665094206809708e-06 0 -0.0030117484437798023 -2.5702125447338189e-05 0 -0.0030817061562033472 -7.6164606573251925e-05 0 -0.0029378013877502124 -0.00010032951978160375 0 -0.0031380798981999721 -1.2111456483007662e-05 0 -0.0030117484437798023 -2.5702125447338189e-05 0 -0.0030817061562033472 -7.6164606573251925e-05 0 -0.0031380798981999721 -1.2111456483007662e-05 0 -0.0030817061562033472 -7.6164606573251925e-05 0 -0.0031536606814207505 -4.2409616281361792e-05 0 -0.003171516173029988 -8.2957594966963472e-05 0 -0.0031967475065409015 -7.0574208265798235e-05 0 -0.003155093261598854 -0.00013081521929802399 0 -0.002925492224910575 6.279674734053207e-05 0 -0.0029004136448191726 7.4169442955366525e-06 0 -0.0026716454578562796 7.0817204735411035e-05 0 -0.0030650855849791007 1.0665094206809708e-06 0 -0.0029098699018056235 -2.8937432223847365e-05 0 -0.0031967475065409015 -7.0574208265798235e-05 0 -0.0032148526471543785 -5.1624343998137558e-05 0 -0.003155093261598854 -0.00013081521929802399 0 -0.0031967475065409015 -7.0574208265798235e-05 0 -0.0032086138309964608 -5.5565651779756408e-05 0 -0.0032148526471543785 -5.1624343998137558e-05 0 -0.0032086138309964608 -5.5565651779756408e-05 0 -0.0032058648027478102 -4.9693604661248643e-05 0 -0.0032148526471543785 -5.1624343998137558e-05 0 -0.0032115895668315833 -5.0330672440308461e-05 0 -0.0031864809103967877 -3.8526364405992825e-05 0 -0.0032058648027478102 -4.9693604661248643e-05 0 -0.0031864809103967877 -3.8526364405992825e-05 0 -0.0032058648027478102 -4.9693604661248643e-05 0 -0.0032148526471543785 -5.1624343998137558e-05 0 -0.0032115895668315833 -5.0330672440308461e-05 0 -0.0032086138309964608 -5.5565651779756408e-05 0 -0.0032058648027478102 -4.9693604661248643e-05 0 -0.0030117484437798023 -2.5702125447338189e-05 0 -0.0029004136448191726 7.4169442955366525e-06 0 -0.0029378013877502124 -0.00010032951978160375 0 -0.0029004136448191726 7.4169442955366525e-06 0 -0.0027949928420791226 -8.8624716276697647e-05 0 -0.0029378013877502124 -0.00010032951978160375 0 -0.0030117484437798023 -2.5702125447338189e-05 0 -0.002925492224910575 6.279674734053207e-05 0 -0.0029004136448191726 7.4169442955366525e-06 0 -0.0029004136448191726 7.4169442955366525e-06 0 -0.0027949928420791226 -8.8624716276697647e-05 0 -0.0026685942921038167 9.1679593482771342e-07 0 -0.0029004136448191726 7.4169442955366525e-06 0 -0.0026716454578562796 7.0817204735411035e-05 0 -0.0026823507955477861 -3.3636678192807253e-05 0 -0.0028849259174359644 6.6082197805914423e-06 0 -0.0026777288239344956 -1.7287611606603455e-05 0 -0.0027949928420791226 -8.8624716276697647e-05 0 -0.0029378013877502124 -0.00010032951978160375 0 -0.0027544536050668092 -0.0002324377329412274 0 -0.0027949928420791226 -8.8624716276697647e-05 0 -0.0027544536050668092 -0.0002324377329412274 0 -0.0026561116045491747 -0.00013333124401385829 0 -0.0029378013877502124 -0.00010032951978160375 0 -0.0027544536050668092 -0.0002324377329412274 0 -0.0029808204498792106 -0.00019305095179802416 0 -0.0012276805947426322 4.2847153520620456e-05 0 -0.001131954828160081 -3.0601839560453101e-05 0 -0.0012166092909743566 -5.457244007306539e-05 0 -0.0019226018586334861 -0.00010474740245851602 0 -0.0021004611386494804 -7.3701967723613907e-05 0 -0.001086856348675311 2.391896856876639e-05 0 -0.0012276805947426322 4.2847153520620456e-05 0 -0.001131954828160081 -3.0601839560453101e-05 0 -0.001086856348675311 2.391896856876639e-05 0 -0.001050164546862038 -5.006428992905724e-06 0 -0.001131954828160081 -3.0601839560453101e-05 0 -0.0030817061562033472 -7.6164606573251925e-05 0 -0.0031109532353349539 -0.00012240415118067139 0 -0.0031536606814207505 -4.2409616281361792e-05 0 -0.0030817061562033472 -7.6164606573251925e-05 0 -0.0029378013877502124 -0.00010032951978160375 0 -0.0029808204498792106 -0.00019305095179802416 0 -0.0030817061562033472 -7.6164606573251925e-05 0 -0.0029808204498792106 -0.00019305095179802416 0 -0.0031109532353349539 -0.00012240415118067139 0 -0.0021004611386494804 -7.3701967723613907e-05 0 -0.0022540533405964016 -3.5765063666521999e-05 0 -0.0012276805947426322 4.2847153520620456e-05 0 -0.0012683564208432257 -2.980660698865112e-05 0 -0.001340092692017813 -1.4279692586849083e-05 0 -0.0012276805947426322 4.2847153520620456e-05 0 -0.0012683564208432257 -2.980660698865112e-05 0 -0.0012166092909743566 -5.457244007306539e-05 0 -0.0013976634407473949 5.5306924815980926e-05 0 -0.001340092692017813 -1.4279692586849083e-05 0 -0.0014206128695222404 -5.5304732200441958e-05 0 -0.0012276805947426322 4.2847153520620456e-05 0 -0.0013976634407473949 5.5306924815980926e-05 0 -0.001340092692017813 -1.4279692586849083e-05 0 -0.0013976634407473949 5.5306924815980926e-05 0 -0.0015809844341111844 4.8656441320059466e-05 0 -0.0014206128695222404 -5.5304732200441958e-05 0 -0.0022540533405964016 -3.5765063666521999e-05 0 -0.0023477676771098289 -1.433983368337473e-05 0 -0.0031109532353349539 -0.00012240415118067139 0 -0.0031464252228690145 -7.8589532278771639e-05 0 -0.0031536606814207505 -4.2409616281361792e-05 0 -0.0031464252228690145 -7.8589532278771639e-05 0 -0.0031528259747168504 -4.9376047260104084e-05 0 -0.0031536606814207505 -4.2409616281361792e-05 0 -0.0023477676771098289 -1.433983368337473e-05 0 -0.0025024490637939583 -1.9649462888196754e-05 0 -0.0015809844341111844 4.8656441320059466e-05 0 -0.001741997939999819 3.5334472518567538e-05 0 -0.0016727973538652396 -5.2184036030793041e-05 0 -0.0031455847247632471 -5.3424112264941784e-05 0 -0.0031481460286012079 -4.8272644342340803e-05 0 -0.0031423105686025645 -4.7981348493167605e-05 0 -0.0031455847247632471 -5.3424112264941784e-05 0 -0.0031528259747168504 -4.9376047260104084e-05 0 -0.0031481460286012079 -4.8272644342340803e-05 0 -0.0031464252228690145 -7.8589532278771639e-05 0 -0.0031455847247632471 -5.3424112264941784e-05 0 -0.0031528259747168504 -4.9376047260104084e-05 0 -0.0031528259747168504 -4.9376047260104084e-05 0 -0.0031513390328566197 -4.3789524561186809e-05 0 -0.0031534696770344492 -3.9102988817635234e-05 0 -0.0031528259747168504 -4.9376047260104084e-05 0 -0.0031481460286012079 -4.8272644342340803e-05 0 -0.0031513390328566197 -4.3789524561186809e-05 0 -0.0031481460286012079 -4.8272644342340803e-05 0 -0.0031513390328566197 -4.3789524561186809e-05 0 -0.0031490525681402231 -4.4164466729183926e-05 0 -0.0031513390328566197 -4.3789524561186809e-05 0 -0.0031503981510646079 -4.1104305792731121e-05 0 -0.0031490525681402231 -4.4164466729183926e-05 0 -0.0031513390328566197 -4.3789524561186809e-05 0 -0.0031516051738272898 -3.8867656706666828e-05 0 -0.0031503981510646079 -4.1104305792731121e-05 0 -0.0031532811062411504 -3.5264568235282673e-05 0 -0.0031534696770344492 -3.9102988817635234e-05 0 -0.0031554175687311821 -3.2435597683260879e-05 0 -0.0031532811062411504 -3.5264568235282673e-05 0 -0.0031516051738272898 -3.8867656706666828e-05 0 -0.0031534696770344492 -3.9102988817635234e-05 0 -0.0031513390328566197 -4.3789524561186809e-05 0 -0.0031516051738272898 -3.8867656706666828e-05 0 -0.0031534696770344492 -3.9102988817635234e-05 0 -0.0031534696770344492 -3.9102988817635234e-05 0 -0.0031554175687311821 -3.2435597683260879e-05 0 -0.0031536606814207505 -4.2409616281361792e-05 0 -0.0031554175687311821 -3.2435597683260879e-05 0 -0.0031566783360333843 -2.4412555153547582e-05 0 -0.0031536606814207505 -4.2409616281361792e-05 0 -0.0031380798981999721 -1.2111456483007662e-05 0 -0.0031566783360333843 -2.4412555153547582e-05 0 -0.0031536606814207505 -4.2409616281361792e-05 0 -0.0031528259747168504 -4.9376047260104084e-05 0 -0.0031534696770344492 -3.9102988817635234e-05 0 -0.0031536606814207505 -4.2409616281361792e-05 0 -0.0021807688529654166 -4.8737789842827913e-05 0 -0.0024376942657087955 -0.00030483005807801399 0 -0.0018396023601242126 -5.8067457882766343e-07 0 -0.0021807688529654166 -4.8737789842827913e-05 0 -0.0020549945611121152 8.4427704379587815e-08 0 -0.0018396023601242126 -5.8067457882766343e-07 0 -0.0021807688529654166 -4.8737789842827913e-05 0 -0.0024362683007725441 -8.570326546210655e-05 0 -0.0024376942657087955 -0.00030483005807801399 0 -0.0021807688529654166 -4.8737789842827913e-05 0 -0.0024362683007725441 -8.570326546210655e-05 0 -0.0022876222821742931 1.7808795374969957e-05 0 -0.0024362683007725441 -8.570326546210655e-05 0 -0.0022876222821742931 1.7808795374969957e-05 0 -0.002602186229272115 -2.5178999807746696e-05 0 -0.0022876222821742931 1.7808795374969957e-05 0 -0.0023939232669887974 0.00013460153603847753 0 -0.002602186229272115 -2.5178999807746696e-05 0 -0.0021807688529654166 -4.8737789842827913e-05 0 -0.0022876222821742931 1.7808795374969957e-05 0 -0.0020549945611121152 8.4427704379587815e-08 0 -0.0022876222821742931 1.7808795374969957e-05 0 -0.0020549945611121152 8.4427704379587815e-08 0 -0.0022701776729851784 2.381438188968133e-07 0 -0.0022876222821742931 1.7808795374969957e-05 0 -0.0022701776729851784 2.381438188968133e-07 0 -0.0023939232669887974 0.00013460153603847753 0 -0.0022709891684391001 -2.9882634496115561e-07 0 -0.0025613818928292599 3.7724198157143194e-05 0 -0.0026945440676227951 -4.608694214679477e-05 0 -0.0022706225614302399 1.6085566199510924e-08 0 -0.002551171249725166 4.670957415419528e-05 0 -0.0025573702165397104 2.0874015697891935e-07 0 -0.0022709891684391001 -2.9882634496115561e-07 0 -0.0025613818928292599 3.7724198157143194e-05 0 -0.0025613818928292599 3.7724198157143194e-05 0 -0.0027440774285566985 6.53484933779621e-05 0 -0.0026945440676227951 -4.608694214679477e-05 0 -0.002551171249725166 4.670957415419528e-05 0 -0.0027772587396461103 9.0084216277470908e-05 0 -0.0023939232669887974 0.00013460153603847753 0 -0.0028125508128156247 9.8466473840874661e-05 0 -0.002602186229272115 -2.5178999807746696e-05 0 -0.0027440774285566985 6.53484933779621e-05 0 -0.0026945440676227951 -4.608694214679477e-05 0 -0.0028125508128156247 9.8466473840874661e-05 0 -0.0028999725921916605 0.0001263976098175147 0 -0.0027440774285566985 6.53484933779621e-05 0 -0.0028125508128156247 9.8466473840874661e-05 0 -0.0028999725921916605 0.0001263976098175147 0 -0.0028125508128156247 9.8466473840874661e-05 0 -0.0030231584698770524 0.00012689617628876769 0 -0.0028125508128156247 9.8466473840874661e-05 0 -0.0028660148112188556 -7.1075438756407677e-05 0 -0.0030203705607895065 4.6324959921528379e-05 0 -0.0028125508128156247 9.8466473840874661e-05 0 -0.002602186229272115 -2.5178999807746696e-05 0 -0.0028660148112188556 -7.1075438756407677e-05 0 -0.002602186229272115 -2.5178999807746696e-05 0 -0.0026554709750656585 -0.00014730766682450716 0 -0.0028660148112188556 -7.1075438756407677e-05 0 -0.0024362683007725441 -8.570326546210655e-05 0 -0.0026554709750656585 -0.00014730766682450716 0 -0.0024376942657087955 -0.00030483005807801399 0 -0.0024362683007725441 -8.570326546210655e-05 0 -0.002602186229272115 -2.5178999807746696e-05 0 -0.0026554709750656585 -0.00014730766682450716 0 -0.0026554709750656585 -0.00014730766682450716 0 -0.0028660148112188556 -7.1075438756407677e-05 0 -0.0028225356108975272 -0.00027368694163909096 0 -0.002939068560710841 -0.0001572122215206366 0 -0.0028660148112188556 -7.1075438756407677e-05 0 -0.0028225356108975272 -0.00027368694163909096 0 -0.002939068560710841 -0.0001572122215206366 0 -0.0030232441150644606 -0.00011707651911918023 0 -0.0030274747194571497 -2.8900182291409497e-05 0 -0.002939068560710841 -0.0001572122215206366 0 -0.0030232441150644606 -0.00011707651911918023 0 -0.0030280112771574577 -0.00019812801835546867 0 -0.002939068560710841 -0.0001572122215206366 0 -0.0030274747194571497 -2.8900182291409497e-05 0 -0.0028660148112188556 -7.1075438756407677e-05 0 -0.0030989859887236982 -4.9958520489482228e-05 0 -0.0028660148112188556 -7.1075438756407677e-05 0 -0.0030203705607895065 4.6324959921528379e-05 0 -0.0030584787565397574 -3.8206947390244617e-05 0 -0.0028797152455605716 -7.0001806313476839e-05 0 -0.0028125508128156247 9.8466473840874661e-05 0 -0.0030203705607895065 4.6324959921528379e-05 0 -0.0030231584698770524 0.00012689617628876769 0 -0.0030203705607895065 4.6324959921528379e-05 0 -0.0030231584698770524 0.00012689617628876769 0 -0.0031532858399662619 0.00010837739639270818 0 -0.0030203705607895065 4.6324959921528379e-05 0 -0.0031553246640444598 3.4754966776590843e-05 0 -0.0031532858399662619 0.00010837739639270818 0 -0.0030989859887236982 -4.9958520489482228e-05 0 -0.0030203705607895065 4.6324959921528379e-05 0 -0.0031553246640444598 3.4754966776590843e-05 0 -0.0031553246640444598 3.4754966776590843e-05 0 -0.0031532858399662619 0.00010837739639270818 0 -0.003223537052703878 5.7761267301428053e-05 0 -0.0032303907295553281 0.00013930446050550778 0 -0.0031532858399662619 0.00010837739639270818 0 -0.003223537052703878 5.7761267301428053e-05 0 -0.0031553246640444598 3.4754966776590843e-05 0 -0.003223537052703878 5.7761267301428053e-05 0 -0.0032083875873937292 -8.3521856151139313e-07 0 -0.0031434705908880436 -5.9777694119878825e-06 0 -0.0030918899095555914 -8.1206749111255999e-05 0 -0.0031613022406842711 -5.2679508646646288e-05 0 -0.0030989859887236982 -4.9958520489482228e-05 0 -0.0031553246640444598 3.4754966776590843e-05 0 -0.0032083875873937292 -8.3521856151139313e-07 0 -0.0030584787565397574 -3.8206947390244617e-05 0 -0.0031752653481654336 -5.3191667361209481e-06 0 -0.0030274747194571497 -2.8900182291409497e-05 0 -0.0031434705908880436 -5.9777694119878825e-06 0 -0.0030918899095555914 -8.1206749111255999e-05 0 -0.0030232441150644606 -0.00011707651911918023 0 -0.0030274747194571497 -2.8900182291409497e-05 0 -0.0030918899095555914 -8.1206749111255999e-05 0 -0.0030232441150644606 -0.00011707651911918023 0 -0.0030918899095555914 -8.1206749111255999e-05 0 -0.0030280112771574577 -0.00019812801835546867 0 -0.0030918899095555914 -8.1206749111255999e-05 0 -0.003126485354270674 -0.00010543610069415574 0 -0.0030280112771574577 -0.00019812801835546867 0 -0.0030918899095555914 -8.1206749111255999e-05 0 -0.003126485354270674 -0.00010543610069415574 0 -0.0031613022406842711 -5.2679508646646288e-05 0 -0.003171516173029988 -8.2957594966963472e-05 0 -0.003126485354270674 -0.00010543610069415574 0 -0.0031613022406842711 -5.2679508646646288e-05 0 -0.003171516173029988 -8.2957594966963472e-05 0 -0.003126485354270674 -0.00010543610069415574 0 -0.003155093261598854 -0.00013081521929802399 0 -0.0029098699018056235 -2.8937432223847365e-05 0 -0.0027103572918010339 -6.2874294257317292e-05 0 -0.003126485354270674 -0.00010543610069415574 0 -0.003155093261598854 -0.00013081521929802399 0 -0.0030280112771574577 -0.00019812801835546867 0 -0.0026716454578562796 7.0817204735411035e-05 0 -0.0025586308581105627 1.9071465482545309e-06 0 -0.0023975228289256694 7.3848588722966036e-05 0 -0.0024294032243399434 -3.8344417920715366e-05 0 -0.0026685942921038167 9.1679593482771342e-07 0 -0.0025585152655781458 -0.00010509733549069107 0 -0.0025586308581105627 1.9071465482545309e-06 0 -0.0024481944809115462 -6.8818827164504945e-05 0 -0.0026823507955477861 -3.3636678192807253e-05 0 -0.0025586308581105627 1.9071465482545309e-06 0 -0.0024481944809115462 -6.8818827164504945e-05 0 -0.0023975228289256694 7.3848588722966036e-05 0 -0.00243714159790539 -5.3943635084442977e-05 0 -0.0026777288239344956 -1.7287611606603455e-05 0 -0.0026685942921038167 9.1679593482771342e-07 0 -0.0026561116045491747 -0.00013333124401385829 0 -0.0025585152655781458 -0.00010509733549069107 0 -0.0026716454578562796 7.0817204735411035e-05 0 -0.0025586308581105627 1.9071465482545309e-06 0 -0.0026823507955477861 -3.3636678192807253e-05 0 -0.0027949928420791226 -8.8624716276697647e-05 0 -0.0026685942921038167 9.1679593482771342e-07 0 -0.0026561116045491747 -0.00013333124401385829 0 -0.0026561116045491747 -0.00013333124401385829 0 -0.0024989986971168552 -0.0002407857125653256 0 -0.0025585152655781458 -0.00010509733549069107 0 -0.0027544536050668092 -0.0002324377329412274 0 -0.0026561116045491747 -0.00013333124401385829 0 -0.0024989986971168552 -0.0002407857125653256 0 -0.001086856348675311 2.391896856876639e-05 0 -0.001050164546862038 -5.006428992905724e-06 0 -0.0010836895731562656 -2.8245099725650868e-05 0 -0.0019226018586334861 -0.00010474740245851602 0 -0.0017947534068475945 -0.00013223327908345407 0 -0.001050164546862038 -5.006428992905724e-06 0 -0.0010836895731562656 -2.8245099725650868e-05 0 -0.0011285620906813314 2.7862345732175143e-05 0 -0.0024294032243399434 -3.8344417920715366e-05 0 -0.0024989986971168552 -0.0002407857125653256 0 -0.002338483837318044 -0.00013370234418083401 0 -0.0024294032243399434 -3.8344417920715366e-05 0 -0.0024989986971168552 -0.0002407857125653256 0 -0.0025585152655781458 -0.00010509733549069107 0 -0.0024989986971168552 -0.0002407857125653256 0 -0.002338483837318044 -0.00013370234418083401 0 -0.0022689593548950743 -0.00023113833713615976 0 -0.0017947534068475945 -0.00013223327908345407 0 -0.0017326053103395853 -0.00013717193731582837 0 -0.0010836895731562656 -2.8245099725650868e-05 0 -0.0011976903376261356 -4.4890039059138992e-05 0 -0.0011285620906813314 2.7862345732175143e-05 0 -0.0012021784731429015 5.0439204784096489e-06 0 -0.0011976903376261356 -4.4890039059138992e-05 0 -0.0011285620906813314 2.7862345732175143e-05 0 -0.0012461046368863098 -6.0474163827641925e-06 0 -0.0011976903376261356 -4.4890039059138992e-05 0 -0.0013017774584822889 -3.9659673051990796e-05 0 -0.0012461046368863098 -6.0474163827641925e-06 0 -0.0012021784731429015 5.0439204784096489e-06 0 -0.0011976903376261356 -4.4890039059138992e-05 0 -0.002338483837318044 -0.00013370234418083401 0 -0.0022689593548950743 -0.00023113833713615976 0 -0.002223795307111226 -8.9257212237367549e-05 0 -0.0022689593548950743 -0.00023113833713615976 0 -0.002223795307111226 -8.9257212237367549e-05 0 -0.002070989339805652 -0.00022036510632266661 0 -0.0024481944809115462 -6.8818827164504945e-05 0 -0.002223795307111226 -8.9257212237367549e-05 0 -0.0023975228289256694 7.3848588722966036e-05 0 -0.00243714159790539 -5.3943635084442977e-05 0 -0.0022380849837177544 -8.5869121683529098e-05 0 -0.0024294032243399434 -3.8344417920715366e-05 0 -0.002338483837318044 -0.00013370234418083401 0 -0.002223795307111226 -8.9257212237367549e-05 0 -0.002223795307111226 -8.9257212237367549e-05 0 -0.0023975228289256694 7.3848588722966036e-05 0 -0.0021520060433425415 6.493988379683267e-05 0 -0.0027103572918010339 -6.2874294257317292e-05 0 -0.0024818038493903153 -0.00010474392629970085 0 -0.002939068560710841 -0.0001572122215206366 0 -0.0030280112771574577 -0.00019812801835546867 0 -0.0028225356108975272 -0.00027368694163909096 0 -0.0021520060433425415 6.493988379683267e-05 0 -0.0020635799542042125 -5.6952800080601773e-05 0 -0.0019392428301219238 4.2176242156661487e-05 0 -0.0024818038493903153 -0.00010474392629970085 0 -0.0021981807526166696 -0.00012050276911052378 0 -0.0026554709750656585 -0.00014730766682450716 0 -0.0028225356108975272 -0.00027368694163909096 0 -0.0024376942657087955 -0.00030483005807801399 0 -0.0020635799542042125 -5.6952800080601773e-05 0 -0.0019483884018840702 -8.7629767657649671e-05 0 -0.0019392428301219238 4.2176242156661487e-05 0 -0.002223795307111226 -8.9257212237367549e-05 0 -0.0021520060433425415 6.493988379683267e-05 0 -0.0020635799542042125 -5.6952800080601773e-05 0 -0.002223795307111226 -8.9257212237367549e-05 0 -0.0020635799542042125 -5.6952800080601773e-05 0 -0.002070989339805652 -0.00022036510632266661 0 -0.0017326053103395853 -0.00013717193731582837 0 -0.0016905220299952522 -0.00013106850424513463 0 -0.0013017774584822889 -3.9659673051990796e-05 0 -0.0012829466188719169 9.1442006714549635e-06 0 -0.0013173354688533578 7.6638782065747419e-06 0 -0.0012461046368863098 -6.0474163827641925e-06 0 -0.0013017774584822889 -3.9659673051990796e-05 0 -0.0012829466188719169 9.1442006714549635e-06 0 -0.0013017774584822889 -3.9659673051990796e-05 0 -0.0013401540036104727 -1.0548976187590319e-08 0 -0.0013530033732922749 -9.4180370266746733e-06 0 -0.0013017774584822889 -3.9659673051990796e-05 0 -0.0013694379917099527 -2.4122353597014777e-05 0 -0.0013530033732922749 -9.4180370266746733e-06 0 -0.0013401540036104727 -1.0548976187590319e-08 0 -0.0013173354688533578 7.6638782065747419e-06 0 -0.0013348528822297943 1.1912760658092822e-05 0 -0.0013401540036104727 -1.0548976187590319e-08 0 -0.001351706703290898 7.6723738373705721e-06 0 -0.0013439689598087772 1.1258124650716147e-05 0 -0.0013017774584822889 -3.9659673051990796e-05 0 -0.0013401540036104727 -1.0548976187590319e-08 0 -0.0013173354688533578 7.6638782065747419e-06 0 -0.0020635799542042125 -5.6952800080601773e-05 0 -0.002070989339805652 -0.00022036510632266661 0 -0.0019483884018840702 -8.7629767657649671e-05 0 -0.0016905220299952522 -0.00013106850424513463 0 -0.0016135242176185071 -0.00010376954225083464 0 -0.002070989339805652 -0.00022036510632266661 0 -0.001898401303546362 -0.00020713169595779345 0 -0.0019483884018840702 -8.7629767657649671e-05 0 -0.001898401303546362 -0.00020713169595779345 0 -0.0018414781196788316 -9.6477050785855886e-05 0 -0.0019483884018840702 -8.7629767657649671e-05 0 -0.0016135242176185071 -0.00010376954225083464 0 -0.0016951321363009367 -4.0368704324593416e-05 0 -0.0013694379917099527 -2.4122353597014777e-05 0 -0.0013530033732922749 -9.4180370266746733e-06 0 -0.0013714034517752622 -8.5566947806666631e-06 0 -0.0013694379917099527 -2.4122353597014777e-05 0 -0.0013714034517752622 -8.5566947806666631e-06 0 -0.0013864769336595329 3.9705650990155272e-06 0 -0.0013530033732922749 -9.4180370266746733e-06 0 -0.0013714034517752622 -8.5566947806666631e-06 0 -0.0013727588659895099 2.5216269375351951e-06 0 -0.0013714034517752622 -8.5566947806666631e-06 0 -0.0013727588659895099 2.5216269375351951e-06 0 -0.0013864769336595329 3.9705650990155272e-06 0 -0.0013401540036104727 -1.0548976187590319e-08 0 -0.0013596047992170256 2.3731469510575719e-06 0 -0.001351706703290898 7.6723738373705721e-06 0 -0.0013401540036104727 -1.0548976187590319e-08 0 -0.0013530033732922749 -9.4180370266746733e-06 0 -0.0013596047992170256 2.3731469510575719e-06 0 -0.0013530033732922749 -9.4180370266746733e-06 0 -0.0013727588659895099 2.5216269375351951e-06 0 -0.0013596047992170256 2.3731469510575719e-06 0 -0.0013727588659895099 2.5216269375351951e-06 0 -0.0013596047992170256 2.3731469510575719e-06 0 -0.0013624551640908328 9.0825214698692664e-06 0 -0.0013694379917099527 -2.4122353597014777e-05 0 -0.0013864769336595329 3.9705650990155272e-06 0 -0.0014261823073982891 1.2811232391252123e-07 0 -0.0013250246690321523 3.385561268427702e-08 0 -0.0012809206222397286 6.0435229723864161e-06 0 -0.0013254118756409385 -5.9637228831412879e-08 0 -0.0013864769336595329 3.9705650990155272e-06 0 -0.001381955088856022 1.7642640526722835e-06 0 -0.0013727588659895099 2.5216269375351951e-06 0 -0.0013864769336595329 3.9705650990155272e-06 0 -0.001381955088856022 1.7642640526722835e-06 0 -0.0013254118756409385 -5.9637228831412879e-08 0 -0.0013864769336595329 3.9705650990155272e-06 0 -0.0014261823073982891 1.2811232391252123e-07 0 -0.0013254118756409385 -5.9637228831412879e-08 0 -0.0014261823073982891 1.2811232391252123e-07 0 -0.0015494710504454243 7.4288809221817593e-08 0 -0.0015004118010426065 -4.6306618411699626e-06 0 -0.0014853769702710307 6.0445606776941834e-06 0 -0.0015198626306807423 2.8733091845990111e-06 0 -0.0016135242176185071 -0.00010376954225083464 0 -0.0013651341549234918 -3.7516313214657582e-06 0 -0.0015004118010426065 -4.6306618411699626e-06 0 -0.0014261823073982891 1.2811232391252123e-07 0 -0.0014853769702710307 6.0445606776941834e-06 0 -0.0014261823073982891 1.2811232391252123e-07 0 -0.0014853769702710307 6.0445606776941834e-06 0 -0.0015494710504454243 7.4288809221817593e-08 0 -0.0014853769702710307 6.0445606776941834e-06 0 -0.0015494710504454243 7.4288809221817593e-08 0 -0.0015198626306807423 2.8733091845990111e-06 0 -0.0018414781196788316 -9.6477050785855886e-05 0 -0.0018758798518545485 -6.5486621352922823e-06 0 -0.0017746278661854363 -1.8900633517847573e-07 0 -0.0016951321363009367 -4.0368704324593416e-05 0 -0.0017739670791058718 2.3464148857884827e-08 0 -0.0015494710504454243 7.4288809221817593e-08 0 -0.0015198626306807423 2.8733091845990111e-06 0 -0.0017739043002900875 -9.1180978922150662e-08 0 -0.0018414781196788316 -9.6477050785855886e-05 0 -0.0019483884018840702 -8.7629767657649671e-05 0 -0.0018758798518545485 -6.5486621352922823e-06 0 -0.0019483884018840702 -8.7629767657649671e-05 0 -0.0018758798518545485 -6.5486621352922823e-06 0 -0.0019392428301219238 4.2176242156661487e-05 0 -0.0021981807526166696 -0.00012050276911052378 0 -0.0018392952952618349 -5.1901044124818514e-08 0 -0.0018758798518545485 -6.5486621352922823e-06 0 -0.0019392428301219238 4.2176242156661487e-05 0 -0.0018385952496335041 2.0930130369799635e-07 0 -0.0018758798518545485 -6.5486621352922823e-06 0 -0.0018385952496335041 2.0930130369799635e-07 0 -0.0017746278661854363 -1.8900633517847573e-07 0 -0.00064738509104845534 2.3902270958999086e-05 0 -0.00068665238553412432 -1.5634918700094462e-06 0 -0.00084721675989639421 -3.6847040850030311e-08 0 -0.00064738509104845534 2.3902270958999086e-05 0 -0.00084721675989639421 -3.6847040850030311e-08 0 -0.00055735419353776506 -1.0122492921448194e-08 0 -0.00064738509104845534 2.3902270958999086e-05 0 -0.00064685103840687245 3.1781903474938464e-05 0 -0.00068665238553412432 -1.5634918700094462e-06 0 -0.00064738509104845534 2.3902270958999086e-05 0 -0.00064685103840687245 3.1781903474938464e-05 0 -0.00062970127617232067 9.3561197293636575e-06 0 -0.00064685103840687245 3.1781903474938464e-05 0 -0.00068665238553412432 -1.5634918700094462e-06 0 -0.00065249603683265381 -4.5837758740509869e-05 0 -0.00064685103840687245 3.1781903474938464e-05 0 -0.00065249603683265381 -4.5837758740509869e-05 0 -0.00059944290919224314 -7.393500721632998e-05 0 -0.00068665238553412432 -1.5634918700094462e-06 0 -0.00065249603683265381 -4.5837758740509869e-05 0 -0.00071167930398706827 -8.5648221603361818e-05 0 -0.00068665238553412432 -1.5634918700094462e-06 0 -0.00084721675989639421 -3.6847040850030311e-08 0 -0.00071167930398706827 -8.5648221603361818e-05 0 -0.00084800007166281502 7.3265879668619221e-10 0 -0.001009486924180748 -1.7059019471800795e-09 0 -0.00095622801147393101 9.7193830938027281e-06 0 -0.00084760326999712063 -1.8178433850912011e-09 0 -0.00082356016606130824 -4.012512051890055e-05 0 -0.0010099597082155211 8.5292044489368327e-09 0 -0.0010264150697846864 -5.7384462870465553e-05 0 -0.001009486924180748 -1.7059019471800795e-09 0 -0.00095622801147393101 9.7193830938027281e-06 0 -0.00091206353811595789 -3.547963485297112e-05 0 -0.001010249723286728 -6.5136434826413764e-08 0 -0.0011415857834503249 1.8046671275731883e-05 0 -0.0011804453585701471 -2.5828975012474364e-05 0 -0.0013249339817104132 -6.6991974622114658e-08 0 -0.0011674005974177174 6.5751182259310696e-08 0 -0.0011415857834503249 1.8046671275731883e-05 0 -0.001010249723286728 -6.5136434826413764e-08 0 -0.0011674005974177174 6.5751182259310696e-08 0 -0.0011415857834503249 1.8046671275731883e-05 0 -0.0013498699160223485 1.5076141065958791e-05 0 -0.0013624551640908328 9.0825214698692664e-06 0 -0.0013532073823100759 2.2622649071291409e-05 0 -0.0013498699160223485 1.5076141065958791e-05 0 -0.0013532073823100759 2.2622649071291409e-05 0 -0.0013397477651150246 2.0072875456308379e-05 0 -0.0013498699160223485 1.5076141065958791e-05 0 -0.001351706703290898 7.6723738373705721e-06 0 -0.0013624551640908328 9.0825214698692664e-06 0 -0.0013498699160223485 1.5076141065958791e-05 0 -0.001351706703290898 7.6723738373705721e-06 0 -0.0013439689598087772 1.1258124650716147e-05 0 -0.0013596047992170256 2.3731469510575719e-06 0 -0.001351706703290898 7.6723738373705721e-06 0 -0.0013624551640908328 9.0825214698692664e-06 0 -0.0013727588659895099 2.5216269375351951e-06 0 -0.001381955088856022 1.7642640526722835e-06 0 -0.0013624551640908328 9.0825214698692664e-06 0 -0.001381955088856022 1.7642640526722835e-06 0 -0.0013624551640908328 9.0825214698692664e-06 0 -0.0013532073823100759 2.2622649071291409e-05 0 -0.0012809206222397286 6.0435229723864161e-06 0 -0.0010264150697846864 -5.7384462870465553e-05 0 -0.001381955088856022 1.7642640526722835e-06 0 -0.0013532073823100759 2.2622649071291409e-05 0 -0.0013559389262843182 4.6431183657322948e-05 0 -0.0013532073823100759 2.2622649071291409e-05 0 -0.0013559389262843182 4.6431183657322948e-05 0 -0.0013409555089339588 3.5602831198087263e-05 0 -0.00085670297235203394 -3.1161530440192369e-05 0 -0.00086511735976758702 -3.9699503041276264e-05 0 -0.00088498852346090588 -2.4953255284513411e-05 0 -0.0013559389262843182 4.6431183657322948e-05 0 -0.0013423211286000148 4.4915215498378215e-05 0 -0.0013409555089339588 3.5602831198087263e-05 0 -0.00065249603683265381 -4.5837758740509869e-05 0 -0.00071167930398706827 -8.5648221603361818e-05 0 -0.00064346998252773205 -0.00012456470813385545 0 -0.0010264150697846864 -5.7384462870465553e-05 0 -0.00085270516600946793 -4.8809315205343095e-05 0 -0.00065249603683265381 -4.5837758740509869e-05 0 -0.00064346998252773205 -0.00012456470813385545 0 -0.00059944290919224314 -7.393500721632998e-05 0 -0.00083657948748734731 -4.5261587296173728e-05 0 -0.00085270516600946793 -4.8809315205343095e-05 0 -0.0010264150697846864 -5.7384462870465553e-05 0 -0.00083657948748734731 -4.5261587296173728e-05 0 -0.00095622801147393101 9.7193830938027281e-06 0 -0.00091206353811595789 -3.547963485297112e-05 0 -0.00090590422434239256 -2.9370612077078025e-05 0 -0.00082356016606130824 -4.012512051890055e-05 0 -0.00083657948748734731 -4.5261587296173728e-05 0 -0.00083657948748734731 -4.5261587296173728e-05 0 -0.00057687914452012859 -8.0937702531187725e-05 0 -0.00059230367810508323 -9.2991219826925724e-05 0 -0.00057567071767202426 -9.6018060760759733e-05 0 -0.00060500209939721983 -7.1269890559179621e-05 0 -0.00059204697047995415 -0.00010149499090681988 0 -0.00059272809124855206 -0.00010092043779311711 0 -0.00058896204268650912 -0.00010094480329707168 0 -0.00057687914452012859 -8.0937702531187725e-05 0 -0.00058028667659974808 -9.7705045668120748e-05 0 -0.00059204697047995415 -0.00010149499090681988 0 -0.00058631091250722109 -9.7741097286301449e-05 0 -0.00059272809124855206 -0.00010092043779311711 0 -0.00058631091250722109 -9.7741097286301449e-05 0 -0.00059230367810508323 -9.2991219826925724e-05 0 -0.00059272809124855206 -0.00010092043779311711 0 -0.00058631091250722109 -9.7741097286301449e-05 0 -0.00059230367810508323 -9.2991219826925724e-05 0 -0.00057567071767202426 -9.6018060760759733e-05 0 -0.00057263225224300546 -9.8562448391329149e-05 0 -0.00058307352841118702 -0.00010755574688995717 0 -0.00057567071767202426 -9.6018060760759733e-05 0 -0.00058307352841118702 -0.00010755574688995717 0 -0.00058631091250722109 -9.7741097286301449e-05 0 -0.00057567071767202426 -9.6018060760759733e-05 0 -0.00071527141179550033 -4.4137494582237023e-05 0 -0.00073320728071290403 -3.0639182176495402e-05 0 -0.00078158236764327938 -2.9730067611535326e-05 0 -0.00085270516600946793 -4.8809315205343095e-05 0 -0.0011211592928893441 1.72358931233414e-05 0 -0.0013423211286000148 4.4915215498378215e-05 0 -0.0013409555089339588 3.5602831198087263e-05 0 -0.0013224866286264754 3.3300203078918349e-05 0 -0.00085270516600946793 -4.8809315205343095e-05 0 -0.00065211731014723755 -5.7462860180837888e-05 0 -0.0012769655468073779 3.9277915093142833e-05 0 -0.0011211592928893441 1.72358931233414e-05 0 -0.0013409555089339588 3.5602831198087263e-05 0 -0.0013367889659954106 2.9519243593941432e-05 0 -0.001328799331711472 3.6732546036126945e-05 0 -0.0013532073823100759 2.2622649071291409e-05 0 -0.0013367889659954106 2.9519243593941432e-05 0 -0.0013397477651150246 2.0072875456308379e-05 0 -0.0013532073823100759 2.2622649071291409e-05 0 -0.0013409555089339588 3.5602831198087263e-05 0 -0.0013367889659954106 2.9519243593941432e-05 0 -0.0013367889659954106 2.9519243593941432e-05 0 -0.001328799331711472 3.6732546036126945e-05 0 -0.001329190199628529 2.3694473519030725e-05 0 -0.001328799331711472 3.6732546036126945e-05 0 -0.0013140492953645328 3.3048426047520173e-05 0 -0.001329190199628529 2.3694473519030725e-05 0 -0.0011211592928893441 1.72358931233414e-05 0 -0.0012567492085533837 7.118466874564526e-05 0 -0.0013173354688533578 7.6638782065747419e-06 0 -0.0013140492953645328 3.3048426047520173e-05 0 -0.001329190199628529 2.3694473519030725e-05 0 -0.0012829466188719169 9.1442006714549635e-06 0 -0.0013173354688533578 7.6638782065747419e-06 0 -0.0013140492953645328 3.3048426047520173e-05 0 -0.0013173354688533578 7.6638782065747419e-06 0 -0.0013348528822297943 1.1912760658092822e-05 0 -0.001329190199628529 2.3694473519030725e-05 0 -0.0013348528822297943 1.1912760658092822e-05 0 -0.0013439689598087772 1.1258124650716147e-05 0 -0.0013397477651150246 2.0072875456308379e-05 0 -0.0013401540036104727 -1.0548976187590319e-08 0 -0.0013348528822297943 1.1912760658092822e-05 0 -0.0013439689598087772 1.1258124650716147e-05 0 -0.0013498699160223485 1.5076141065958791e-05 0 -0.0013439689598087772 1.1258124650716147e-05 0 -0.0013397477651150246 2.0072875456308379e-05 0 -0.0013367889659954106 2.9519243593941432e-05 0 -0.0013397477651150246 2.0072875456308379e-05 0 -0.001329190199628529 2.3694473519030725e-05 0 -0.0013348528822297943 1.1912760658092822e-05 0 -0.0013397477651150246 2.0072875456308379e-05 0 -0.001329190199628529 2.3694473519030725e-05 0 -0.0011211592928893441 1.72358931233414e-05 0 -0.0010050131571343256 8.9932681816066065e-06 0 -0.00073320728071290403 -3.0639182176495402e-05 0 -0.00078158236764327938 -2.9730067611535326e-05 0 -0.00081004288953076889 -1.6520410533499205e-05 0 -0.0013323938980400083 4.3428801011458929e-05 0 -0.0013140492953645328 3.3048426047520173e-05 0 -0.0012416274124262387 4.1582771336888746e-05 0 -0.0012829466188719169 9.1442006714549635e-06 0 -0.0013140492953645328 3.3048426047520173e-05 0 -0.0012416274124262387 4.1582771336888746e-05 0 -0.0012461046368863098 -6.0474163827641925e-06 0 -0.0012829466188719169 9.1442006714549635e-06 0 -0.0012416274124262387 4.1582771336888746e-05 0 -0.00059353542315142705 -9.5703951214084999e-05 0 -0.0006793310686456324 -0.00019563446956232574 0 -0.00060485777577337944 -0.00010186332704680458 0 -0.00058896204268650912 -0.00010094480329707168 0 -0.00057796429091138053 -9.9389143578336889e-05 0 -0.00060500209939721983 -7.1269890559179621e-05 0 -0.00060485777577337944 -0.00010186332704680458 0 -0.00070353522731759902 -9.0478589039856981e-05 0 -0.00059230367810508323 -9.2991219826925724e-05 0 -0.00060485777577337944 -0.00010186332704680458 0 -0.00059272809124855206 -0.00010092043779311711 0 -0.00059230367810508323 -9.2991219826925724e-05 0 -0.00060500209939721983 -7.1269890559179621e-05 0 -0.00060485777577337944 -0.00010186332704680458 0 -0.00060485777577337944 -0.00010186332704680458 0 -0.00059272809124855206 -0.00010092043779311711 0 -0.00058896204268650912 -0.00010094480329707168 0 -0.00057687914452012859 -8.0937702531187725e-05 0 -0.00057640651707425311 -9.9969192063898251e-05 0 -0.00059204697047995415 -0.00010149499090681988 0 -0.00058896204268650912 -0.00010094480329707168 0 -0.00057637973212336401 -9.7896682256176575e-05 0 -0.00058896204268650912 -0.00010094480329707168 0 -0.00057637973212336401 -9.7896682256176575e-05 0 -0.00057796429091138053 -9.9389143578336889e-05 0 -0.00064116634818084655 -3.2121750958747572e-05 0 -0.00057687914452012859 -8.0937702531187725e-05 0 -0.00055541762727408293 -7.5470062067387248e-05 0 -0.000560787496999174 -9.3909285865299353e-05 0 -0.00057637973212336401 -9.7896682256176575e-05 0 -0.00054958037203522677 -9.8798806184685874e-05 0 -0.00055541762727408293 -7.5470062067387248e-05 0 -0.000560787496999174 -9.3909285865299353e-05 0 -0.00054958037203522677 -9.8798806184685874e-05 0 -0.000560787496999174 -9.3909285865299353e-05 0 -0.00056329534941731638 -0.00010256028403931219 0 -0.00056329534941731638 -0.00010256028403931219 0 -0.00057637973212336401 -9.7896682256176575e-05 0 -0.00057298792412874971 -0.00010351129537734147 0 -0.000560787496999174 -9.3909285865299353e-05 0 -0.00056329534941731638 -0.00010256028403931219 0 -0.00057637973212336401 -9.7896682256176575e-05 0 -0.00057796429091138053 -9.9389143578336889e-05 0 -0.00057657065675372301 -0.00010435371336066985 0 -0.00057298792412874971 -0.00010351129537734147 0 -0.00057637973212336401 -9.7896682256176575e-05 0 -0.00057796429091138053 -9.9389143578336889e-05 0 -0.00057298792412874971 -0.00010351129537734147 0 -0.0006793310686456324 -0.00019563446956232574 0 -0.00044934444763104422 -0.00022335401383516467 0 -0.00089681926503845817 -0.00022711276774195493 0 -0.00090940458867692453 -0.00031114069931012137 0 -0.00085563676459794811 -0.00035412659097272217 0 -0.0010047286518475125 -0.00027022864430151249 0 -0.00044934444763104422 -0.00022335401383516467 0 -0.0007998578989177219 -0.00021495991057755975 0 -0.00089681926503845817 -0.00022711276774195493 0 -0.00079811249314195828 -0.00040406581427736282 0 -0.0007998578989177219 -0.00021495991057755975 0 -0.00070827571865404824 -0.00025907318331862403 0 -0.00079811249314195828 -0.00040406581427736282 0 -0.0007998578989177219 -0.00021495991057755975 0 -0.00070827571865404824 -0.00025907318331862403 0 -0.00072603725672924075 -0.00014680339347443105 0 -0.00060485777577337944 -0.00010186332704680458 0 -0.00070827571865404824 -0.00025907318331862403 0 -0.00072603725672924075 -0.00014680339347443105 0 -0.00060485777577337944 -0.00010186332704680458 0 -0.00072603725672924075 -0.00014680339347443105 0 -0.00070353522731759902 -9.0478589039856981e-05 0 -0.00072603725672924075 -0.00014680339347443105 0 -0.00070353522731759902 -9.0478589039856981e-05 0 -0.00079299310039547609 -0.00011241723272950895 0 -0.00078158236764327938 -2.9730067611535326e-05 0 -0.00081004288953076889 -1.6520410533499205e-05 0 -0.00086253028285353814 -1.8451369892394183e-05 0 -0.0010050131571343256 8.9932681816066065e-06 0 -0.0010256913187322969 9.4307389981094472e-06 0 -0.00065211731014723755 -5.7462860180837888e-05 0 -0.00083439340153638477 -2.2633795203028607e-05 0 -0.00060500209939721983 -7.1269890559179621e-05 0 -0.00070353522731759902 -9.0478589039856981e-05 0 -0.00078136263664461384 -2.6462149316221488e-05 0 -0.0012021784731429015 5.0439204784096489e-06 0 -0.0012416274124262387 4.1582771336888746e-05 0 -0.0011285620906813314 2.7862345732175143e-05 0 -0.00070353522731759902 -9.0478589039856981e-05 0 -0.00078136263664461384 -2.6462149316221488e-05 0 -0.00079299310039547609 -0.00011241723272950895 0 -0.0012461046368863098 -6.0474163827641925e-06 0 -0.0012021784731429015 5.0439204784096489e-06 0 -0.0012416274124262387 4.1582771336888746e-05 0 -0.00091112671657655477 -6.6096991414377828e-06 0 -0.00086253028285353814 -1.8451369892394183e-05 0 -0.00096999066624208451 -1.1945685039629716e-05 0 -0.00078136263664461384 -2.6462149316221488e-05 0 -0.00089129075438889411 -0.00011119386185132442 0 -0.00096999066624208451 -1.1945685039629716e-05 0 -0.00081004288953076889 -1.6520410533499205e-05 0 -0.00091112671657655477 -6.6096991414377828e-06 0 -0.00086253028285353814 -1.8451369892394183e-05 0 -0.00083439340153638477 -2.2633795203028607e-05 0 -0.00095511408452425908 -1.0416868696696206e-05 0 -0.00078136263664461384 -2.6462149316221488e-05 0 -0.00079299310039547609 -0.00011241723272950895 0 -0.00089129075438889411 -0.00011119386185132442 0 -0.0007998578989177219 -0.00021495991057755975 0 -0.00089129075438889411 -0.00011119386185132442 0 -0.00089681926503845817 -0.00022711276774195493 0 -0.0007998578989177219 -0.00021495991057755975 0 -0.00079299310039547609 -0.00011241723272950895 0 -0.00089129075438889411 -0.00011119386185132442 0 -0.0007998578989177219 -0.00021495991057755975 0 -0.00072603725672924075 -0.00014680339347443105 0 -0.00079299310039547609 -0.00011241723272950895 0 -0.00089129075438889411 -0.00011119386185132442 0 -0.0010052871762683668 -7.474783416638017e-05 0 -0.0010068561083016443 -0.00016472949366271676 0 -0.00089129075438889411 -0.00011119386185132442 0 -0.0010068561083016443 -0.00016472949366271676 0 -0.00089681926503845817 -0.00022711276774195493 0 -0.0010455363575911946 -1.7171916862557067e-06 0 -0.0010256913187322969 9.4307389981094472e-06 0 -0.00089129075438889411 -0.00011119386185132442 0 -0.00096999066624208451 -1.1945685039629716e-05 0 -0.0010052871762683668 -7.474783416638017e-05 0 -0.001050164546862038 -5.006428992905724e-06 0 -0.00091112671657655477 -6.6096991414377828e-06 0 -0.00096999066624208451 -1.1945685039629716e-05 0 -0.001050164546862038 -5.006428992905724e-06 0 -0.0010052871762683668 -7.474783416638017e-05 0 -0.0010920308862602346 -0.00010412435009546475 0 -0.001050164546862038 -5.006428992905724e-06 0 -0.00096999066624208451 -1.1945685039629716e-05 0 -0.0010052871762683668 -7.474783416638017e-05 0 -0.0010052871762683668 -7.474783416638017e-05 0 -0.0010068561083016443 -0.00016472949366271676 0 -0.0010920308862602346 -0.00010412435009546475 0 -0.0010068561083016443 -0.00016472949366271676 0 -0.00099378448670368836 -0.00026493134645865575 0 -0.0011066398837875364 -0.00022273903306074222 0 -0.0010068561083016443 -0.00016472949366271676 0 -0.00099378448670368836 -0.00026493134645865575 0 -0.00089681926503845817 -0.00022711276774195493 0 -0.00099378448670368836 -0.00026493134645865575 0 -0.00089681926503845817 -0.00022711276774195493 0 -0.00090940458867692453 -0.00031114069931012137 0 -0.00099378448670368836 -0.00026493134645865575 0 -0.00090940458867692453 -0.00031114069931012137 0 -0.00096470177935841373 -0.00033845450419834076 0 -0.00090940458867692453 -0.00031114069931012137 0 -0.00088243367522206778 -0.00036175611774735182 0 -0.00085563676459794811 -0.00035412659097272217 0 -0.00090940458867692453 -0.00031114069931012137 0 -0.00096470177935841373 -0.00033845450419834076 0 -0.00088243367522206778 -0.00036175611774735182 0 -0.00099378448670368836 -0.00026493134645865575 0 -0.00096470177935841373 -0.00033845450419834076 0 -0.0010483252995868865 -0.00033666369002690292 0 -0.00099378448670368836 -0.00026493134645865575 0 -0.0010483252995868865 -0.00033666369002690292 0 -0.0011066398837875364 -0.00022273903306074222 0 -0.0010483252995868865 -0.00033666369002690292 0 -0.00098518524675186956 -0.00041684447471219228 0 -0.0010724292152006474 -0.00045710327118569601 0 -0.00089155452002118575 -0.00038404297781479774 0 -0.00092042815522713002 -0.00029032028706628779 0 -0.00096470177935841373 -0.00033845450419834076 0 -0.0010483252995868865 -0.00033666369002690292 0 -0.00098518524675186956 -0.00041684447471219228 0 -0.00096470177935841373 -0.00033845450419834076 0 -0.00098518524675186956 -0.00041684447471219228 0 -0.00088243367522206778 -0.00036175611774735182 0 -0.00089155452002118575 -0.00038404297781479774 0 -0.00087817094999289354 -0.00036757468587105051 0 -0.00079324600019263438 -0.00035874423073538651 0 -0.00088243367522206778 -0.00036175611774735182 0 -0.00080549204896009086 -0.00031426700026821201 0 -0.00088243367522206778 -0.00036175611774735182 0 -0.00087563907002085565 -0.00031580810009033597 0 -0.00080549204896009086 -0.00031426700026821201 0 -0.00080549204896009086 -0.00031426700026821201 0 -0.000742865806060219 -0.00026914172127057764 0 -0.00071211377587862188 -0.00033273127837580538 0 -0.00079324600019263438 -0.00035874423073538651 0 -0.00080549204896009086 -0.00031426700026821201 0 -0.00071211377587862188 -0.00033273127837580538 0 -0.00070769526882873666 -0.00033517342621942024 0 -0.00092042815522713002 -0.00029032028706628779 0 -0.000742865806060219 -0.00026914172127057764 0 -0.00069291136299621853 -0.00013807103600593955 0 -0.00079653026481741446 -0.00015958805104296055 0 -0.00080549204896009086 -0.00031426700026821201 0 -0.000742865806060219 -0.00026914172127057764 0 -0.00079653026481741446 -0.00015958805104296055 0 -0.000742865806060219 -0.00026914172127057764 0 -0.00069291136299621853 -0.00013807103600593955 0 -0.00063809653304476371 -0.00020704341407677351 0 0.00027122639979452443 -5.5432167940578559e-05 0 0.00029977300432535136 -4.7626764802967357e-05 0 0.0002905224233205109 -3.303413888590064e-05 0 1.0440897204567255e-06 -6.8461532669218718e-05 0 -0.00028563434050044506 -9.7353449670823256e-05 0 -0.00067605973801598764 3.8386236106703614e-05 0 -0.00069291136299621853 -0.00013807103600593955 0 -0.00079653026481741446 -0.00015958805104296055 0 0.00029977300432535136 -4.7626764802967357e-05 0 0.0003114318909960457 -5.0720233063419911e-05 0 0.0003042120000910778 -3.5980099282855786e-05 0 0.00029977300432535136 -4.7626764802967357e-05 0 0.0002905224233205109 -3.303413888590064e-05 0 0.0003042120000910778 -3.5980099282855786e-05 0 -0.00087563907002085565 -0.00031580810009033597 0 -0.00080549204896009086 -0.00031426700026821201 0 -0.00079653026481741446 -0.00015958805104296055 0 0.00029755154164254414 -2.8013186847638755e-05 0 0.0002905224233205109 -3.303413888590064e-05 0 0.00030371386350868626 -2.9044438711318553e-05 0 0.0002905224233205109 -3.303413888590064e-05 0 0.00030371386350868626 -2.9044438711318553e-05 0 0.0003042120000910778 -3.5980099282855786e-05 0 -0.00025562013555160507 -0.00015515707825521929 0 -0.00028563434050044506 -9.7353449670823256e-05 0 0.00030371386350868626 -2.9044438711318553e-05 0 0.0003042120000910778 -3.5980099282855786e-05 0 0.00031324512188010353 -2.8502304885058053e-05 0 0.00030371386350868626 -2.9044438711318553e-05 0 0.00031324512188010353 -2.8502304885058053e-05 0 0.0003067313879449911 -2.8879337319334244e-05 0 0.0003042120000910778 -3.5980099282855786e-05 0 0.00031570354918421592 -4.1998752028248593e-05 0 0.00031324512188010353 -2.8502304885058053e-05 0 0.0003114318909960457 -5.0720233063419911e-05 0 0.0003042120000910778 -3.5980099282855786e-05 0 0.00031570354918421592 -4.1998752028248593e-05 0 0.00031570354918421592 -4.1998752028248593e-05 0 0.00032992348104660975 -4.1243278126622005e-05 0 0.00031324512188010353 -2.8502304885058053e-05 0 0.00032992348104660975 -4.1243278126622005e-05 0 0.00033134292131112189 -3.0527828227915146e-05 0 0.00031324512188010353 -2.8502304885058053e-05 0 0.00032992348104660975 -4.1243278126622005e-05 0 0.00033134292131112189 -3.0527828227915146e-05 0 0.00034726759609922554 -3.424062512428173e-05 0 0.00036805232900360095 1.9141288149748991e-05 0 3.2373680624522776e-05 -1.869425139789879e-05 0 0.00033134292131112189 -3.0527828227915146e-05 0 0.00031324512188010353 -2.8502304885058053e-05 0 0.00033555474483116984 -1.4560220206719798e-05 0 0.00031324512188010353 -2.8502304885058053e-05 0 0.0003067313879449911 -2.8879337319334244e-05 0 0.00030518910846221825 -2.865302598737292e-05 0 0.00030371386350868626 -2.9044438711318553e-05 0 0.0003067313879449911 -2.8879337319334244e-05 0 0.00030129423838487197 -2.8407072439360778e-05 0 -0.00012564135738837851 -6.1672370471454134e-05 0 3.2373680624522776e-05 -1.869425139789879e-05 0 0.0003067313879449911 -2.8879337319334244e-05 0 0.00030129423838487197 -2.8407072439360778e-05 0 0.00030518910846221825 -2.865302598737292e-05 0 -0.0005706012822919111 -0.00011222062842854719 0 -0.00056216205134960757 -0.00011455539282785395 0 -0.0005606223217163133 -0.00012104079807689706 0 0.00029755154164254414 -2.8013186847638755e-05 0 0.00030371386350868626 -2.9044438711318553e-05 0 0.00030129423838487197 -2.8407072439360778e-05 0 0.00029755154164254414 -2.8013186847638755e-05 0 0.00030129423838487197 -2.8407072439360778e-05 0 0.00029304538722265186 -2.9264619300075319e-05 0 -0.00025562013555160507 -0.00015515707825521929 0 -0.00044934444763104422 -0.00022335401383516467 0 -0.00088243367522206778 -0.00036175611774735182 0 -0.00087563907002085565 -0.00031580810009033597 0 -0.00085563676459794811 -0.00035412659097272217 0 -0.0005706012822919111 -0.00011222062842854719 0 -0.00057657065675372301 -0.00010435371336066985 0 -0.00057298792412874971 -0.00010351129537734147 0 -0.00012564135738837851 -6.1672370471454134e-05 0 -0.00044934444763104422 -0.00022335401383516467 0 -0.0005706012822919111 -0.00011222062842854719 0 -0.00057298792412874971 -0.00010351129537734147 0 -0.00056317215869889693 -0.0001080940307446505 0 -0.00056329534941731638 -0.00010256028403931219 0 -0.00057298792412874971 -0.00010351129537734147 0 -0.00056317215869889693 -0.0001080940307446505 0 -0.00054958037203522677 -9.8798806184685874e-05 0 -0.00056329534941731638 -0.00010256028403931219 0 -0.00055358020627377966 -0.00010829602756779909 0 -0.00056329534941731638 -0.00010256028403931219 0 -0.00056317215869889693 -0.0001080940307446505 0 -0.00055358020627377966 -0.00010829602756779909 0 0.00035913799883784115 -1.3162758482881349e-05 0 0.00037377107457671813 -2.2309717715062548e-05 0 0.00037750093054468169 -2.8450802575972526e-06 0 -0.00056317215869889693 -0.0001080940307446505 0 -0.00055358020627377966 -0.00010829602756779909 0 -0.00055313264461049737 -0.0001171655312837581 0 -0.00055358020627377966 -0.00010829602756779909 0 -0.00055313264461049737 -0.0001171655312837581 0 -0.00054268541842545878 -0.00011295619474965094 0 -9.3884543737085275e-05 -6.8611030824575732e-05 0 -0.00025850891844775276 -5.912566959015514e-05 0 -0.0005706012822919111 -0.00011222062842854719 0 -0.00056317215869889693 -0.0001080940307446505 0 -0.00056216205134960757 -0.00011455539282785395 0 -0.00055313264461049737 -0.0001171655312837581 0 -0.00056216205134960757 -0.00011455539282785395 0 -0.0005606223217163133 -0.00012104079807689706 0 -0.00056317215869889693 -0.0001080940307446505 0 -0.00055313264461049737 -0.0001171655312837581 0 -0.00056216205134960757 -0.00011455539282785395 0 0.00033800888661172083 -2.2283855017521353e-05 0 0.00034726759609922554 -3.424062512428173e-05 0 0.00035941526057890169 -2.9104098861097471e-05 0 -9.3884543737085275e-05 -6.8611030824575732e-05 0 3.2373680624522776e-05 -1.869425139789879e-05 0 0.00035913799883784115 -1.3162758482881349e-05 0 0.00033800888661172083 -2.2283855017521353e-05 0 0.00035941526057890169 -2.9104098861097471e-05 0 3.2373680624522776e-05 -1.869425139789879e-05 0 0.00032708240912492819 -8.390525761480391e-05 0 0.00033134292131112189 -3.0527828227915146e-05 0 0.00033555474483116984 -1.4560220206719798e-05 0 0.00034726759609922554 -3.424062512428173e-05 0 0.00035205822485076679 -5.375118995122121e-05 0 0.00034726759609922554 -3.424062512428173e-05 0 0.00036583947316635491 -4.3300219223212685e-05 0 0.00035205822485076679 -5.375118995122121e-05 0 0.00032992348104660975 -4.1243278126622005e-05 0 0.00034726759609922554 -3.424062512428173e-05 0 0.00034726759609922554 -3.424062512428173e-05 0 0.00036583947316635491 -4.3300219223212685e-05 0 0.00035941526057890169 -2.9104098861097471e-05 0 0.00038401061360921959 -5.119350568364733e-05 0 0.00036583947316635491 -4.3300219223212685e-05 0 0.00037378459029563003 -3.9163131909923188e-05 0 0.00036583947316635491 -4.3300219223212685e-05 0 0.00037378459029563003 -3.9163131909923188e-05 0 0.00035941526057890169 -2.9104098861097471e-05 0 0.00037378459029563003 -3.9163131909923188e-05 0 0.00035941526057890169 -2.9104098861097471e-05 0 0.00037377107457671813 -2.2309717715062548e-05 0 0.00035913799883784115 -1.3162758482881349e-05 0 0.00035941526057890169 -2.9104098861097471e-05 0 0.00037377107457671813 -2.2309717715062548e-05 0 0.00037377107457671813 -2.2309717715062548e-05 0 0.00039288031955121082 -2.8497886492967617e-05 0 0.00037750093054468169 -2.8450802575972526e-06 0 0.00037378459029563003 -3.9163131909923188e-05 0 0.00037377107457671813 -2.2309717715062548e-05 0 0.00039288031955121082 -2.8497886492967617e-05 0 0.00037378459029563003 -3.9163131909923188e-05 0 0.00038989611470551807 -5.1099882381166879e-05 0 0.00039288031955121082 -2.8497886492967617e-05 0 0.00039410352708776225 -6.0276815709887003e-05 0 0.00038401061360921959 -5.119350568364733e-05 0 0.00038989611470551807 -5.1099882381166879e-05 0 0.00038401061360921959 -5.119350568364733e-05 0 0.00037378459029563003 -3.9163131909923188e-05 0 0.00038989611470551807 -5.1099882381166879e-05 0 2.3165143134367395e-05 2.3875858317251578e-10 0 -1.7620493752423502e-06 -6.1680453541628413e-06 0 -0.00024264805621554956 1.5133109963014203e-05 0 0.00019076784389105941 -2.2589807930586091e-05 0 0.0001103382352720194 2.3720211056325609e-06 0 0.00039922382883468007 -7.6177683192166251e-05 0 0.00038989611470551807 -5.1099882381166879e-05 0 0.00039288031955121082 -2.8497886492967617e-05 0 2.3165143134367395e-05 2.3875858317251578e-10 0 -0.00024264805621554956 1.5133109963014203e-05 0 -0.00026694854680402971 5.4151751503221795e-08 0 -0.00024264805621554956 1.5133109963014203e-05 0 -0.00026694854680402971 5.4151751503221795e-08 0 -0.00033718801522780148 5.59968757335121e-06 0 -0.00033718801522780148 5.59968757335121e-06 0 -0.00031987075108255226 -1.2123269064662141e-05 0 -0.00051809517594997127 -6.3943480020835134e-06 0 -0.00026694854680402971 5.4151751503221795e-08 0 -0.00055735419353776506 -1.0122492921448194e-08 0 -0.00051809517594997127 -6.3943480020835134e-06 0 -0.00026694854680402971 5.4151751503221795e-08 0 -0.00033718801522780148 5.59968757335121e-06 0 -0.00051809517594997127 -6.3943480020835134e-06 0 -0.00024264805621554956 1.5133109963014203e-05 0 -0.00033718801522780148 5.59968757335121e-06 0 -0.00031987075108255226 -1.2123269064662141e-05 0 0.0001103382352720194 2.3720211056325609e-06 0 -0.00025850891844775276 -5.912566959015514e-05 0 -0.00054958037203522677 -9.8798806184685874e-05 0 -0.00055358020627377966 -0.00010829602756779909 0 -0.00054268541842545878 -0.00011295619474965094 0 -0.00064685103840687245 3.1781903474938464e-05 0 -0.00065361541656171348 -4.88523906944984e-05 0 -0.00062970127617232067 9.3561197293636575e-06 0 -0.00064116634818084655 -3.2121750958747572e-05 0 -0.00025850891844775276 -5.912566959015514e-05 0 -0.00065361541656171348 -4.88523906944984e-05 0 -0.00062970127617232067 9.3561197293636575e-06 0 -0.00051809517594997127 -6.3943480020835134e-06 0 -0.00064738509104845534 2.3902270958999086e-05 0 -0.00062970127617232067 9.3561197293636575e-06 0 -0.00051809517594997127 -6.3943480020835134e-06 0 -0.00025850891844775276 -5.912566959015514e-05 0 -0.000575434933351452 -2.9779383006202702e-05 0 -0.00064738509104845534 2.3902270958999086e-05 0 -0.00055735419353776506 -1.0122492921448194e-08 0 -0.00051809517594997127 -6.3943480020835134e-06 0 -0.0012651937011229672 -0.00011887380425935274 0 -0.0012600099521695154 -0.0001142563435946535 0 -0.0012535377043520291 -0.00011893765897382676 0 -0.0012651937011229672 -0.00011887380425935274 0 -0.0012658968444874761 -0.00011491576541270237 0 -0.0012600099521695154 -0.0001142563435946535 0 -0.0012651937011229672 -0.00011887380425935274 0 -0.0012720131001261506 -0.00011426048636702021 0 -0.0012658968444874761 -0.00011491576541270237 0 -0.0012658968444874761 -0.00011491576541270237 0 -0.0012642003735508312 -0.00011625611486282032 0 -0.0012582679199268075 -0.00011839979465336727 0 -0.0012720131001261506 -0.00011426048636702021 0 -0.0012658968444874761 -0.00011491576541270237 0 -0.0012642003735508312 -0.00011625611486282032 0 -0.0012658968444874761 -0.00011491576541270237 0 -0.0012600099521695154 -0.0001142563435946535 0 -0.0012622843816804937 -0.00010513474987858798 0 -0.0012600099521695154 -0.0001142563435946535 0 -0.0012535377043520291 -0.00011893765897382676 0 -0.0012520936096897075 -0.00010978419551398214 0 -0.0017904418856712543 -0.00035193488777009911 0 -0.0016824086050601398 -0.00028946137598350119 0 -0.0018289288216453076 -0.00026395322655783541 0 -0.0013083213755815343 -0.00019820176555543478 0 -0.0015059118959839307 -0.00021943667963127055 0 -0.0012418707611838247 -0.00011461010816426571 0 -0.0012535377043520291 -0.00011893765897382676 0 -0.0012520936096897075 -0.00010978419551398214 0 -0.0016824086050601398 -0.00028946137598350119 0 -0.0017650894565400075 -0.00018794080847362138 0 -0.0018289288216453076 -0.00026395322655783541 0 -0.0016824086050601398 -0.00028946137598350119 0 -0.0016784278278530783 -0.00015619875315835147 0 -0.0017650894565400075 -0.00018794080847362138 0 -0.0014084614808788222 -0.00016979019823800775 0 -0.0015059118959839307 -0.00021943667963127055 0 -0.0015683085221954662 -0.00022906224847320166 0 -0.0016824086050601398 -0.00028946137598350119 0 -0.0016784278278530783 -0.00015619875315835147 0 -0.0016784278278530783 -0.00015619875315835147 0 -0.0017650894565400075 -0.00018794080847362138 0 -0.0017879816251716155 -8.6293757053893053e-05 0 -0.001741997939999819 3.5334472518567538e-05 0 -0.0017879816251716155 -8.6293757053893053e-05 0 -0.0018523873938733146 -4.5710636710089222e-05 0 -0.0016784278278530783 -0.00015619875315835147 0 -0.0017879816251716155 -8.6293757053893053e-05 0 -0.0016727973538652396 -5.2184036030793041e-05 0 -0.001741997939999819 3.5334472518567538e-05 0 -0.0017879816251716155 -8.6293757053893053e-05 0 -0.0016727973538652396 -5.2184036030793041e-05 0 -0.0016784278278530783 -0.00015619875315835147 0 -0.0016727973538652396 -5.2184036030793041e-05 0 -0.0015635267089363634 -9.9661231120608973e-05 0 -0.0015809844341111844 4.8656441320059466e-05 0 -0.0016727973538652396 -5.2184036030793041e-05 0 -0.0015635267089363634 -9.9661231120608973e-05 0 -0.0015683085221954662 -0.00022906224847320166 0 -0.0015635267089363634 -9.9661231120608973e-05 0 -0.0014422042368072195 -0.00016850330521413415 0 -0.0015683085221954662 -0.00022906224847320166 0 -0.0016784278278530783 -0.00015619875315835147 0 -0.0015635267089363634 -9.9661231120608973e-05 0 -0.0014084614808788222 -0.00016979019823800775 0 -0.0013599605043346486 -0.00013970904154117614 0 -0.0012651937011229672 -0.00011887380425935274 0 -0.0012720131001261506 -0.00011426048636702021 0 -0.0012797149058206487 -0.00011436582132234096 0 -0.0015635267089363634 -9.9661231120608973e-05 0 -0.0014422042368072195 -0.00016850330521413415 0 -0.0014206128695222404 -5.5304732200441958e-05 0 -0.0015809844341111844 4.8656441320059466e-05 0 -0.0015635267089363634 -9.9661231120608973e-05 0 -0.0014206128695222404 -5.5304732200441958e-05 0 -0.0012797149058206487 -0.00011436582132234096 0 -0.0012902462725938731 -0.00010139055017051191 0 -0.0012932048123079434 -9.3607364376946991e-05 0 -0.0014422042368072195 -0.00016850330521413415 0 -0.0014206128695222404 -5.5304732200441958e-05 0 -0.0012932048123079434 -9.3607364376946991e-05 0 -0.001340092692017813 -1.4279692586849083e-05 0 -0.0014206128695222404 -5.5304732200441958e-05 0 -0.0012932048123079434 -9.3607364376946991e-05 0 -0.0012683564208432257 -2.980660698865112e-05 0 -0.001340092692017813 -1.4279692586849083e-05 0 -0.0012932048123079434 -9.3607364376946991e-05 0 -0.0012902462725938731 -0.00010139055017051191 0 -0.0012932048123079434 -9.3607364376946991e-05 0 -0.0012367238732410187 -0.00011865818133249801 0 -0.0012683564208432257 -2.980660698865112e-05 0 -0.0012932048123079434 -9.3607364376946991e-05 0 -0.0012166092909743566 -5.457244007306539e-05 0 -0.0012932048123079434 -9.3607364376946991e-05 0 -0.0012367238732410187 -0.00011865818133249801 0 -0.0012166092909743566 -5.457244007306539e-05 0 -0.0012902462725938731 -0.00010139055017051191 0 -0.0012367238732410187 -0.00011865818133249801 0 -0.0012458332748517516 -0.00020335028261674385 0 -0.0012898395169691217 -0.00010418828310335035 0 -0.001245792063586086 -0.00016245451676062274 0 -0.0012902462725938731 -0.00010139055017051191 0 -0.0012755015983393534 -0.0001115596615088863 0 -0.0012605296941330271 -0.00011245137536379297 0 -0.0012797149058206487 -0.00011436582132234096 0 -0.0012902462725938731 -0.00010139055017051191 0 -0.0012755015983393534 -0.0001115596615088863 0 -0.0012720131001261506 -0.00011426048636702021 0 -0.0012797149058206487 -0.00011436582132234096 0 -0.0012755015983393534 -0.0001115596615088863 0 -0.0013599605043346486 -0.00013970904154117614 0 -0.0012953490987476846 -9.6775338934155421e-05 0 -0.001131954828160081 -3.0601839560453101e-05 0 -0.001162046799720701 -9.2369649691081149e-05 0 -0.0010920308862602346 -0.00010412435009546475 0 -0.001050164546862038 -5.006428992905724e-06 0 -0.001131954828160081 -3.0601839560453101e-05 0 -0.0010920308862602346 -0.00010412435009546475 0 -0.001131954828160081 -3.0601839560453101e-05 0 -0.001162046799720701 -9.2369649691081149e-05 0 -0.0012166092909743566 -5.457244007306539e-05 0 -0.0012367238732410187 -0.00011865818133249801 0 -0.001162046799720701 -9.2369649691081149e-05 0 -0.0012166092909743566 -5.457244007306539e-05 0 -0.0012367238732410187 -0.00011865818133249801 0 -0.0011721177899026805 -0.00015687806592461621 0 -0.0012458332748517516 -0.00020335028261674385 0 -0.0012367238732410187 -0.00011865818133249801 0 -0.001162046799720701 -9.2369649691081149e-05 0 -0.0011721177899026805 -0.00015687806592461621 0 -0.0010068561083016443 -0.00016472949366271676 0 -0.0010920308862602346 -0.00010412435009546475 0 -0.0011066398837875364 -0.00022273903306074222 0 -0.001162046799720701 -9.2369649691081149e-05 0 -0.0011721177899026805 -0.00015687806592461621 0 -0.0010920308862602346 -0.00010412435009546475 0 -0.0011721177899026805 -0.00015687806592461621 0 -0.0010920308862602346 -0.00010412435009546475 0 -0.0011066398837875364 -0.00022273903306074222 0 -0.0011066398837875364 -0.00022273903306074222 0 -0.0011644408042429002 -0.00032758828118477698 0 -0.0012458332748517516 -0.00020335028261674385 0 -0.0011721177899026805 -0.00015687806592461621 0 -0.0011066398837875364 -0.00022273903306074222 0 -0.0012458332748517516 -0.00020335028261674385 0 -0.0012445290435895927 -0.00021148870762483039 0 -0.001245792063586086 -0.00016245451676062274 0 -0.0010483252995868865 -0.00033666369002690292 0 -0.0011066398837875364 -0.00022273903306074222 0 -0.0011644408042429002 -0.00032758828118477698 0 -0.0012500428099635461 -0.00011701612587849157 0 -0.0012605296941330271 -0.00011245137536379297 0 -0.0012642003735508312 -0.00011625611486282032 0 -0.0012500428099635461 -0.00011701612587849157 0 -0.0012642003735508312 -0.00011625611486282032 0 -0.0012546497455883797 -0.00012003258375309081 0 -0.0012755015983393534 -0.0001115596615088863 0 -0.0012605296941330271 -0.00011245137536379297 0 -0.0012642003735508312 -0.00011625611486282032 0 -0.0012720131001261506 -0.00011426048636702021 0 -0.0012755015983393534 -0.0001115596615088863 0 -0.0012642003735508312 -0.00011625611486282032 0 -0.0012642003735508312 -0.00011625611486282032 0 -0.0012582679199268075 -0.00011839979465336727 0 -0.0012546497455883797 -0.00012003258375309081 0 -0.0012582679199268075 -0.00011839979465336727 0 -0.0012546497455883797 -0.00012003258375309081 0 -0.0012519933377445 -0.00011807490979215173 0 -0.0012546497455883797 -0.00012003258375309081 0 -0.0012487460973080089 -0.00012230093489712929 0 -0.0012509496683395772 -0.00011717073946631628 0 -0.0012546497455883797 -0.00012003258375309081 0 -0.0012509496683395772 -0.00011717073946631628 0 -0.0012519933377445 -0.00011807490979215173 0 -0.0012500428099635461 -0.00011701612587849157 0 -0.0012486766244797511 -0.00012059379884516754 0 -0.0012407935234611711 -0.00012295897669814052 0 -0.0012445290435895927 -0.00021148870762483039 0 -0.00092042815522713002 -0.00029032028706628779 0 -0.0010483252995868865 -0.00033666369002690292 0 -0.0011644408042429002 -0.00032758828118477698 0 -0.0010724292152006474 -0.00045710327118569601 0 -0.0012500428099635461 -0.00011701612587849157 0 -0.0012546497455883797 -0.00012003258375309081 0 -0.0012486766244797511 -0.00012059379884516754 0 -0.0012546497455883797 -0.00012003258375309081 0 -0.0012486766244797511 -0.00012059379884516754 0 -0.0012487460973080089 -0.00012230093489712929 0 -0.0012486766244797511 -0.00012059379884516754 0 -0.0012487460973080089 -0.00012230093489712929 0 -0.0012407935234611711 -0.00012295897669814052 0 -0.00047335181147522751 -0.00030490091132625641 0 -0.00063691233320040249 -0.00029556259584743945 0 -0.00065617307381509414 -0.00039372701573135049 0 -0.00086359067870157814 -0.0002108271896306002 0 -0.00092042815522713002 -0.00029032028706628779 0 -0.000742865806060219 -0.00026914172127057764 0 -0.00063691233320040249 -0.00029556259584743945 0 -0.00065617307381509414 -0.00039372701573135049 0 -0.00047335181147522751 -0.00030490091132625641 0 -0.00063691233320040249 -0.00029556259584743945 0 -0.00063809653304476371 -0.00020704341407677351 0 -0.000742865806060219 -0.00026914172127057764 0 -0.00063691233320040249 -0.00029556259584743945 0 -0.00063809653304476371 -0.00020704341407677351 0 -0.00047335181147522751 -0.00030490091132625641 0 -0.00063809653304476371 -0.00020704341407677351 0 -0.0005146370118225891 -0.00014951133274856266 0 -0.00047335181147522751 -0.00030490091132625641 0 -0.0005146370118225891 -0.00014951133274856266 0 -0.00038263437183649152 -0.00012245570021923461 0 -0.00047235396397157342 -3.7511038687257594e-05 0 -0.0005146370118225891 -0.00014951133274856266 0 -0.00038263437183649152 -0.00012245570021923461 0 -0.00047235396397157342 -3.7511038687257594e-05 0 -0.0005146370118225891 -0.00014951133274856266 0 -0.00060658821179443868 -8.2276664920476748e-05 0 -0.00063809653304476371 -0.00020704341407677351 0 -0.0005146370118225891 -0.00014951133274856266 0 -0.00060658821179443868 -8.2276664920476748e-05 0 -0.00063194634660711767 -0.00018889203803267737 0 -0.00060513992791764862 -9.2436958822729012e-05 0 -0.00069291136299621853 -0.00013807103600593955 0 -0.00063809653304476371 -0.00020704341407677351 0 -0.00061531044893421119 -7.6560831743158368e-05 0 -0.00067605973801598764 3.8386236106703614e-05 0 -0.00069291136299621853 -0.00013807103600593955 0 -0.00061531044893421119 -7.6560831743158368e-05 0 -0.00078045252779559396 -0.00017083274894576632 0 -0.00066895809327950065 -0.00012002958566505009 0 -0.0012509496683395772 -0.00011717073946631628 0 -0.0012453854980540233 -0.00010906061434794937 0 -0.0012519933377445 -0.00011807490979215173 0 -0.00047335181147522751 -0.00030490091132625641 0 -0.00030203248731267663 -0.00022204706076265756 0 -0.00038263437183649152 -0.00012245570021923461 0 -0.00086359067870157814 -0.0002108271896306002 0 -0.00078045252779559396 -0.00017083274894576632 0 -0.00030203248731267663 -0.00022204706076265756 0 -0.00038263437183649152 -0.00012245570021923461 0 -0.00028656822627732322 -4.369854625324295e-05 0 -0.00047235396397157342 -3.7511038687257594e-05 0 -0.00038263437183649152 -0.00012245570021923461 0 -0.00028656822627732322 -4.369854625324295e-05 0 -0.00015122631188714861 -8.551840690606051e-07 0 -0.00028656822627732322 -4.369854625324295e-05 0 -0.00014011621210683925 -0.0001371017956354113 0 -0.00030203248731267663 -0.00022204706076265756 0 -0.00028656822627732322 -4.369854625324295e-05 0 -0.00014011621210683925 -0.0001371017956354113 0 -0.00066895809327950065 -0.00012002958566505009 0 -0.00075920439856817182 -4.7515405926416526e-05 0 -0.00075920439856817182 -4.7515405926416526e-05 0 -0.0012974132737089859 -0.00012313379251852218 0 -0.0012428982972018043 -7.5260839623334571e-05 0 -0.0012493306005607132 -7.795426726348312e-05 0 -0.0012489112501332198 -8.6468957712129761e-05 0 -0.0012453854980540233 -0.00010906061434794937 0 -0.0012300373034498195 -0.00010056137428789965 0 -0.0012410603444527031 -0.00011476426687830352 0 -0.0012493306005607132 -7.795426726348312e-05 0 -0.0012568948834834742 -9.2665292415865496e-05 0 -0.0012489112501332198 -8.6468957712129761e-05 0 -5.2311564861100495e-05 9.7704905805360313e-06 0 -0.00014011621210683925 -0.0001371017956354113 0 -7.1555964387766476e-06 -5.7428811637288946e-05 0 -0.00083185545963911859 -2.8828818007762617e-05 0 -0.00075920439856817182 -4.7515405926416526e-05 0 -0.0012568948834834742 -9.2665292415865496e-05 0 -0.0012489112501332198 -8.6468957712129761e-05 0 -0.0012509168878914914 -9.8338423600449943e-05 0 -0.0012453854980540233 -0.00010906061434794937 0 -0.0012410603444527031 -0.00011476426687830352 0 -0.0012519933377445 -0.00011807490979215173 0 -0.0012410603444527031 -0.00011476426687830352 0 -0.0012519933377445 -0.00011807490979215173 0 -0.0012537925333274741 -0.00011914538913773385 0 -0.0012568948834834742 -9.2665292415865496e-05 0 -0.0012622843816804937 -0.00010513474987858798 0 -0.0012509168878914914 -9.8338423600449943e-05 0 -0.0012974132737089859 -0.00012313379251852218 0 -0.0012526958291938953 -0.00010595345076312007 0 -0.0012622843816804937 -0.00010513474987858798 0 -0.0012520936096897075 -0.00010978419551398214 0 -0.0012509168878914914 -9.8338423600449943e-05 0 -0.0012600099521695154 -0.0001142563435946535 0 -0.0012622843816804937 -0.00010513474987858798 0 -0.0012520936096897075 -0.00010978419551398214 0 -0.0012655268151568891 -0.00011684399308335927 0 -0.0012526958291938953 -0.00010595345076312007 0 -0.0012582679199268075 -0.00011839979465336727 0 -0.0012519933377445 -0.00011807490979215173 0 -0.0012537925333274741 -0.00011914538913773385 0 -0.0012658968444874761 -0.00011491576541270237 0 -0.0012582679199268075 -0.00011839979465336727 0 -0.0012537925333274741 -0.00011914538913773385 0 -0.00078760649625489378 -0.00020329531158636951 0 -0.00080772995983980169 -0.0001417446562215778 0 -0.00076194078508644227 -0.00014812936415346733 0 -0.0012418707611838247 -0.00011461010816426571 0 -0.0012520936096897075 -0.00010978419551398214 0 -0.0012428982028526148 -0.00010303714598186772 0 -0.0013083213755815343 -0.00019820176555543478 0 -0.00098762585251792085 -0.00012725139260690333 0 -0.0012520936096897075 -0.00010978419551398214 0 -0.0012509168878914914 -9.8338423600449943e-05 0 -0.0012428982028526148 -0.00010303714598186772 0 -0.0012509168878914914 -9.8338423600449943e-05 0 -0.0012428982028526148 -0.00010303714598186772 0 -0.0012427856085002887 -9.018166125756953e-05 0 -0.00098762585251792085 -0.00012725139260690333 0 -0.0010658613337915343 -7.953909977852832e-05 0 -0.00080772995983980169 -0.0001417446562215778 0 -0.00078225156763631499 -0.000103112946059793 0 -0.00082891089781205309 -8.1492224709123282e-05 0 -0.00080772995983980169 -0.0001417446562215778 0 -0.00078225156763631499 -0.000103112946059793 0 -0.00076194078508644227 -0.00014812936415346733 0 -0.00078225156763631499 -0.000103112946059793 0 -0.00078983172342512857 -6.6989776469962144e-05 0 -0.00082891089781205309 -8.1492224709123282e-05 0 -0.0012489112501332198 -8.6468957712129761e-05 0 -0.0012509168878914914 -9.8338423600449943e-05 0 -0.0012427856085002887 -9.018166125756953e-05 0 -0.0012428982972018043 -7.5260839623334571e-05 0 -0.0012489112501332198 -8.6468957712129761e-05 0 -0.0012427856085002887 -9.018166125756953e-05 0 -0.00083185545963911859 -2.8828818007762617e-05 0 -0.0010658613337915343 -7.953909977852832e-05 0 -0.00085156614603252201 -2.0761897036814e-05 0 -0.00082891089781205309 -8.1492224709123282e-05 0 -0.00081029836315681017 -4.0352737206368273e-05 0 -0.00078983172342512857 -6.6989776469962144e-05 0 -0.00082891089781205309 -8.1492224709123282e-05 0 -0.00081029836315681017 -4.0352737206368273e-05 0 -0.00078983172342512857 -6.6989776469962144e-05 0 -0.00081029836315681017 -4.0352737206368273e-05 0 -0.00077648266720922537 -3.2136541764447897e-05 0 -0.00074580114132511105 -2.8508897131858611e-05 0 -0.00071811040798617793 -5.376636519650368e-05 0 -0.00075367153556996633 -7.0393165107543728e-05 0 -0.00074580114132511105 -2.8508897131858611e-05 0 -0.00077648266720922537 -3.2136541764447897e-05 0 -0.00075367153556996633 -7.0393165107543728e-05 0 -0.00078983172342512857 -6.6989776469962144e-05 0 -0.00077648266720922537 -3.2136541764447897e-05 0 -0.00075367153556996633 -7.0393165107543728e-05 0 -0.00072261544160956523 -9.6232347074856813e-06 0 -0.00074580114132511105 -2.8508897131858611e-05 0 -0.00071811040798617793 -5.376636519650368e-05 0 -0.00072261544160956523 -9.6232347074856813e-06 0 -0.00071811040798617793 -5.376636519650368e-05 0 -0.00068516908958853018 -4.3002815909542029e-05 0 -0.00049698408424242153 -6.9598122852063598e-05 0 -0.00049519831145650194 -9.1013373554678703e-05 0 -0.00071811040798617793 -5.376636519650368e-05 0 -0.00068868835665977877 -4.3629429390003431e-05 0 -0.00068926208103158254 -8.1500389433066756e-05 0 -0.00073368922031520471 -8.8660728927695989e-05 0 -0.00049519831145650194 -9.1013373554678703e-05 0 -0.00071811040798617793 -5.376636519650368e-05 0 -0.00072257241694581077 -8.340960715608531e-05 0 -0.00075367153556996633 -7.0393165107543728e-05 0 -0.00071811040798617793 -5.376636519650368e-05 0 -0.00072257241694581077 -8.340960715608531e-05 0 -0.00068926208103158254 -8.1500389433066756e-05 0 -0.00072257241694581077 -8.340960715608531e-05 0 -0.00070452831495402732 -0.00010186337310312793 0 -0.00068926208103158254 -8.1500389433066756e-05 0 -0.00072257241694581077 -8.340960715608531e-05 0 -0.00070452831495402732 -0.00010186337310312793 0 -0.00074168370917174816 -0.0001080272393325758 0 -0.00078225156763631499 -0.000103112946059793 0 -0.00075367153556996633 -7.0393165107543728e-05 0 -0.00074168370917174816 -0.0001080272393325758 0 -0.00072257241694581077 -8.340960715608531e-05 0 -0.00075367153556996633 -7.0393165107543728e-05 0 -0.00074168370917174816 -0.0001080272393325758 0 -0.00078225156763631499 -0.000103112946059793 0 -0.00078983172342512857 -6.6989776469962144e-05 0 -0.00075367153556996633 -7.0393165107543728e-05 0 -0.00035010033652843316 -8.5390924468781808e-05 0 -0.00038492189266371783 -0.00016757399033127899 0 -0.0003000711573919969 -0.0001286780391392401 0 -0.00035010033652843316 -8.5390924468781808e-05 0 -0.0004406794028890525 -0.00011704471553622973 0 -0.00038492189266371783 -0.00016757399033127899 0 -0.00016882714759026827 -0.00015661777786447236 0 -0.00049519831145650194 -9.1013373554678703e-05 0 -0.00049519831145650194 -9.1013373554678703e-05 0 -0.00052158120861320063 -0.00012042015580078353 0 -0.00068868835665977877 -4.3629429390003431e-05 0 -0.00068926208103158254 -8.1500389433066756e-05 0 -0.00065387328672681646 -7.5168472279903725e-05 0 -0.00070452831495402732 -0.00010186337310312793 0 -0.00068926208103158254 -8.1500389433066756e-05 0 -0.00068064565429523628 -0.0001123214104733077 0 -0.00068926208103158254 -8.1500389433066756e-05 0 -0.00065601383099085609 -0.00010137428979781897 0 -0.00068064565429523628 -0.0001123214104733077 0 -0.00068926208103158254 -8.1500389433066756e-05 0 -0.00065387328672681646 -7.5168472279903725e-05 0 -0.00065601383099085609 -0.00010137428979781897 0 -0.00038492189266371783 -0.00016757399033127899 0 -0.00032961468191144999 -0.00021801031907029163 0 -0.0003000711573919969 -0.0001286780391392401 0 -0.00065387328672681646 -7.5168472279903725e-05 0 -0.00065601383099085609 -0.00010137428979781897 0 -0.00061787422172192893 -0.00010728558065640913 0 -0.00052158120861320063 -0.00012042015580078353 0 -0.00051250801281985104 -0.00013744725590434712 0 -0.00082494399791450577 6.957903858843493e-05 0 -0.00084809251560457363 7.8777391691680197e-05 0 -0.00083230078988208531 4.7920765274394603e-05 0 -0.00082494399791450577 6.957903858843493e-05 0 -0.00082029139864107719 9.1197122147964094e-05 0 -0.00084809251560457363 7.8777391691680197e-05 0 -0.00051250801281985104 -0.00013744725590434712 0 -0.00075884491287637351 -3.7438415390535333e-05 0 -0.00065601383099085609 -0.00010137428979781897 0 -0.00061787422172192893 -0.00010728558065640913 0 -0.00065375686524446074 -0.00012763184324225416 0 -0.00065375686524446074 -0.00012763184324225416 0 -0.00068064565429523628 -0.0001123214104733077 0 -0.00068942536031046855 -0.00014754754459067276 0 -0.00075884491287637351 -3.7438415390535333e-05 0 -0.00081075644172199247 -4.614902892149757e-05 0 -0.00065601383099085609 -0.00010137428979781897 0 -0.00065375686524446074 -0.00012763184324225416 0 -0.00068064565429523628 -0.0001123214104733077 0 -0.0007051736874681432 -0.00013284303701730581 0 -0.00081075644172199247 -4.614902892149757e-05 0 -0.00068064565429523628 -0.0001123214104733077 0 -0.00068972722824132244 -0.00014853312596478679 0 -0.00071488623476045736 -0.00012787103989331475 0 -0.00084809251560457363 7.8777391691680197e-05 0 -0.00087935957570356188 6.3829603520584407e-05 0 -0.00086217299786712815 4.7307272103730809e-05 0 -0.00087935957570356188 6.3829603520584407e-05 0 -0.00086217299786712815 4.7307272103730809e-05 0 -0.00089160836540309787 2.6365165102229677e-05 0 -0.00081075644172199247 -4.614902892149757e-05 0 -0.00093648830392960747 1.6960820035515637e-05 0 -0.00084809251560457363 7.8777391691680197e-05 0 -0.00086217299786712815 4.7307272103730809e-05 0 -0.00083230078988208531 4.7920765274394603e-05 0 -0.00086217299786712815 4.7307272103730809e-05 0 -0.00083230078988208531 4.7920765274394603e-05 0 -0.00086220826685237391 1.4117806961194624e-05 0 -0.00084603277263795983 3.5129054012536247e-05 0 -0.00082641633519662063 4.4432564220091876e-05 0 -0.00078225156763631499 -0.000103112946059793 0 -0.00074168370917174816 -0.0001080272393325758 0 -0.00076194078508644227 -0.00014812936415346733 0 -0.00074168370917174816 -0.0001080272393325758 0 -0.00071488623476045736 -0.00012787103989331475 0 -0.00076194078508644227 -0.00014812936415346733 0 -0.00070452831495402732 -0.00010186337310312793 0 -0.00074168370917174816 -0.0001080272393325758 0 -0.00071488623476045736 -0.00012787103989331475 0 -0.00070452831495402732 -0.00010186337310312793 0 -0.00068064565429523628 -0.0001123214104733077 0 -0.00071488623476045736 -0.00012787103989331475 0 -0.00097592935622080746 1.916326576329108e-05 0 -0.0010150720647817703 -3.2234126062593481e-06 0 -0.00098832368935108136 -2.814563329452966e-05 0 -0.0010150720647817703 -3.2234126062593481e-06 0 -0.001053158046981492 -2.5929242511208582e-05 0 -0.00098832368935108136 -2.814563329452966e-05 0 -0.00071488623476045736 -0.00012787103989331475 0 -0.00072580878166896641 -0.00016927566575993246 0 -0.00076194078508644227 -0.00014812936415346733 0 -0.00068972722824132244 -0.00014853312596478679 0 -0.00071488623476045736 -0.00012787103989331475 0 -0.00072580878166896641 -0.00016927566575993246 0 -0.00081075644172199247 -4.614902892149757e-05 0 -0.00085717386512206136 -7.236940690425611e-05 0 -0.00085717386512206136 -7.236940690425611e-05 0 -0.0011057835866353435 -7.8629137167255915e-05 0 -0.00078760649625489378 -0.00020329531158636951 0 -0.00076194078508644227 -0.00014812936415346733 0 -0.00076310697310946101 -0.0001902614861146578 0 -0.00072580878166896641 -0.00016927566575993246 0 -0.00076194078508644227 -0.00014812936415346733 0 -0.00076310697310946101 -0.0001902614861146578 0 -0.0013083213755815343 -0.00019820176555543478 0 -0.001619523283240897 -0.00019907184935012747 0 -0.0013083213755815343 -0.00019820176555543478 0 -0.0011057835866353435 -7.8629137167255915e-05 0 -0.0014054748614019329 -0.00015120624728602082 0 -0.0014064437399503244 -0.00014877661793177358 0 -0.0014089974289208447 -0.00014711385579216807 0 -0.0014037472489761291 -0.00015024627525968669 0 -0.0014054748614019329 -0.00015120624728602082 0 -0.0014064437399503244 -0.00014877661793177358 0 -0.0014037472489761291 -0.00015024627525968669 0 -0.0014064437399503244 -0.00014877661793177358 0 -0.0014074184218362464 -0.00014664851957893083 0 -0.0014074184218362464 -0.00014664851957893083 0 -0.0014089974289208447 -0.00014711385579216807 0 -0.0014107189106332741 -0.00014405834725386219 0 -0.001619523283240897 -0.00019907184935012747 0 -0.0017298225812149171 -0.00017337061588828479 0 -0.0014064437399503244 -0.00014877661793177358 0 -0.0014074184218362464 -0.00014664851957893083 0 -0.0014089974289208447 -0.00014711385579216807 0 -0.0014089974289208447 -0.00014711385579216807 0 -0.0014111502182438704 -0.00014611278234881054 0 -0.0014107189106332741 -0.00014405834725386219 0 -0.0016017604966591477 0.00016123751514538192 0 -0.0015880990853109843 0.00017445204087662954 0 -0.001583868681878499 0.00010841238392256617 0 -0.0014884647070875648 -6.7036261428267651e-05 0 -0.0017298225812149171 -0.00017337061588828479 0 -0.0014089974289208447 -0.00014711385579216807 0 -0.0014111502182438704 -0.00014611278234881054 0 -0.0014110703095301441 -0.00014692161567897148 0 -0.0014884647070875648 -6.7036261428267651e-05 0 -0.0012198678805219129 -3.9891574228961135e-05 0 -0.0013549746672290744 -1.6406967074461511e-05 0 -0.001331719367859844 6.6457064693811803e-06 0 -0.0013463896837510772 2.0186054729231116e-05 0 -0.0014884647070875648 -6.7036261428267651e-05 0 -0.0012180397589064403 2.0530426717006343e-05 0 -0.0012180397589064403 2.0530426717006343e-05 0 -0.0012198678805219129 -3.9891574228961135e-05 0 -0.0011057835866353435 -7.8629137167255915e-05 0 -0.0012198678805219129 -3.9891574228961135e-05 0 -0.001053158046981492 -2.5929242511208582e-05 0 -0.0010002016720545149 -7.4892426024953122e-05 0 -0.00098832368935108136 -2.814563329452966e-05 0 -0.0012198678805219129 -3.9891574228961135e-05 0 -0.00093648830392960747 1.6960820035515637e-05 0 -0.0014054748614019329 -0.00015120624728602082 0 -0.0014089974289208447 -0.00014711385579216807 0 -0.0014110703095301441 -0.00014692161567897148 0 -0.0009043754407525599 -1.6690599916960853e-05 0 -0.00089160836540309787 2.6365165102229677e-05 0 -0.00086220826685237391 1.4117806961194624e-05 0 -0.00086217299786712815 4.7307272103730809e-05 0 -0.00089160836540309787 2.6365165102229677e-05 0 -0.00086220826685237391 1.4117806961194624e-05 0 -0.0012180397589064403 2.0530426717006343e-05 0 -0.00082641633519662063 4.4432564220091876e-05 0 -0.00089928047177663894 -2.1534357800145683e-05 0 -0.0009043754407525599 -1.6690599916960853e-05 0 -0.00086220826685237391 1.4117806961194624e-05 0 -0.00083230078988208531 4.7920765274394603e-05 0 -0.00085818841134202941 2.8128147165564815e-05 0 -0.00082985523683689428 2.4340103987414387e-05 0 -0.00085818841134202941 2.8128147165564815e-05 0 -0.00082985523683689428 2.4340103987414387e-05 0 -0.00084489302622467075 4.6743639366758282e-06 0 -0.00082985523683689428 2.4340103987414387e-05 0 -0.00084489302622467075 4.6743639366758282e-06 0 -0.00081350870177499446 6.183669822069293e-06 0 -0.00084489302622467075 4.6743639366758282e-06 0 -0.00085655696362689948 -1.9580965530448107e-05 0 -0.0008271920416589889 -1.6439593810283828e-05 0 -0.00084489302622467075 4.6743639366758282e-06 0 -0.0008271920416589889 -1.6439593810283828e-05 0 -0.00081350870177499446 6.183669822069293e-06 0 -0.00088534260624128526 5.0037912292822717e-06 0 -0.00084489302622467075 4.6743639366758282e-06 0 -0.00085655696362689948 -1.9580965530448107e-05 0 -0.00088534260624128526 5.0037912292822717e-06 0 -0.00085818841134202941 2.8128147165564815e-05 0 -0.00084489302622467075 4.6743639366758282e-06 0 -0.0015880990853109843 0.00017445204087662954 0 -0.0015202751793211248 0.00011490917925991952 0 -0.001583868681878499 0.00010841238392256617 0 -0.0012180397589064403 2.0530426717006343e-05 0 -0.0011961968364577614 5.9192348702225838e-05 0 -0.0015202751793211248 0.00011490917925991952 0 -0.0015774478610826048 3.7215542678543787e-05 0 -0.001583868681878499 0.00010841238392256617 0 -0.00085655696362689948 -1.9580965530448107e-05 0 -0.0008271920416589889 -1.6439593810283828e-05 0 -0.00082889931452347629 -4.2959241823445918e-05 0 -0.0011961968364577614 5.9192348702225838e-05 0 -0.0011384528508196605 -1.1672203170922826e-05 0 -0.0015202751793211248 0.00011490917925991952 0 -0.0015059261544735163 8.4683282235000818e-06 0 -0.0014472948028649154 5.234994590458383e-05 0 -0.0015059261544735163 8.4683282235000818e-06 0 -0.0014472948028649154 5.234994590458383e-05 0 -0.0014172650117219164 -5.6215722722682268e-05 0 -0.0015059261544735163 8.4683282235000818e-06 0 -0.0015774478610826048 3.7215542678543787e-05 0 -0.0015538863594434542 -5.9404909923303354e-05 0 -0.0015202751793211248 0.00011490917925991952 0 -0.0015059261544735163 8.4683282235000818e-06 0 -0.0015774478610826048 3.7215542678543787e-05 0 -0.0016315254337645158 5.2907812823010986e-05 0 -0.0016088266258412853 -9.9617350645819819e-06 0 -0.0016611773798607074 -5.3627844620801562e-05 0 -0.0018922931568084629 -0.00010057604084091678 0 -0.0018523873938733146 -4.5710636710089222e-05 0 -0.0018804356616556157 2.4696908600572376e-05 0 -0.001737743588940085 -2.1534334492303909e-05 0 -0.0022389097335809198 6.6584641491132307e-05 0 -0.0015774478610826048 3.7215542678543787e-05 0 -0.0016315254337645158 5.2907812823010986e-05 0 -0.0016088266258412853 -9.9617350645819819e-06 0 -0.0018922931568084629 -0.00010057604084091678 0 -0.0018523873938733146 -4.5710636710089222e-05 0 -0.0018743034901074576 -0.00010923909088044948 0 -0.0017879816251716155 -8.6293757053893053e-05 0 -0.0018523873938733146 -4.5710636710089222e-05 0 -0.0018743034901074576 -0.00010923909088044948 0 -0.0017650894565400075 -0.00018794080847362138 0 -0.0017879816251716155 -8.6293757053893053e-05 0 -0.0018676073927808719 -0.00017359678708002153 0 -0.0017879816251716155 -8.6293757053893053e-05 0 -0.001858252919827365 -0.00014881006846247398 0 -0.0018743034901074576 -0.00010923909088044948 0 -0.0017650894565400075 -0.00018794080847362138 0 -0.0018289288216453076 -0.00026395322655783541 0 -0.0018676073927808719 -0.00017359678708002153 0 -0.0017298225812149171 -0.00017337061588828479 0 -0.00182217583175261 -9.7950631168409268e-05 0 -0.0018242350757500653 -0.00010656672311189466 0 -0.0017298225812149171 -0.00017337061588828479 0 -0.0014884647070875648 -6.7036261428267651e-05 0 -0.001737743588940085 -2.1534334492303909e-05 0 -0.0015774478610826048 3.7215542678543787e-05 0 -0.0016315254337645158 5.2907812823010986e-05 0 -0.001583868681878499 0.00010841238392256617 0 -0.0016017604966591477 0.00016123751514538192 0 -0.0016315254337645158 5.2907812823010986e-05 0 -0.001583868681878499 0.00010841238392256617 0 -0.0018943590152290292 -0.00016574618571394185 0 -0.0018922931568084629 -0.00010057604084091678 0 -0.0018636531679561777 -0.00013078698806115235 0 -0.0018922931568084629 -0.00010057604084091678 0 -0.0018636531679561777 -0.00013078698806115235 0 -0.0018743034901074576 -0.00010923909088044948 0 -0.00071545099003464797 0.00024903568635029842 0 -0.00075821972174666729 0.00023564819095427562 0 -0.00075596664674327575 0.00028472293906786801 0 -0.00075821972174666729 0.00023564819095427562 0 -0.00075596664674327575 0.00028472293906786801 0 -0.00078529385291628377 0.00025074301582311723 0 -0.00071545099003464797 0.00024903568635029842 0 -0.00075821972174666729 0.00023564819095427562 0 -0.000760763631200638 0.00018512611435335326 0 -0.00075596664674327575 0.00028472293906786801 0 -0.00080720287026707382 0.000290629479964043 0 -0.00078406143783689972 0.00032712862852003473 0 -0.00075596664674327575 0.00028472293906786801 0 -0.00078529385291628377 0.00025074301582311723 0 -0.00080720287026707382 0.000290629479964043 0 -0.00071545099003464797 0.00024903568635029842 0 -0.00075596664674327575 0.00028472293906786801 0 -0.00071730164370406428 0.00029629254970887372 0 -0.00075596664674327575 0.00028472293906786801 0 -0.00071730164370406428 0.00029629254970887372 0 -0.00073905153408291278 0.00032338699596889861 0 -0.00071498477345135797 0.00012092870239485165 0 -0.00098675897715492004 0.00013202395870735728 0 -0.00076290695526655958 -3.0530516933116423e-05 0 -0.00080185203277417729 -2.430773699691539e-05 0 -0.00080214118226041718 -6.6374375696836216e-05 0 -0.00071545099003464797 0.00024903568635029842 0 -0.00071730164370406428 0.00029629254970887372 0 -0.00067928755337920313 0.00030144407920495471 0 -0.00082889931452347629 -4.2959241823445918e-05 0 -0.00080185203277417729 -2.430773699691539e-05 0 -0.00080214118226041718 -6.6374375696836216e-05 0 -0.0014472948028649154 5.234994590458383e-05 0 -0.0013729577415184969 -1.2139080590713922e-05 0 -0.0014172650117219164 -5.6215722722682268e-05 0 -0.0011384528508196605 -1.1672203170922826e-05 0 -0.00098675897715492004 0.00013202395870735728 0 -0.0008271920416589889 -1.6439593810283828e-05 0 -0.00082889931452347629 -4.2959241823445918e-05 0 -0.00080185203277417729 -2.430773699691539e-05 0 -0.00076290695526655958 -3.0530516933116423e-05 0 -0.00080185203277417729 -2.430773699691539e-05 0 -0.00077679926011681524 4.1107403477780042e-06 0 -0.0008271920416589889 -1.6439593810283828e-05 0 -0.00080185203277417729 -2.430773699691539e-05 0 -0.00081350870177499446 6.183669822069293e-06 0 -0.00080185203277417729 -2.430773699691539e-05 0 -0.00077679926011681524 4.1107403477780042e-06 0 -0.00081350870177499446 6.183669822069293e-06 0 -0.00077679926011681524 4.1107403477780042e-06 0 -0.00081350870177499446 6.183669822069293e-06 0 -0.00079994901403636657 3.0747184879483822e-05 0 -0.00082985523683689428 2.4340103987414387e-05 0 -0.00081350870177499446 6.183669822069293e-06 0 -0.00079994901403636657 3.0747184879483822e-05 0 -0.00083230078988208531 4.7920765274394603e-05 0 -0.00082985523683689428 2.4340103987414387e-05 0 -0.00079994901403636657 3.0747184879483822e-05 0 -0.00077679926011681524 4.1107403477780042e-06 0 -0.00079994901403636657 3.0747184879483822e-05 0 -0.00075702964266587277 3.3092249227542915e-05 0 -0.00050280269944859551 -8.4810338827003478e-05 0 -0.00062500296221839659 4.1495011750542517e-05 0 -0.00077679926011681524 4.1107403477780042e-06 0 -0.00075702964266587277 3.3092249227542915e-05 0 -0.00072484260161112611 5.5831722762213678e-06 0 -0.00076290695526655958 -3.0530516933116423e-05 0 -0.00077679926011681524 4.1107403477780042e-06 0 -0.00072484260161112611 5.5831722762213678e-06 0 -0.00071498477345135797 0.00012092870239485165 0 -0.00062500296221839659 4.1495011750542517e-05 0 -0.00075821972174666729 0.00023564819095427562 0 -0.000760763631200638 0.00018512611435335326 0 -0.00079800780999540136 0.00020775564331057883 0 -0.00039298933273570325 8.1357581780768486e-06 0 -0.00039262799715231346 -0.00012946210215711309 0 -0.00061727774494625578 -0.00010957507380703937 0 -0.00027167991997058163 -0.00019235757613365032 0 -0.00039298933273570325 8.1357581780768486e-06 0 -0.00039262799715231346 -0.00012946210215711309 0 -0.00062500296221839659 4.1495011750542517e-05 0 -0.00058325157408246648 -7.9233639117173659e-05 0 -0.00027167991997058163 -0.00019235757613365032 0 -0.00039262799715231346 -0.00012946210215711309 0 -0.00038364694785888087 -0.00024298392003511418 0 -0.00039262799715231346 -0.00012946210215711309 0 -0.00038364694785888087 -0.00024298392003511418 0 -0.00061727774494625578 -0.00010957507380703937 0 -0.00027167991997058163 -0.00019235757613365032 0 -0.00038364694785888087 -0.00024298392003511418 0 -0.00031816399582800485 -0.00024273923745097591 0 -0.00038364694785888087 -0.00024298392003511418 0 -0.0003320326953845439 -0.00024442913938346571 0 -0.00030070169238861536 -0.00023792187403095754 0 -0.0003320326953845439 -0.00024442913938346571 0 -0.00031816399582800485 -0.00024273923745097591 0 -0.00031373395663569082 -0.00024852437634911379 0 -0.00038364694785888087 -0.00024298392003511418 0 -0.0003320326953845439 -0.00024442913938346571 0 -0.00031816399582800485 -0.00024273923745097591 0 -0.00027167991997058163 -0.00019235757613365032 0 -0.00031816399582800485 -0.00024273923745097591 0 -0.00024818008043431082 -0.00024016153321182419 0 -0.00031816399582800485 -0.00024273923745097591 0 -0.00030753097264588948 -0.00025485995489354924 0 -0.00024818008043431082 -0.00024016153321182419 0 -0.00030753097264588948 -0.00025485995489354924 0 -0.0003078907452167961 -0.00025190788197940157 0 -0.00030778932481312322 -0.0002514394393028885 0 -0.00030294276796208943 -0.00025720571105383093 0 -0.00029767929611455515 -0.00025529544554596585 0 -0.00030753097264588948 -0.00025485995489354924 0 -0.0003078907452167961 -0.00025190788197940157 0 -0.00031373395663569082 -0.00024852437634911379 0 -0.0003078907452167961 -0.00025190788197940157 0 -0.00031373395663569082 -0.00024852437634911379 0 -0.00030679852849783702 -0.00025161916185360199 0 -0.00031373395663569082 -0.00024852437634911379 0 -0.00030170940846724695 -0.00024312750938744834 0 -0.00026998949490138956 -0.00024614387092679319 0 -0.0003320326953845439 -0.00024442913938346571 0 -0.00031373395663569082 -0.00024852437634911379 0 -0.00030170940846724695 -0.00024312750938744834 0 -0.00031816399582800485 -0.00024273923745097591 0 -0.00030753097264588948 -0.00025485995489354924 0 -0.00031373395663569082 -0.00024852437634911379 0 -0.00083230078988208531 4.7920765274394603e-05 0 -0.00079994901403636657 3.0747184879483822e-05 0 -0.00078821873257412553 6.0652152601906041e-05 0 -0.00082494399791450577 6.957903858843493e-05 0 -0.00083230078988208531 4.7920765274394603e-05 0 -0.00078821873257412553 6.0652152601906041e-05 0 -0.00079994901403636657 3.0747184879483822e-05 0 -0.00075702964266587277 3.3092249227542915e-05 0 -0.00078821873257412553 6.0652152601906041e-05 0 -0.00050280269944859551 -8.4810338827003478e-05 0 -0.00052436836688095811 -7.9433656478325405e-05 0 -0.00030753097264588948 -0.00025485995489354924 0 -0.00024818008043431082 -0.00024016153321182419 0 -0.00027802449333011014 -0.00027652136538287077 0 -0.00024818008043431082 -0.00024016153321182419 0 -0.00024935955038966586 -0.00026892362452342734 0 -0.00027802449333011014 -0.00027652136538287077 0 -0.00082494399791450577 6.957903858843493e-05 0 -0.00082029139864107719 9.1197122147964094e-05 0 -0.00078821873257412553 6.0652152601906041e-05 0 -0.00051250801281985104 -0.00013744725590434712 0 -0.00052436836688095811 -7.9433656478325405e-05 0 -0.00022163474080115988 -0.00027116830730948793 0 -0.00024818008043431082 -0.00024016153321182419 0 -0.00024935955038966586 -0.00026892362452342734 0 -0.00022163474080115988 -0.00027116830730948793 0 -0.00024935955038966586 -0.00026892362452342734 0 -0.00025308230050756795 -0.00029312426409274991 0 -0.00051250801281985104 -0.00013744725590434712 0 -0.0001692413075899317 -0.00022647552373765154 0 -0.00032961468191144999 -0.00021801031907029163 0 -0.00024966582965824167 -0.00017208331853475121 0 -0.0003000711573919969 -0.0001286780391392401 0 -0.000306912023850669 -0.00025064647622590792 0 -0.00030778932481312322 -0.0002514394393028885 0 -0.00030694386306635342 -0.00024959149965424258 0 -0.00024935955038966586 -0.00026892362452342734 0 -0.00025308230050756795 -0.00029312426409274991 0 -0.00027802449333011014 -0.00027652136538287077 0 -0.0001692413075899317 -0.00022647552373765154 0 -0.00029767929611455515 -0.00025529544554596585 0 9.6741874346408359e-06 -0.00018694823960833771 0 1.2009312810664361e-06 -0.00019575772597819072 0 2.0761884834028147e-05 -0.00019422044925080512 0 -0.0001692413075899317 -0.00022647552373765154 0 -0.00014270093598079658 -0.00022212336653725353 0 -3.1995898222807265e-07 -0.00021074142343835748 0 1.2009312810664361e-06 -0.00019575772597819072 0 2.0761884834028147e-05 -0.00019422044925080512 0 -5.760580972903339e-06 -0.00017903830660345081 0 1.2009312810664361e-06 -0.00019575772597819072 0 -1.4955792866652385e-05 -0.00019897227445350789 0 -0.0001692413075899317 -0.00022647552373765154 0 -0.00016058422510844761 -0.00016243586906849658 0 -3.1995898222807265e-07 -0.00021074142343835748 0 1.2009312810664361e-06 -0.00019575772597819072 0 -1.4955792866652385e-05 -0.00019897227445350789 0 -0.00016882714759026827 -0.00015661777786447236 0 -0.00016058422510844761 -0.00016243586906849658 0 -0.00031373395663569082 -0.00024852437634911379 0 -0.00023793858502521982 -0.00025006743782106345 0 -0.00026998949490138956 -0.00024614387092679319 0 -0.00031373395663569082 -0.00024852437634911379 0 -0.00030679852849783702 -0.00025161916185360199 0 -0.00030176725998034518 -0.00025152828499782975 0 -0.0003046866993672859 -0.00024938095962245019 0 -0.00028318298912333303 -0.00025909261572187268 0 -0.00030679852849783702 -0.00025161916185360199 0 -0.00030498092878092212 -0.00024964748329032787 0 -0.00030176725998034518 -0.00025152828499782975 0 -0.0003078907452167961 -0.00025190788197940157 0 -0.00030778932481312322 -0.0002514394393028885 0 -0.00030679852849783702 -0.00025161916185360199 0 -0.00030778932481312322 -0.0002514394393028885 0 -0.00030679852849783702 -0.00025161916185360199 0 -0.00030694386306635342 -0.00024959149965424258 0 -0.00030679852849783702 -0.00025161916185360199 0 -0.00030694386306635342 -0.00024959149965424258 0 -0.00030498092878092212 -0.00024964748329032787 0 9.453353749871119e-06 -0.00018958518320128111 0 2.2139534449577946e-05 -0.00018943150634391639 0 2.0761884834028147e-05 -0.00019422044925080512 0 2.2139534449577946e-05 -0.00018943150634391639 0 9.6741874346408359e-06 -0.00018694823960833771 0 2.0761884834028147e-05 -0.00019422044925080512 0 -0.00014253874742007903 -0.00021385562872062669 0 -0.00014270093598079658 -0.00022212336653725353 0 -0.00030314572892370579 -0.00024468973985198125 0 -0.00030498092878092212 -0.00024964748329032787 0 -0.00030176725998034518 -0.00025152828499782975 0 -0.00030314572892370579 -0.00024468973985198125 0 -0.00030694386306635342 -0.00024959149965424258 0 -0.00030498092878092212 -0.00024964748329032787 0 -0.00017158644719172538 -0.00025158540184260311 0 -0.00028318298912333303 -0.00025909261572187268 0 -0.00023793858502521982 -0.00025006743782106345 0 -0.00023378404126563027 -0.00025245038654616832 0 -0.00021085085284652024 -0.00026862593300138143 0 -0.00018030858249061521 -0.00029115052452255197 0 -0.00023793858502521982 -0.00025006743782106345 0 -0.00021085085284652024 -0.00026862593300138143 0 -0.00023793858502521982 -0.00025006743782106345 0 -0.00023378404126563027 -0.00025245038654616832 0 -0.00026998949490138956 -0.00024614387092679319 0 -0.00023378404126563027 -0.00025245038654616832 0 -0.00026998949490138956 -0.00024614387092679319 0 -0.00025373854295630116 -0.00024111717179207623 0 -0.00023378404126563027 -0.00025245038654616832 0 -0.00023302622677467803 -0.00025197165334360277 0 -0.00025373854295630116 -0.00024111717179207623 0 -0.00023378404126563027 -0.00025245038654616832 0 -0.00021147921286864392 -0.00027124826301675077 0 -0.00023302622677467803 -0.00025197165334360277 0 -0.0001903223050705384 -0.00028609242089927387 0 -0.00021085085284652024 -0.00026862593300138143 0 -0.00021147921286864392 -0.00027124826301675077 0 -0.00023378404126563027 -0.00025245038654616832 0 -0.00021085085284652024 -0.00026862593300138143 0 -0.00021147921286864392 -0.00027124826301675077 0 -0.00021147921286864392 -0.00027124826301675077 0 -0.00021809704612625377 -0.00027988731904730077 0 -0.00022877489471792941 -0.00026429655734030148 0 -0.00019818146866942802 -0.00029171345092040077 0 -0.00021147921286864392 -0.00027124826301675077 0 -0.00021809704612625377 -0.00027988731904730077 0 -0.00021809704612625377 -0.00027988731904730077 0 -0.00023905413151225575 -0.0002683894189255536 0 -0.00024197363172374009 -0.00028861666092707642 0 -0.0002091877573578407 -0.00029810214606028096 0 -0.00021809704612625377 -0.00027988731904730077 0 -0.00024197363172374009 -0.00028861666092707642 0 -0.00021809704612625377 -0.00027988731904730077 0 -0.00023905413151225575 -0.0002683894189255536 0 -0.00022877489471792941 -0.00026429655734030148 0 -0.00022877489471792941 -0.00026429655734030148 0 -0.00023302622677467803 -0.00025197165334360277 0 -0.00024383308130318916 -0.00025220833554164516 0 -0.00023905413151225575 -0.0002683894189255536 0 -0.00022877489471792941 -0.00026429655734030148 0 -0.00024383308130318916 -0.00025220833554164516 0 -0.00021147921286864392 -0.00027124826301675077 0 -0.00022877489471792941 -0.00026429655734030148 0 -0.00023302622677467803 -0.00025197165334360277 0 -0.00023302622677467803 -0.00025197165334360277 0 -0.00024158516283059165 -0.00024164102589728059 0 -0.00025373854295630116 -0.00024111717179207623 0 -0.00023302622677467803 -0.00025197165334360277 0 -0.00024158516283059165 -0.00024164102589728059 0 -0.00024383308130318916 -0.00025220833554164516 0 -0.00024158516283059165 -0.00024164102589728059 0 -0.00024383308130318916 -0.00025220833554164516 0 -0.00025120787219711426 -0.0002353971365081071 0 -0.00025120787219711426 -0.0002353971365081071 0 -0.00024514781071398805 -0.00023511989511858307 0 -0.00024846542442387095 -0.00021864694260825444 0 -0.00024158516283059165 -0.00024164102589728059 0 -0.00025120787219711426 -0.0002353971365081071 0 -0.00024514781071398805 -0.00023511989511858307 0 -0.00024158516283059165 -0.00024164102589728059 0 -0.00024514781071398805 -0.00023511989511858307 0 -0.00024606510656395884 -0.00023908764024204964 0 -0.00026465385701091406 -0.00024038808958215744 0 -0.00030070169238861536 -0.00023792187403095754 0 -0.00025373854295630116 -0.00024111717179207623 0 -0.00024158516283059165 -0.00024164102589728059 0 -0.00026465385701091406 -0.00024038808958215744 0 -0.00024606510656395884 -0.00023908764024204964 0 -0.00038364694785888087 -0.00024298392003511418 0 -0.00026465385701091406 -0.00024038808958215744 0 -0.00030070169238861536 -0.00023792187403095754 0 -0.00030070169238861536 -0.00023792187403095754 0 -0.00030170940846724695 -0.00024312750938744834 0 -0.00026998949490138956 -0.00024614387092679319 0 -0.00030070169238861536 -0.00023792187403095754 0 -0.00026998949490138956 -0.00024614387092679319 0 -0.00025373854295630116 -0.00024111717179207623 0 -0.0003320326953845439 -0.00024442913938346571 0 -0.00030070169238861536 -0.00023792187403095754 0 -0.00030170940846724695 -0.00024312750938744834 0 -0.00024158516283059165 -0.00024164102589728059 0 -0.00026465385701091406 -0.00024038808958215744 0 -0.00025373854295630116 -0.00024111717179207623 0 -0.00038082012834786676 -0.00028868913223188285 0 -0.00034374870847837758 -0.00028464705464589346 0 -0.00037197832215267874 -0.0002664500916370874 0 -0.00034374870847837758 -0.00028464705464589346 0 -0.000355952056911409 -0.00030473409047246803 0 -0.00031483123079741716 -0.00030203219242848069 0 -0.00038082012834786676 -0.00028868913223188285 0 -0.00034374870847837758 -0.00028464705464589346 0 -0.000355952056911409 -0.00030473409047246803 0 -0.00034374870847837758 -0.00028464705464589346 0 -0.00031483123079741716 -0.00030203219242848069 0 -0.00029941918046386893 -0.00028056408254490474 0 -0.00031483123079741716 -0.00030203219242848069 0 -0.00029941918046386893 -0.00028056408254490474 0 -0.00028082880950628124 -0.00029901397305640736 0 -0.00029941918046386893 -0.00028056408254490474 0 -0.00029207001390279852 -0.00026257025761510129 0 -0.00032548879864406649 -0.00026585986746338857 0 -0.00034374870847837758 -0.00028464705464589346 0 -0.00029941918046386893 -0.00028056408254490474 0 -0.00032548879864406649 -0.00026585986746338857 0 -0.00029941918046386893 -0.00028056408254490474 0 -0.00026863854856684866 -0.00028422726993395227 0 -0.00026356367706258799 -0.00026863833311963937 0 -0.00029941918046386893 -0.00028056408254490474 0 -0.00026356367706258799 -0.00026863833311963937 0 -0.00029207001390279852 -0.00026257025761510129 0 -0.00026863854856684866 -0.00028422726993395227 0 -0.00028082880950628124 -0.00029901397305640736 0 -0.00024197363172374009 -0.00028861666092707642 0 -0.00029941918046386893 -0.00028056408254490474 0 -0.00026863854856684866 -0.00028422726993395227 0 -0.00028082880950628124 -0.00029901397305640736 0 -0.00023905413151225575 -0.0002683894189255536 0 -0.00024197363172374009 -0.00028861666092707642 0 -0.00026356367706258799 -0.00026863833311963937 0 -0.00026863854856684866 -0.00028422726993395227 0 -0.00024197363172374009 -0.00028861666092707642 0 -0.00026356367706258799 -0.00026863833311963937 0 -0.00023905413151225575 -0.0002683894189255536 0 -0.00024383308130318916 -0.00025220833554164516 0 -0.00026356367706258799 -0.00026863833311963937 0 -0.00024383308130318916 -0.00025220833554164516 0 -0.00026356367706258799 -0.00026863833311963937 0 -0.00027031294714641526 -0.00024942560879263892 0 -0.00024383308130318916 -0.00025220833554164516 0 -0.00025120787219711426 -0.0002353971365081071 0 -0.00027031294714641526 -0.00024942560879263892 0 -0.00025120787219711426 -0.0002353971365081071 0 -0.00027031294714641526 -0.00024942560879263892 0 -0.00027964213178655609 -0.00022978879315922279 0 -0.00025120787219711426 -0.0002353971365081071 0 -0.00027964213178655609 -0.00022978879315922279 0 -0.00026584773719243095 -0.00020961038759206968 0 -0.00027031294714641526 -0.00024942560879263892 0 -0.00027964213178655609 -0.00022978879315922279 0 -0.00030495410272571939 -0.00024688391241847925 0 -0.00027964213178655609 -0.00022978879315922279 0 -0.00030495410272571939 -0.00024688391241847925 0 -0.00032338688345795149 -0.00022243372144022295 0 -0.00027031294714641526 -0.00024942560879263892 0 -0.00030495410272571939 -0.00024688391241847925 0 -0.00029207001390279852 -0.00026257025761510129 0 -0.00026356367706258799 -0.00026863833311963937 0 -0.00027031294714641526 -0.00024942560879263892 0 -0.00029207001390279852 -0.00026257025761510129 0 -0.00030495410272571939 -0.00024688391241847925 0 -0.00029207001390279852 -0.00026257025761510129 0 -0.00032548879864406649 -0.00026585986746338857 0 -0.00030495410272571939 -0.00024688391241847925 0 -0.00032548879864406649 -0.00026585986746338857 0 -0.00033923813608008536 -0.00024913833981467156 0 -0.00032338688345795149 -0.00022243372144022295 0 -0.00033923813608008536 -0.00024913833981467156 0 -0.00036967819194007854 -0.000238010549425021 0 -0.00030495410272571939 -0.00024688391241847925 0 -0.00032338688345795149 -0.00022243372144022295 0 -0.00033923813608008536 -0.00024913833981467156 0 -0.00040690836599178233 -0.00025695870360442424 0 -0.00036967819194007854 -0.000238010549425021 0 -0.00037197832215267874 -0.0002664500916370874 0 -0.00033923813608008536 -0.00024913833981467156 0 -0.00036967819194007854 -0.000238010549425021 0 -0.00037197832215267874 -0.0002664500916370874 0 -0.00040690836599178233 -0.00025695870360442424 0 -0.0004091527492038941 -0.00022857781420963769 0 -0.00036967819194007854 -0.000238010549425021 0 -0.00034374870847837758 -0.00028464705464589346 0 -0.00032548879864406649 -0.00026585986746338857 0 -0.00037197832215267874 -0.0002664500916370874 0 -0.00032548879864406649 -0.00026585986746338857 0 -0.00033923813608008536 -0.00024913833981467156 0 -0.00037197832215267874 -0.0002664500916370874 0 -0.0004461475803496945 -0.00018545145852688169 0 -0.00038421181444740288 -0.00015010199460454082 0 -0.00036891398182761954 -0.00019397049185851511 0 -0.0004461475803496945 -0.00018545145852688169 0 -0.00038421181444740288 -0.00015010199460454082 0 -0.0004077562691189538 -8.8837021505129468e-05 0 -0.00035787314482317286 -0.000112418935778586 0 -0.00038421181444740288 -0.00015010199460454082 0 -0.0004077562691189538 -8.8837021505129468e-05 0 -0.00035787314482317286 -0.000112418935778586 0 -0.00038421181444740288 -0.00015010199460454082 0 -0.00035108286654905756 -0.00015736885359331158 0 -0.00038421181444740288 -0.00015010199460454082 0 -0.00036891398182761954 -0.00019397049185851511 0 -0.00035108286654905756 -0.00015736885359331158 0 -0.00032338688345795149 -0.00022243372144022295 0 -0.00036967819194007854 -0.000238010549425021 0 -0.00036891398182761954 -0.00019397049185851511 0 -0.0004091527492038941 -0.00022857781420963769 0 -0.00036967819194007854 -0.000238010549425021 0 -0.00036891398182761954 -0.00019397049185851511 0 -0.00032338688345795149 -0.00022243372144022295 0 -0.00032493166979910787 -0.00018099539223845795 0 -0.00029299458918634721 -0.00019821170119047862 0 -0.00032338688345795149 -0.00022243372144022295 0 -0.00036891398182761954 -0.00019397049185851511 0 -0.00032493166979910787 -0.00018099539223845795 0 -0.00032493166979910787 -0.00018099539223845795 0 -0.00032408717612924365 -0.00014254100048136087 0 -0.00029824809511873329 -0.00016310538423968294 0 -0.00032493166979910787 -0.00018099539223845795 0 -0.00035108286654905756 -0.00015736885359331158 0 -0.00032408717612924365 -0.00014254100048136087 0 -0.00036891398182761954 -0.00019397049185851511 0 -0.00032493166979910787 -0.00018099539223845795 0 -0.00035108286654905756 -0.00015736885359331158 0 -0.00035787314482317286 -0.000112418935778586 0 -0.00035108286654905756 -0.00015736885359331158 0 -0.00032408717612924365 -0.00014254100048136087 0 -0.00035787314482317286 -0.000112418935778586 0 -0.00032408717612924365 -0.00014254100048136087 0 -0.00032894125725209465 -0.00010234108931129996 0 -0.00032408717612924365 -0.00014254100048136087 0 -0.00030019333652001946 -0.0001255069054384539 0 -0.00032894125725209465 -0.00010234108931129996 0 -0.00032408717612924365 -0.00014254100048136087 0 -0.00029824809511873329 -0.00016310538423968294 0 -0.00030019333652001946 -0.0001255069054384539 0 -0.00028411480017764335 -0.00015184812808275271 0 -0.0002652796905397391 -0.00014299725780238359 0 -0.00030019333652001946 -0.0001255069054384539 0 -0.00028411480017764335 -0.00015184812808275271 0 -0.00029824809511873329 -0.00016310538423968294 0 -0.00030019333652001946 -0.0001255069054384539 0 -0.00028411480017764335 -0.00015184812808275271 0 -0.00027586730049581438 -0.00017600234646086431 0 -0.0002652796905397391 -0.00014299725780238359 0 -0.00028411480017764335 -0.00015184812808275271 0 -0.00027586730049581438 -0.00017600234646086431 0 -0.00029824809511873329 -0.00016310538423968294 0 -0.00027586730049581438 -0.00017600234646086431 0 -0.00029824809511873329 -0.00016310538423968294 0 -0.00029299458918634721 -0.00019821170119047862 0 -0.00027964213178655609 -0.00022978879315922279 0 -0.00032338688345795149 -0.00022243372144022295 0 -0.00029299458918634721 -0.00019821170119047862 0 -0.00027964213178655609 -0.00022978879315922279 0 -0.00029299458918634721 -0.00019821170119047862 0 -0.00026584773719243095 -0.00020961038759206968 0 -0.00032493166979910787 -0.00018099539223845795 0 -0.00029824809511873329 -0.00016310538423968294 0 -0.00029299458918634721 -0.00019821170119047862 0 -0.00027586730049581438 -0.00017600234646086431 0 -0.00029299458918634721 -0.00019821170119047862 0 -0.00026584773719243095 -0.00020961038759206968 0 -0.00027586730049581438 -0.00017600234646086431 0 -0.00026584773719243095 -0.00020961038759206968 0 -0.00025777640684266869 -0.00019194564006620843 0 -0.00026584773719243095 -0.00020961038759206968 0 -0.00025777640684266869 -0.00019194564006620843 0 -0.00024846542442387095 -0.00021864694260825444 0 -0.00025777640684266869 -0.00019194564006620843 0 -0.0002652796905397391 -0.00014299725780238359 0 -0.00024273419012143114 -0.00020672329675814531 0 -0.00027586730049581438 -0.00017600234646086431 0 -0.00025777640684266869 -0.00019194564006620843 0 -0.0002652796905397391 -0.00014299725780238359 0 -0.0011652656083598651 0.00019921171842105664 0 -0.0011519475719628744 0.00021864141737781628 0 -0.0011248995633361665 0.00019903384087931937 0 -0.0011652656083598651 0.00019921171842105664 0 -0.0011519475719628744 0.00021864141737781628 0 -0.0011645458045369394 0.00020674353588147779 0 -0.0011519475719628744 0.00021864141737781628 0 -0.0011407341196014887 0.0002471002617810808 0 -0.0011221332476379058 0.0002354606286497865 0 -0.0011407341196014887 0.0002471002617810808 0 -0.0011669201881374784 0.00023315071077143395 0 -0.0011501841978701491 0.00028313651564405211 0 -0.0011519475719628744 0.00021864141737781628 0 -0.0011407341196014887 0.0002471002617810808 0 -0.0011669201881374784 0.00023315071077143395 0 -0.0011519475719628744 0.00021864141737781628 0 -0.0011669201881374784 0.00023315071077143395 0 -0.0011645458045369394 0.00020674353588147779 0 -0.0011669201881374784 0.00023315071077143395 0 -0.0011773145081919224 0.00022597436235231912 0 -0.0011645458045369394 0.00020674353588147779 0 -0.0011721002919119912 0.00020705524699004841 0 -0.0011474908375710107 0.00022076811775397509 0 -0.0011773145081919224 0.00022597436235231912 0 -0.0011645458045369394 0.00020674353588147779 0 -0.0011919488481121126 0.00022125354087137243 0 -0.0011669201881374784 0.00023315071077143395 0 -0.0011773145081919224 0.00022597436235231912 0 -0.0011743784243131107 0.00023471029879884638 0 -0.0011652656083598651 0.00019921171842105664 0 -0.0011645458045369394 0.00020674353588147779 0 -0.0011522766245522303 0.00020773924664322179 0 -0.0002652796905397391 -0.00014299725780238359 0 -0.00030019333652001946 -0.0001255069054384539 0 -0.00031805680001126475 -5.5456801487487116e-05 0 -0.00072476037470723255 2.8231780649904306e-05 0 -0.00069664537969003936 8.4186076244750243e-05 0 -0.0011645458045369394 0.00020674353588147779 0 -0.0011522766245522303 0.00020773924664322179 0 -0.001149228248047036 0.00019969625633006467 0 -0.00030019333652001946 -0.0001255069054384539 0 -0.00032894125725209465 -0.00010234108931129996 0 -0.00031805680001126475 -5.5456801487487116e-05 0 -0.00035787314482317286 -0.000112418935778586 0 -0.00032894125725209465 -0.00010234108931129996 0 -0.00035382755558837064 -7.1792082302935198e-05 0 -0.00032894125725209465 -0.00010234108931129996 0 -0.00035382755558837064 -7.1792082302935198e-05 0 -0.00031805680001126475 -5.5456801487487116e-05 0 -0.00035382755558837064 -7.1792082302935198e-05 0 -0.00031805680001126475 -5.5456801487487116e-05 0 -0.00039037426943456469 -2.0135311766592048e-05 0 -0.0011773145081919224 0.00022597436235231912 0 -0.0011869950642849183 0.00022776248095775765 0 -0.0011822316996432881 0.00023384849115889365 0 -0.0011773145081919224 0.00022597436235231912 0 -0.0011869950642849183 0.00022776248095775765 0 -0.0011919488481121126 0.00022125354087137243 0 -0.0011869950642849183 0.00022776248095775765 0 -0.0011919488481121126 0.00022125354087137243 0 -0.001195564056461697 0.00022869834619504575 0 -0.001111606007101405 0.00018967503341190984 0 -0.0011522766245522303 0.00020773924664322179 0 -0.001149228248047036 0.00019969625633006467 0 -0.001111606007101405 0.00018967503341190984 0 -0.001149228248047036 0.00019969625633006467 0 -0.0011171352595889827 0.00018382807591530456 0 -0.00044511553331446415 7.7583769463819571e-05 0 -0.00031805680001126475 -5.5456801487487116e-05 0 -0.00039037426943456469 -2.0135311766592048e-05 0 -0.0011919488481121126 0.00022125354087137243 0 -0.001195564056461697 0.00022869834619504575 0 -0.001206744081928708 0.00022597266156643194 0 -0.0011474908375710107 0.00022076811775397509 0 -0.0013250830389940004 1.7763065054407932e-05 0 -0.00098854012130090768 4.6355741204346705e-05 0 -0.00069664537969003936 8.4186076244750243e-05 0 -0.00044511553331446415 7.7583769463819571e-05 0 -0.00042627524843483644 6.6931229684451537e-06 0 -0.00039037426943456469 -2.0135311766592048e-05 0 -0.00044779790278749151 -8.681137381415887e-06 0 -0.00042627524843483644 6.6931229684451537e-06 0 -0.0004164354208134867 -4.1146104939372366e-05 0 -0.0004164354208134867 -4.1146104939372366e-05 0 -0.00039037426943456469 -2.0135311766592048e-05 0 -0.00038338678389996847 -6.4030211078803113e-05 0 -0.00042627524843483644 6.6931229684451537e-06 0 -0.0004164354208134867 -4.1146104939372366e-05 0 -0.00039037426943456469 -2.0135311766592048e-05 0 -0.00035382755558837064 -7.1792082302935198e-05 0 -0.00039037426943456469 -2.0135311766592048e-05 0 -0.00038338678389996847 -6.4030211078803113e-05 0 -0.00035787314482317286 -0.000112418935778586 0 -0.00038338678389996847 -6.4030211078803113e-05 0 -0.0004077562691189538 -8.8837021505129468e-05 0 -0.00035787314482317286 -0.000112418935778586 0 -0.00035382755558837064 -7.1792082302935198e-05 0 -0.00038338678389996847 -6.4030211078803113e-05 0 -0.0004164354208134867 -4.1146104939372366e-05 0 -0.00038338678389996847 -6.4030211078803113e-05 0 -0.0004077562691189538 -8.8837021505129468e-05 0 -0.00092491089262748097 0.00012645189329327729 0 -0.00094445542890934334 -5.8079731753028936e-05 0 -0.0010214270800312174 0.00013034472656981938 0 -0.00092491089262748097 0.00012645189329327729 0 -0.00080745551171913213 4.4823883541075278e-05 0 -0.00094445542890934334 -5.8079731753028936e-05 0 -0.00092491089262748097 0.00012645189329327729 0 -0.0010214270800312174 0.00013034472656981938 0 -0.0010144104504948555 0.000215336143815637 0 -0.00092491089262748097 0.00012645189329327729 0 -0.00083313082852506752 0.00013829109816758167 0 -0.00089852283687873083 0.00021223399555161449 0 -0.00092491089262748097 0.00012645189329327729 0 -0.00083313082852506752 0.00013829109816758167 0 -0.00080745551171913213 4.4823883541075278e-05 0 -0.00083313082852506752 0.00013829109816758167 0 -0.00070422041090577997 6.7259163472052058e-05 0 -0.00079800780999540136 0.00020775564331057883 0 -0.00053572973655487686 6.2391471733514101e-05 0 -0.00070422041090577997 6.7259163472052058e-05 0 -0.00079800780999540136 0.00020775564331057883 0 -0.00062500296221839659 4.1495011750542517e-05 0 -0.00079324666453253279 0.00022286161498941533 0 -0.00053572973655487686 6.2391471733514101e-05 0 -0.00070422041090577997 6.7259163472052058e-05 0 -0.00061727774494625578 -0.00010957507380703937 0 -0.00083313082852506752 0.00013829109816758167 0 -0.00070422041090577997 6.7259163472052058e-05 0 -0.00080745551171913213 4.4823883541075278e-05 0 -0.00080745551171913213 4.4823883541075278e-05 0 -0.00061727774494625578 -0.00010957507380703937 0 -0.00094445542890934334 -5.8079731753028936e-05 0 -0.00040089786466526999 -0.0002397167873918114 0 -0.00059554517123476406 -0.0001547735800478258 0 -0.00038364694785888087 -0.00024298392003511418 0 -0.00061727774494625578 -0.00010957507380703937 0 -0.00094445542890934334 -5.8079731753028936e-05 0 -0.00038364694785888087 -0.00024298392003511418 0 -0.00026465385701091406 -0.00024038808958215744 0 -0.00026017830214483721 -0.00026253522062290264 0 -0.00070422041090577997 6.7259163472052058e-05 0 -0.00080745551171913213 4.4823883541075278e-05 0 -0.00061727774494625578 -0.00010957507380703937 0 -0.00026465385701091406 -0.00024038808958215744 0 -0.00026017830214483721 -0.00026253522062290264 0 -0.00024606510656395884 -0.00023908764024204964 0 -0.00024514781071398805 -0.00023511989511858307 0 -0.00024606510656395884 -0.00023908764024204964 0 -0.00024846542442387095 -0.00021864694260825444 0 -0.00024606510656395884 -0.00023908764024204964 0 -0.00024846542442387095 -0.00021864694260825444 0 -0.00024273419012143114 -0.00020672329675814531 0 -0.00026017830214483721 -0.00026253522062290264 0 -0.00024606510656395884 -0.00023908764024204964 0 -0.00024273419012143114 -0.00020672329675814531 0 -0.00025120787219711426 -0.0002353971365081071 0 -0.00026584773719243095 -0.00020961038759206968 0 -0.00024846542442387095 -0.00021864694260825444 0 -0.00025777640684266869 -0.00019194564006620843 0 -0.00024846542442387095 -0.00021864694260825444 0 -0.00024273419012143114 -0.00020672329675814531 0 -0.0011652656083598651 0.00019921171842105664 0 -0.0011171725564283399 0.00012559485740517155 0 -0.0011248995633361665 0.00019903384087931937 0 -0.00072476037470723255 2.8231780649904306e-05 0 -0.00067784214340688349 -4.4568033803376382e-05 0 -0.0011171725564283399 0.00012559485740517155 0 -0.0010753019148619012 0.00018050692235486746 0 -0.0011248995633361665 0.00019903384087931937 0 -0.00059554517123476406 -0.0001547735800478258 0 -0.00067784214340688349 -4.4568033803376382e-05 0 -0.00094445542890934334 -5.8079731753028936e-05 0 -0.0011171725564283399 0.00012559485740517155 0 -0.0010214270800312174 0.00013034472656981938 0 -0.0011171725564283399 0.00012559485740517155 0 -0.0010214270800312174 0.00013034472656981938 0 -0.0010753019148619012 0.00018050692235486746 0 -0.0010214270800312174 0.00013034472656981938 0 -0.0010753019148619012 0.00018050692235486746 0 -0.0010144104504948555 0.000215336143815637 0 -0.0010753019148619012 0.00018050692235486746 0 -0.001082541218118839 0.00022743039311772691 0 -0.0010144104504948555 0.000215336143815637 0 -0.0010753019148619012 0.00018050692235486746 0 -0.001082541218118839 0.00022743039311772691 0 -0.0011248995633361665 0.00019903384087931937 0 -0.001082541218118839 0.00022743039311772691 0 -0.001049355464420879 0.00026787117277976986 0 -0.0010144104504948555 0.000215336143815637 0 -0.001082541218118839 0.00022743039311772691 0 -0.0011248995633361665 0.00019903384087931937 0 -0.0011221332476379058 0.0002354606286497865 0 -0.0011519475719628744 0.00021864141737781628 0 -0.0011248995633361665 0.00019903384087931937 0 -0.0011221332476379058 0.0002354606286497865 0 -0.001082541218118839 0.00022743039311772691 0 -0.0011221332476379058 0.0002354606286497865 0 -0.0010921223367688648 0.00025827859572127848 0 -0.0010921223367688648 0.00025827859572127848 0 -0.0010932379173722734 0.00028143191897579293 0 -0.0011137341896205314 0.00027112089531715886 0 -0.0011221332476379058 0.0002354606286497865 0 -0.0010921223367688648 0.00025827859572127848 0 -0.0011137341896205314 0.00027112089531715886 0 -0.0011407341196014887 0.0002471002617810808 0 -0.0011221332476379058 0.0002354606286497865 0 -0.0011137341896205314 0.00027112089531715886 0 -0.001082541218118839 0.00022743039311772691 0 -0.001049355464420879 0.00026787117277976986 0 -0.0010921223367688648 0.00025827859572127848 0 -0.0010921223367688648 0.00025827859572127848 0 -0.0010718486317716637 0.00029153060620574854 0 -0.0010932379173722734 0.00028143191897579293 0 -0.001049355464420879 0.00026787117277976986 0 -0.0010921223367688648 0.00025827859572127848 0 -0.0010718486317716637 0.00029153060620574854 0 -0.001049355464420879 0.00026787117277976986 0 -0.0010543782818016041 0.00028613397073230193 0 -0.0010718486317716637 0.00029153060620574854 0 -0.001049355464420879 0.00026787117277976986 0 -0.0010543782818016041 0.00028613397073230193 0 -0.0010311191675231974 0.00028391701236679727 0 -0.0010543782818016041 0.00028613397073230193 0 -0.0010311191675231974 0.00028391701236679727 0 -0.0010618955926891701 0.0002985025239263252 0 -0.0010311191675231974 0.00028391701236679727 0 -0.00099501006084333119 0.00026047353247227227 0 -0.0010179593822968462 0.0002818316732216545 0 -0.001049355464420879 0.00026787117277976986 0 -0.0010311191675231974 0.00028391701236679727 0 -0.00099501006084333119 0.00026047353247227227 0 -0.001049355464420879 0.00026787117277976986 0 -0.00099501006084333119 0.00026047353247227227 0 -0.0010144104504948555 0.000215336143815637 0 -0.00099501006084333119 0.00026047353247227227 0 -0.00089852283687873083 0.00021223399555161449 0 -0.0010144104504948555 0.000215336143815637 0 -0.00092491089262748097 0.00012645189329327729 0 -0.00089852283687873083 0.00021223399555161449 0 -0.0010144104504948555 0.000215336143815637 0 -0.00089852283687873083 0.00021223399555161449 0 -0.00078529385291628377 0.00025074301582311723 0 -0.00080720287026707382 0.000290629479964043 0 -0.00091278234961669682 0.00021180385910033394 0 -0.00090675675337511413 0.00027081601136482022 0 -0.00075821972174666729 0.00023564819095427562 0 -0.00079800780999540136 0.00020775564331057883 0 -0.00078529385291628377 0.00025074301582311723 0 -0.00099501006084333119 0.00026047353247227227 0 -0.00089852283687873083 0.00021223399555161449 0 -0.0010179593822968462 0.0002818316732216545 0 -0.00083313082852506752 0.00013829109816758167 0 -0.00089852283687873083 0.00021223399555161449 0 -0.00079800780999540136 0.00020775564331057883 0 -0.00089852283687873083 0.00021223399555161449 0 -0.00079800780999540136 0.00020775564331057883 0 -0.00078529385291628377 0.00025074301582311723 0 -0.00090675675337511413 0.00027081601136482022 0 -0.0010849637323690165 0.00039749260397079124 0 -0.0010311191675231974 0.00028391701236679727 0 -0.0010179593822968462 0.0002818316732216545 0 -0.0010542932630690108 0.00029919815079451612 0 -0.0010179593822968462 0.0002818316732216545 0 -0.0010542932630690108 0.00029919815079451612 0 -0.0010798811735763078 0.00031655555729252023 0 -0.0010179593822968462 0.0002818316732216545 0 -0.0010798811735763078 0.00031655555729252023 0 -0.0010726139366587773 0.00031725536031746343 0 -0.0010542932630690108 0.00029919815079451612 0 -0.0010801610455808306 0.00030968382253498521 0 -0.0010798811735763078 0.00031655555729252023 0 -0.0010801610455808306 0.00030968382253498521 0 -0.0010981442623747228 0.00031512284468663496 0 -0.0010798811735763078 0.00031655555729252023 0 -0.0010801610455808306 0.00030968382253498521 0 -0.0010981442623747228 0.00031512284468663496 0 -0.0010956051441581803 0.00030897941990203526 0 -0.0011013051044516053 0.00031807189459124116 0 -0.0011212294704336574 0.00031823862959580874 0 -0.0011136514539128387 0.00032601132316179612 0 -0.0010798811735763078 0.00031655555729252023 0 -0.0011013051044516053 0.00031807189459124116 0 -0.0011136514539128387 0.00032601132316179612 0 -0.0010866653141360641 0.00037022728065922594 0 -0.0010849637323690165 0.00039749260397079124 0 -0.0010981442623747228 0.00031512284468663496 0 -0.0011013051044516053 0.00031807189459124116 0 -0.0011212294704336574 0.00031823862959580874 0 -0.0010981442623747228 0.00031512284468663496 0 -0.0010798811735763078 0.00031655555729252023 0 -0.0011013051044516053 0.00031807189459124116 0 -0.0011212294704336574 0.00031823862959580874 0 -0.0011450105276813376 0.00031484486043853997 0 -0.0011550263092780435 0.00032073789868596346 0 -0.0011212294704336574 0.00031823862959580874 0 -0.0011147838139447779 0.00031173982957135411 0 -0.0011450105276813376 0.00031484486043853997 0 -0.0010981442623747228 0.00031512284468663496 0 -0.0011212294704336574 0.00031823862959580874 0 -0.0011147838139447779 0.00031173982957135411 0 -0.0011147838139447779 0.00031173982957135411 0 -0.0011106501157823673 0.00030374459582221605 0 -0.0010956051441581803 0.00030897941990203526 0 -0.0010981442623747228 0.00031512284468663496 0 -0.0011147838139447779 0.00031173982957135411 0 -0.0010956051441581803 0.00030897941990203526 0 -0.0011147838139447779 0.00031173982957135411 0 -0.0011287509507909234 0.00030645927827885398 0 -0.0011106501157823673 0.00030374459582221605 0 -0.0011287509507909234 0.00030645927827885398 0 -0.0011106501157823673 0.00030374459582221605 0 -0.0011279451280414592 0.00029775499989265431 0 -0.0011287509507909234 0.00030645927827885398 0 -0.0011450105276813376 0.00031484486043853997 0 -0.0011506834144008021 0.00030230708872616853 0 -0.0011147838139447779 0.00031173982957135411 0 -0.0011287509507909234 0.00030645927827885398 0 -0.0011450105276813376 0.00031484486043853997 0 -0.0011035661907220818 0.00029671793197474537 0 -0.0011106501157823673 0.00030374459582221605 0 -0.0010945306327150698 0.00030298501483176394 0 -0.0011035661907220818 0.00029671793197474537 0 -0.0010945306327150698 0.00030298501483176394 0 -0.0010960193930634511 0.00029738921424591214 0 -0.0011035661907220818 0.00029671793197474537 0 -0.0011106501157823673 0.00030374459582221605 0 -0.0011157883876153777 0.00029170126213184515 0 -0.0010956051441581803 0.00030897941990203526 0 -0.0010945306327150698 0.00030298501483176394 0 -0.0010809741788953581 0.00030439698598641802 0 -0.0011106501157823673 0.00030374459582221605 0 -0.0010956051441581803 0.00030897941990203526 0 -0.0010945306327150698 0.00030298501483176394 0 -0.0010945306327150698 0.00030298501483176394 0 -0.0010809741788953581 0.00030439698598641802 0 -0.0010876221442567534 0.00030035031856594338 0 -0.0010809741788953581 0.00030439698598641802 0 -0.0010718486317716637 0.00029153060620574854 0 -0.0010876221442567534 0.00030035031856594338 0 -0.0010801610455808306 0.00030968382253498521 0 -0.0010809741788953581 0.00030439698598641802 0 -0.0010618955926891701 0.0002985025239263252 0 -0.0010801610455808306 0.00030968382253498521 0 -0.0010956051441581803 0.00030897941990203526 0 -0.0010809741788953581 0.00030439698598641802 0 -0.0010311191675231974 0.00028391701236679727 0 -0.0010542932630690108 0.00029919815079451612 0 -0.0010618955926891701 0.0002985025239263252 0 -0.0010542932630690108 0.00029919815079451612 0 -0.0010801610455808306 0.00030968382253498521 0 -0.0010618955926891701 0.0002985025239263252 0 -0.0010543782818016041 0.00028613397073230193 0 -0.0010618955926891701 0.0002985025239263252 0 -0.0010718486317716637 0.00029153060620574854 0 -0.0010809741788953581 0.00030439698598641802 0 -0.0010618955926891701 0.0002985025239263252 0 -0.0010718486317716637 0.00029153060620574854 0 -0.0010718486317716637 0.00029153060620574854 0 -0.0010932379173722734 0.00028143191897579293 0 -0.0010894604700041714 0.00029585647846111686 0 -0.0010894604700041714 0.00029585647846111686 0 -0.0010999465994242614 0.00029212707966094976 0 -0.0010963704178509877 0.00029592803869373495 0 -0.0010932379173722734 0.00028143191897579293 0 -0.0010894604700041714 0.00029585647846111686 0 -0.0010999465994242614 0.00029212707966094976 0 -0.0010718486317716637 0.00029153060620574854 0 -0.0010894604700041714 0.00029585647846111686 0 -0.0010876221442567534 0.00030035031856594338 0 -0.0010932379173722734 0.00028143191897579293 0 -0.0011137341896205314 0.00027112089531715886 0 -0.0010999465994242614 0.00029212707966094976 0 -0.0011137341896205314 0.00027112089531715886 0 -0.0010999465994242614 0.00029212707966094976 0 -0.0011077259541694062 0.00029756931062397351 0 -0.0010999465994242614 0.00029212707966094976 0 -0.0011077259541694062 0.00029756931062397351 0 -0.0010996189174850817 0.00029456914277140121 0 -0.0011077259541694062 0.00029756931062397351 0 -0.0010996189174850817 0.00029456914277140121 0 -0.0010866577052966299 0.00029169137083096387 0 -0.0010999465994242614 0.00029212707966094976 0 -0.0010996189174850817 0.00029456914277140121 0 -0.0010963704178509877 0.00029592803869373495 0 -0.0010996189174850817 0.00029456914277140121 0 -0.0010963704178509877 0.00029592803869373495 0 -0.0010999731435330997 0.00028700608294088205 0 -0.0010996189174850817 0.00029456914277140121 0 -0.0010999731435330997 0.00028700608294088205 0 -0.0010944287484895793 0.00028186386877244096 0 -0.0010996189174850817 0.00029456914277140121 0 -0.0010944287484895793 0.00028186386877244096 0 -0.0010866577052966299 0.00029169137083096387 0 -0.0010894604700041714 0.00029585647846111686 0 -0.0010876221442567534 0.00030035031856594338 0 -0.0010960193930634511 0.00029738921424591214 0 -0.0010945306327150698 0.00030298501483176394 0 -0.0010876221442567534 0.00030035031856594338 0 -0.0010960193930634511 0.00029738921424591214 0 -0.0010894604700041714 0.00029585647846111686 0 -0.0010963704178509877 0.00029592803869373495 0 -0.0010960193930634511 0.00029738921424591214 0 -0.0010963704178509877 0.00029592803869373495 0 -0.0010960193930634511 0.00029738921424591214 0 -0.0010999731435330997 0.00028700608294088205 0 -0.0011035661907220818 0.00029671793197474537 0 -0.0010960193930634511 0.00029738921424591214 0 -0.0011049263948521217 0.00028796601623447808 0 -0.0010960193930634511 0.00029738921424591214 0 -0.0011049263948521217 0.00028796601623447808 0 -0.0010999731435330997 0.00028700608294088205 0 -0.0011049263948521217 0.00028796601623447808 0 -0.0010999731435330997 0.00028700608294088205 0 -0.0011076075424552819 0.00027193164799607325 0 -0.0010999731435330997 0.00028700608294088205 0 -0.0011076075424552819 0.00027193164799607325 0 -0.0011008805523591758 0.0002677389128225812 0 -0.0011076075424552819 0.00027193164799607325 0 -0.0011180478649740005 0.00025545966796899889 0 -0.0011179248733725658 0.00027577425346028564 0 -0.0011049263948521217 0.00028796601623447808 0 -0.0011076075424552819 0.00027193164799607325 0 -0.0011179248733725658 0.00027577425346028564 0 -0.0010999731435330997 0.00028700608294088205 0 -0.0010944287484895793 0.00028186386877244096 0 -0.0011008805523591758 0.0002677389128225812 0 -0.0010944287484895793 0.00028186386877244096 0 -0.0011008805523591758 0.0002677389128225812 0 -0.0010818902253818348 0.00026356217890628937 0 -0.0011026825327100827 0.00024437167368493673 0 -0.0010818902253818348 0.00026356217890628937 0 -0.0011098487686323597 0.00021329865750631817 0 -0.0011199136964496165 0.0001645921678644878 0 -0.0011078449980278851 0.00021660510241852752 0 -0.0011008805523591758 0.0002677389128225812 0 -0.0011026825327100827 0.00024437167368493673 0 -0.0010818902253818348 0.00026356217890628937 0 -0.0011008805523591758 0.0002677389128225812 0 -0.0011026825327100827 0.00024437167368493673 0 -0.0011086938668166421 0.00025123591109701125 0 -0.0011026825327100827 0.00024437167368493673 0 -0.001107510342565312 0.00023195053111405839 0 -0.0011098487686323597 0.00021329865750631817 0 -0.0011076075424552819 0.00027193164799607325 0 -0.0011086938668166421 0.00025123591109701125 0 -0.0011180478649740005 0.00025545966796899889 0 -0.0011076075424552819 0.00027193164799607325 0 -0.0011008805523591758 0.0002677389128225812 0 -0.0011086938668166421 0.00025123591109701125 0 -0.0011086938668166421 0.00025123591109701125 0 -0.001107510342565312 0.00023195053111405839 0 -0.0011153394876753503 0.00023488885357077915 0 -0.0011026825327100827 0.00024437167368493673 0 -0.0011086938668166421 0.00025123591109701125 0 -0.001107510342565312 0.00023195053111405839 0 -0.0011086938668166421 0.00025123591109701125 0 -0.0011153394876753503 0.00023488885357077915 0 -0.0011180478649740005 0.00025545966796899889 0 -0.0011180478649740005 0.00025545966796899889 0 -0.0011315034412047063 0.00026143024140755952 0 -0.0011332053487830972 0.00023400523869285448 0 -0.0011153394876753503 0.00023488885357077915 0 -0.0011180478649740005 0.00025545966796899889 0 -0.0011332053487830972 0.00023400523869285448 0 -0.0011180478649740005 0.00025545966796899889 0 -0.0011315034412047063 0.00026143024140755952 0 -0.0011179248733725658 0.00027577425346028564 0 -0.0011315034412047063 0.00026143024140755952 0 -0.0011533042828733239 0.00025764934648989584 0 -0.001136985483646617 0.00028148418189709415 0 -0.0011315034412047063 0.00026143024140755952 0 -0.0011332053487830972 0.00023400523869285448 0 -0.0011533042828733239 0.00025764934648989584 0 -0.0011332053487830972 0.00023400523869285448 0 -0.0011788132769672236 0.00022902955131460392 0 -0.0011533042828733239 0.00025764934648989584 0 -0.0011788132769672236 0.00022902955131460392 0 -0.0011752420079373278 0.00027471276404771836 0 -0.0012126411775497483 0.00025695251070632734 0 -0.0011788132769672236 0.00022902955131460392 0 -0.0011752420079373278 0.00027471276404771836 0 -0.0011533042828733239 0.00025764934648989584 0 -0.0011752420079373278 0.00027471276404771836 0 -0.0011533042828733239 0.00025764934648989584 0 -0.001136985483646617 0.00028148418189709415 0 -0.0011752420079373278 0.00027471276404771836 0 -0.001136985483646617 0.00028148418189709415 0 -0.0011506834144008021 0.00030230708872616853 0 -0.0011752420079373278 0.00027471276404771836 0 -0.0011506834144008021 0.00030230708872616853 0 -0.0011821970501118217 0.0003031322346459992 0 -0.0011450105276813376 0.00031484486043853997 0 -0.0011506834144008021 0.00030230708872616853 0 -0.0011688284496697817 0.00031073379276694974 0 -0.0011506834144008021 0.00030230708872616853 0 -0.0011688284496697817 0.00031073379276694974 0 -0.0011821970501118217 0.0003031322346459992 0 -0.0011287509507909234 0.00030645927827885398 0 -0.0011506834144008021 0.00030230708872616853 0 -0.0011279451280414592 0.00029775499989265431 0 -0.001136985483646617 0.00028148418189709415 0 -0.0011506834144008021 0.00030230708872616853 0 -0.0011279451280414592 0.00029775499989265431 0 -0.0011106501157823673 0.00030374459582221605 0 -0.0011279451280414592 0.00029775499989265431 0 -0.0011157883876153777 0.00029170126213184515 0 -0.001136985483646617 0.00028148418189709415 0 -0.0011279451280414592 0.00029775499989265431 0 -0.0011157883876153777 0.00029170126213184515 0 -0.0011049263948521217 0.00028796601623447808 0 -0.0011157883876153777 0.00029170126213184515 0 -0.0011179248733725658 0.00027577425346028564 0 -0.0011035661907220818 0.00029671793197474537 0 -0.0011049263948521217 0.00028796601623447808 0 -0.0011157883876153777 0.00029170126213184515 0 -0.0011315034412047063 0.00026143024140755952 0 -0.001136985483646617 0.00028148418189709415 0 -0.0011179248733725658 0.00027577425346028564 0 -0.001136985483646617 0.00028148418189709415 0 -0.0011157883876153777 0.00029170126213184515 0 -0.0011179248733725658 0.00027577425346028564 0 -0.0016778203341393943 -7.8998315634913393e-05 0 -0.0016755539594707004 -7.7455375974900433e-05 0 -0.0016765969637429657 -7.8980918411001756e-05 0 -0.001676246485726016 -7.7618366622796833e-05 0 -0.0016778203341393943 -7.8998315634913393e-05 0 -0.0016755539594707004 -7.7455375974900433e-05 0 -0.001676246485726016 -7.7618366622796833e-05 0 -0.0016741711284711574 -7.5550346388771528e-05 0 -0.0016755539594707004 -7.7455375974900433e-05 0 -0.0013250830389940004 1.7763065054407932e-05 0 -0.0014434208961738046 8.0186921686130677e-05 0 -0.001195564056461697 0.00022869834619504575 0 -0.001206744081928708 0.00022597266156643194 0 -0.0011951493455357161 0.00023701995737910231 0 -0.0011951493455357161 0.00023701995737910231 0 -0.0011787714103326634 0.00023876949630542525 0 -0.0011822316996432881 0.00023384849115889365 0 -0.0011869950642849183 0.00022776248095775765 0 -0.001195564056461697 0.00022869834619504575 0 -0.0011822316996432881 0.00023384849115889365 0 -0.001195564056461697 0.00022869834619504575 0 -0.0011951493455357161 0.00023701995737910231 0 -0.0011822316996432881 0.00023384849115889365 0 -0.0011951493455357161 0.00023701995737910231 0 -0.0011850186920787716 0.00024280595201724286 0 -0.0011787714103326634 0.00023876949630542525 0 -0.0016755539594707004 -7.7455375974900433e-05 0 -0.0016739537704730982 -7.8802614932790027e-05 0 -0.0016765969637429657 -7.8980918411001756e-05 0 -0.0014434208961738046 8.0186921686130677e-05 0 -0.0014396277340380324 7.9053027880087348e-05 0 -0.0011786633420952256 0.00024243425502352541 0 -0.0011787714103326634 0.00023876949630542525 0 -0.0011736389055967723 0.00024167693455798799 0 -0.0011850186920787716 0.00024280595201724286 0 -0.0011786633420952256 0.00024243425502352541 0 -0.0011787714103326634 0.00023876949630542525 0 -0.0011669201881374784 0.00023315071077143395 0 -0.0011743784243131107 0.00023471029879884638 0 -0.0011733806849402917 0.00023664052563455139 0 -0.0011787714103326634 0.00023876949630542525 0 -0.0011822316996432881 0.00023384849115889365 0 -0.0011743784243131107 0.00023471029879884638 0 -0.0011773145081919224 0.00022597436235231912 0 -0.0011822316996432881 0.00023384849115889365 0 -0.0011743784243131107 0.00023471029879884638 0 -0.0011787714103326634 0.00023876949630542525 0 -0.0011743784243131107 0.00023471029879884638 0 -0.0011733806849402917 0.00023664052563455139 0 -0.0011682266349986579 0.00023202814662272122 0 -0.0011583999579631956 0.00026978110253568754 0 -0.0011407341196014887 0.0002471002617810808 0 -0.0011137341896205314 0.00027112089531715886 0 -0.0011501841978701491 0.00028313651564405211 0 -0.0011137341896205314 0.00027112089531715886 0 -0.0011077259541694062 0.00029756931062397351 0 -0.0011501841978701491 0.00028313651564405211 0 -0.0011241936693202413 0.00030056106065188756 0 -0.0011492110565321559 0.00021715982260598433 0 -0.0011787714103326634 0.00023876949630542525 0 -0.0011733806849402917 0.00023664052563455139 0 -0.0011736389055967723 0.00024167693455798799 0 -0.0011583999579631956 0.00026978110253568754 0 -0.0011492110565321559 0.00021715982260598433 0 -0.0011077259541694062 0.00029756931062397351 0 -0.0011501841978701491 0.00028313651564405211 0 -0.0011338682672933404 0.0003290283665352069 0 -0.0011492110565321559 0.00021715982260598433 0 -0.0013113306000992089 5.2256098968668929e-05 0 -0.0011786633420952256 0.00024243425502352541 0 -0.0011736389055967723 0.00024167693455798799 0 -0.0011792821649766203 0.00024584253406069136 0 -0.0010944287484895793 0.00028186386877244096 0 -0.0010866577052966299 0.00029169137083096387 0 -0.0010818902253818348 0.00026356217890628937 0 -0.001183823241587751 -9.3994894532370288e-06 0 -0.0011965378685677563 5.7231227059594923e-05 0 -0.0011509614258807508 9.222426674395943e-05 0 -0.001183823241587751 -9.3994894532370288e-06 0 -0.0011965378685677563 5.7231227059594923e-05 0 -0.0012551649519415885 7.6001145995049823e-05 0 -0.0011492110565321559 0.00021715982260598433 0 -0.0011199136964496165 0.0001645921678644878 0 -0.0011965378685677563 5.7231227059594923e-05 0 -0.0011509614258807508 9.222426674395943e-05 0 -0.0011848600701836437 0.00015656273670782363 0 -0.0011965378685677563 5.7231227059594923e-05 0 -0.0011848600701836437 0.00015656273670782363 0 -0.0012551649519415885 7.6001145995049823e-05 0 -0.0011509614258807508 9.222426674395943e-05 0 -0.0011848600701836437 0.00015656273670782363 0 -0.0011098487686323597 0.00021329865750631817 0 -0.0011848600701836437 0.00015656273670782363 0 -0.0012752436202295566 8.1940544703990102e-05 0 -0.0012738622996691167 0.00016706324305087883 0 -0.0011848600701836437 0.00015656273670782363 0 -0.0012752436202295566 8.1940544703990102e-05 0 -0.0012798940584061575 4.2497267838727654e-05 0 -0.001180835105292164 0.00015525880628277215 0 -0.0013113306000992089 5.2256098968668929e-05 0 -0.0012738622996691167 0.00016706324305087883 0 -0.001336667306393001 0.00011094162269300177 0 -0.0014340626005166495 0.00022242473935319952 0 -0.0012752436202295566 8.1940544703990102e-05 0 -0.0012738622996691167 0.00016706324305087883 0 -0.001336667306393001 0.00011094162269300177 0 -0.0012752436202295566 8.1940544703990102e-05 0 -0.0013421049788093714 0.00011473030693143352 0 -0.0012798940584061575 4.2497267838727654e-05 0 -0.0015038623721129133 8.5988396730492168e-06 0 -0.0013113306000992089 5.2256098968668929e-05 0 -0.0013209230806144198 2.3558799675375774e-05 0 -0.0015038623721129133 8.5988396730492168e-06 0 -0.0016720542688168018 -7.5653315639236227e-05 0 -0.0016691256375986699 -7.7081712867867712e-05 0 -0.0016739812908017036 -7.7911679673432912e-05 0 -0.0016739537704730982 -7.8802614932790027e-05 0 -0.0016691256375986699 -7.7081712867867712e-05 0 -0.0016739812908017036 -7.7911679673432912e-05 0 -0.0011850186920787716 0.00024280595201724286 0 -0.0011786633420952256 0.00024243425502352541 0 -0.0011792821649766203 0.00024584253406069136 0 -0.0014396277340380324 7.9053027880087348e-05 0 -0.0013113306000992089 5.2256098968668929e-05 0 -0.0016739537704730982 -7.8802614932790027e-05 0 -0.0016765969637429657 -7.8980918411001756e-05 0 -0.0016739812908017036 -7.7911679673432912e-05 0 -0.0016765969637429657 -7.8980918411001756e-05 0 -0.0016739812908017036 -7.7911679673432912e-05 0 -0.001677023977590778 -7.8087357552195777e-05 0 -0.0016720542688168018 -7.5653315639236227e-05 0 -0.001677023977590778 -7.8087357552195777e-05 0 -0.0016813545222404034 -7.6234587887341051e-05 0 -0.0016720542688168018 -7.5653315639236227e-05 0 -0.0016739812908017036 -7.7911679673432912e-05 0 -0.001677023977590778 -7.8087357552195777e-05 0 -0.0015038623721129133 8.5988396730492168e-06 0 -0.0018711488589908476 -0.00015624033104489219 0 -0.0015038623721129133 8.5988396730492168e-06 0 -0.0019033683234446993 -0.00017485988865535926 0 -0.001677023977590778 -7.8087357552195777e-05 0 -0.001680741328491626 -7.8814396880273567e-05 0 -0.0016813545222404034 -7.6234587887341051e-05 0 -0.001677023977590778 -7.8087357552195777e-05 0 -0.001680741328491626 -7.8814396880273567e-05 0 -0.0016796573820390573 -7.9367295238859606e-05 0 -0.001680741328491626 -7.8814396880273567e-05 0 -0.0016840671775505162 -7.9662602122412284e-05 0 -0.0016823235165285592 -7.9844877653525705e-05 0 -0.001680741328491626 -7.8814396880273567e-05 0 -0.0016840671775505162 -7.9662602122412284e-05 0 -0.0016813545222404034 -7.6234587887341051e-05 0 -0.001680741328491626 -7.8814396880273567e-05 0 -0.0016823235165285592 -7.9844877653525705e-05 0 -0.0016796573820390573 -7.9367295238859606e-05 0 -0.0016816214256153137 -7.9949366706855924e-05 0 -0.0016823235165285592 -7.9844877653525705e-05 0 -0.0016796573820390573 -7.9367295238859606e-05 0 -0.0016816214256153137 -7.9949366706855924e-05 0 -0.0016802916038185897 -7.9661810956928463e-05 0 -0.0016796573820390573 -7.9367295238859606e-05 0 -0.0016765969637429657 -7.8980918411001756e-05 0 -0.001677023977590778 -7.8087357552195777e-05 0 -0.0016796573820390573 -7.9367295238859606e-05 0 -0.0016778203341393943 -7.8998315634913393e-05 0 -0.0016765969637429657 -7.8980918411001756e-05 0 -0.0016796573820390573 -7.9367295238859606e-05 0 -0.0016789084305528846 -7.9206096188659387e-05 0 -0.0016802916038185897 -7.9661810956928463e-05 0 -0.0016778203341393943 -7.8998315634913393e-05 0 -0.0016802916038185897 -7.9661810956928463e-05 0 -0.0016778203341393943 -7.8998315634913393e-05 0 -0.0016796573820390573 -7.9367295238859606e-05 0 -0.0022087079143383054 -0.00045695599516085898 0 -0.0022027101714690643 -0.00047500584089805266 0 -0.0021743138128777068 -0.0004839360793694481 0 -0.0022087079143383054 -0.00045695599516085898 0 -0.0022152495515776198 -0.00043495059856803203 0 -0.0022164497327316541 -0.0004501936472297283 0 -0.0022087079143383054 -0.00045695599516085898 0 -0.0022164497327316541 -0.0004501936472297283 0 -0.0022208786108112465 -0.00047027120957060634 0 -0.0022824339301308278 -0.00053831457303366481 0 -0.0019033683234446993 -0.00017485988865535926 0 -0.0022138779971543712 -0.00046672338056690871 0 -0.0022087079143383054 -0.00045695599516085898 0 -0.0022027101714690643 -0.00047500584089805266 0 -0.0022192531174927972 -0.00047967105907177951 0 -0.0022027101714690643 -0.00047500584089805266 0 -0.0021958875590244232 -0.0004888813795523489 0 -0.0019484827182898142 -0.00028736344966647501 0 -0.0018711488589908476 -0.00015624033104489219 0 -0.0022027101714690643 -0.00047500584089805266 0 -0.0021958875590244232 -0.0004888813795523489 0 -0.0021743138128777068 -0.0004839360793694481 0 -0.0016880171086121861 -8.2049562946363123e-05 0 -0.0016840671775505162 -7.9662602122412284e-05 0 -0.0016813545222404034 -7.6234587887341051e-05 0 -0.001635139499437771 -7.7550805959536836e-05 0 -0.0018711488589908476 -0.00015624033104489219 0 -0.0018711488589908476 -0.00015624033104489219 0 -0.0019033683234446993 -0.00017485988865535926 0 -0.0016542779216251245 -0.00015238519090313192 0 -0.0018424839937851217 -5.8475546419669852e-05 0 -0.0017470809996545339 -4.1733575121412728e-05 0 -0.0022152495515776198 -0.00043495059856803203 0 -0.0022244021270620708 -0.00044292220881729657 0 -0.0022164497327316541 -0.0004501936472297283 0 -0.0022164497327316541 -0.0004501936472297283 0 -0.0022281721454119954 -0.00045137991385353377 0 -0.0022208786108112465 -0.00047027120957060634 0 -0.0022244021270620708 -0.00044292220881729657 0 -0.0022164497327316541 -0.0004501936472297283 0 -0.0022281721454119954 -0.00045137991385353377 0 -0.0022352886055659279 -0.00046148938274549853 0 -0.0022281721454119954 -0.00045137991385353377 0 -0.0022481198782696014 -0.0004504126490576295 0 -0.0022281721454119954 -0.00045137991385353377 0 -0.0022401979706416831 -0.00043354154200618171 0 -0.0022481198782696014 -0.0004504126490576295 0 -0.0022244021270620708 -0.00044292220881729657 0 -0.0022281721454119954 -0.00045137991385353377 0 -0.0022401979706416831 -0.00043354154200618171 0 -0.0022352886055659279 -0.00046148938274549853 0 -0.0022481198782696014 -0.0004504126490576295 0 -0.002250602252857419 -0.00046183747288143533 0 -0.0022152495515776198 -0.00043495059856803203 0 -0.0022244021270620708 -0.00044292220881729657 0 -0.0022401979706416831 -0.00043354154200618171 0 -0.0012738622996691167 0.00016706324305087883 0 -0.0014340626005166495 0.00022242473935319952 0 -0.0012506127625827985 0.00025018417797628982 0 -0.0019033683234446993 -0.00017485988865535926 0 -0.0017286564503205793 -8.4650836416851332e-05 0 -0.0012506127625827985 0.00025018417797628982 0 -0.0011098487686323597 0.00021329865750631817 0 -0.0011065125255127282 0.0002411050955229827 0 -0.0017286564503205793 -8.4650836416851332e-05 0 -0.0017006489622391271 -0.00010010269453809018 0 -0.0011848600701836437 0.00015656273670782363 0 -0.0012506127625827985 0.00025018417797628982 0 -0.0011098487686323597 0.00021329865750631817 0 -0.0011848600701836437 0.00015656273670782363 0 -0.0012738622996691167 0.00016706324305087883 0 -0.0012506127625827985 0.00025018417797628982 0 -0.0022481198782696014 -0.0004504126490576295 0 -0.0022660280184520964 -0.00045542867892468174 0 -0.0022777264323154693 -0.00043525651085125948 0 -0.0022401979706416831 -0.00043354154200618171 0 -0.0022481198782696014 -0.0004504126490576295 0 -0.0022777264323154693 -0.00043525651085125948 0 -0.0022481198782696014 -0.0004504126490576295 0 -0.002250602252857419 -0.00046183747288143533 0 -0.0022660280184520964 -0.00045542867892468174 0 -0.0022604343920609683 -0.00047390628716188397 0 -0.0022501883371065529 -0.00048964708698303618 0 -0.0022751668709517997 -0.00048561194085558972 0 -0.0022660280184520964 -0.00045542867892468174 0 -0.0022604343920609683 -0.00047390628716188397 0 -0.0022789635700240338 -0.00046939895838553174 0 -0.002250602252857419 -0.00046183747288143533 0 -0.0022660280184520964 -0.00045542867892468174 0 -0.0022604343920609683 -0.00047390628716188397 0 -0.002250602252857419 -0.00046183747288143533 0 -0.0022604343920609683 -0.00047390628716188397 0 -0.0022424863164206576 -0.00047182704100652236 0 -0.0022604343920609683 -0.00047390628716188397 0 -0.0022501883371065529 -0.00048964708698303618 0 -0.0022424863164206576 -0.00047182704100652236 0 -0.0026973952573716435 -0.0006130005667778453 0 -0.0027817583541802399 -0.00069725210940624056 0 -0.0025331750997344069 -0.00062946464372787335 0 -0.0025148291769357626 -0.0005932579755346481 0 -0.0024154225573456392 -0.00056700018983913217 0 -0.0027496757164467652 -0.0005622252380947739 0 -0.0026973952573716435 -0.0006130005667778453 0 -0.0028051263824322077 -0.00063531818607491042 0 -0.0026973952573716435 -0.0006130005667778453 0 -0.0028051263824322077 -0.00063531818607491042 0 -0.0027817583541802399 -0.00069725210940624056 0 -0.0027496757164467652 -0.0005622252380947739 0 -0.0028383427925819933 -0.00053997937999569398 0 -0.0028051263824322077 -0.00063531818607491042 0 -0.0028051263824322077 -0.00063531818607491042 0 -0.0027817583541802399 -0.00069725210940624056 0 -0.0028980901622975746 -0.00062417814803727111 0 -0.0029353700102851018 -0.0005314973891309354 0 -0.0028051263824322077 -0.00063531818607491042 0 -0.0028980901622975746 -0.00062417814803727111 0 -0.0027817583541802399 -0.00069725210940624056 0 -0.0028980901622975746 -0.00062417814803727111 0 -0.0029555739725352016 -0.00073206007936481613 0 -0.0022352886055659279 -0.00046148938274549853 0 -0.0022281721454119954 -0.00045137991385353377 0 -0.0022208786108112465 -0.00047027120957060634 0 -0.0025148291769357626 -0.0005932579755346481 0 -0.0025877295526282912 -0.00059918049456645121 0 -0.0022352886055659279 -0.00046148938274549853 0 -0.0022424863164206576 -0.00047182704100652236 0 -0.0022208786108112465 -0.00047027120957060634 0 -0.0022501883371065529 -0.00048964708698303618 0 -0.0022424863164206576 -0.00047182704100652236 0 -0.0022208786108112465 -0.00047027120957060634 0 -0.0022352886055659279 -0.00046148938274549853 0 -0.002250602252857419 -0.00046183747288143533 0 -0.0022424863164206576 -0.00047182704100652236 0 -0.0029555739725352016 -0.00073206007936481613 0 -0.0029866795683575888 -0.00062681837692856216 0 -0.0030562771910666591 -0.00070376757725387697 0 -0.0028980901622975746 -0.00062417814803727111 0 -0.0029555739725352016 -0.00073206007936481613 0 -0.0029866795683575888 -0.00062681837692856216 0 -0.002951700177571332 -0.0005887728169884967 0 -0.0028980901622975746 -0.00062417814803727111 0 -0.0029866795683575888 -0.00062681837692856216 0 -0.0029863116827298143 -0.00057189155707648178 0 -0.0030386949642758451 -0.00058714717267130065 0 -0.0029866795683575888 -0.00062681837692856216 0 -0.002951700177571332 -0.0005887728169884967 0 -0.0029863116827298143 -0.00057189155707648178 0 -0.0029866795683575888 -0.00062681837692856216 0 -0.0029866795683575888 -0.00062681837692856216 0 -0.0030573770197986978 -0.00063426431546961457 0 -0.0030562771910666591 -0.00070376757725387697 0 -0.0030386949642758451 -0.00058714717267130065 0 -0.0030573770197986978 -0.00063426431546961457 0 -0.0031047467694018211 -0.00060006998812239028 0 -0.0030386949642758451 -0.00058714717267130065 0 -0.0029866795683575888 -0.00062681837692856216 0 -0.0030573770197986978 -0.00063426431546961457 0 -0.0031369509676931126 -0.00063320052760242735 0 -0.0031047467694018211 -0.00060006998812239028 0 -0.003100597406463674 -0.000652933764834377 0 -0.0030573770197986978 -0.00063426431546961457 0 -0.0031047467694018211 -0.00060006998812239028 0 -0.003100597406463674 -0.000652933764834377 0 -0.003152818829334025 -0.00068400956046410575 0 -0.003100597406463674 -0.000652933764834377 0 -0.0030562771910666591 -0.00070376757725387697 0 -0.0030573770197986978 -0.00063426431546961457 0 -0.003100597406463674 -0.000652933764834377 0 -0.0030562771910666591 -0.00070376757725387697 0 -0.0031243601042391178 -0.00077579592851447496 0 -0.0029555739725352016 -0.00073206007936481613 0 -0.0030562771910666591 -0.00070376757725387697 0 -0.003152818829334025 -0.00068400956046410575 0 -0.0031243601042391178 -0.00077579592851447496 0 -0.0030562771910666591 -0.00070376757725387697 0 -0.0022103430005192986 -0.00045579582994712361 0 -0.0022087079143383054 -0.00045695599516085898 0 -0.0022208786108112465 -0.00047027120957060634 0 -0.0026686154808260665 -0.00063508749117686101 0 -0.0025877295526282912 -0.00059918049456645121 0 -0.0017231621158809403 -0.00012672328154748433 0 -0.0017711157482414978 -0.00015382676409116973 0 -0.0023223907052858507 -0.00044669245561071772 0 -0.0023199916521096237 -0.00047845829230382786 0 -0.0023434682631707161 -0.00047687204869147721 0 -0.0023223907052858507 -0.00044669245561071772 0 -0.0023530388921257496 -0.00046329392904169984 0 -0.0023434682631707161 -0.00047687204869147721 0 -0.0011332053487830972 0.00023400523869285448 0 -0.0011788132769672236 0.00022902955131460392 0 -0.0011886801950412394 0.00015552528486099967 0 -0.0011788132769672236 0.00022902955131460392 0 -0.0011886801950412394 0.00015552528486099967 0 -0.0012306169760642356 0.00020302636378710754 0 -0.0011153394876753503 0.00023488885357077915 0 -0.0011332053487830972 0.00023400523869285448 0 -0.0011224511990541881 0.00019180664744619178 0 -0.0011332053487830972 0.00023400523869285448 0 -0.0011224511990541881 0.00019180664744619178 0 -0.0011886801950412394 0.00015552528486099967 0 -0.0011153394876753503 0.00023488885357077915 0 -0.0011224511990541881 0.00019180664744619178 0 -0.0011075845570103736 0.00022470028877052758 0 -0.0011224511990541881 0.00019180664744619178 0 -0.0011075845570103736 0.00022470028877052758 0 -0.0011065125255127282 0.0002411050955229827 0 -0.001107510342565312 0.00023195053111405839 0 -0.0011153394876753503 0.00023488885357077915 0 -0.0011075845570103736 0.00022470028877052758 0 -0.001107510342565312 0.00023195053111405839 0 -0.0011075845570103736 0.00022470028877052758 0 -0.0011098487686323597 0.00021329865750631817 0 -0.0011075845570103736 0.00022470028877052758 0 -0.0011098487686323597 0.00021329865750631817 0 -0.0011065125255127282 0.0002411050955229827 0 -0.0022660280184520964 -0.00045542867892468174 0 -0.0022777264323154693 -0.00043525651085125948 0 -0.0022805539152234411 -0.0004532932152773198 0 -0.0022777264323154693 -0.00043525651085125948 0 -0.0022805539152234411 -0.0004532932152773198 0 -0.0022979160292350919 -0.00045779859600627459 0 -0.0022805539152234411 -0.0004532932152773198 0 -0.0022979160292350919 -0.00045779859600627459 0 -0.0022789635700240338 -0.00046939895838553174 0 -0.0022660280184520964 -0.00045542867892468174 0 -0.0022805539152234411 -0.0004532932152773198 0 -0.0022789635700240338 -0.00046939895838553174 0 -0.0023223907052858507 -0.00044669245561071772 0 -0.0022777264323154693 -0.00043525651085125948 0 -0.0022979160292350919 -0.00045779859600627459 0 -0.0023223907052858507 -0.00044669245561071772 0 -0.0022979160292350919 -0.00045779859600627459 0 -0.0023199916521096237 -0.00047845829230382786 0 -0.0017231621158809403 -0.00012672328154748433 0 -0.0017006489622391271 -0.00010010269453809018 0 -0.0022979160292350919 -0.00045779859600627459 0 -0.0023199916521096237 -0.00047845829230382786 0 -0.0022970358917613069 -0.00048420467965712384 0 -0.0023199916521096237 -0.00047845829230382786 0 -0.0022970358917613069 -0.00048420467965712384 0 -0.0023231018242249653 -0.0004977705789945574 0 -0.0023199916521096237 -0.00047845829230382786 0 -0.0023231018242249653 -0.0004977705789945574 0 -0.002346341372845008 -0.00049727388563663543 0 -0.0022979160292350919 -0.00045779859600627459 0 -0.0022789635700240338 -0.00046939895838553174 0 -0.0022970358917613069 -0.00048420467965712384 0 -0.0022604343920609683 -0.00047390628716188397 0 -0.0022789635700240338 -0.00046939895838553174 0 -0.0022751668709517997 -0.00048561194085558972 0 -0.0022789635700240338 -0.00046939895838553174 0 -0.0022970358917613069 -0.00048420467965712384 0 -0.0022751668709517997 -0.00048561194085558972 0 -0.0026330407530468464 -0.00055819753933425789 0 -0.0026973952573716435 -0.0006130005667778453 0 -0.0025331750997344069 -0.00062946464372787335 0 -0.0022501883371065529 -0.00048964708698303618 0 -0.0022751668709517997 -0.00048561194085558972 0 -0.0022922176198019533 -0.00051096312699102427 0 -0.0022970358917613069 -0.00048420467965712384 0 -0.0022751668709517997 -0.00048561194085558972 0 -0.0022922176198019533 -0.00051096312699102427 0 -0.0023634074172276943 -0.00053186365149316111 0 -0.0024154225573456392 -0.00056700018983913217 0 -0.0023598715724157588 -0.00052463807370507092 0 -0.0022922176198019533 -0.00051096312699102427 0 -0.0023231018242249653 -0.0004977705789945574 0 -0.0022970358917613069 -0.00048420467965712384 0 -0.0022922176198019533 -0.00051096312699102427 0 -0.0023231018242249653 -0.0004977705789945574 0 -0.0023598715724157588 -0.00052463807370507092 0 -0.002346341372845008 -0.00049727388563663543 0 -0.002359106575486145 -0.00050918515599726101 0 -0.0023598715724157588 -0.00052463807370507092 0 -0.0023231018242249653 -0.0004977705789945574 0 -0.002346341372845008 -0.00049727388563663543 0 -0.002346341372845008 -0.00049727388563663543 0 -0.0023434682631707161 -0.00047687204869147721 0 -0.0023584185607526654 -0.00049246264583094942 0 -0.0023199916521096237 -0.00047845829230382786 0 -0.002346341372845008 -0.00049727388563663543 0 -0.0023434682631707161 -0.00047687204869147721 0 -0.0023530388921257496 -0.00046329392904169984 0 -0.0023434682631707161 -0.00047687204869147721 0 -0.0023584185607526654 -0.00049246264583094942 0 -0.0023620371164371715 -0.00050400642378754031 0 -0.0023584185607526654 -0.00049246264583094942 0 -0.002359106575486145 -0.00050918515599726101 0 -0.002346341372845008 -0.00049727388563663543 0 -0.0023584185607526654 -0.00049246264583094942 0 -0.002359106575486145 -0.00050918515599726101 0 -0.0023620371164371715 -0.00050400642378754031 0 -0.0023717387157027926 -0.00050082697677777835 0 -0.0023664429171274307 -0.0004863905728262212 0 -0.0023620371164371715 -0.00050400642378754031 0 -0.0023584185607526654 -0.00049246264583094942 0 -0.0023664429171274307 -0.0004863905728262212 0 -0.0023717387157027926 -0.00050082697677777835 0 -0.0023764182275289466 -0.00048943812049325006 0 -0.0023664429171274307 -0.0004863905728262212 0 -0.0023738452472286372 -0.00042731621796656191 0 -0.001823095198586127 -0.00015910044597728472 0 -0.0022394616279102931 -0.00026916461214234063 0 -0.0021717624818222633 -0.00014246751556464229 0 -0.0023307761736664281 -0.00017042021882144576 0 -0.0023764182275289466 -0.00048943812049325006 0 -0.0023664429171274307 -0.0004863905728262212 0 -0.0023679303094955905 -0.00047029964612532244 0 -0.0023530388921257496 -0.00046329392904169984 0 -0.0023584185607526654 -0.00049246264583094942 0 -0.0023664429171274307 -0.0004863905728262212 0 -0.0023530388921257496 -0.00046329392904169984 0 -0.0023664429171274307 -0.0004863905728262212 0 -0.0023679303094955905 -0.00047029964612532244 0 -0.001823095198586127 -0.00015910044597728472 0 -0.001095766447811311 0.00029003505066234645 0 -0.0011886801950412394 0.00015552528486099967 0 -0.0012729204674652474 0.00013315831046829284 0 -0.0012306169760642356 0.00020302636378710754 0 -0.0017711157482414978 -0.00015382676409116973 0 -0.001823095198586127 -0.00015910044597728472 0 -0.0013477505367165427 -0.00012780139557508498 0 -0.0015779411840634854 2.1742468644671375e-05 0 -0.00139400366074325 0.00014999796285170857 0 -0.0015779411840634854 2.1742468644671375e-05 0 -0.00139400366074325 0.00014999796285170857 0 -0.0014857770236954598 0.00021326614647097005 0 -0.00139400366074325 0.00014999796285170857 0 -0.0014857770236954598 0.00021326614647097005 0 -0.0014402033274220675 0.0002493075838928246 0 -0.0014857770236954598 0.00021326614647097005 0 -0.0014402033274220675 0.0002493075838928246 0 -0.0014829157212308424 0.00027007580656129339 0 -0.00139400366074325 0.00014999796285170857 0 -0.0014402033274220675 0.0002493075838928246 0 -0.0013328488554172184 0.00022482136217722551 0 -0.0013477505367165427 -0.00012780139557508498 0 -0.00139400366074325 0.00014999796285170857 0 -0.0012306169760642356 0.00020302636378710754 0 -0.00139400366074325 0.00014999796285170857 0 -0.0013328488554172184 0.00022482136217722551 0 -0.0012306169760642356 0.00020302636378710754 0 -0.0019857029819983639 0.00035734956799630567 0 -0.0018066292295807244 7.0574570054757256e-05 0 -0.0021871253081446407 4.3817416413930855e-05 0 -0.0019857029819983639 0.00035734956799630567 0 -0.0021871253081446407 4.3817416413930855e-05 0 -0.0023687516684757497 0.00020626403075166221 0 -0.0015147777192502248 0.00022209258950750766 0 -0.0017713946930097105 0.00030750809256987062 0 -0.0014857770236954598 0.00021326614647097005 0 -0.0019857029819983639 0.00035734956799630567 0 -0.0018066292295807244 7.0574570054757256e-05 0 -0.0014857770236954598 0.00021326614647097005 0 -0.0016019725761449376 0.0002453511125302214 0 -0.0015307819755815222 0.00028434279345496876 0 -0.0015779411840634854 2.1742468644671375e-05 0 -0.0014857770236954598 0.00021326614647097005 0 -0.0018066292295807244 7.0574570054757256e-05 0 -0.0015779411840634854 2.1742468644671375e-05 0 -0.0018066292295807244 7.0574570054757256e-05 0 -0.0018830050345360926 -0.00022125625460612578 0 -0.001823095198586127 -0.00015910044597728472 0 -0.0020934790471099484 -0.00018497341850888765 0 -0.0013477505367165427 -0.00012780139557508498 0 -0.0015779411840634854 2.1742468644671375e-05 0 -0.0018830050345360926 -0.00022125625460612578 0 -0.0021871253081446407 4.3817416413930855e-05 0 -0.0018830050345360926 -0.00022125625460612578 0 -0.0024536710758775548 -0.00018967340672398285 0 -0.0018066292295807244 7.0574570054757256e-05 0 -0.0021871253081446407 4.3817416413930855e-05 0 -0.0018830050345360926 -0.00022125625460612578 0 -0.0023307761736664281 -0.00017042021882144576 0 -0.0023931688110807757 -0.00029596920653701556 0 -0.0024536710758775548 -0.00018967340672398285 0 -0.0020934790471099484 -0.00018497341850888765 0 -0.0024356941061470798 -0.00019896895913066988 0 -0.0022394616279102931 -0.00026916461214234063 0 -0.0023307761736664281 -0.00017042021882144576 0 -0.0023931688110807757 -0.00029596920653701556 0 -0.0023365853638869327 -0.00044022034143627168 0 -0.0023738452472286372 -0.00042731621796656191 0 -0.0023075439326698732 -0.00040098006633078375 0 -0.0022394616279102931 -0.00026916461214234063 0 -0.0023931688110807757 -0.00029596920653701556 0 -0.0023931688110807757 -0.00029596920653701556 0 -0.0025375432868027102 -0.00029203969285892471 0 -0.0024536710758775548 -0.00018967340672398285 0 -0.002504123892193736 -0.00039357775084362414 0 -0.0023931688110807757 -0.00029596920653701556 0 -0.0025375432868027102 -0.00029203969285892471 0 -0.0024536710758775548 -0.00018967340672398285 0 -0.002674756167942903 -0.00021836196690017118 0 -0.0026397102239768223 -5.6597356733723196e-05 0 -0.0025375432868027102 -0.00029203969285892471 0 -0.0024536710758775548 -0.00018967340672398285 0 -0.002674756167942903 -0.00021836196690017118 0 -0.0029309336500394924 -0.00027003035365027973 0 -0.0028633887295169487 -0.00030722718027536476 0 -0.0028461407324682267 -0.00022088963703201158 0 -0.0027390384721271022 -0.00033144128959019972 0 -0.0028633887295169487 -0.00030722718027536476 0 -0.0028461407324682267 -0.00022088963703201158 0 -0.0027390384721271022 -0.00033144128959019972 0 -0.0025375432868027102 -0.00029203969285892471 0 -0.002674756167942903 -0.00021836196690017118 0 -0.0027390384721271022 -0.00033144128959019972 0 -0.0028461407324682267 -0.00022088963703201158 0 -0.002674756167942903 -0.00021836196690017118 0 -0.0028461407324682267 -0.00022088963703201158 0 -0.0027811655641541621 -9.7589640418406718e-05 0 -0.002674756167942903 -0.00021836196690017118 0 -0.0027811655641541621 -9.7589640418406718e-05 0 -0.002674756167942903 -0.00021836196690017118 0 -0.0026397102239768223 -5.6597356733723196e-05 0 -0.0029344267425594618 -0.00010481781279653197 0 -0.0028461407324682267 -0.00022088963703201158 0 -0.0027811655641541621 -9.7589640418406718e-05 0 -0.003027076761769477 -3.9920379346257928e-05 0 -0.0027782965577677109 -0.00010508819873142407 0 -0.0030140430366869179 -0.0001134826169978813 0 -0.0027811655641541621 -9.7589640418406718e-05 0 -0.0028074236580637106 6.4172978154862319e-05 0 -0.0030140430366869179 -0.0001134826169978813 0 -0.0028074236580637106 6.4172978154862319e-05 0 -0.0029600882183112793 0.00014909238385956789 0 -0.0027811655641541621 -9.7589640418406718e-05 0 -0.0028074236580637106 6.4172978154862319e-05 0 -0.0026397102239768223 -5.6597356733723196e-05 0 -0.0028074236580637106 6.4172978154862319e-05 0 -0.0026585811451204752 0.00015292186325447624 0 -0.0026397102239768223 -5.6597356733723196e-05 0 -0.0028074236580637106 6.4172978154862319e-05 0 -0.0026585811451204752 0.00015292186325447624 0 -0.0028126185626867733 0.00025712519862950794 0 -0.0026585811451204752 0.00015292186325447624 0 -0.0028126185626867733 0.00025712519862950794 0 -0.0026648913801971021 0.00037220151088170154 0 -0.0028074236580637106 6.4172978154862319e-05 0 -0.0028126185626867733 0.00025712519862950794 0 -0.0029600882183112793 0.00014909238385956789 0 -0.0021871253081446407 4.3817416413930855e-05 0 -0.0024536710758775548 -0.00018967340672398285 0 -0.0024865670622025203 5.8263510086847687e-05 0 -0.0024536710758775548 -0.00018967340672398285 0 -0.0026397102239768223 -5.6597356733723196e-05 0 -0.0024865670622025203 5.8263510086847687e-05 0 -0.0026585811451204752 0.00015292186325447624 0 -0.0026397102239768223 -5.6597356733723196e-05 0 -0.0024865670622025203 5.8263510086847687e-05 0 -0.0026585811451204752 0.00015292186325447624 0 -0.0025341708318562545 0.00022766434452210278 0 -0.0026648913801971021 0.00037220151088170154 0 -0.0024865670622025203 5.8263510086847687e-05 0 -0.0025341708318562545 0.00022766434452210278 0 -0.0023687516684757497 0.00020626403075166221 0 -0.0026585811451204752 0.00015292186325447624 0 -0.0024865670622025203 5.8263510086847687e-05 0 -0.0025341708318562545 0.00022766434452210278 0 -0.0019857029819983639 0.00035734956799630567 0 -0.0023687516684757497 0.00020626403075166221 0 -0.0024232276910327419 0.00043621794332505411 0 -0.0025341708318562545 0.00022766434452210278 0 -0.0023687516684757497 0.00020626403075166221 0 -0.002413724610521798 0.00033563658807664001 0 -0.0023485641145452934 0.00029290305192102131 0 -0.0021839771473977261 0.0002236769664088688 0 -0.0021871253081446407 4.3817416413930855e-05 0 -0.0024865670622025203 5.8263510086847687e-05 0 -0.0023687516684757497 0.00020626403075166221 0 -0.0017713946930097105 0.00030750809256987062 0 -0.0021839771473977261 0.0002236769664088688 0 -0.0017443743465234184 0.00027161423242477473 0 -0.0016961241237644445 0.00035820745670047213 0 -0.0016389146831881148 0.00031947757680457619 0 -0.0025341708318562545 0.00022766434452210278 0 -0.002413724610521798 0.00033563658807664001 0 -0.0026648913801971021 0.00037220151088170154 0 -0.0021839771473977261 0.0002236769664088688 0 -0.002459884822427272 0.00021751580571221607 0 -0.0021758925355623081 2.7916191794787509e-05 0 -0.0022373549927252375 0.00011164845160550675 0 -0.0022839739815674162 4.8097883295403905e-05 0 -0.0022373549927252375 0.00011164845160550675 0 -0.0022029117840617137 0.00014559771704341124 0 -0.002283321418981233 0.00017647633770930977 0 -0.0021758925355623081 2.7916191794787509e-05 0 -0.0022373549927252375 0.00011164845160550675 0 -0.0022035691289857945 0.00014645317925185292 0 -0.0022029169112049792 7.7441378981752413e-05 0 -0.0019606334750767091 0.00023784446809920525 0 -0.0017775876386746689 0.00041295296349105995 0 -0.0016762197405425063 0.00042368544397254984 0 -0.0016961241237644445 0.00035820745670047213 0 -0.0021839771473977261 0.0002236769664088688 0 -0.0019606334750767091 0.00023784446809920525 0 -0.0017443743465234184 0.00027161423242477473 0 -0.0017775876386746689 0.00041295296349105995 0 -0.0016961241237644445 0.00035820745670047213 0 -0.0031503981510646079 -4.1104305792731121e-05 0 -0.0031505640358602256 -3.7142162357751712e-05 0 -0.0031505894105771102 -4.2581137499200649e-05 0 -0.0030777440690973545 6.4879385308558619e-05 0 -0.0028475404215307677 7.9073143919460747e-05 0 -0.0028126185626867733 0.00025712519862950794 0 -0.0029600882183112793 0.00014909238385956789 0 -0.002903215904024951 0.00041442454603095687 0 -0.0031503981510646079 -4.1104305792731121e-05 0 -0.0031490525681402231 -4.4164466729183926e-05 0 -0.0031505894105771102 -4.2581137499200649e-05 0 -0.0030613113775803552 6.6161610092573065e-05 0 -0.0028475404215307677 7.9073143919460747e-05 0 -0.0028126185626867733 0.00025712519862950794 0 -0.002903215904024951 0.00041442454603095687 0 -0.0026648913801971021 0.00037220151088170154 0 -0.0028475404215307677 7.9073143919460747e-05 0 -0.002459884822427272 0.00021751580571221607 0 -0.0023956989288248984 6.9197391753927077e-05 0 -0.0022839739815674162 4.8097883295403905e-05 0 -0.0023137282514525876 0.00011625518325804913 0 -0.0023137282514525876 0.00011625518325804913 0 -0.0023711406627596331 0.00016460691338570366 0 -0.002283321418981233 0.00017647633770930977 0 -0.0022373549927252375 0.00011164845160550675 0 -0.0022839739815674162 4.8097883295403905e-05 0 -0.0023137282514525876 0.00011625518325804913 0 -0.0022373549927252375 0.00011164845160550675 0 -0.0023137282514525876 0.00011625518325804913 0 -0.002283321418981233 0.00017647633770930977 0 -0.0031490525681402231 -4.4164466729183926e-05 0 -0.0031475493890808382 -4.4283197957725295e-05 0 -0.0031423105686025645 -4.7981348493167605e-05 0 -0.0031481460286012079 -4.8272644342340803e-05 0 -0.0031490525681402231 -4.4164466729183926e-05 0 -0.0031423105686025645 -4.7981348493167605e-05 0 -0.0023956989288248984 6.9197391753927077e-05 0 -0.0023137282514525876 0.00011625518325804913 0 -0.0023711406627596331 0.00016460691338570366 0 -0.0028475404215307677 7.9073143919460747e-05 0 -0.0027760081991622188 4.1197806780292142e-05 0 -0.0027760081991622188 4.1197806780292142e-05 0 -0.0022389097335809198 6.6584641491132307e-05 0 -0.0031455847247632471 -5.3424112264941784e-05 0 -0.0031423105686025645 -4.7981348493167605e-05 0 -0.0031334657090457121 -4.4990714423795149e-05 0 -0.0023711406627596331 0.00016460691338570366 0 -0.002283321418981233 0.00017647633770930977 0 -0.0023468928669976609 0.00025931526638743873 0 -0.002283321418981233 0.00017647633770930977 0 -0.0023468928669976609 0.00025931526638743873 0 -0.0022289855959854664 0.00026183247218659319 0 -0.0016088266258412853 -9.9617350645819819e-06 0 -0.0016611773798607074 -5.3627844620801562e-05 0 -0.0015617375391641672 -5.0901073681029505e-05 0 -0.0022389097335809198 6.6584641491132307e-05 0 -0.0017542742622639273 0.00012766337054066586 0 -0.0025024490637939583 -1.9649462888196754e-05 0 -0.0022389097335809198 6.6584641491132307e-05 0 -0.001741997939999819 3.5334472518567538e-05 0 -0.0018523873938733146 -4.5710636710089222e-05 0 -0.0018804356616556157 2.4696908600572376e-05 0 -0.0017775876386746689 0.00041295296349105995 0 -0.0016762197405425063 0.00042368544397254984 0 -0.0017073298250205322 0.00048457935733548115 0 -0.001667622095839198 0.00037500044285295099 0 -0.0014982613573588956 0.00022929205220766267 0 -0.0019606334750767091 0.00023784446809920525 0 -0.001667622095839198 0.00037500044285295099 0 -0.001740812028311252 0.00015359890224060237 0 -0.0016787781284229783 0.00021637000131517002 0 -0.0017696065486509747 0.00027557605693789779 0 -0.0019606334750767091 0.00023784446809920525 0 -0.0017542742622639273 0.00012766337054066586 0 -0.0022029117840617137 0.00014559771704341124 0 -0.002283321418981233 0.00017647633770930977 0 -0.0022289855959854664 0.00026183247218659319 0 -0.0015774478610826048 3.7215542678543787e-05 0 -0.0016088266258412853 -9.9617350645819819e-06 0 -0.0015617375391641672 -5.0901073681029505e-05 0 -0.0015360121713213347 -4.9252666349254063e-05 0 -0.0017542742622639273 0.00012766337054066586 0 -0.0017542742622639273 0.00012766337054066586 0 -0.0014982613573588956 0.00022929205220766267 0 -0.0015059261544735163 8.4683282235000818e-06 0 -0.0015538863594434542 -5.9404909923303354e-05 0 -0.0014172650117219164 -5.6215722722682268e-05 0 -0.0016787781284229783 0.00021637000131517002 0 -0.0017696065486509747 0.00027557605693789779 0 -0.0016168910409683249 0.00027936802500451869 0 -0.0014982613573588956 0.00022929205220766267 0 -0.0012398349211421634 0.00041422306439858924 0 -0.0016367680393965217 0.00055614448742456529 0 -0.0016005209269677281 0.00047149407605434304 0 -0.00152195303244258 0.00055958426531432922 0 -0.0012497268465340629 0.00031733381194641125 0 -0.0013095010582447701 0.00025606017497205796 0 -0.0011864539850812786 0.00025981866512733232 0 -0.00098675897715492004 0.00013202395870735728 0 -0.0014982613573588956 0.00022929205220766267 0 -0.0016762197405425063 0.00042368544397254984 0 -0.0017073298250205322 0.00048457935733548115 0 -0.0016005209269677281 0.00047149407605434304 0 -0.0017073298250205322 0.00048457935733548115 0 -0.0016367680393965217 0.00055614448742456529 0 -0.0016005209269677281 0.00047149407605434304 0 -0.0016762197405425063 0.00042368544397254984 0 -0.0016005209269677281 0.00047149407605434304 0 -0.0016090578246509403 0.00040646870253917332 0 -0.0016005209269677281 0.00047149407605434304 0 -0.0015128044300030355 0.00046142739257099642 0 -0.00152195303244258 0.00055958426531432922 0 -0.0015128044300030355 0.00046142739257099642 0 -0.00152195303244258 0.00055958426531432922 0 -0.0014696621463165564 0.00045154807685247764 0 -0.0015128044300030355 0.00046142739257099642 0 -0.0014696621463165564 0.00045154807685247764 0 -0.0014840395761854587 0.00041131318592628778 0 -0.0016005209269677281 0.00047149407605434304 0 -0.0015128044300030355 0.00046142739257099642 0 -0.001544542544352866 0.00040942176995272992 0 -0.00071730164370406428 0.00029629254970887372 0 -0.00067928755337920313 0.00030144407920495471 0 -0.00070006062547880413 0.00032114067114898202 0 -0.00098675897715492004 0.00013202395870735728 0 -0.0012398349211421634 0.00041422306439858924 0 -0.0014426799419160242 0.00049657761124973897 0 -0.0013934796750677727 0.00049833914326987772 0 -0.0013957462687595023 0.000472174347041676 0 -0.00071730164370406428 0.00029629254970887372 0 -0.00070006062547880413 0.00032114067114898202 0 -0.00073905153408291278 0.00032338699596889861 0 -0.0012398349211421634 0.00041422306439858924 0 -0.0010311067633360701 0.00041232187554790436 0 -0.0013934796750677727 0.00049833914326987772 0 -0.0013636686046111877 0.0004724302963165939 0 -0.0013957462687595023 0.000472174347041676 0 -0.0010311067633360701 0.00041232187554790436 0 -0.0010849637323690165 0.00039749260397079124 0 -0.0013934796750677727 0.00049833914326987772 0 -0.0013302435164694031 0.00050516243848093166 0 -0.0013636686046111877 0.0004724302963165939 0 -0.00075596664674327575 0.00028472293906786801 0 -0.00073905153408291278 0.00032338699596889861 0 -0.00078406143783689972 0.00032712862852003473 0 -0.0011136514539128387 0.00032601132316179612 0 -0.0011550263092780435 0.00032073789868596346 0 -0.0012192742839265568 0.00032655418392389045 0 -0.0010849637323690165 0.00039749260397079124 0 -0.0013271255345565086 0.00035941410954037304 0 -0.0013302435164694031 0.00050516243848093166 0 -0.0013636686046111877 0.0004724302963165939 0 -0.0013754870126551045 0.00040939254731325951 0 -0.0013636686046111877 0.0004724302963165939 0 -0.0013824608674454873 0.00045152201203046266 0 -0.0013754870126551045 0.00040939254731325951 0 -0.0011212294704336574 0.00031823862959580874 0 -0.0011136514539128387 0.00032601132316179612 0 -0.0011550263092780435 0.00032073789868596346 0 -0.0013636686046111877 0.0004724302963165939 0 -0.0013824608674454873 0.00045152201203046266 0 -0.0013957462687595023 0.000472174347041676 0 -0.0013824608674454873 0.00045152201203046266 0 -0.0013915082796122421 0.00043731811775141866 0 -0.0013754870126551045 0.00040939254731325951 0 -0.0011761667004092553 0.00031852036540921198 0 -0.0011550263092780435 0.00032073789868596346 0 -0.0012192742839265568 0.00032655418392389045 0 -0.0011450105276813376 0.00031484486043853997 0 -0.0011761667004092553 0.00031852036540921198 0 -0.0011688284496697817 0.00031073379276694974 0 -0.0011450105276813376 0.00031484486043853997 0 -0.0011761667004092553 0.00031852036540921198 0 -0.0011550263092780435 0.00032073789868596346 0 -0.0012398349211421634 0.00041422306439858924 0 -0.001491906258362697 0.00050049156486514526 0 -0.0014426799419160242 0.00049657761124973897 0 -0.0013957462687595023 0.000472174347041676 0 -0.0013915082796122421 0.00043731811775141866 0 -0.00152195303244258 0.00055958426531432922 0 -0.0013915082796122421 0.00043731811775141866 0 -0.0014696621463165564 0.00045154807685247764 0 -0.0013824608674454873 0.00045152201203046266 0 -0.0013957462687595023 0.000472174347041676 0 -0.0013915082796122421 0.00043731811775141866 0 -0.0014696621463165564 0.00045154807685247764 0 -0.0014421028719950487 0.00039530756519048433 0 -0.0014840395761854587 0.00041131318592628778 0 -0.0014421028719950487 0.00039530756519048433 0 -0.0014840395761854587 0.00041131318592628778 0 -0.0014989596858950001 0.00036103762440304319 0 -0.0013915082796122421 0.00043731811775141866 0 -0.0014696621463165564 0.00045154807685247764 0 -0.0014421028719950487 0.00039530756519048433 0 -0.0013915082796122421 0.00043731811775141866 0 -0.0014421028719950487 0.00039530756519048433 0 -0.0013754870126551045 0.00040939254731325951 0 -0.0014421028719950487 0.00039530756519048433 0 -0.0013754870126551045 0.00040939254731325951 0 -0.0014618657722911699 0.00032957686073117155 0 -0.0014421028719950487 0.00039530756519048433 0 -0.0014618657722911699 0.00032957686073117155 0 -0.0014989596858950001 0.00036103762440304319 0 -0.0012192742839265568 0.00032655418392389045 0 -0.0012147797395167207 0.00029820160262845809 0 -0.0012794700848700864 0.0002759589109641808 0 -0.0011688284496697817 0.00031073379276694974 0 -0.0011914901098052718 0.00031305268761502592 0 -0.0011821970501118217 0.0003031322346459992 0 -0.0011761667004092553 0.00031852036540921198 0 -0.0011688284496697817 0.00031073379276694974 0 -0.0011914901098052718 0.00031305268761502592 0 -0.0011761667004092553 0.00031852036540921198 0 -0.0011914901098052718 0.00031305268761502592 0 -0.0012192742839265568 0.00032655418392389045 0 -0.0011914901098052718 0.00031305268761502592 0 -0.0012192742839265568 0.00032655418392389045 0 -0.0012147797395167207 0.00029820160262845809 0 -0.0011752420079373278 0.00027471276404771836 0 -0.0012147797395167207 0.00029820160262845809 0 -0.0011821970501118217 0.0003031322346459992 0 -0.0011914901098052718 0.00031305268761502592 0 -0.0012147797395167207 0.00029820160262845809 0 -0.0011821970501118217 0.0003031322346459992 0 -0.0011752420079373278 0.00027471276404771836 0 -0.0012147797395167207 0.00029820160262845809 0 -0.0012126411775497483 0.00025695251070632734 0 -0.0012147797395167207 0.00029820160262845809 0 -0.0012794700848700864 0.0002759589109641808 0 -0.0012126411775497483 0.00025695251070632734 0 -0.0013328488554172184 0.00022482136217722551 0 -0.0012306169760642356 0.00020302636378710754 0 -0.0012794700848700864 0.0002759589109641808 0 -0.0012306169760642356 0.00020302636378710754 0 -0.0012794700848700864 0.0002759589109641808 0 -0.0012126411775497483 0.00025695251070632734 0 -0.0011788132769672236 0.00022902955131460392 0 -0.0012306169760642356 0.00020302636378710754 0 -0.0012126411775497483 0.00025695251070632734 0 -0.0014402033274220675 0.0002493075838928246 0 -0.0013754870126551045 0.00040939254731325951 0 -0.0014618657722911699 0.00032957686073117155 0 -0.0014215529312214322 0.00024622950582347321 0 -0.0013271255345565086 0.00035941410954037304 0 -0.0014402033274220675 0.0002493075838928246 0 -0.0012192742839265568 0.00032655418392389045 0 -0.0012794700848700864 0.0002759589109641808 0 -0.0014402033274220675 0.0002493075838928246 0 -0.0013328488554172184 0.00022482136217722551 0 -0.0012794700848700864 0.0002759589109641808 0 -0.0014402033274220675 0.0002493075838928246 0 -0.0014618657722911699 0.00032957686073117155 0 -0.0014829157212308424 0.00027007580656129339 0 -0.0014618657722911699 0.00032957686073117155 0 -0.0014829157212308424 0.00027007580656129339 0 -0.0015307819755815222 0.00028434279345496876 0 -0.0014857770236954598 0.00021326614647097005 0 -0.0014829157212308424 0.00027007580656129339 0 -0.0015307819755815222 0.00028434279345496876 0 -0.0016019725761449376 0.0002453511125302214 0 -0.0015307819755815222 0.00028434279345496876 0 -0.0015661517026929917 0.0003469989629676042 0 -0.0014618657722911699 0.00032957686073117155 0 -0.0015307819755815222 0.00028434279345496876 0 -0.0014989596858950001 0.00036103762440304319 0 -0.0015307819755815222 0.00028434279345496876 0 -0.0014989596858950001 0.00036103762440304319 0 -0.0015661517026929917 0.0003469989629676042 0 -0.0016019725761449376 0.0002453511125302214 0 -0.0017443743465234184 0.00027161423242477473 0 -0.0016389146831881148 0.00031947757680457619 0 -0.0016019725761449376 0.0002453511125302214 0 -0.0016389146831881148 0.00031947757680457619 0 -0.0015661517026929917 0.0003469989629676042 0 -0.0016389146831881148 0.00031947757680457619 0 -0.0016090578246509403 0.00040646870253917332 0 -0.0015661517026929917 0.0003469989629676042 0 -0.0016961241237644445 0.00035820745670047213 0 -0.0016389146831881148 0.00031947757680457619 0 -0.0016090578246509403 0.00040646870253917332 0 -0.0016762197405425063 0.00042368544397254984 0 -0.0016961241237644445 0.00035820745670047213 0 -0.0016090578246509403 0.00040646870253917332 0 -0.0016005209269677281 0.00047149407605434304 0 -0.0016090578246509403 0.00040646870253917332 0 -0.001544542544352866 0.00040942176995272992 0 -0.0016090578246509403 0.00040646870253917332 0 -0.001544542544352866 0.00040942176995272992 0 -0.0015661517026929917 0.0003469989629676042 0 -0.001544542544352866 0.00040942176995272992 0 -0.0014840395761854587 0.00041131318592628778 0 -0.0014989596858950001 0.00036103762440304319 0 -0.0015128044300030355 0.00046142739257099642 0 -0.001544542544352866 0.00040942176995272992 0 -0.0014840395761854587 0.00041131318592628778 0 -0.001544542544352866 0.00040942176995272992 0 -0.0014989596858950001 0.00036103762440304319 0 -0.0015661517026929917 0.0003469989629676042 0 
</DataArray>
</PointData>
<CellData Scalars="region_id,cross_section_updated," Vectors="" Tensors="stress,">
<DataArray type="Float64" Name="region_id" format="ascii">
5 5 5 5 5 5 6 5 5 5 6 5 5 5 6 5 5 5 5 5 5 6 6 5 5 5 5 6 6 5 6 6 5 6 5 5 5 6 5 5 6 5 5 5 5 5 5 5 6 5 5 5 5 5 5 5 5 6 5 5 6 5 6 5 6 5 6 5 5 5 5 5 5 5 5 5 5 5 5 5 5 5 5 6 5 5 5 5 5 5 5 5 6 5 5 6 6 5 5 5 5 5 5 5 5 5 5 5 5 6 5 5 5 5 5 6 5 5 6 5 5 5 5 5 5 5 5 5 5 5 5 5 5 5 5 5 5 5 6 5 5 5 5 5 6 5 5 5 5 5 5 5 5 5 5 5 5 5 5 5 5 5 5 5 5 5 5 5 5 6 5 6 5 5 5 6 5 5 5 6 5 5 5 6 6 5 5 6 5 5 5 5 6 5 5 5 5 5 6 5 5 5 5 6 5 6 5 5 6 5 5 5 6 5 5 6 5 5 5 5 5 5 5 5 5 5 6 5 5 6 5 5 5 5 5 5 5 6 5 5 5 5 5 5 5 5 5 5 5 5 5 5 5 5 5 5 5 5 5 6 5 6 5 5 5 5 5 6 5 5 5 5 5 5 5 5 6 5 5 5 6 5 5 6 5 5 5 5 6 5 5 6 5 5 5 5 5 6 5 6 5 5 5 5 5 5 5 5 5 5 5 5 5 5 5 5 5 5 6 5 5 5 5 5 6 6 5 5 5 5 5 5 5 5 5 5 6 5 5 5 5 5 5 5 5 5 6 5 5 6 6 5 5 5 6 5 5 6 5 5 5 5 5 5 5 5 5 5 5 5 5 5 5 6 5 5 5 5 5 5 5 5 6 5 5 6 5 5 5 5 6 5 5 5 5 5 5 5 5 5 5 5 5 5 5 6 6 5 5 6 6 5 6 5 6 5 6 5 5 6 5 5 5 5 5 5 5 5 5 6 6 5 5 6 5 5 5 5 5 6 5 5 6 5 5 5 5 6 5 5 5 6 5 5 5 6 5 6 5 5 6 5 5 5 5 5 5 5 5 5 5 5 6 5 5 5 5 5 5 6 5 5 5 6 5 5 5 5 5 5 5 6 5 5 5 5 5 6 5 6 5 5 5 5 5 6 6 5 5 5 6 6 5 6 5 5 5 5 5 5 5 6 5 5 5 5 5 5 5 5 5 5 5 5 5 5 6 5 5 6 5 6 5 5 5 5 5 5 5 5 5 5 5 5 5 5 6 5 5 5 5 5 5 5 5 5 5 5 5 5 5 5 5 6 5 5 5 5 5 5 5 5 5 5 5 6 6 5 5 5 5 5 5 5 5 5 5 5 5 5 5 5 5 6 5 5 5 5 5 5 5 6 5 5 5 5 5 5 5 5 6 5 5 5 6 5 5 5 5 5 5 5 5 5 5 5 5 5 5 5 5 5 5 5 5 5 5 5 5 5 5 5 5 6 5 6 5 5 5 5 5 5 5 5 5 5 5 5 5 6 5 5 5 6 5 5 5 5 5 5 5 5 5 5 5 5 5 6 6 5 5 5 5 5 5 5 6 5 5 5 5 5 5 5 5 5 5 5 6 5 5 5 5 5 5 5 6 5 5 5 5 5 5 5 5 5 5 5 5 5 5 5 5 5 6 5 5 5 5 5 5 5 5 5 5 6 5 5 5 5 5 6 5 5 5 6 5 5 5 5 6 5 5 5 5 5 5 5 6 5 6 5 5 6 5 6 5 5 5 5 5 5 5 5 5 5 5 5 5 5 5 5 5 5 5 5 5 5 5 5 5 5 5 5 5 5 5 5 5 5 5 6 5 6 6 5 5 5 5 5 5 5 5 5 5 5 6 5 5 5 5 5 5 5 6 5 6 5 6 5 5 5 5 5 5 6 5 6 6 5 5 5 5 5 5 5 5 5 5 5 5 5 5 5 5 5 6 5 5 5 5 5 5 5 5 5 5 5 5 5 5 6 5 5 5 5 5 5 5 5 5 5 5 5 5 6 5 5 5 5 5 5 5 5 5 6 5 5 5 5 5 6 6 5 5 5 5 6 6 5 5 5 5 5 5 5 5 5 5 5 6 5 5 5 5 6 5 5 5 5 5 5 6 5 5 6 5 6 5 5 5 6 5 5 5 5 5 5 5 6 5 5 5 5 6 6 5 5 6 5 5 5 6 6 6 6 5 5 6 5 5 5 5 5 5 5 5 6 6 5 5 5 5 5 5 6 5 6 5 5 5 6 5 5 5 5 5 5 5 5 5 5 5 5 5 5 5 5 5 5 5 5 5 5 5 5 5 5 5 5 6 5 5 5 5 5 5 5 5 5 5 5 5 5 5 5 5 5 5 5 5 5 6 5 5 5 5 5 5 5 5 5 6 5 5 5 5 5 5 6 5 5 5 5 5 6 5 5 5 5 5 6 5 5 5 5 5 5 5 5 5 5 6 5 5 5 5 6 6 5 5 6 5 5 5 5 6 5 5 6 5 5 5 5 5 6 6 5 5 5 5 5 5 6 5 5 5 5 5 5 5 6 6 5 5 5 6 5 5 5 6 5 5 6 5 6 5 5 5 6 5 5 6 6 5 5 5 5 5 5 6 5 6 5 6 5 5 5 6 6 5 6 5 5 5 5 5 5 5 5 5 5 5 5 5 5 5 5 6 5 5 5 5 5 5 5 6 5 5 5 5 5 6 5 5 5 6 5 5 5 5 6 5 6 5 6 5 5 5 5 6 5 5 6 5 5 5 5 5 5 5 5 5 5 5 6 5 5 5 5 6 5 5 5 5 6 5 5 5 5 5 5 6 5 5 5 6 5 6 6 5 5 5 5 5 5 5 5 5 5 5 5 5 5 5 5 5 5 5 5 5 5 5 5 5 5 5 5 6 5 5 6 6 5 6 5 5 5 5 6 5 5 6 5 5 5 5 5 5 5 5 5 5 5 5 5 5 5 5 5 5 5 5 5 5 5 5 5 5 5 5 6 5 5 5 5 5 5 5 5 6 5 5 5 5 5 5 5 6 5 6 5 5 5 6 5 5 5 5 5 5 5 6 5 6 5 5 5 5 5 6 5 5 5 5 5 5 5 5 5 5 5 5 5 5 5 5 5 5 5 5 5 5 5 5 5 5 5 5 5 5 5 5 5 5 5 5 5 5 5 6 6 5 5 6 5 5 5 6 5 5 5 6 6 5 5 6 5 5 5 5 5 5 5 5 5 5 5 5 5 5 5 5 5 5 5 5 5 6 5 6 5 5 5 5 5 5 5 5 5 5 5 5 5 5 5 5 5 5 5 5 5 5 5 5 5 5 5 5 5 5 5 5 5 5 5 5 5 5 5 5 5 5 5 5 5 6 5 6 5 6 5 5 6 5 5 5 5 5 5 5 5 5 5 5 5 5 5 5 5 5 5 5 5 5 5 5 5 5 5 5 6 5 5 5 5 5 5 5 5 5 5 5 5 5 5 5 5 5 5 5 5 5 5 5 5 5 5 5 5 5 5 5 5 5 5 5 5 5 5 5 5 5 5 5 5 5 5 5 5 5 6 5 5 5 5 6 5 5 5 5 5 5 5 5 6 5 5 5 5 5 6 6 6 5 5 5 5 6 6 5 5 6 5 5 5 5 5 5 5 5 5 5 5 5 5 5 6 6 5 6 5 5 5 5 5 5 5 5 5 5 5 5 5 5 5 5 5 5 6 5 5 5 5 5 5 6 5 5 5 5 5 5 5 5 5 5 5 5 5 5 5 5 5 5 6 5 5 5 5 5 5 5 5 5 6 5 5 6 5 5 5 5 5 5 5 5 5 5 5 5 5 5 5 5 6 5 6 5 5 5 5 6 5 6 5 5 6 6 5 5 6 5 5 5 6 5 5 5 5 5 5 6 5 5 5 6 5 5 5 5 6 5 5 5 5 5 5 5 6 5 5 5 5 5 6 5 5 6 5 5 5 5 5 5 5 6 5 5 5 6 6 5 5 5 6 5 5 5 5 5 6 6 6 5 5 5 5 5 5 5 5 5 6 6 5 6 5 5 5 5 5 6 5 5 6 5 6 5 5 5 6 5 5 6 5 5 5 5 5 5 5 6 5 5 6 6 5 5 6 5 6 5 5 6 5 5 6 5 6 5 5 5 6 5 5 6 5 6 5 5 6 5 6 5 5 5 5 6 6 5 5 5 5 5 5 5 5 5 6 5 5 5 5 5 5 5 5 5 5 5 5 5 5 5 5 5 5 6 6 5 5 5 6 5 5 5 5 6 5 5 6 5 5 5 6 5 5 6 5 5 5 5 6 5 5 5 5 5 6 5 5 5 6 6 5 5 6 5 5 5 5 5 6 6 5 5 5 5 6 5 5 5 5 6 5 5 5 5 5 5 5 5 5 5 5 5 5 5 5 5 5 5 5 5 5 5 5 5 5 5 5 5 6 5 5 5 5 5 5 5 5 5 5 5 6 5 5 5 5 6 5 5 5 6 5 5 6 5 5 5 5 5 6 5 5 5 5 5 5 5 5 5 5 5 5 5 5 5 5 5 5 5 5 6 5 5 5 5 5 6 5 5 5 5 5 5 5 6 5 5 5 5 5 5 5 5 5 5 5 5 5 6 5 5 5 5 5 6 6 5 5 5 5 6 5 6 5 5 5 6 6 5 5 6 5 5 5 6 5 5 5 5 6 5 5 6 6 5 5 5 5 5 5 6 5 5 6 5 5 5 5 6 5 5 5 5 5 5 5 5 5 5 5 5 5 5 5 5 5 5 5 6 5 6 5 5 5 6 5 6 5 6 5 5 6 5 5 6 6 6 5 5 5 6 5 5 5 5 5 5 6 5 5 5 5 5 5 5 6 5 6 5 5 5 5 5 5 5 6 5 5 5 5 5 5 5 5 5 5 5 6 5 5 6 5 5 5 5 5 5 5 5 5 5 5 5 5 5 5 5 6 5 5 5 5 5 5 5 5 5 5 5 5 5 5 5 5 5 5 5 5 5 6 5 5 5 6 5 5 5 5 5 5 5 5 5 5 6 5 5 5 5 5 5 5 5 5 5 6 5 5 5 5 5 5 6 5 5 5 6 5 5 5 5 5 5 5 5 5 5 5 5 5 5 5 5 5 5 5 5 5 6 5 5 5 5 5 6 5 5 6 5 5 5 5 5 5 6 5 5 5 5 6 5 5 5 5 5 5 5 5 5 5 5 5 5 5 5 5 5 5 6 5 5 5 5 5 6 5 5 5 6 5 6 5 5 5 5 5 5 5 6 5 5 5 6 6 5 5 5 5 5 6 5 5 5 6 5 5 5 5 5 5 5 5 5 5 5 5 5 5 5 6 5 5 5 5 5 5 6 5 5 5 5 5 5 5 5 5 5 5 6 5 5 5 5 5 5 5 5 5 6 5 5 5 5 6 6 5 5 5 5 5 5 5 5 6 6 5 6 5 5 5 5 5 6 5 5 5 5 5 5 6 5 6 5 5 5 5 5 5 5 5 5 5 6 5 5 5 5 5 5 6 5 5 5 5 5 5 5 5 6 5 5 5 5 5 6 5 5 6 5 5 5 5 5 5 6 5 5 5 5 5 5 5 5 6 5 5 5 5 6 5 5 5 5 5 5 5 5 5 5 6 5 5 5 5 5 5 5 5 5 6 5 5 5 5 6 5 5 5 5 5 5 5 5 6 5 6 5 5 5 6 5 5 5 5 5 5 5 5 6 5 5 5 6 5 5 5 6 5 5 6 5 5 5 5 5 5 5 5 5 5 5 5 5 5 5 5 5 5 5 5 5 5 5 5 5 5 5 5 5 5 5 5 5 5 5 5 5 5 5 5 5 5 5 5 5 5 5 5 5 5 5 5 5 6 5 5 5 6 5 5 5 5 5 5 6 5 6 5 5 5 5 6 6 5 5 5 5 5 5 5 5 5 5 5 5 5 5 5 5 5 5 5 5 5 5 6 5 5 6 5 5 5 6 5 5 5 5 5 5 5 5 5 5 5 5 5 5 6 5 6 5 6 5 5 5 5 5 5 5 5 5 5 5 5 5 5 5 5 5 6 5 5 5 5 5 5 5 5 5 5 5 5 5 5 5 5 5 5 5 5 5 5 5 5 5 5 5 5 5 5 5 5 5 6 5 5 5 5 5 5 6 5 5 6 5 6 5 5 6 5 5 5 6 5 5 5 5 5 5 5 5 5 5 5 5 5 5 5 5 5 5 5 5 5 5 5 5 5 6 5 5 5 5 6 5 5 6 5 5 5 5 5 5 5 5 5 5 5 5 5 5 5 5 5 5 5 5 5 5 5 5 5 5 5 5 5 5 6 5 5 5 6 5 5 5 5 6 5 5 5 5 5 6 5 5 5 5 6 5 5 5 5 5 5 5 5 5 5 5 5 5 5 6 6 5 6 5 6 5 5 5 5 5 5 5 5 5 5 5 5 5 5 5 5 5 5 5 5 5 5 5 5 5 6 6 5 5 6 5 5 6 5 5 5 5 5 5 5 5 5 5 5 6 5 5 6 5 5 5 5 5 5 5 5 5 5 5 5 5 5 6 6 5 6 6 5 5 5 5 6 5 5 5 6 6 5 5 5 5 5 5 5 6 5 5 5 5 5 5 5 5 5 5 5 5 5 5 5 5 6 5 5 5 5 6 5 5 5 5 5 5 5 6 5 5 5 5 5 5 5 6 5 5 6 5 5 5 5 5 5 5 5 5 5 5 5 5 5 5 6 5 5 5 5 5 5 5 5 6 5 5 5 5 5 5 5 6 5 5 5 5 5 6 5 5 5 5 6 5 5 5 5 5 5 5 5 5 5 5 5 6 5 5 5 5 5 5 5 5 5 5 5 5 5 5 6 5 5 5 5 5 5 5 5 5 5 5 5 5 6 6 5 5 6 5 5 5 5 6 5 5 5 6 5 5 6 5 5 5 5 6 5 5 5 5 5 5 5 5 5 5 5 5 5 5 5 5 5 5 5 5 5 5 5 5 5 5 5 5 5 5 5 5 5 5 6 5 5 5 6 5 6 5 5 5 5 5 5 5 5 5 5 5 5 5 5 6 5 5 5 5 5 5 5 5 6 5 5 5 6 5 5 5 5 5 5 5 6 5 6 5 5 5 5 5 5 5 5 5 5 5 5 5 5 6 5 5 6 5 5 5 5 5 5 5 6 5 5 5 5 5 5 5 5 5 5 5 5 5 5 5 5 5 5 5 5 5 5 5 5 5 5 5 6 5 5 6 5 5 5 6 5 5 6 5 5 5 5 5 5 5 5 5 5 5 5 5 5 5 5 5 5 5 6 5 5 5 5 5 5 5 5 5 5 5 5 5 6 5 5 5 5 5 5 5 5 5 5 5 5 5 5 5 5 5 5 5 6 5 5 5 5 5 5 5 5 5 5 5 5 5 5 5 5 6 5 5 6 5 5 5 6 5 5 6 5 5 5 5 5 5 5 5 5 5 5 5 5 5 6 5 5 6 5 5 5 5 5 5 5 5 5 5 5 5 5 5 5 5 5 5 5 5 5 5 5 5 5 5 5 5 5 5 5 5 5 5 5 5 6 5 5 5 5 6 5 5 5 5 5 5 5 5 5 5 5 5 5 5 5 6 5 6 6 5 5 6 5 6 5 5 5 5 5 5 5 5 6 5 5 6 5 5 5 5 6 6 5 6 5 5 5 5 5 5 5 5 5 5 5 5 5 5 5 5 5 5 5 5 5 6 5 5 5 5 5 5 5 5 5 5 5 5 5 5 5 5 5 5 5 5 5 5 5 5 5 6 5 5 5 5 5 6 5 5 5 5 5 5 5 5 5 6 5 5 5 5 5 5 5 5 5 5 5 5 5 5 5 5 5 6 6 5 5 6 5 5 5 6 5 5 5 5 5 5 5 5 5 5 6 5 5 6 5 6 5 5 5 5 6 5 5 5 6 5 5 5 5 5 5 6 5 5 5 5 5 5 6 5 5 5 5 5 5 5 5 5 5 5 5 5 5 6 5 5 6 5 5 5 6 6 5 5 5 5 5 5 5 5 5 5 6 5 5 5 6 5 5 5 5 6 5 5 5 5 5 5 5 5 6 5 5 5 5 5 6 6 5 5 5 6 5 6 6 5 5 5 5 5 6 5 5 5 5 5 5 6 5 5 5 5 5 5 5 6 5 5 6 5 5 6 5 5 5 5 5 5 5 5 5 5 5 5 5 5 6 5 5 5 6 5 5 6 5 5 5 5 6 5 5 5 5 5 5 5 5 6 5 5 5 5 6 5 5 5 5 5 5 5 5 6 5 5 5 5 5 5 5 5 5 6 5 5 5 6 5 5 6 5 5 6 5 5 5 5 5 5 5 5 5 6 5 5 5 5 5 5 5 5 5 5 5 5 5 5 5 5 6 5 5 5 5 5 5 5 5 5 5 5 5 5 5 5 5 5 5 5 5 5 5 5 5 5 5 6 5 6 5 5 5 5 5 5 5 5 5 5 6 5 5 6 5 5 5 5 5 5 5 5 5 5 5 5 5 5 5 5 5 5 5 5 5 6 5 5 5 5 5 5 5 5 5 6 5 6 5 5 5 5 5 5 5 6 5 6 5 5 5 5 5 5 5 5 5 5 5 6 5 5 5 5 6 5 6 5 5 5 5 5 5 6 5 5 6 5 5 6 5 5 5 6 6 6 5 5 5 5 5 5 5 5 5 5 5 5 5 6 5 5 5 5 5 5 5 6 5 6 5 6 5 5 6 6 5 5 5 5 5 5 6 5 5 5 5 6 5 6 5 6 5 6 5 5 5 5 6 5 5 5 5 5 6 5 5 5 5 5 5 5 5 5 5 5 5 5 5 6 5 5 5 5 5 6 5 5 5 6 5 5 5 5 5 5 5 5 5 5 5 5 5 5 5 5 5 6 5 5 5 5 6 5 5 5 5 5 5 6 5 5 5 5 5 5 5 5 5 5 6 5 5 6 5 6 5 5 5 5 5 5 5 5 5 5 5 6 5 5 5 5 5 5 6 5 6 6 5 6 5 5 5 5 5 5 5 6 5 5 5 5 5 5 5 5 5 5 5 5 5 5 5 5 6 5 5 5 5 5 5 5 5 5 5 6 5 5 5 5 5 5 5 5 5 5 6 5 5 5 5 6 5 5 5 5 5 6 5 5 5 5 6 5 5 5 5 5 5 5 5 5 5 5 5 5 5 5 5 5 5 6 5 5 5 5 5 5 5 5 6 5 6 6 5 5 5 5 5 6 5 5 5 5 5 5 5 5 5 5 5 5 5 5 6 5 5 6 5 6 6 5 5 5 5 5 5 6 5 5 5 5 6 5 6 5 5 6 5 5 5 5 5 5 6 6 5 5 5 5 5 5 5 5 5 5 5 5 5 5 5 6 5 5 5 5 5 5 5 6 5 6 5 5 5 6 5 6 5 5 5 5 5 5 5 5 6 5 5 5 5 5 6 5 6 5 5 5 5 6 5 5 5 5 5 6 5 5 5 5 5 5 5 5 5 5 5 5 5 5 5 5 5 5 5 5 5 5 5 5 6 5 5 5 6 5 6 5 5 5 6 5 5 5 5 5 5 5 5 5 5 5 5 5 5 5 5 5 6 6 6 6 5 5 5 5 5 5 6 5 5 5 6 5 5 5 5 5 5 5 5 5 5 6 6 6 5 5 6 6 5 5 5 5 5 5 5 5 5 6 5 5 5 5 5 5 5 5 6 6 5 5 5 6 5 5 5 5 5 5 5 5 5 5 5 6 5 6 5 5 5 5 5 6 6 5 5 6 6 5 5 5 5 5 5 5 5 5 5 5 5 5 5 5 5 5 5 5 5 5 5 5 5 5 5 5 5 5 5 5 5 5 5 5 5 5 5 5 5 5 5 6 6 5 5 5 5 5 5 5 5 5 5 5 5 5 5 5 5 5 5 5 5 6 5 5 5 5 5 5 5 5 5 5 5 5 5 5 5 5 6 5 6 5 5 5 5 5 5 5 5 6 5 5 5 5 5 5 5 5 5 5 5 6 5 5 6 5 5 6 5 5 5 5 6 5 5 5 5 6 5 5 6 5 6 5 5 5 5 5 6 5 5 5 5 5 5 5 6 5 5 5 5 5 5 5 5 5 5 5 5 5 5 5 5 5 5 5 5 5 5 5 5 6 5 5 5 6 5 5 6 5 5 5 6 5 5 5 5 6 5 6 5 5 5 5 5 5 5 5 6 5 5 5 5 5 5 5 5 5 5 6 5 5 6 5 5 6 5 5 6 6 5 5 5 5 5 5 5 6 6 5 5 5 6 5 5 6 6 5 5 5 6 6 5 6 5 5 6 5 5 5 5 6 5 6 6 5 5 5 6 5 6 6 5 6 6 6 6 5 6 5 6 5 6 5 5 5 6 5 5 6 5 6 6 5 5 5 5 6 5 6 6 5 5 5 6 6 5 5 6 6 5 5 5 5 6 5 5 5 5 6 5 5 5 5 6 5 6 5 6 5 6 5 6 5 6 5 5 5 5 5 6 5 5 6 6 6 5 5 6 6 5 6 5 5 6 5 5 5 5 5 5 6 5 5 6 5 6 5 5 5 5 6 5 6 5 6 5 5 5 6 5 5 6 5 6 5 6 5 5 5 5 5 6 5 5 5 5 5 5 5 5 5 5 6 5 5 5 5 6 5 5 6 5 5 5 5 5 6 5 5 6 5 5 5 6 5 6 5 5 5 6 5 5 5 5 6 5 5 5 5 6 6 5 5 5 5 5 5 6 5 5 6 5 5 5 5 5 5 5 5 5 5 5 5 5 5 5 5 5 5 5 5 5 5 5 5 5 5 5 5 5 5 5 5 5 5 5 5 5 5 5 5 5 5 5 5 5 5 5 5 5 5 5 5 5 5 5 5 5 5 6 5 5 5 5 5 5 5 5 5 5 5 5 6 5 5 6 5 5 5 6 5 5 5 5 5 5 5 5 5 5 5 5 5 5 5 6 5 5 5 5 5 5 5 5 5 5 5 5 5 5 5 5 6 5 5 5 5 5 5 5 5 5 5 5 5 5 6 5 5 6 5 5 6 5 6 5 5 5 5 5 5 5 6 5 5 5 5 5 5 5 5 5 5 5 5 6 5 5 5 6 5 5 5 5 5 5 5 5 5 6 5 5 5 5 5 5 6 5 5 5 5 5 5 6 5 5 5 6 5 5 5 5 5 5 5 6 5 5 5 5 5 5 5 5 5 5 6 5 5 5 5 5 5 5 5 5 5 5 5 5 5 5 5 6 5 6 5 5 5 5 5 5 5 5 5 5 6 5 6 5 5 5 5 5 5 5 5 5 5 5 6 5 5 5 5 5 5 5 5 5 5 5 6 5 5 5 5 5 5 5 6 5 5 5 5 5 5 5 6 5 5 5 5 5 5 5 5 5 5 5 6 5 5 5 5 5 5 5 5 6 5 6 5 5 5 5 5 5 5 5 5 5 6 5 5 5 6 5 5 5 5 5 5 5 5 5 6 5 5 5 5 5 5 5 5 5 5 5 5 5 5 5 5 6 5 5 5 5 5 5 5 5 5 5 5 5 5 5 5 5 5 5 6 5 5 6 5 5 6 5 5 5 5 5 6 5 5 5 5 5 5 5 5 5 5 5 5 5 5 5 5 5 5 5 5 5 5 5 5 5 5 5 5 5 5 5 5 5 5 5 5 5 5 5 5 5 5 5 5 5 5 5 5 5 5 5 5 5 5 5 5 5 5 5 6 5 5 6 5 5 5 5 5 5 5 5 5 5 5 5 5 5 5 5 5 5 5 5 5 5 5 5 6 6 5 5 5 5 5 5 5 5 5 5 5 5 5 5 5 5 6 6 5 5 5 5 5 5 5 6 5 6 5 5 6 6 5 5 5 5 5 5 5 5 5 5 5 6 5 6 5 5 5 6 5 5 5 6 5 6 5 5 5 5 5 6 6 5 5 5 5 5 5 5 5 5 5 5 5 5 5 5 5 5 5 5 5 5 5 5 5 5 5 5 5 5 5 5 5 5 5 5 5 5 5 5 5 5 5 5 5 5 5 5 5 5 5 5 5 5 5 5 5 5 5 5 5 5 5 5 5 5 5 5 5 5 5 5 5 5 5 5 5 5 5 5 5 5 5 5 5 5 5 5 5 5 5 5 5 5 5 5 5 5 5 5 5 5 5 5 5 6 6 5 6 5 6 5 5 6 5 5 5 5 6 5 5 5 5 5 5 5 6 6 6 5 5 5 5 5 6 6 5 5 5 5 5 5 5 5 5 5 5 5 5 5 5 5 5 5 5 5 5 5 5 5 5 5 5 5 5 5 5 5 5 5 6 5 5 6 5 5 5 5 5 5 5 5 5 5 5 6 5 5 5 5 5 5 5 6 5 5 5 5 5 5 5 5 5 5 5 5 5 5 5 5 6 5 5 6 5 5 5 5 5 5 5 5 5 5 5 5 5 5 5 5 5 5 5 5 5 5 5 6 5 5 6 5 5 6 5 5 5 5 5 5 5 6 5 5 5 5 5 5 6 5 5 6 5 5 5 5 6 5 6 5 5 6 5 5 5 5 6 5 6 5 5 6 5 5 5 5 5 5 5 5 5 5 5 5 6 5 5 5 6 5 5 6 5 5 5 5 6 5 5 5 5 5 5 5 5 5 5 6 5 5 5 5 5 5 5 5 5 5 6 5 5 5 5 5 5 5 5 5 5 5 5 6 5 5 6 5 5 5 5 5 5 5 5 5 5 6 5 5 5 5 5 6 5 6 6 5 5 6 5 5 5 5 5 5 5 5 5 6 6 5 5 5 5 5 5 6 5 5 5 5 5 5 5 5 5 5 5 5 5 5 5 5 5 5 5 5 5 5 5 5 5 6 5 5 5 5 5 5 5 5 5 5 5 5 5 5 5 5 5 5 5 5 5 5 5 5 5 5 5 5 5 5 5 5 5 5 5 5 5 5 5 5 6 5 5 5 5 5 5 5 5 5 5 6 5 5 5 6 5 6 5 5 5 6 5 5 5 6 5 6 5 6 5 6 6 5 5 6 5 5 5 6 5 5 5 5 5 6 5 5 5 5 6 5 5 5 6 5 5 5 5 6 5 6 5 5 5 5 5 5 5 5 5 5 5 5 5 5 6 5 5 5 5 6 5 5 6 5 5 6 6 5 5 6 5 6 5 5 5 6 6 6 6 5 5 6 5 5 5 5 6 5 6 5 5 6 6 6 5 6 5 5 6 6 6 5 5 5 5 5 5 5 5 5 6 6 5 5 5 5 6 6 5 5 5 6 5 6 5 5 5 5 5 5 5 5 5 5 5 6 5 5 5 5 5 5 5 5 5 5 5 5 5 5 5 5 5 5 5 5 5 5 5 6 5 5 5 5 5 5 5 5 5 5 5 5 5 5 5 5 6 5 5 6 5 5 5 5 5 5 5 5 5 6 5 5 5 6 6 5 5 6 5 5 5 5 5 6 5 6 5 5 5 6 5 5 5 5 5 5 5 6 5 5 6 5 5 5 5 6 5 5 5 6 6 5 5 6 5 5 5 6 5 5 5 5 5 5 5 6 5 5 6 5 6 6 6 5 6 5 6 6 5 5 5 5 5 5 6 5 5 6 5 5 5 5 5 5 5 5 5 5 5 5 5 5 5 5 5 5 5 5 5 5 5 5 5 5 5 5 5 5 5 5 5 5 5 6 6 5 5 5 5 5 5 5 5 6 6 6 6 5 5 6 5 5 5 5 5 5 5 5 6 5 5 6 5 5 5 6 5 5 5 5 6 5 5 5 5 5 5 5 5 5 5 5 5 5 5 6 5 5 5 5 5 6 5 5 5 5 5 5 5 5 6 5 5 5 6 6 5 5 6 6 5 5 5 5 5 6 5 5 5 5 5 5 6 5 6 5 5 5 5 5 5 5 5 6 6 5 6 6 6 5 6 5 5 5 5 5 5 6 5 5 5 5 5 5 5 6 5 5 5 5 5 5 5 5 5 5 5 5 5 5 5 5 5 5 5 5 5 5 5 5 5 5 5 5 5 5 5 5 5 5 5 5 5 5 5 5 5 5 5 5 5 5 5 5 5 5 5 5 5 5 5 5 5 6 5 5 5 5 5 5 5 6 5 5 6 5 5 5 6 5 6 5 5 6 5 5 5 5 5 5 5 6 5 5 5 6 5 5 5 5 5 5 5 6 5 6 5 5 5 5 5 5 5 5 5 5 5 5 5 5 5 5 5 5 5 5 5 5 5 5 5 6 6 5 6 5 5 5 5 5 5 5 6 5 6 5 6 6 6 5 5 6 5 5 6 5 5 5 6 5 5 5 5 5 5 5 6 6 5 5 6 5 5 5 6 5 5 5 5 6 5 6 5 5 5 5 5 5 6 5 6 5 5 5 5 5 6 5 5 6 5 5 5 5 5 5 5 5 5 5 5 5 5 5 5 5 6 5 5 6 6 5 6 5 5 5 5 5 5 5 5 6 5 5 5 5 5 5 5 5 5 5 5 5 5 5 5 5 6 5 5 5 6 5 5 6 5 5 5 5 5 5 6 5 5 5 5 5 5 5 5 5 5 5 5 5 5 5 5 5 5 5 6 6 5 5 5 5 5 5 5 6 5 5 5 6 5 5 6 5 6 5 5 6 5 6 6 5 6 5 6 5 6 5 5 5 5 5 5 5 5 5 5 5 5 5 5 5 6 6 5 5 5 5 5 5 5 6 5 5 5 5 5 5 5 5 5 5 5 5 5 5 5 6 5 6 5 5 5 5 5 5 6 5 5 5 6 5 5 5 6 5 5 5 5 5 5 5 5 5 5 5 5 5 5 5 5 5 5 5 5 5 6 5 5 5 5 6 5 5 5 5 5 6 5 5 5 6 5 5 5 5 5 5 5 5 5 5 5 5 6 5 5 5 5 6 5 5 5 5 5 5 5 5 6 5 5 5 5 5 5 5 6 5 5 5 5 6 5 5 5 5 5 5 5 5 6 5 5 5 5 5 5 5 5 5 6 5 5 5 5 5 5 5 5 5 5 5 5 5 5 5 5 5 5 5 5 5 5 5 5 5 5 5 5 6 5 5 5 5 5 5 5 6 5 5 5 5 5 5 5 5 5 5 5 5 5 5 5 5 5 5 5 5 5 5 5 5 5 5 5 5 5 6 5 5 5 5 5 5 5 5 5 5 5 5 5 5 5 5 5 5 5 5 5 5 5 5 5 5 5 5 5 5 5 5 6 5 5 6 5 5 5 5 6 5 5 6 5 5 5 5 6 5 5 5 6 5 5 5 6 5 5 5 5 5 5 5 5 5 5 6 5 5 6 5 5 5 5 5 5 6 5 5 5 5 5 6 5 5 5 5 6 5 5 5 5 5 5 5 5 5 5 6 5 5 5 5 5 5 5 5 5 6 5 5 5 5 5 5 5 5 5 5 5 5 5 6 5 5 5 5 5 5 5 6 5 5 5 5 5 6 5 5 5 5 5 5 5 5 5 5 5 5 5 5 6 5 5 5 5 5 5 5 5 6 5 5 5 5 5 5 5 5 5 5 5 5 5 5 5 5 5 5 5 5 5 5 5 5 5 5 5 5 5 5 5 5 5 6 5 5 5 5 6 6 5 5 6 5 5 6 5 5 6 5 5 5 5 5 5 5 5 5 5 5 5 5 5 5 5 5 5 5 6 5 5 5 5 6 5 5 5 5 5 5 5 5 5 5 5 5 5 5 5 5 5 5 5 5 5 5 5 5 5 5 5 5 5 5 5 5 5 5 5 5 5 5 5 5 5 5 5 5 5 5 5 5 5 5 5 5 5 5 5 5 5 5 5 5 5 5 5 5 5 5 5 5 5 5 5 6 5 5 5 5 6 5 6 5 5 6 5 5 5 5 6 5 5 6 5 5 5 5 5 5 5 5 5 5 5 5 5 5 5 5 5 5 5 5 5 5 5 5 5 5 5 5 5 5 5 5 5 5 5 5 5 5 5 5 5 5 5 5 5 5 5 5 5 5 5 5 5 5 5 5 5 5 5 5 6 5 5 5 5 5 5 5 5 5 6 5 5 5 5 5 5 5 6 5 5 5 5 5 5 5 5 5 5 5 5 5 5 5 5 5 5 5 6 6 5 5 6 5 6 5 5 5 5 5 5 5 5 5 5 5 5 5 5 5 5 5 5 5 5 5 5 5 5 5 5 5 5 5 5 5 5 5 5 5 5 5 5 5 5 5 5 5 5 5 5 5 5 5 5 5 5 5 5 5 6 6 5 5 5 5 5 5 5 5 5 5 5 5 5 5 5 5 5 5 5 5 6 5 5 5 5 5 5 5 5 5 5 6 5 5 5 6 5 5 5 5 5 5 6 5 5 5 5 5 5 5 5 5 5 5 5 5 6 5 5 5 5 5 5 6 6 5 6 5 5 6 5 5 5 6 5 5 5 6 5 5 5 5 5 6 5 6 5 5 5 5 6 5 5 5 5 6 5 6 5 5 6 6 5 5 5 5 5 6 5 5 5 5 5 6 6 6 5 6 5 6 5 5 5 5 5 6 5 5 5 5 5 5 5 5 6 6 5 5 6 5 5 5 5 6 5 5 6 5 5 6 5 5 5 5 5 5 5 5 5 6 5 5 5 5 5 5 5 5 6 5 5 5 5 5 5 5 5 5 6 6 5 5 5 5 5 5 5 5 5 5 5 5 5 5 5 5 5 5 5 5 5 5 5 5 5 5 5 5 5 5 5 5 5 5 5 6 5 5 5 5 6 5 5 5 5 5 5 5 5 5 5 5 5 5 5 5 5 6 6 5 5 5 5 5 5 5 5 5 6 5 5 5 5 6 5 5 6 5 5 5 5 5 5 5 5 5 5 5 5 5 6 5 5 5 5 5 5 5 5 5 5 5 5 5 5 5 5 5 5 5 5 5 5 5 5 5 6 5 5 5 5 5 6 5 5 5 6 5 5 5 6 6 5 5 5 5 5 5 5 5 5 5 5 5 5 5 6 5 5 5 6 5 5 5 5 6 6 5 5 5 5 5 5 5 5 5 5 5 5 5 5 5 5 5 5 5 5 5 5 5 6 5 5 5 5 5 5 5 5 5 6 5 5 5 5 6 5 6 5 5 5 5 6 5 5 5 5 5 5 5 5 5 5 5 5 5 5 5 6 5 5 6 5 5 5 5 5 5 5 5 5 5 6 6 5 5 5 5 6 5 5 5 6 5 5 5 5 6 6 5 6 5 6 5 6 5 5 6 5 5 6 5 5 6 5 5 5 6 5 5 6 5 6 5 6 5 5 6 5 5 5 5 5 5 5 5 5 5 5 5 5 6 5 5 5 5 5 5 5 5 5 5 5 5 5 5 5 5 6 6 5 5 5 5 5 6 5 5 5 5 6 5 5 6 5 5 5 5 6 5 5 5 5 5 5 5 5 5 5 5 5 5 5 5 5 5 5 5 5 5 5 5 5 5 5 5 5 5 5 5 5 5 5 5 5 5 5 6 5 5 5 5 5 5 5 5 5 5 5 5 5 6 5 6 5 5 5 5 6 5 5 5 5 5 5 5 5 5 5 5 5 5 5 5 5 5 5 6 5 6 5 5 6 5 5 5 6 5 5 5 5 5 5 5 5 5 5 5 5 5 5 5 5 5 5 5 5 5 5 5 5 5 5 5 6 5 5 6 5 5 5 5 5 5 5 5 5 5 5 5 5 5 5 5 5 5 5 5 5 5 5 5 5 5 5 5 5 5 5 5 5 5 5 6 5 6 5 5 5 5 5 5 5 5 5 5 5 5 5 5 5 5 5 6 6 5 5 5 5 5 6 5 5 5 5 6 5 5 5 5 6 5 5 5 5 5 5 5 5 5 5 5 5 5 5 5 5 5 5 6 5 5 5 5 5 5 6 5 5 6 5 5 5 5 5 5 5 5 5 5 5 5 6 5 5 6 5 5 5 5 5 5 5 5 6 5 5 5 5 5 5 6 5 5 6 5 5 5 5 5 5 5 5 5 5 5 5 5 5 5 5 5 5 5 5 5 5 5 5 5 5 5 5 5 5 5 5 5 5 5 5 6 5 5 5 6 5 5 6 5 5 5 5 5 5 6 5 5 5 5 5 6 5 5 5 5 5 5 6 5 5 5 5 6 5 6 5 5 6 5 5 5 6 5 5 5 5 5 5 5 5 5 5 5 5 5 6 5 5 5 5 5 5 5 5 5 5 5 5 5 5 5 5 5 5 5 5 5 5 5 5 6 5 6 5 6 5 6 5 5 5 5 6 5 5 5 5 6 5 5 5 5 5 5 5 5 5 5 5 5 5 5 6 5 5 5 6 5 5 5 6 5 5 6 5 5 5 6 5 5 5 5 6 5 5 5 5 6 5 5 5 5 5 5 5 5 5 5 6 5 5 5 5 5 6 5 6 5 5 5 5 5 6 6 5 5 6 5 6 5 5 6 5 5 5 5 5 5 5 5 5 5 5 5 5 6 5 5 5 5 5 6 5 5 5 5 5 5 5 5 5 5 6 5 6 5 5 6 5 5 6 5 6 5 6 5 5 5 5 5 6 6 5 5 5 5 5 5 5 5 5 5 5 6 5 5 5 5 5 6 5 5 5 6 5 6 5 5 5 5 5 5 5 5 5 5 5 5 5 5 5 6 5 5 5 5 6 5 5 5 5 5 5 5 5 5 5 5 5 5 5 5 5 5 5 5 5 5 5 5 6 5 5 6 5 5 5 5 5 5 5 6 5 5 6 5 6 5 5 5 5 5 5 5 5 5 6 5 5 6 5 5 5 6 5 5 5 5 5 5 5 6 5 5 5 5 6 6 5 5 5 5 5 5 5 5 5 6 5 5 5 5 5 5 5 5 5 5 5 5 5 5 5 5 6 5 6 5 5 5 6 5 5 5 5 5 5 5 5 5 5 5 5 5 6 5 5 5 5 5 6 5 5 5 6 6 5 5 5 6 5 5 6 5 5 5 5 6 6 5 5 5 6 5 5 6 5 5 5 5 6 5 6 5 5 5 6 5 5 5 5 5 5 5 5 5 5 5 5 5 5 5 5 5 5 5 5 5 6 5 5 5 5 5 5 5 5 5 6 5 5 5 6 5 6 5 5 5 5 5 5 5 5 5 5 5 6 5 5 5 5 5 6 5 5 5 5 5 6 5 5 5 5 5 5 5 5 5 5 5 5 5 5 5 5 6 5 5 5 5 5 5 5 5 5 6 5 5 5 5 5 5 5 5 5 5 5 5 5 5 5 6 5 5 5 5 5 5 5 5 5 5 5 5 5 5 5 5 5 5 5 5 5 5 5 5 5 5 5 5 5 6 5 5 5 5 6 5 6 6 5 5 5 5 5 5 6 5 6 5 5 5 6 5 5 6 5 5 5 5 5 5 6 5 5 5 5 5 5 5 6 5 5 5 5 6 5 5 5 5 5 5 6 5 5 5 5 5 5 5 5 5 5 5 5 6 5 6 5 5 5 5 5 5 5 6 6 5 5 5 5 5 5 5 5 6 5 5 5 6 5 5 6 5 5 5 5 5 5 5 5 5 5 5 5 5 5 5 5 5 5 5 5 5 5 5 5 5 6 5 5 6 5 5 5 5 5 6 5 5 6 5 6 5 5 5 6 5 5 5 5 6 5 5 6 6 5 5 5 5 5 6 5 5 6 5 5 5 5 5 6 5 5 5 5 5 5 5 5 5 6 5 5 5 5 6 5 5 5 5 5 5 6 5 6 5 5 5 6 5 6 5 5 6 5 6 5 5 5 6 5 5 5 5 5 5 5 5 5 5 5 5 5 6 5 5 5 5 6 5 5 5 5 5 5 6 5 5 5 5 5 5 5 6 5 5 5 5 5 5 6 5 5 5 5 5 5 5 6 5 5 6 5 5 5 5 5 5 5 5 5 6 6 5 5 5 5 5 5 5 5 5 5 5 5 6 5 5 5 5 5 5 5 6 5 5 5 6 5 6 5 5 6 5 5 5 5 5 6 5 5 5 6 5 5 5 5 6 5 5 5 6 5 5 5 5 5 5 5 6 5 5 6 5 5 5 6 5 5 5 6 5 5 5 5 6 5 5 5 6 5 5 5 5 5 5 5 5 5 6 5 5 5 5 5 5 5 5 5 6 5 5 5 5 6 5 5 6 5 5 5 5 5 5 5 5 5 5 5 5 5 5 5 5 5 5 5 5 5 5 5 5 5 5 6 5 5 5 5 5 5 5 5 5 5 5 6 5 5 5 6 5 5 5 5 5 5 6 5 5 5 5 5 5 5 5 5 5 5 5 5 5 5 5 5 5 5 5 5 5 5 5 5 5 6 5 6 5 5 6 6 5 5 5 5 5 5 5 5 5 5 5 5 5 5 5 5 5 6 5 5 5 5 5 5 5 5 5 5 5 5 5 5 5 5 5 5 5 5 5 5 5 5 5 5 5 5 5 5 5 5 5 5 5 5 5 5 5 5 5 5 5 5 5 5 5 5 5 5 5 5 5 5 5 5 5 5 5 5 5 6 5 5 6 5 5 5 5 6 5 5 5 5 5 5 5 5 5 5 6 5 6 5 5 5 6 5 5 5 6 5 6 5 5 5 6 5 6 5 6 5 5 5 6 5 5 5 5 6 5 6 5 5 5 5 5 6 5 6 6 5 5 5 5 5 5 6 5 5 5 6 5 5 5 5 5 5 5 5 5 5 5 5 5 5 5 5 5 5 5 6 5 5 5 6 6 5 5 5 5 5 6 5 5 5 5 5 5 5 5 5 5 5 5 5 5 6 5 5 6 5 6 5 5 5 6 5 6 5 5 6 5 5 5 5 5 5 5 5 5 5 5 6 5 5 5 5 5 5 5 5 5 5 6 6 5 5 5 5 5 5 5 6 5 5 5 5 5 5 5 5 5 5 5 5 5 5 6 5 5 5 5 5 5 5 5 5 5 6 5 5 5 6 5 6 6 5 5 5 5 5 5 5 5 6 5 5 5 5 5 5 5 5 5 6 5 6 5 6 5 5 5 5 5 5 5 5 6 5 6 5 5 5 5 5 5 6 5 5 6 5 6 5 5 5 5 5 5 5 5 5 5 5 5 5 5 6 5 5 5 5 5 5 5 5 5 5 6 5 5 5 5 5 5 6 5 5 5 5 5 5 5 5 5 5 5 5 5 5 5 5 5 5 5 5 5 5 5 5 5 6 5 5 5 5 5 6 5 5 5 5 5 5 5 5 5 5 5 6 5 5 5 5 6 5 5 5 5 5 6 5 5 5 5 5 6 5 5 6 5 5 5 5 5 5 5 5 5 5 5 5 5 5 5 5 5 5 5 5 5 5 5 5 5 5 6 5 5 6 5 5 5 5 5 5 5 5 5 5 5 5 5 5 5 6 5 5 5 5 5 5 5 5 5 6 5 5 5 5 5 5 5 6 5 5 5 5 5 6 5 5 5 5 5 5 6 5 5 5 5 6 5 5 5 5 5 5 5 6 5 5 6 5 5 6 5 5 5 5 6 5 5 5 5 5 5 5 5 6 5 5 6 5 5 5 5 5 5 5 5 5 6 5 5 5 5 5 6 5 5 5 5 6 5 5 5 6 5 5 5 5 5 5 5 5 5 5 5 6 6 5 5 5 5 5 5 5 5 5 5 5 6 5 5 5 5 5 6 5 6 6 5 6 6 5 5 6 5 5 5 5 5 5 6 5 6 6 5 5 5 5 5 6 5 5 5 5 5 5 5 5 6 5 5 5 5 6 5 5 5 5 5 6 5 5 6 5 5 5 5 5 5 5 6 5 6 5 5 5 5 5 5 5 6 6 5 5 5 5 5 5 5 6 5 5 5 5 5 5 6 5 5 5 5 5 5 5 5 5 5 5 5 5 5 6 5 5 6 5 5 5 5 6 5 5 5 5 6 5 5 5 5 5 5 6 5 5 5 5 5 5 5 6 5 5 5 6 5 5 5 5 6 5 5 6 5 5 5 5 5 5 5 6 5 5 5 5 6 5 6 5 5 5 5 5 5 5 5 5 5 5 5 5 5 6 5 5 5 5 5 5 5 6 5 5 6 5 5 6 5 5 5 5 5 5 5 5 5 6 5 5 5 6 5 5 5 5 5 5 5 5 5 6 5 5 5 5 5 5 5 5 5 5 5 6 5 5 5 6 5 5 5 5 5 5 5 5 5 5 5 6 5 5 5 5 5 5 5 5 5 5 6 5 5 5 5 5 6 5 5 5 5 5 5 5 5 6 5 5 6 5 5 6 5 5 5 5 6 6 5 5 5 5 6 5 5 5 5 6 5 5 6 5 5 5 5 6 5 5 6 5 5 5 5 5 6 5 5 5 5 5 5 5 5 6 5 6 5 5 5 5 5 5 5 5 5 6 6 5 5 5 5 5 5 6 5 5 6 5 5 6 5 6 5 5 5 6 5 5 6 5 5 5 5 5 5 5 5 6 6 5 5 6 6 5 5 5 5 6 5 5 5 6 5 6 5 6 6 6 5 6 5 5 5 6 5 5 5 5 5 5 5 5 5 6 5 5 6 5 5 5 5 5 5 6 5 5 5 5 5 5 6 6 6 5 5 5 5 5 5 5 5 5 5 5 6 5 5 5 5 6 5 5 5 5 5 5 5 5 6 5 5 6 5 5 5 6 5 5 5 5 5 5 5 5 5 6 5 5 5 5 5 5 5 5 6 5 5 5 6 5 5 6 5 5 5 6 5 6 5 5 6 5 6 5 5 6 5 5 5 5 5 5 6 5 5 6 5 5 5 5 5 5 5 5 5 5 5 5 5 5 5 5 5 5 5 5 5 5 5 5 5 5 5 5 5 5 5 5 5 5 5 5 5 5 5 5 5 5 5 5 5 5 5 5 5 5 5 5 5 5 5 5 5 5 5 5 5 5 5 5 5 5 5 5 5 5 5 5 5 5 5 5 5 5 5 5 5 5 5 5 5 5 5 5 5 5 5 5 5 5 5 5 6 5 5 5 5 6 5 5 5 5 5 5 5 5 5 5 5 5 6 6 5 5 5 5 5 5 5 5 5 5 5 5 5 5 5 6 5 5 5 6 5 5 5 5 5 5 5 5 5 5 6 5 6 5 5 5 5 5 5 5 5 5 5 5 5 5 5 5 5 5 5 5 5 5 5 5 5 6 5 5 5 5 6 5 5 5 5 5 5 5 5 6 5 5 5 5 5 5 5 5 5 5 5 5 5 5 5 5 5 5 5 5 5 5 5 5 5 5 5 5 5 5 5 5 5 5 5 5 5 5 5 5 5 5 5 5 5 5 5 5 5 6 5 5 5 5 5 5 5 5 5 5 5 5 5 5 5 5 5 5 5 5 5 5 5 5 5 5 5 5 5 5 5 5 6 5 5 5 5 5 5 6 5 5 5 5 5 5 6 5 5 6 5 6 5 6 5 5 5 5 6 5 5 5 5 5 6 5 5 5 6 6 5 5 5 6 5 5 5 5 6 6 5 5 5 5 5 5 5 5 5 5 5 5 5 5 6 5 5 6 5 5 6 6 5 5 5 5 5 5 5 5 5 5 6 5 6 5 5 5 5 5 5 5 5 5 5 5 6 5 5 5 5 5 5 5 6 5 5 5 5 5 5 5 5 5 5 5 5 5 5 5 5 5 5 6 6 5 5 5 5 5 5 5 5 5 5 5 5 5 5 5 5 5 6 5 5 5 5 5 5 5 5 5 6 5 5 5 5 5 5 5 5 5 5 5 5 6 5 5 5 5 6 5 6 5 5 5 5 5 5 5 5 5 6 5 5 5 5 6 5 5 5 5 6 5 6 5 5 5 5 5 5 5 5 5 5 5 5 6 5 5 5 5 5 5 5 5 5 5 5 5 5 5 5 6 5 6 5 5 6 5 5 5 6 5 6 5 5 6 5 5 6 5 6 5 5 5 5 5 5 5 6 6 5 5 5 5 6 6 5 5 6 6 5 6 5 5 6 6 5 5 6 5 5 6 5 5 5 5 5 5 5 5 6 5 5 6 5 6 5 5 5 6 5 5 5 5 5 5 5 5 6 5 5 5 5 5 5 5 5 5 5 5 5 5 5 5 5 5 5 5 5 5 5 6 5 5 5 5 5 5 5 5 5 5 5 5 5 5 5 5 5 5 
</DataArray>
<DataArray type="Float64" Name="stress" NumberOfComponents="9" format="ascii">
-283.15695440307445 23.237462794759391 0 23.237462794759391 -0.15490800453409717 0 0 0 0 -498.97587141095119 143.29571940220322 0 143.29571940220322 61.741180260822993 0 0 0 0 -330.10912449260354 277.57403694117647 0 277.57403694117647 -52.374834347775561 0 0 0 0 -259.17685654018851 81.641603722617859 0 81.641603722617859 1.4864526131356897 0 0 0 0 50.053913379650112 2.7910134635157196 0 2.7910134635157196 -57.128804200499872 0 0 0 0 -175.02045735943511 252.61959573081697 0 252.61959573081697 -191.90294343993168 0 0 0 0 -2.7598163632912289 0.24273916771511495 0 0.24273916771511495 0.04766254889114506 0 0 0 0 -17.461474095840458 27.056059603534496 0 27.056059603534496 -14.675250729158428 0 0 0 0 -121.10233082102786 -33.726430377844281 0 -33.726430377844281 159.91944878099952 0 0 0 0 -29.300162470444775 39.130282483550445 0 39.130282483550445 51.851973189132046 0 0 0 0 -4.6672749611744067 -0.019710721874593773 0 -0.019710721874593773 0.39237481715984435 0 0 0 0 -219.38807731167799 -13.125574467329187 0 -13.125574467329187 17.175326630441493 0 0 0 0 78.796952934439105 39.265421702859022 0 39.265421702859022 25.2543994187976 0 0 0 0 29.811056918857503 -52.427046564480804 0 -52.427046564480804 -82.96294928991378 0 0 0 0 -0.92007621759334768 -0.29013625602323678 0 -0.29013625602323678 -0.11257711149654487 0 0 0 0 -149.03311410702372 35.869379940648194 0 35.869379940648194 -60.994230908437409 0 0 0 0 -74.883079298251687 62.786760529913892 0 62.786760529913892 -59.916393691410079 0 0 0 0 -147.97950043941512 50.035805998304255 0 50.035805998304255 6.9914182207048654 0 0 0 0 -32.159189879415862 -11.409549487099268 0 -11.409549487099268 2.5720825234383193 0 0 0 0 -12.82398890658078 -2.8971945057255861 0 -2.8971945057255861 0.0010561947463201085 0 0 0 0 -21.489108675212265 3.6609535894064589 0 3.6609535894064589 -0.85148588448540607 0 0 0 0 -0.49724584705266039 -0.23826701755706381 0 -0.23826701755706381 0.084230686957926515 0 0 0 0 -2.5636273395231441 -0.45274749340511056 0 -0.45274749340511056 0.086882889018890214 0 0 0 0 -64.591402200254379 -24.862497830490973 0 -24.862497830490973 53.889083512201076 0 0 0 0 -1.5693626354504886 0.16788100696171745 0 0.16788100696171745 0.42334548332810096 0 0 0 0 1.3740676945344603 1.5602442464331683 0 1.5602442464331683 0.95618080274872153 0 0 0 0 -0.97419429368892452 0.18032324906781116 0 0.18032324906781116 0.17244313539432787 0 0 0 0 0.00032410886745992684 0.075641010961001953 0 0.075641010961001953 -0.069710372585109343 0 0 0 0 -0.092762832021264785 0.064943942368675067 0 0.064943942368675067 -0.023120548567113215 0 0 0 0 -1.5737394142943231 0.40305519964083514 0 0.40305519964083514 0.29790828086719612 0 0 0 0 -1.1935997358821737 0.23466294266784349 0 0.23466294266784349 0.099074227104236468 0 0 0 0 -1.8412755941800825 0.61191017873739995 0 0.61191017873739995 0.2586805186786254 0 0 0 0 -0.54031902460064885 1.465454411183023 0 1.465454411183023 -0.9556151243259734 0 0 0 0 -0.48775240570797607 0.70121097631673734 0 0.70121097631673734 -0.049009409633899853 0 0 0 0 -0.34966247739976097 1.3917748156716239 0 1.3917748156716239 -1.7074006525855907 0 0 0 0 -3.805791905179376 -4.163258728552286 0 -4.163258728552286 -4.2584355863406245 0 0 0 0 -0.30985289236741664 2.9587463463052277 0 2.9587463463052277 0.44297360475912484 0 0 0 0 -1.7948349872523011 1.3158954803814176 0 1.3158954803814176 -0.27621579335003738 0 0 0 0 -12.490808897519855 63.980055804350656 0 63.980055804350656 11.20074927208141 0 0 0 0 55.421161319296516 -45.903153235463023 0 -45.903153235463023 -87.075629278042285 0 0 0 0 -0.44623445225729341 0.27015293495430015 0 0.27015293495430015 0.14167640241486187 0 0 0 0 -7.1717388687811763 12.968575574842276 0 12.968575574842276 -7.0435877198628418 0 0 0 0 53.865063440880476 14.711408711267836 0 14.711408711267836 -26.019450228665747 0 0 0 0 -6.9694134517058046 -1.1656433338313299 0 -1.1656433338313299 3.8813799820263242 0 0 0 0 -4.7051217468124378 -1.7334555139953167 0 -1.7334555139953167 -3.278243625753646 0 0 0 0 -9.7397252642367675 0.92311503802962136 0 0.92311503802962136 15.29211282210917 0 0 0 0 4.5236047807611612 -13.466054318540216 0 -13.466054318540216 11.053939103498948 0 0 0 0 -14.288666652159918 -50.30966924510529 0 -50.30966924510529 21.566401650495294 0 0 0 0 -1.9742282543399199 -0.10316803537362151 0 -0.10316803537362151 0.081009360632479044 0 0 0 0 -50.922293005216943 -115.05373522805817 0 -115.05373522805817 69.503793939279419 0 0 0 0 -144.83981569260686 19.424616672010611 0 19.424616672010611 28.978385275460695 0 0 0 0 -49.698979596862046 87.705328736799714 0 87.705328736799714 -85.033893057988138 0 0 0 0 -10.124753040588985 23.776361677526381 0 23.776361677526381 -37.870541245033237 0 0 0 0 -30.649809921622364 9.5372215038637478 0 9.5372215038637478 31.73722701602486 0 0 0 0 -64.120640130473475 45.668956010591856 0 45.668956010591856 3.6920437968293811 0 0 0 0 -13.170590159783387 -27.235856305241029 0 -27.235856305241029 23.491096108246659 0 0 0 0 -14.920701541189374 3.4762014187489285 0 3.4762014187489285 3.8797765823598525 0 0 0 0 -12.784165290978425 0.3409923215938111 0 0.3409923215938111 1.0002061182541813 0 0 0 0 -15.877524807536929 -0.076964408945279672 0 -0.076964408945279672 10.594591473562559 0 0 0 0 -6.8326967256398348 2.3637621871882555 0 2.3637621871882555 1.911448669860512 0 0 0 0 -4.6341803900818874 2.1449578535196974 0 2.1449578535196974 0.31305728314325704 0 0 0 0 0.12392233207719983 -21.258147224269873 0 -21.258147224269873 29.424757381756315 0 0 0 0 -13.443085484124261 0.31323491933367276 0 0.31323491933367276 1.2763378610758167 0 0 0 0 -24.836039501911728 -34.705026971755004 0 -34.705026971755004 25.318346280020975 0 0 0 0 -3.5066382715101803 -0.27633602363129484 0 -0.27633602363129484 1.6797299496301683 0 0 0 0 -14.206386702062446 3.8306745040798091 0 3.8306745040798091 3.0116729680876517 0 0 0 0 -6.3406067467520408 3.5209508418047193 0 3.5209508418047193 -0.53389846805372021 0 0 0 0 -14.132798810378517 3.6886081561345208 0 3.6886081561345208 1.8895037615876618 0 0 0 0 -10.392946359559573 3.8855884572821537 0 3.8855884572821537 1.8034273734807584 0 0 0 0 -14.692493363174435 6.7783591487203125 0 6.7783591487203125 0.74382138997418679 0 0 0 0 -14.966240231916117 4.8600253832313314 0 4.8600253832313314 5.2158812449371226 0 0 0 0 -13.93417432678234 11.874628411981845 0 11.874628411981845 4.7099181892203887 0 0 0 0 -8.7373240173646991 12.833137302577398 0 12.833137302577398 -12.872100360153013 0 0 0 0 -12.795484723438676 10.238047750415205 0 10.238047750415205 0.092686096589332578 0 0 0 0 -13.620235134871109 1.9100817776730992 0 1.9100817776730992 6.8044111526548647 0 0 0 0 -21.867108902164091 0.20662899506039878 0 0.20662899506039878 6.4902193930496423 0 0 0 0 -19.815479679995406 8.026793365733738 0 8.026793365733738 3.597726068680771 0 0 0 0 -18.458385944235488 5.630475838885161 0 5.630475838885161 7.6284036137324165 0 0 0 0 -26.971830474631133 6.0724415433127206 0 6.0724415433127206 7.7029017297448945 0 0 0 0 -18.210803129034502 -2.4737025770267564 0 -2.4737025770267564 8.3183802816303114 0 0 0 0 -18.526104589869647 -7.0309446775699769 0 -7.0309446775699769 -0.33905969784541412 0 0 0 0 -15.543498706594619 -2.5334422827371554 0 -2.5334422827371554 4.1310479937881439 0 0 0 0 -12.539257506486138 -5.1463976905183131 0 -5.1463976905183131 6.0548263904910868 0 0 0 0 -1.3381515148792662 -1.8357104617210833 0 -1.8357104617210833 3.5980244671130133 0 0 0 0 -46.761426411780121 -40.469695990954278 0 -40.469695990954278 -48.62576765175038 0 0 0 0 -17.44059070403091 -4.4701512908792296 0 -4.4701512908792296 7.6667544526799247 0 0 0 0 -99.037524431789279 -70.090776658003904 0 -70.090776658003904 22.336196376687571 0 0 0 0 -299.97838858503565 -253.59565178529442 0 -253.59565178529442 16.695474912087121 0 0 0 0 -86.503441913850111 -125.39917255514308 0 -125.39917255514308 -132.27497476924077 0 0 0 0 -499.1983169549776 -350.18984657873722 0 -350.18984657873722 -48.461454523885948 0 0 0 0 -305.23847671720705 -212.59580794571829 0 -212.59580794571829 34.846507004927304 0 0 0 0 -105.57688941935885 -289.19406368662601 0 -289.19406368662601 -497.62072067072705 0 0 0 0 -2.5238877203217811 -0.93155517473152738 0 -0.93155517473152738 -0.77819601590870657 0 0 0 0 -66.441314485457042 -66.13413902011655 0 -66.13413902011655 -50.135821944105828 0 0 0 0 -48.272726669085841 -61.507501801964153 0 -61.507501801964153 -85.271095635140227 0 0 0 0 -6.224452047113175 -2.35825730605006 0 -2.35825730605006 -0.081537498299010164 0 0 0 0 -2.5875657790812703 -0.026236440137637373 0 -0.026236440137637373 -0.56431429361521457 0 0 0 0 -49.338484849862652 22.881559418759508 0 22.881559418759508 -46.873078935871007 0 0 0 0 -133.80858304001185 -1.1048334861931886 0 -1.1048334861931886 6.0652019305610558 0 0 0 0 -150.10282415463189 61.063373770265819 0 61.063373770265819 16.831029308772319 0 0 0 0 -499.31620995651974 245.61581471505144 0 245.61581471505144 -48.533054366743784 0 0 0 0 -498.66684880137109 91.512274434973477 0 91.512274434973477 21.144321713690267 0 0 0 0 -251.86315642163754 -32.420199726877243 0 -32.420199726877243 -29.245023425372654 0 0 0 0 -80.025733860476976 -122.97127316938162 0 -122.97127316938162 12.293028170159985 0 0 0 0 8.0509845496453636 13.855505888600828 0 13.855505888600828 -95.36027822975467 0 0 0 0 -7.1490573784121807 112.31815421474391 0 112.31815421474391 -45.304746344609349 0 0 0 0 -8.2739966198569164 33.783936028771507 0 33.783936028771507 -14.094195211286891 0 0 0 0 10.188128171120297 30.221688003838025 0 30.221688003838025 -36.226985005628819 0 0 0 0 -15.26573239960635 -4.2562298086707528 0 -4.2562298086707528 -13.882255141221208 0 0 0 0 -11.687792593951084 0.44276260600133455 0 0.44276260600133455 1.3933113521338047 0 0 0 0 -15.600515346989596 -6.3942575470518648 0 -6.3942575470518648 9.2461428721636594 0 0 0 0 -16.435662944546493 -21.774707334751383 0 -21.774707334751383 -61.212981851592275 0 0 0 0 -6.0514603909387006 0.66578617342529434 0 0.66578617342529434 -1.1502311222900659 0 0 0 0 -7.9286798909542995 3.9806276736174908 0 3.9806276736174908 -0.45154420226465675 0 0 0 0 -0.44328034771524472 -6.2037159358807648 0 -6.2037159358807648 -1.3328343311637418 0 0 0 0 -0.35533046564142623 -0.25588870643080597 0 -0.25588870643080597 -0.093477458301043051 0 0 0 0 -8.6511753677632441 0.72892527860556477 0 0.72892527860556477 -3.6177654671751966 0 0 0 0 -5.6666891882705386 5.1177634487879278 0 5.1177634487879278 1.027910557246078 0 0 0 0 -0.21389962067260626 -0.14067009633556182 0 -0.14067009633556182 -0.0306098282056484 0 0 0 0 1.3887300867190788 -3.4195961534428725 0 -3.4195961534428725 -0.72357375987563932 0 0 0 0 -1.1158090278004238 2.2546120298991603 0 2.2546120298991603 -1.0962502046469709 0 0 0 0 -3.217574484539 0.18978457768261148 0 0.18978457768261148 -0.0084363866315482552 0 0 0 0 -1.6995001063223754 1.6714653839260776 0 1.6714653839260776 -0.67457470692533028 0 0 0 0 -8.5468308993531537 1.1704564313620356 0 1.1704564313620356 0.93341419419809957 0 0 0 0 -11.191881828077385 5.6024142523585052 0 5.6024142523585052 -2.8388866370226085 0 0 0 0 -20.722265177593727 3.917004273150702 0 3.917004273150702 0.37473602104284198 0 0 0 0 -20.938700875291261 2.3735235674645305 0 2.3735235674645305 -3.5275916382226926 0 0 0 0 -21.779474656184902 1.4945330902678939 0 1.4945330902678939 0.0015041430258116275 0 0 0 0 -31.067652395688128 5.888656981048678 0 5.888656981048678 0.039239981386980816 0 0 0 0 -32.512075308434532 1.463520575438233 0 1.463520575438233 0.0059108146185179559 0 0 0 0 -37.183251806041881 3.9526901895236159 0 3.9526901895236159 2.3206416510681143 0 0 0 0 -36.275639271488217 -5.849575463279022 0 -5.849575463279022 -7.7095064052061719 0 0 0 0 -21.998613554628719 8.4043427234864652 0 8.4043427234864652 -1.1962608817625959 0 0 0 0 -29.449753510276423 1.1322438253596978 0 1.1322438253596978 0.20798833466595124 0 0 0 0 -6.4733831010648828 11.233796107908669 0 11.233796107908669 -3.5406282774688265 0 0 0 0 -40.334963740884632 11.813696516846525 0 11.813696516846525 8.7776342991252179 0 0 0 0 -42.252645842021593 -11.964488991026538 0 -11.964488991026538 4.473888656150848 0 0 0 0 -52.906572513531501 -4.9668632177114507 0 -4.9668632177114507 1.2752448035509758 0 0 0 0 -0.051278748244135031 -0.19161161439587104 0 -0.19161161439587104 -0.4597362878890775 0 0 0 0 -8.5913801110891654 0.19815623523079218 0 0.19815623523079218 -0.45931412552631912 0 0 0 0 -8.5175659931038012 2.6597340714261253 0 2.6597340714261253 0.70001448291975521 0 0 0 0 -8.2107258054038539 0.94763783553913683 0 0.94763783553913683 0.40895080673553252 0 0 0 0 -63.127807032338751 -0.40508212874195637 0 -0.40508212874195637 5.4123429711552102 0 0 0 0 -9.9394111675919703 1.1542766214749358 0 1.1542766214749358 -1.1326092034399076 0 0 0 0 -0.060114461595260904 -0.068641851461219261 0 -0.068641851461219261 -0.14072859030973955 0 0 0 0 -36.869459774166899 4.2933931115576032 0 4.2933931115576032 -1.724568626236995 0 0 0 0 -31.715761215732073 -8.1282323320430585 0 -8.1282323320430585 -1.23114140466049 0 0 0 0 -16.240717149077682 2.9178719431794025 0 2.9178719431794025 -0.0032374498909807066 0 0 0 0 -11.666919451140075 1.8978050544142726 0 1.8978050544142726 -0.24462102867129687 0 0 0 0 -10.21268900749601 -1.3720663712126153 0 -1.3720663712126153 -5.9041935847463254 0 0 0 0 -6.9255968510951789 4.5657667212943505 0 4.5657667212943505 -3.0813998380073082 0 0 0 0 -5.6463137397749961 2.1812716588618493 0 2.1812716588618493 -0.86711202987835634 0 0 0 0 -7.9622891942954084 1.4683344393554842 0 1.4683344393554842 2.2506102348715329 0 0 0 0 -8.797906779229379 -1.8034839119544612 0 -1.8034839119544612 -3.7474555505561087 0 0 0 0 -0.76367568741625291 3.2325168353887919 0 3.2325168353887919 -0.0031136116784694916 0 0 0 0 -0.58043947161058895 1.4790626802071163 0 1.4790626802071163 -1.0591699338780458 0 0 0 0 -1.0262277229758183 4.1142787269760461 0 4.1142787269760461 -3.0607281998962215 0 0 0 0 -2.7521537984393944 1.8800401985445099 0 1.8800401985445099 1.4154019492382801 0 0 0 0 -0.22783672432206004 2.5521230060433293 0 2.5521230060433293 -1.8179211764549166 0 0 0 0 -3.535796580297756 3.6893122678607249 0 3.6893122678607249 -1.3274597938652368 0 0 0 0 -6.5430931209230039 2.5953363188957752 0 2.5953363188957752 -1.0914141649024671 0 0 0 0 -6.6425907950588226 2.6483290976121134 0 2.6483290976121134 0.84542090142888782 0 0 0 0 -4.9288641276289127 3.8321230224746969 0 3.8321230224746969 0.66538514943756866 0 0 0 0 -6.6239565790201596 3.5099214919846844 0 3.5099214919846844 1.1416394645325596 0 0 0 0 -5.117238307127991 2.9186198499255624 0 2.9186198499255624 -0.0057148965749260761 0 0 0 0 -5.7370683899898722 3.6940539733292752 0 3.6940539733292752 0.39294632483933611 0 0 0 0 -6.584101385808026 2.2486246645546828 0 2.2486246645546828 0.021370455863902293 0 0 0 0 -5.3255784845423477 3.8361057145007749 0 3.8361057145007749 0.43681943491593245 0 0 0 0 -5.6390965025138939 3.0248013684862833 0 3.0248013684862833 4.3790140404155125 0 0 0 0 -0.68171151568389377 1.3264123123438276 0 1.3264123123438276 -0.09337828794094688 0 0 0 0 -3.2808402670125361 2.8658507257092509 0 2.8658507257092509 1.0564298134537182 0 0 0 0 -2.4573871606160438 1.027498517037305 0 1.027498517037305 0.27415725437258787 0 0 0 0 -3.0295976997385878 4.1871864354344339 0 4.1871864354344339 1.6660964296477028 0 0 0 0 -5.9326605424021182 3.3860026409454065 0 3.3860026409454065 0.5717004660400562 0 0 0 0 -3.7140444236301846 4.6902800952159893 0 4.6902800952159893 -0.61619949805344021 0 0 0 0 -3.9787992088430606 2.9143850627303625 0 2.9143850627303625 -1.6982869151378237 0 0 0 0 -3.1674183998220542 4.0885624329352552 0 4.0885624329352552 -0.38167891810410026 0 0 0 0 -3.7131177839564771 2.523292475413399 0 2.523292475413399 -1.5221564378812502 0 0 0 0 -5.1732022141823109 4.6893036764378166 0 4.6893036764378166 0.62769283314224822 0 0 0 0 -4.9969842826136883 4.5323272526841638 0 4.5323272526841638 -1.6263638358886527 0 0 0 0 -6.2995813356901635 2.7676381440486182 0 2.7676381440486182 -1.3415565322662815 0 0 0 0 -5.2059823848767337 8.4449474976938887 0 8.4449474976938887 -2.0758076138936303 0 0 0 0 -7.3822818560975065 9.0136736484995339 0 9.0136736484995339 -2.2241158701016275 0 0 0 0 -1.6353707641389761 1.7565192229195894 0 1.7565192229195894 -0.052938222243839039 0 0 0 0 -7.0679962704377139 6.2770404978301375 0 6.2770404978301375 -1.5398714233077904 0 0 0 0 1.5007021513483778 8.4797635233309805 0 8.4797635233309805 -3.6213487961847335 0 0 0 0 4.2694167085137451 17.247212481989898 0 17.247212481989898 -7.779223404438298 0 0 0 0 0.63943314626502712 3.1394015495992686 0 3.1394015495992686 -0.016159193706348107 0 0 0 0 -1.3119219363697994 4.6757964008669006 0 4.6757964008669006 -2.735750297921129 0 0 0 0 -5.8457269778514274 6.1979637656286659 0 6.1979637656286659 -2.7499680268996656 0 0 0 0 -1.5302815391987679 5.2886351679599102 0 5.2886351679599102 -0.91396386956571973 0 0 0 0 -0.012465786200678508 -5.7256411294664185 0 -5.7256411294664185 -5.9378483506069699 0 0 0 0 2.0218702843405296 1.0821520840519092 0 1.0821520840519092 -0.34084442515671509 0 0 0 0 -4.3768891233376053 16.734132855800638 0 16.734132855800638 -15.096800912470215 0 0 0 0 -38.848334829786836 32.527734053224876 0 32.527734053224876 -8.1801433240614614 0 0 0 0 -59.117222574914194 -16.579478387926564 0 -16.579478387926564 -4.6964774980201938 0 0 0 0 -0.31542361620176962 21.391838277856944 0 21.391838277856944 -39.010565079199864 0 0 0 0 -91.616108852535547 26.249413598087941 0 26.249413598087941 -1.864015375611757 0 0 0 0 -0.04600704848135706 0.31358592428070864 0 0.31358592428070864 -0.26009351156020971 0 0 0 0 -42.556779337188345 -24.178448626849331 0 -24.178448626849331 -7.3812481083593298 0 0 0 0 -91.495276971265412 5.2480109750830515 0 5.2480109750830515 7.6847407385689195 0 0 0 0 -0.023285246051996111 2.5007053184799406 0 2.5007053184799406 -34.787398427343902 0 0 0 0 -3.8195176402587094 -9.841390556910401 0 -9.841390556910401 -24.636828069957176 0 0 0 0 -0.029039532740817053 -0.099439090047614087 0 -0.099439090047614087 0.043323745964487889 0 0 0 0 -12.188525919368203 2.1208918045460123 0 2.1208918045460123 0.53804639563963974 0 0 0 0 -1.2509495335214211 0.40754901688551115 0 0.40754901688551115 -0.44885125186248204 0 0 0 0 -85.456315329017343 12.162850987289971 0 12.162850987289971 9.6666974556296239 0 0 0 0 -80.519998648651381 25.078978598082095 0 25.078978598082095 -7.1703585467641116 0 0 0 0 -0.1845624654131246 -0.17800467674317133 0 -0.17800467674317133 -0.53019082118244243 0 0 0 0 -43.380585323551713 19.376369154853212 0 19.376369154853212 -21.922218903468675 0 0 0 0 -23.980560975100161 -9.2457912260403035 0 -9.2457912260403035 -4.3245416161847743 0 0 0 0 -4.7876622803396458 1.2695609452300758 0 1.2695609452300758 -0.4773205765026205 0 0 0 0 0.025256440243808242 -0.0017471554050132454 0 -0.0017471554050132454 -0.20087656403182441 0 0 0 0 -2.8264358671567607 -0.17118558395113581 0 -0.17118558395113581 -1.073985834690788 0 0 0 0 -3.6866682852705708 1.9749326678570611 0 1.9749326678570611 -0.63265903535659618 0 0 0 0 -2.6388252473912424 1.9938749533969915 0 1.9938749533969915 -1.1822799933035271 0 0 0 0 -4.6630517983649042 1.7598274000798 0 1.7598274000798 -0.50281891040653903 0 0 0 0 -4.3560424380139011 1.4701720483535254 0 1.4701720483535254 -0.80567656333680304 0 0 0 0 -3.5005727844168177 2.1231784188396068 0 2.1231784188396068 -0.87801191482350305 0 0 0 0 -6.1900996903859777 2.4669404802535553 0 2.4669404802535553 0.24982044473526344 0 0 0 0 -6.1321672026172109 0.48052205886124166 0 0.48052205886124166 -0.85199445404414575 0 0 0 0 -75.756192511302288 -24.883601544702387 0 -24.883601544702387 8.9973767421260078 0 0 0 0 -84.431372115330305 47.551976411939826 0 47.551976411939826 -37.543976142154534 0 0 0 0 -21.780640671917354 28.027311722766967 0 28.027311722766967 -20.228721822577072 0 0 0 0 -80.613006710098489 12.295146636483388 0 12.295146636483388 8.8505927412181649 0 0 0 0 -5.8598871986887389 -5.9136171114777483 0 -5.9136171114777483 -2.835113817363796 0 0 0 0 -0.3218510808149766 -0.34800041461003772 0 -0.34800041461003772 -0.11475425660104205 0 0 0 0 5.2583382314696792 10.234349871532373 0 10.234349871532373 2.9451530751058499 0 0 0 0 -2.7472732055466622 2.5066040409909078 0 2.5066040409909078 15.314040144139369 0 0 0 0 -0.42296793443370717 0.12299459412576041 0 0.12299459412576041 0.1037858554826061 0 0 0 0 -2.0098105441720691 0.53271145922151319 0 0.53271145922151319 2.4974963545433866 0 0 0 0 1.7265948235835822 1.1760679091982653 0 1.1760679091982653 -7.7668942353754673 0 0 0 0 3.7163216943154112 7.002725236022421 0 7.002725236022421 -3.8192550589653109 0 0 0 0 0.19632500697298383 -0.95315399346625362 0 -0.95315399346625362 -7.5380430605570439 0 0 0 0 11.042030339993289 -9.8075033602670878 0 -9.8075033602670878 -14.513629522253822 0 0 0 0 -0.68727452812890988 0.74529360492502761 0 0.74529360492502761 -10.463002009050342 0 0 0 0 -14.939043086771562 -16.98450787291533 0 -16.98450787291533 -11.260360543365671 0 0 0 0 -0.56784443031143894 0.25960452691217206 0 0.25960452691217206 -0.16356758473982347 0 0 0 0 -47.387408952927217 -28.044724586243717 0 -28.044724586243717 -17.58340647828787 0 0 0 0 -6.7534609863068908 -12.785980622596327 0 -12.785980622596327 -35.082676231272558 0 0 0 0 -32.163999552811219 -6.0355494309520328 0 -6.0355494309520328 -5.8490233523018347 0 0 0 0 -40.847226360070636 -18.089044297573224 0 -18.089044297573224 -0.092220198307018109 0 0 0 0 -82.619888756918954 -20.86604105935951 0 -20.86604105935951 -0.2494884593825617 0 0 0 0 -95.434774073562494 -8.9853798305697961 0 -8.9853798305697961 12.94056552601127 0 0 0 0 -88.184606012044242 11.122810623004192 0 11.122810623004192 11.012810164484062 0 0 0 0 -78.577766295504262 -7.0880061130117262 0 -7.0880061130117262 7.911674311902388 0 0 0 0 -72.010156994569115 -0.74305174549037112 0 -0.74305174549037112 1.194382179231976 0 0 0 0 -65.17307831058497 11.535425358048748 0 11.535425358048748 5.8855957407374646 0 0 0 0 -65.064557914723991 11.589904733068209 0 11.589904733068209 -6.4676029598054612 0 0 0 0 -38.653975135806832 -2.6565663746961192 0 -2.6565663746961192 -1.332487905796679 0 0 0 0 -37.119584009424671 -10.538661660216118 0 -10.538661660216118 -3.115609654059611 0 0 0 0 -19.887698278522294 -4.3974387073042323 0 -4.3974387073042323 -17.62493504847253 0 0 0 0 -43.006465775926699 20.565113094329519 0 20.565113094329519 -34.755608323458944 0 0 0 0 -1.0121641602127056 -4.6186944925398876 0 -4.6186944925398876 -4.1087486012820449 0 0 0 0 -23.376563678389175 -12.815666728572081 0 -12.815666728572081 -2.9709158524370878 0 0 0 0 -13.346062113829248 0.50017249328137048 0 0.50017249328137048 -10.134373495116122 0 0 0 0 -2.0645740528507304 -8.5619474065618704 0 -8.5619474065618704 -13.409820575361977 0 0 0 0 -1.7634660501589678 -6.1144862629905639 0 -6.1144862629905639 -4.1236126751141065 0 0 0 0 9.8313610196810259 -6.2611660383569454 0 -6.2611660383569454 -4.6401248149169518 0 0 0 0 -8.4411195331558204 -5.9091602599449473 0 -5.9091602599449473 1.7315509229494217 0 0 0 0 4.6172941133718268 -2.4006998244300775 0 -2.4006998244300775 -3.1637851770780543 0 0 0 0 -7.1443055392529331 -6.4000932966760242 0 -6.4000932966760242 1.1342129764905067 0 0 0 0 8.6607505973515799 -20.202602636448162 0 -20.202602636448162 -0.16482673342572696 0 0 0 0 -9.9164875968672277 -9.3609008994132523 0 -9.3609008994132523 -0.34955802281365322 0 0 0 0 -11.443325170163916 -9.9534519327078783 0 -9.9534519327078783 1.7923172565442655 0 0 0 0 -10.639630729744567 -10.846921088711923 0 -10.846921088711923 -1.8436407314666212 0 0 0 0 -9.3094176783197327 -10.548346467094461 0 -10.548346467094461 -1.8775195612839184 0 0 0 0 2.9865450356676178 -2.1633964518218054 0 -2.1633964518218054 -2.0022735792512862 0 0 0 0 -18.402183747370145 -14.178446714040263 0 -14.178446714040263 5.0992677626305749 0 0 0 0 -15.885718235806053 -14.148368669803403 0 -14.148368669803403 -1.9553117543692906 0 0 0 0 -18.777253726611434 -12.101603006829151 0 -12.101603006829151 4.7142568109530885 0 0 0 0 -22.429593561078946 -11.923831633561633 0 -11.923831633561633 11.324684425155738 0 0 0 0 -21.897663403546176 -2.8979906735901295 0 -2.8979906735901295 5.4486879395211076 0 0 0 0 -20.928500056952089 -5.465126058379056 0 -5.465126058379056 11.657546266052691 0 0 0 0 -17.33677782047198 -9.0654679331933039 0 -9.0654679331933039 4.7035887596953216 0 0 0 0 -55.119865319406927 7.0185319234766155 0 7.0185319234766155 42.231752234401938 0 0 0 0 -17.081209464421146 0.95034439929238701 0 0.95034439929238701 1.0796864528800296 0 0 0 0 0.8259481061832048 -0.047862046638753597 0 -0.047862046638753597 0.15555302922372505 0 0 0 0 4.6411792736389543 -3.6499639814006191 0 -3.6499639814006191 0.13517522281063776 0 0 0 0 -5.7539238636709342 -0.22538436207992163 0 -0.22538436207992163 -0.031457393316046023 0 0 0 0 -1.5418665094823467 -0.4390488964366055 0 -0.4390488964366055 0.14695762455001651 0 0 0 0 -5.5609138460990835 1.7685714572051605 0 1.7685714572051605 0.25723631469121244 0 0 0 0 -4.4364768109298893 -0.48433183680153036 0 -0.48433183680153036 -0.39081095047700387 0 0 0 0 -1.8093519863878775 1.1157296046618725 0 1.1157296046618725 1.571413524673708 0 0 0 0 -8.266989248120808 1.4270915030837514 0 1.4270915030837514 0.62341785602212951 0 0 0 0 50.631590538789169 -0.73316013708037531 0 -0.73316013708037531 -129.73992674726367 0 0 0 0 -2.5782091115743242 -0.46386653013262835 0 -0.46386653013262835 -0.090464135947096125 0 0 0 0 -2.096948996777428 -0.54602529420512269 0 -0.54602529420512269 -0.14974610698951096 0 0 0 0 -1.3174280211681832 0.11407590071835294 0 0.11407590071835294 -0.15611076450037073 0 0 0 0 -1.2986636515197461 -0.048772597876578061 0 -0.048772597876578061 -0.36264458320727044 0 0 0 0 -2.3525170540933686 0.006480947524934777 0 0.006480947524934777 -0.36047082533195862 0 0 0 0 -1.2138592803447104 -0.26552415781604211 0 -0.26552415781604211 -0.37540063271531388 0 0 0 0 -5.3196540030985489 1.5777723543291415 0 1.5777723543291415 -2.5417369063406792 0 0 0 0 -3.7181934325462862 -0.30072290716798378 0 -0.30072290716798378 -0.32867912083953144 0 0 0 0 -4.0221618672799195 -0.52914691471086783 0 -0.52914691471086783 0.096668711218057979 0 0 0 0 -0.39624002491200372 1.0857405779842679 0 1.0857405779842679 -1.0747719386936296 0 0 0 0 -3.4493501544957326 -1.5248129396673704 0 -1.5248129396673704 1.0137435637269618 0 0 0 0 -0.75288062479225459 -0.28684719799201375 0 -0.28684719799201375 0.019274487204848922 0 0 0 0 -3.1922048363976501 -1.8439364111943064 0 -1.8439364111943064 -0.82669250045970299 0 0 0 0 -1.9221357350574202 -0.17500074137316579 0 -0.17500074137316579 -0.0032897067261306867 0 0 0 0 -4.0338655277773796 0.90739807359338442 0 0.90739807359338442 5.3208361585656121 0 0 0 0 -3.5367517961071826 -4.5100365587211115 0 -4.5100365587211115 -9.2423919826874226 0 0 0 0 1.3222477107465238 5.2515785894233318 0 5.2515785894233318 -4.1063972813607279 0 0 0 0 -2.2290117485208611 -2.2823309795273872 0 -2.2823309795273872 -12.395294604448935 0 0 0 0 -1.939462459022252 -5.8217281488857395 0 -5.8217281488857395 -8.4655068923101453 0 0 0 0 -6.1629369457268695 -12.767394211831686 0 -12.767394211831686 -18.402914776543184 0 0 0 0 -13.616761828570816 -16.137868706599136 0 -16.137868706599136 -11.316041714267271 0 0 0 0 -8.846371087105581 -13.367786581740631 0 -13.367786581740631 -9.9743601894142557 0 0 0 0 -9.3115144463536126 -13.368749600055054 0 -13.368749600055054 -8.8401903456658601 0 0 0 0 -11.250498542982314 -13.700244367824979 0 -13.700244367824979 -2.229092556347382 0 0 0 0 -15.942937797823106 -18.976845636846406 0 -18.976845636846406 -7.9554154593796511 0 0 0 0 -9.7056643318064744 -8.2524071409915791 0 -8.2524071409915791 -1.4542700444173988 0 0 0 0 -15.533129728533822 -7.2219373144555448 0 -7.2219373144555448 -1.6287175201653099 0 0 0 0 -8.1578329102812859 -10.667001175443943 0 -10.667001175443943 -2.263690875221414 0 0 0 0 -10.544252292200326 -13.618245009109557 0 -13.618245009109557 -4.4988217169847076 0 0 0 0 -5.4799889052410435 -9.4767598661389911 0 -9.4767598661389911 -5.2500784469159498 0 0 0 0 -7.9414560778614032 -8.1289115484446199 0 -8.1289115484446199 -0.36606860029291965 0 0 0 0 -5.5098222372398595 -9.158495044223514 0 -9.158495044223514 -2.9360678531310782 0 0 0 0 0.033446923186463806 -0.056940858846441955 0 -0.056940858846441955 -0.013550308501788733 0 0 0 0 -0.52506664079919574 -2.1848653732553203 0 -2.1848653732553203 -3.2516425711811507 0 0 0 0 -2.0586916465254035 -1.7755400238469292 0 -1.7755400238469292 -0.82634245308749898 0 0 0 0 -4.1429154232655492 -5.9319434362603545 0 -5.9319434362603545 -5.7145324185954678 0 0 0 0 -1.0854813091536926 1.7251890684488558 0 1.7251890684488558 -1.5401757317061993 0 0 0 0 -2.1804407419513154 -2.1508600397540363 0 -2.1508600397540363 -1.5875511065233923 0 0 0 0 -9.2153273610566231 -2.4095937783272756 0 -2.4095937783272756 1.4882435015347302 0 0 0 0 -3.4962952737485864 -2.3154484784906 0 -2.3154484784906 -0.92650727260533605 0 0 0 0 -5.4251905349719891 -2.2548726477803029 0 -2.2548726477803029 1.3427238352257973 0 0 0 0 -20.515307994039176 -27.413426348604006 0 -27.413426348604006 19.281481559472837 0 0 0 0 -7.0088656881825955 -0.13428931807345634 0 -0.13428931807345634 -3.3587528562896978 0 0 0 0 -11.609384662707271 6.2056468579976949 0 6.2056468579976949 5.1972803921049859 0 0 0 0 -12.547028466939082 1.0714977286769738 0 1.0714977286769738 -0.41027785738583589 0 0 0 0 -12.477630706544005 0.69808347607840915 0 0.69808347607840915 0.13942884890923324 0 0 0 0 -12.159875401212048 -0.025052176631334078 0 -0.025052176631334078 0.2333169976716718 0 0 0 0 -11.868135134664044 0.25379327637503479 0 0.25379327637503479 -1.1083672032616505 0 0 0 0 -10.510742513795776 -0.40024148772257817 0 -0.40024148772257817 -0.93941770005689307 0 0 0 0 -11.144514320491908 1.2861397706166251 0 1.2861397706166251 -0.45619350360018984 0 0 0 0 -2.0632563012420562 -1.9668292071374385 0 -1.9668292071374385 0.70783969227998345 0 0 0 0 -12.021715632174164 0.022091836234693574 0 0.022091836234693574 -1.2723423579038808 0 0 0 0 -3.0734631835393884 -2.2676147755973446 0 -2.2676147755973446 1.2474385748155328 0 0 0 0 -3.6779966163740028 -1.7304671311006246 0 -1.7304671311006246 1.1576838029133967 0 0 0 0 -2.9398714186390862 -2.7543259240707698 0 -2.7543259240707698 -0.72474332679416875 0 0 0 0 -3.1085291747549491 -2.2189202350687083 0 -2.2189202350687083 0.84971499128698724 0 0 0 0 -3.7048534010828007 -1.4357414473005292 0 -1.4357414473005292 1.548958502671951 0 0 0 0 -3.3693032226110518 -2.4082441269615629 0 -2.4082441269615629 1.0180397401311438 0 0 0 0 -2.5971556432759826 -1.5509507008953278 0 -1.5509507008953278 2.1907614885299154 0 0 0 0 -3.3209050285022386 -2.6051617323071241 0 -2.6051617323071241 1.8190184287548163 0 0 0 0 -1.3960586971372848 -0.617180356378773 0 -0.617180356378773 0.10522221231412607 0 0 0 0 -4.5006242581421247 -1.6947466998015006 0 -1.6947466998015006 0.23001649656592749 0 0 0 0 -4.4754008033796708 -0.26438678799630466 0 -0.26438678799630466 -0.057641588506899488 0 0 0 0 -3.4748327218075801 -0.51764094604043365 0 -0.51764094604043365 0.11508927038210465 0 0 0 0 -0.38954208389457978 -0.2240268141312729 0 -0.2240268141312729 -0.077874729555061917 0 0 0 0 -4.2761452868726337 -0.46237720095155055 0 -0.46237720095155055 5.453775341054552 0 0 0 0 -11.844397195030069 -2.3282361486759839 0 -2.3282361486759839 1.0681719461534271 0 0 0 0 -12.863476144560991 -0.54419766983459894 0 -0.54419766983459894 -0.072736706605013524 0 0 0 0 0.35639355047443644 -1.1751984478632382 0 -1.1751984478632382 -0.076624645291086327 0 0 0 0 -16.834512553155946 2.8806568515018398 0 2.8806568515018398 1.96797076981494 0 0 0 0 -1.0268995107644514 -3.0174183915358697 0 -3.0174183915358697 0.76241399710875157 0 0 0 0 -2.4089953315264161 -2.1388390725786559 0 -2.1388390725786559 -0.036597229883872956 0 0 0 0 -10.558130931223786 -0.54916574065413215 0 -0.54916574065413215 -0.024560596093408549 0 0 0 0 -11.140025659587991 2.5988346870416308 0 2.5988346870416308 0.074555931318485591 0 0 0 0 -9.5038543091595784 2.312321107314844 0 2.312321107314844 -1.1682686442390491 0 0 0 0 -12.911223861970939 0.681600648172207 0 0.681600648172207 -0.48211088413234648 0 0 0 0 -11.492331476769323 -0.82139248036656909 0 -0.82139248036656909 -0.020806441979360102 0 0 0 0 -11.993570947022818 -0.031298766153156521 0 -0.031298766153156521 -0.2236268077400041 0 0 0 0 -10.282223212005192 0.67249726865077264 0 0.67249726865077264 -0.6452083746408448 0 0 0 0 -10.584959327914476 1.3164642355753813 0 1.3164642355753813 -1.9703396718141448 0 0 0 0 -7.8726157825076371 -0.25996139405680196 0 -0.25996139405680196 -1.365323020381453 0 0 0 0 -8.2711472589107871 1.0487655484977267 0 1.0487655484977267 -5.0441466550420841 0 0 0 0 -6.5074440878270252 2.991623074652864 0 2.991623074652864 -3.0023783049857684 0 0 0 0 -8.0066136855257355 6.7151977654646657 0 6.7151977654646657 -12.050694481244761 0 0 0 0 -9.9354736942659656 3.9219020670376636 0 3.9219020670376636 -3.2540580160870434 0 0 0 0 -9.7736015832669807 0.35047840626593629 0 0.35047840626593629 3.8276665103499568 0 0 0 0 -12.70834330836351 5.5138678482424268 0 5.5138678482424268 2.6542124853045124 0 0 0 0 -2.7873960535107898 0.63059908744897264 0 0.63059908744897264 0.098913689234278623 0 0 0 0 -9.3194402253284352 7.1093113276712643 0 7.1093113276712643 -2.0182329127391085 0 0 0 0 -15.338249430254109 -0.069783974439516783 0 -0.069783974439516783 -1.144173217631419 0 0 0 0 -16.748659396340372 2.085974585902477 0 2.085974585902477 0.40123205337908985 0 0 0 0 -14.978297812274832 2.3948656316672725 0 2.3948656316672725 0.36945016589152146 0 0 0 0 -12.325485220719202 0.72686030816720404 0 0.72686030816720404 -1.005749937478754 0 0 0 0 -12.808861590317974 0.045931423961178552 0 0.045931423961178552 -0.1697145022256592 0 0 0 0 -13.062578500241216 0.60838612960111504 0 0.60838612960111504 -0.81793700759021704 0 0 0 0 -12.951902692777367 0.69260408559620146 0 0.69260408559620146 -2.3768211539191952 0 0 0 0 -12.680575851557336 -1.7808061485387761 0 -1.7808061485387761 1.2825199601436408 0 0 0 0 -14.057588769563154 0.041897991255552824 0 0.041897991255552824 0.34144316922390772 0 0 0 0 -19.345887610239515 1.1040011139331227 0 1.1040011139331227 0.15589753860109568 0 0 0 0 -2.9776481281856988 -0.313568813566107 0 -0.313568813566107 1.0283021587522783 0 0 0 0 -27.360448606656064 -2.715419516267918 0 -2.715419516267918 22.720813042741881 0 0 0 0 -13.261549413769899 12.208709793110678 0 12.208709793110678 7.9415487407363372 0 0 0 0 -15.01259404170014 13.960965404242152 0 13.960965404242152 8.8188783206366494 0 0 0 0 -6.7314804421148438 9.6831770749532353 0 9.6831770749532353 -4.7952321871036219 0 0 0 0 -8.8671154006986868 5.2944401470013904 0 5.2944401470013904 -1.0580216775931708 0 0 0 0 -5.3442477977132512 7.973962114348069 0 7.973962114348069 -4.1018514842104992 0 0 0 0 -6.5870844527639747 6.1836190794256254 0 6.1836190794256254 -0.9376787757860825 0 0 0 0 -8.3680463815981057 8.1953211309254499 0 8.1953211309254499 -2.3909748235297457 0 0 0 0 -8.043637321668939 7.0840227742612285 0 7.0840227742612285 0.17357176377612404 0 0 0 0 -8.0388503161721019 7.5680977803027361 0 7.5680977803027361 5.0790963087644911 0 0 0 0 -4.4082821861620687 6.8412823992566842 0 6.8412823992566842 -0.6472890137465015 0 0 0 0 -7.8005336629785234 8.4148127512837618 0 8.4148127512837618 0.37148925899214191 0 0 0 0 -6.6293328661258784 6.3065619460345772 0 6.3065619460345772 -9.1488249484052631 0 0 0 0 -2.6992463192491414 9.88779784936807 0 9.88779784936807 -15.07465319107169 0 0 0 0 -4.2542024962658616 7.7736620542154782 0 7.7736620542154782 -14.897818371735351 0 0 0 0 -13.017977060066187 8.2069850475881765 0 8.2069850475881765 -1.6146408186755821 0 0 0 0 -3.4532130379757291 -7.0383448600860277 0 -7.0383448600860277 -3.4880278433412855 0 0 0 0 -0.60868581840122715 0.21153811554367152 0 0.21153811554367152 -0.93101585814557097 0 0 0 0 -3.5218166903314341 -5.8360858690368289 0 -5.8360858690368289 1.8778708634994246 0 0 0 0 -2.4609558235944426 -1.0461580520731291 0 -1.0461580520731291 0.013224800620450936 0 0 0 0 0.36763127049160538 -1.659920192942856 0 -1.659920192942856 -1.3353785677354582 0 0 0 0 -4.2407827904025908 5.656227293320967 0 5.656227293320967 -6.4903227365678049 0 0 0 0 -0.63091409472372106 -1.0829804931484546 0 -1.0829804931484546 -7.2958874154215891 0 0 0 0 -7.6998721034871558 -1.7701994160513639 0 -1.7701994160513639 -0.61757297996533334 0 0 0 0 -6.792316206537329 -1.6873669842947479 0 -1.6873669842947479 0.031363836583610777 0 0 0 0 -17.074232927992853 6.3523682865075557 0 6.3523682865075557 5.1040544382885855 0 0 0 0 -0.61578744148621922 0.30318933855524044 0 0.30318933855524044 0.079273344988402217 0 0 0 0 -6.5844818011682946 0.58307306764743316 0 0.58307306764743316 1.9326626610757103 0 0 0 0 -6.4419555935763242 0.75129734168368123 0 0.75129734168368123 0.38061848387701114 0 0 0 0 -6.8226015798627486 -0.91172017837641306 0 -0.91172017837641306 3.7202743443425561 0 0 0 0 -4.2177361076647326 1.3623177778578039 0 1.3623177778578039 3.3531712752156739 0 0 0 0 -17.256018638204296 21.244599548883059 0 21.244599548883059 8.1481277679131381 0 0 0 0 -9.747670063438818 -11.417163040328091 0 -11.417163040328091 12.96529681110087 0 0 0 0 -7.5997749701365791 -2.5102287301990343 0 -2.5102287301990343 -0.093646472026657546 0 0 0 0 -3.5745080066717492 -0.84579202687922361 0 -0.84579202687922361 2.2776722243538643 0 0 0 0 -2.739176049713933 -10.303112183377038 0 -10.303112183377038 -0.59734211848990526 0 0 0 0 -6.3728274667664664 -2.9818622003547262 0 -2.9818622003547262 -8.3681048332257433 0 0 0 0 -35.851415593981756 -1.0535370426139821 0 -1.0535370426139821 -3.2427259773510286 0 0 0 0 -43.09529766644232 -16.816290572614463 0 -16.816290572614463 -3.2596589306283477 0 0 0 0 -16.715513231230034 -4.1777261514272368 0 -4.1777261514272368 -7.8083533963165337 0 0 0 0 -31.660007668280741 -7.1950353043278028 0 -7.1950353043278028 -3.0739936635227423 0 0 0 0 -27.090126770031475 -12.604475050400424 0 -12.604475050400424 -9.1516648931649343 0 0 0 0 -18.877998336800374 -6.3165979826848115 0 -6.3165979826848115 -5.1979974922555812 0 0 0 0 0.26677604326173743 0.77173596887983287 0 0.77173596887983287 0.19106132723706448 0 0 0 0 -3.1258237027435101 3.2734332594827968 0 3.2734332594827968 1.6667703333659736 0 0 0 0 16.12008026914873 12.96454807404109 0 12.96454807404109 2.0099761213582497 0 0 0 0 -28.871693450530074 -9.24070983425554 0 -9.24070983425554 -5.1621545265700206 0 0 0 0 -0.45703792960537371 0.25029040355701326 0 0.25029040355701326 0.23194872898676522 0 0 0 0 18.848533562515513 0.99085481820929999 0 0.99085481820929999 7.985332448565714 0 0 0 0 -9.6715248739924391 2.0320759604597356 0 2.0320759604597356 1.1023525467513764 0 0 0 0 -7.6660618092691948 -0.18999984027351502 0 -0.18999984027351502 1.4050929306051785 0 0 0 0 10.266335235451507 -13.265568699999525 0 -13.265568699999525 -7.4456055874970843 0 0 0 0 10.282397238753219 -11.554584698791416 0 -11.554584698791416 -0.7893086653912178 0 0 0 0 -2.5368723529431456 -1.2532860353919109 0 -1.2532860353919109 1.4448166548052024 0 0 0 0 -9.2738835520440261 1.9184475430086536 0 1.9184475430086536 0.1869380153590896 0 0 0 0 -8.2550054691655532 -0.3625892407549145 0 -0.3625892407549145 1.9191896544642475 0 0 0 0 -1.4090870058335767 -1.4483296695941572 0 -1.4483296695941572 1.2718694977620799 0 0 0 0 -13.911395098673893 -0.054659614344672036 0 -0.054659614344672036 6.1220272203323702 0 0 0 0 -3.6780817958670013 -11.698530415663626 0 -11.698530415663626 5.552561790674936 0 0 0 0 -9.5900185269515532 -2.4497365930353823 0 -2.4497365930353823 5.3041607349387618 0 0 0 0 -7.981460568111288 -0.083567517686901738 0 -0.083567517686901738 3.691614430682705 0 0 0 0 -3.3344490409227046 -1.2135359552360416 0 -1.2135359552360416 1.4271991397205419 0 0 0 0 -6.8364676371056703 0.75658798085146373 0 0.75658798085146373 1.0127813621488002 0 0 0 0 -3.5080918368803395 -4.5783769505811591 0 -4.5783769505811591 -11.539377847322271 0 0 0 0 -5.6024523101132218 -6.1253847331920355 0 -6.1253847331920355 -1.3387313709426962 0 0 0 0 -7.5754362637406878 -0.59496923532693691 0 -0.59496923532693691 0.44521398170038362 0 0 0 0 -10.352996122679542 -3.7002135236799631 0 -3.7002135236799631 5.5398517477273117 0 0 0 0 -10.560797678290328 -0.5860885918110057 0 -0.5860885918110057 0.39933549411819058 0 0 0 0 -4.8940150206599355 -1.7721752098367614 0 -1.7721752098367614 1.1895519249400301 0 0 0 0 -5.7528971341973261 -0.79899942112195921 0 -0.79899942112195921 0.34108810014338697 0 0 0 0 -7.9364363497443264 -0.68785347826809584 0 -0.68785347826809584 0.70185374171311565 0 0 0 0 -4.3346912599138392 -2.4785173218358967 0 -2.4785173218358967 1.3018279423572177 0 0 0 0 -7.677490890973786 0.026315014409476589 0 0.026315014409476589 1.6934128324377866 0 0 0 0 -7.4331661187093232 0.48809971947642339 0 0.48809971947642339 1.1265486539505218 0 0 0 0 -1.7307753219720103 0.57176662287407076 0 0.57176662287407076 -0.045345370604801483 0 0 0 0 -7.8407014072399761 0.92972616438450473 0 0.92972616438450473 0.82302952074670088 0 0 0 0 -8.4415238791843876 0.59372180179970258 0 0.59372180179970258 1.4583540119449481 0 0 0 0 -9.0717504753292815 0.52249792387641492 0 0.52249792387641492 5.4882766712812554 0 0 0 0 -9.8615667131180089 -1.4459140063263192 0 -1.4459140063263192 2.112680351881437 0 0 0 0 -11.515712014579549 -0.70207475595387336 0 -0.70207475595387336 6.1972178353728822 0 0 0 0 -12.79743679303283 0.88364194998302992 0 0.88364194998302992 5.5453268153119097 0 0 0 0 -40.394860027627146 7.4393147282468703 0 7.4393147282468703 3.142049850281964 0 0 0 0 -12.010876091412683 0.086778355522000084 0 0.086778355522000084 4.4910926377806391 0 0 0 0 2.7624623812562277 2.5265819349449998 0 2.5265819349449998 -3.6336126063706899 0 0 0 0 14.467701879812921 12.751231666719974 0 12.751231666719974 -11.217552825942562 0 0 0 0 -15.245975822427226 4.3580587850874508 0 4.3580587850874508 6.7158559948704806 0 0 0 0 -0.3213786764667983 -0.085507678220949401 0 -0.085507678220949401 -0.010700273765868462 0 0 0 0 -8.3378797379773459 5.3186456470117065 0 5.3186456470117065 6.2925301421784638 0 0 0 0 -1.1461281255260474 4.2758367129171972 0 4.2758367129171972 2.4902561389776849 0 0 0 0 -6.431656767160348 1.1734147409402595 0 1.1734147409402595 -0.61785479127428289 0 0 0 0 -6.6158295195841674 1.0606641760080464 0 1.0606641760080464 -0.33740093108872315 0 0 0 0 -9.7691255085901503 0.87390128736933548 0 0.87390128736933548 -0.23194840522475602 0 0 0 0 -6.2654812449036399 1.0034936045427401 0 1.0034936045427401 -0.4989977493900426 0 0 0 0 0.06853706750193389 -0.10939115209588834 0 -0.10939115209588834 -0.073743600691392297 0 0 0 0 -20.514894326567628 3.2028820374556517 0 3.2028820374556517 0.021753418955768211 0 0 0 0 -11.220051667482949 8.6775512120913447 0 8.6775512120913447 -5.2918360382197989 0 0 0 0 -2.4047641204815591 2.0726501258054668 0 2.0726501258054668 -3.859317470956853 0 0 0 0 -1.3574620698633204 0.4239302177577482 0 0.4239302177577482 -0.15670005669909637 0 0 0 0 -0.079642807220807299 1.8002892129338193 0 1.8002892129338193 -6.6545301057353186 0 0 0 0 -4.3878627112135291 3.869805591222871 0 3.869805591222871 -4.5649131277708079 0 0 0 0 -4.7226958081782868 3.3931502763215633 0 3.3931502763215633 -4.3930159065246244 0 0 0 0 -4.7788524000961843 2.7249105318393276 0 2.7249105318393276 -1.3774873537591361 0 0 0 0 -5.5120372856299582 2.5725410010303023 0 2.5725410010303023 -1.3529107807345895 0 0 0 0 -7.7049130729828903 4.7839081201449574 0 4.7839081201449574 -2.9637910088268029 0 0 0 0 -5.7899947388850705 1.0158936098157767 0 1.0158936098157767 -1.0444771619543758 0 0 0 0 -1.8751860426489984 2.4382745741524801 0 2.4382745741524801 -1.7408797895736927 0 0 0 0 -6.6984539938248417 1.7228096544866247 0 1.7228096544866247 -0.93279956309308432 0 0 0 0 -6.0532421480129415 1.0634232498124376 0 1.0634232498124376 -0.99319002150719626 0 0 0 0 -5.4845195869547751 1.1198277903486691 0 1.1198277903486691 -1.2070098682664181 0 0 0 0 -6.5168633158573357 0.92579802234189401 0 0.92579802234189401 -0.18966717784252296 0 0 0 0 -5.6754463233337447 0.14512742011124757 0 0.14512742011124757 -0.26873667266272783 0 0 0 0 -2.2288876267645144 -0.37425895904789819 0 -0.37425895904789819 0.18640029047049578 0 0 0 0 -3.8834463106832118 -0.20065735628191383 0 -0.20065735628191383 -0.45029834916002187 0 0 0 0 -2.6475388833246107 -0.041283576610619876 0 -0.041283576610619876 -0.16143997771103136 0 0 0 0 -2.0812436029916626 0.13111303679452257 0 0.13111303679452257 -0.24231650359427981 0 0 0 0 -3.7962679910797306 -0.31030602352027614 0 -0.31030602352027614 -0.31428472246774675 0 0 0 0 -1.6966499007576203 0.561221147227144 0 0.561221147227144 0.32846771353138138 0 0 0 0 -2.3812492552660842 3.4523294917451466 0 3.4523294917451466 -3.8988631196407368 0 0 0 0 -2.2638627996366267 2.8865623500633433 0 2.8865623500633433 -1.9515127171184758 0 0 0 0 -2.2966494233924237 0.23765637220577851 0 0.23765637220577851 -0.10864553254506416 0 0 0 0 -2.3058707479423788 0.2730876377493221 0 0.2730876377493221 -0.84527520537791134 0 0 0 0 -2.4221588947748387 1.8313009128443127 0 1.8313009128443127 -1.3198033918158671 0 0 0 0 -3.1045196846425824 2.6391989064289874 0 2.6391989064289874 -2.1828509275177623 0 0 0 0 -5.1137829725703341 1.5974716005777054 0 1.5974716005777054 -1.2527715295478856 0 0 0 0 -0.18537763931137974 1.0397908703781351 0 1.0397908703781351 -0.17891133064541245 0 0 0 0 -2.0776972659306203 2.2243337992031371 0 2.2243337992031371 -1.3960913213682069 0 0 0 0 -6.5328419635479804 3.1813972075775041 0 3.1813972075775041 -0.80456136535246969 0 0 0 0 -3.5061817611085999 0.49778875816648416 0 0.49778875816648416 0.035391451383699465 0 0 0 0 -5.7958575618577015 1.3806249424914796 0 1.3806249424914796 -1.1923727998662343 0 0 0 0 -196.37040623110988 -16.30594649454622 0 -16.30594649454622 -42.310434981928921 0 0 0 0 -99.573149680122242 -7.0118114420265059 0 -7.0118114420265059 -25.251492221490025 0 0 0 0 -93.461178848965574 -13.413851523353742 0 -13.413851523353742 -47.552412690563301 0 0 0 0 -176.92027041659185 -51.712703663564511 0 -51.712703663564511 -29.028322759258458 0 0 0 0 -180.02174764985102 -18.052951249059674 0 -18.052951249059674 -21.898071546270899 0 0 0 0 -134.73127873608246 -24.476266398907043 0 -24.476266398907043 -32.019266763250776 0 0 0 0 -0.48293186924639775 -0.4402812194947785 0 -0.4402812194947785 0.47361459557147095 0 0 0 0 -259.27453918308765 -37.019560572042366 0 -37.019560572042366 1.9142741426988295 0 0 0 0 -445.66570550166762 -96.738860629129093 0 -96.738860629129093 -85.239428163532352 0 0 0 0 -187.08162446501956 -53.57577086047192 0 -53.57577086047192 -41.765054838427368 0 0 0 0 -432.9724142193661 -54.345572971457671 0 -54.345572971457671 29.041899030005773 0 0 0 0 -393.32871810950201 -67.08874953454945 0 -67.08874953454945 30.491341690213154 0 0 0 0 -387.57987166529892 -27.481326946801076 0 -27.481326946801076 71.313256061028881 0 0 0 0 -499.84206967063528 -62.305424336746754 0 -62.305424336746754 62.840141491445785 0 0 0 0 -410.28016270585044 -108.36918047502506 0 -108.36918047502506 49.872946417305648 0 0 0 0 -391.68238874918461 -57.476873712739071 0 -57.476873712739071 27.890569682771989 0 0 0 0 -355.75979274560677 -79.010624109987333 0 -79.010624109987333 31.928315801800935 0 0 0 0 -367.7559062046239 -94.97339122630602 0 -94.97339122630602 12.885795013796404 0 0 0 0 -354.75753077318586 -129.22018580575107 0 -129.22018580575107 52.814152469165691 0 0 0 0 -500.06475690211244 -201.70322729513632 0 -201.70322729513632 83.017924476945126 0 0 0 0 -102.59783080487136 -141.316078801157 0 -141.316078801157 -29.670024084532066 0 0 0 0 -0.37520453883728067 -0.24201145201884344 0 -0.24201145201884344 0.62672122124938567 0 0 0 0 -340.07609544599291 -140.53598078081345 0 -140.53598078081345 23.00756766466516 0 0 0 0 -201.38740827435868 6.5834261455946432 0 6.5834261455946432 -23.165330613959895 0 0 0 0 0.38782808212530462 -0.51078504329731977 0 -0.51078504329731977 0.96014252832955549 0 0 0 0 -200.77092570725927 -123.31905280422467 0 -123.31905280422467 -1.9004535306555113 0 0 0 0 -0.56714282162125595 -0.72407527520304882 0 -0.72407527520304882 1.0862497924412364 0 0 0 0 -324.0409691715322 -66.726652039744636 0 -66.726652039744636 34.824242564694998 0 0 0 0 -76.275874185426346 11.146371572499049 0 11.146371572499049 17.426717832160307 0 0 0 0 -55.669178037785969 -29.114042019820459 0 -29.114042019820459 -42.427852724733327 0 0 0 0 -31.430460737833528 -23.964740653192536 0 -23.964740653192536 25.612937199060127 0 0 0 0 -12.788508005543918 -11.967246931564645 0 -11.967246931564645 3.4226946342731708 0 0 0 0 -32.385499649117264 -3.173579343190454 0 -3.173579343190454 11.051800434275606 0 0 0 0 -43.454713976692801 1.8096232459873249 0 1.8096232459873249 9.0511735484525957 0 0 0 0 -28.773939477290014 7.7812348875729924 0 7.7812348875729924 6.2830214711138979 0 0 0 0 -38.387993410886338 6.5436756081581393 0 6.5436756081581393 6.1243219667948949 0 0 0 0 -27.254504307906245 13.929570663278909 0 13.929570663278909 -5.5924556703287749 0 0 0 0 -29.442983254142746 8.2584248587628224 0 8.2584248587628224 -5.8357203883476831 0 0 0 0 -55.137295809157877 13.203581370962695 0 13.203581370962695 1.6408477466315432 0 0 0 0 -49.061750319118801 8.6677061005372167 0 8.6677061005372167 -32.004995252412471 0 0 0 0 -35.679912523592975 4.2604023906779815 0 4.2604023906779815 3.8867082877665098 0 0 0 0 0.20340670172199538 -0.048920339177966454 0 -0.048920339177966454 -0.025288202601891241 0 0 0 0 -9.9754702968821221 4.8485810791899269 0 4.8485810791899269 25.537037563220366 0 0 0 0 -24.018518070237405 7.4523999929992897 0 7.4523999929992897 6.630776958950058 0 0 0 0 -22.059793585607622 14.462240508785911 0 14.462240508785911 6.3456027884772652 0 0 0 0 -14.668430825806354 8.3246657036435181 0 8.3246657036435181 -6.7342070816966881 0 0 0 0 -4.458838347789424 11.192194977366142 0 11.192194977366142 -6.4481183874171961 0 0 0 0 -4.6715750359053345 12.730152171614904 0 12.730152171614904 -8.1348673562359579 0 0 0 0 -3.6585249914726319 8.3117707591268442 0 8.3117707591268442 -16.235122299245745 0 0 0 0 -5.2053344999512774 5.3304775025545155 0 5.3304775025545155 -21.662920645959474 0 0 0 0 -12.926746589771938 8.637496181971926 0 8.637496181971926 -15.173858492897807 0 0 0 0 -11.618690184490333 6.5771648695791143 0 6.5771648695791143 -23.114782984819101 0 0 0 0 -21.936809408540284 8.7943294238758085 0 8.7943294238758085 -22.945082938938825 0 0 0 0 -19.071968217728681 15.494501516319758 0 15.494501516319758 -18.037301414303613 0 0 0 0 -11.14262633134831 0.23803219485064986 0 0.23803219485064986 -31.981424623862281 0 0 0 0 -11.837911876045837 1.1351855668340392 0 1.1351855668340392 -15.89518048114126 0 0 0 0 -2.6976516822469421 -8.279030144355481 0 -8.279030144355481 -14.531836011849808 0 0 0 0 -10.500865732197781 3.6724257686873258 0 3.6724257686873258 -11.234562787111685 0 0 0 0 0.22120035069598742 -0.14301421165745687 0 -0.14301421165745687 -0.30237784511806243 0 0 0 0 -4.1446327928515529 7.1481707567807007 0 7.1481707567807007 -18.607052922538685 0 0 0 0 -55.061170706467237 16.833120556768222 0 16.833120556768222 -37.156123215900948 0 0 0 0 -32.974622021643881 17.39353321479193 0 17.39353321479193 -25.908336322232287 0 0 0 0 -44.707980156879785 4.6118469333390237 0 4.6118469333390237 -24.053877070931751 0 0 0 0 -21.842874448627299 8.2154562191794476 0 8.2154562191794476 -34.06674007901313 0 0 0 0 -45.751400972076226 6.8264124989575237 0 6.8264124989575237 -27.443320762740228 0 0 0 0 -112.8865188805139 11.700646787249447 0 11.700646787249447 -21.881895645189225 0 0 0 0 -48.335350067758554 -1.3432961652287361 0 -1.3432961652287361 -40.878343437756143 0 0 0 0 -51.705930224484291 24.017599367955771 0 24.017599367955771 -5.0515293860845958 0 0 0 0 -82.449938021846719 -9.2832961183535616 0 -9.2832961183535616 -28.700143404797828 0 0 0 0 13.365360766708363 8.9639715664155588 0 8.9639715664155588 -39.636724460854637 0 0 0 0 0.071531603646739494 -0.12553490197995387 0 -0.12553490197995387 -0.05609509697924539 0 0 0 0 -1.21048754784316 -0.84200918194292029 0 -0.84200918194292029 0.18953082521783615 0 0 0 0 -14.020552172871248 -5.4511828572300942 0 -5.4511828572300942 4.4917109293960493 0 0 0 0 16.344941017271594 -5.2648762604254387 0 -5.2648762604254387 -20.43801158297714 0 0 0 0 -40.655493499265503 -21.623540430643232 0 -21.623540430643232 -2.8311528115086624 0 0 0 0 -104.15353428355229 -9.7474945294852375 0 -9.7474945294852375 2.3694734344705921 0 0 0 0 -84.431134759505767 16.791339244863664 0 16.791339244863664 -11.782699609164865 0 0 0 0 -1.7905594877192925 -4.8949172911347247 0 -4.8949172911347247 -4.6973656501261587 0 0 0 0 -6.5869430678249046 -10.620117670528309 0 -10.620117670528309 1.2907581844717431 0 0 0 0 -5.3790747548046056 -10.134929207799303 0 -10.134929207799303 1.4329831910121413 0 0 0 0 -15.054510130896233 -7.5194538981009877 0 -7.5194538981009877 -3.4283888486840794 0 0 0 0 -8.0452111550785048 -7.6830964985619872 0 -7.6830964985619872 2.682661426909533 0 0 0 0 -7.2714035772623902 -9.5299713703230111 0 -9.5299713703230111 -4.9811176577197642 0 0 0 0 -15.346653737751694 -12.369926397060503 0 -12.369926397060503 -23.648671187399703 0 0 0 0 -33.527375843364496 -9.1815256988993141 0 -9.1815256988993141 -2.9756483641518656 0 0 0 0 -11.856797254084881 -14.531761625032503 0 -14.531761625032503 4.0979457547335869 0 0 0 0 -11.282310602960933 -3.3376866940043897 0 -3.3376866940043897 -1.445343169647515 0 0 0 0 -10.118385530679006 -12.195017292394368 0 -12.195017292394368 3.3028309473346553 0 0 0 0 -10.542598482276688 -5.8043326438834253 0 -5.8043326438834253 -2.6752793124760119 0 0 0 0 -12.513820504867908 -13.241383771363942 0 -13.241383771363942 8.9003366367838339 0 0 0 0 -12.655868715619363 -11.752778881472523 0 -11.752778881472523 3.28167885239111 0 0 0 0 -14.981700386055309 -7.4775436527470447 0 -7.4775436527470447 3.1986927988012326 0 0 0 0 -8.3496115189354896 -7.5504029906849155 0 -7.5504029906849155 3.1013149641372024 0 0 0 0 -4.9105636303575011 -6.8145977462311293 0 -6.8145977462311293 2.894391080874783 0 0 0 0 -6.7936269337878912 -7.8847211488193807 0 -7.8847211488193807 -4.1989246510528346 0 0 0 0 -12.152892053018149 -7.4644709913188763 0 -7.4644709913188763 -2.9933599799157946 0 0 0 0 -8.2502237103065639 -5.4151135966553507 0 -5.4151135966553507 -2.8435473618565901 0 0 0 0 -6.7422105246717621 -10.000111915335296 0 -10.000111915335296 -1.4213789325435755 0 0 0 0 -7.6021833318275185 -7.9077823088832417 0 -7.9077823088832417 -1.4265358222617124 0 0 0 0 -8.5021074016849525 -5.7828441795117556 0 -5.7828441795117556 -5.216881595751147 0 0 0 0 -9.9325466176378541 -7.6046410939384259 0 -7.6046410939384259 -6.409482223203895 0 0 0 0 -18.96196231698832 -6.4947617211006445 0 -6.4947617211006445 -2.5670612990671771 0 0 0 0 -13.887871027703568 -9.5218322079521158 0 -9.5218322079521158 -4.5349305004424423 0 0 0 0 -106.41780168318655 14.063687878160806 0 14.063687878160806 16.654780029626068 0 0 0 0 -32.149245863994054 1.988034398405965 0 1.988034398405965 -10.085579241094024 0 0 0 0 -1.4581069265157667 -5.2679907754262754 0 -5.2679907754262754 -2.4410536304823776 0 0 0 0 -30.763301569916223 -16.875767570708199 0 -16.875767570708199 15.77342869483482 0 0 0 0 7.6905823800243525 -3.1710528111738085 0 -3.1710528111738085 -7.3784271505164156 0 0 0 0 -5.1345197322743843 -8.4340992458978121 0 -8.4340992458978121 -3.6461674316658446 0 0 0 0 0.9557869736737814 -0.46267094003779174 0 -0.46267094003779174 -0.79817705644796222 0 0 0 0 -55.876733633146614 -13.061800898614166 0 -13.061800898614166 9.0688438408055845 0 0 0 0 -34.976551479892805 -3.2408019736212736 0 -3.2408019736212736 2.7119303266559314 0 0 0 0 -20.671517869603122 12.564367054354307 0 12.564367054354307 -5.43480775934745 0 0 0 0 -35.948950598676674 8.9147545680440317 0 8.9147545680440317 -8.149095098536236 0 0 0 0 -123.97833796603481 26.042203777928762 0 26.042203777928762 15.155203899773618 0 0 0 0 -134.03358142171055 31.149768952735428 0 31.149768952735428 15.298316190454511 0 0 0 0 -196.09674072384996 2.9785160565958932 0 2.9785160565958932 27.185076690965047 0 0 0 0 -127.16833448366924 9.8822199013749241 0 9.8822199013749241 9.9889137174070015 0 0 0 0 -242.53745091602832 23.86741537809894 0 23.86741537809894 44.933711998220303 0 0 0 0 -203.92240473531115 21.055937309548071 0 21.055937309548071 41.092547809572125 0 0 0 0 -248.06602867024685 4.3958222748563003 0 4.3958222748563003 36.813274678944026 0 0 0 0 -195.37352617275883 -1.6382779706158033 0 -1.6382779706158033 2.5411096937065736 0 0 0 0 -178.99388510479548 20.466779657207496 0 20.466779657207496 23.317246974933212 0 0 0 0 -134.35494955764352 -16.984154961716655 0 -16.984154961716655 5.3698925241701545 0 0 0 0 -114.64842823570507 -10.7493422605754 0 -10.7493422605754 -23.997342973727484 0 0 0 0 -117.93885739870393 13.111732141509023 0 13.111732141509023 -9.4087180914509645 0 0 0 0 -175.60572622897234 -0.48546927398049888 0 -0.48546927398049888 1.9595062985315508 0 0 0 0 -255.54171574107386 9.4445229752622897 0 9.4445229752622897 -42.901345231264088 0 0 0 0 -261.84803587541137 13.140558263353611 0 13.140558263353611 12.076277187309685 0 0 0 0 -175.45339528637305 1.4344745891533748 0 1.4344745891533748 -35.810215160193621 0 0 0 0 -286.31816879515918 10.345655232730248 0 10.345655232730248 -1.4608208359726973 0 0 0 0 -209.68661245121348 2.0045524269848514 0 2.0045524269848514 -9.8615861907828304 0 0 0 0 -308.11770561271396 94.544602453798888 0 94.544602453798888 -78.747020256501798 0 0 0 0 -157.66180283463473 19.544909430788756 0 19.544909430788756 -15.787401506229642 0 0 0 0 -178.10493619217232 -12.0291572944056 0 -12.0291572944056 -18.304115964809579 0 0 0 0 -361.9850062826431 53.725494235849389 0 53.725494235849389 37.399402610971229 0 0 0 0 -499.95229861757798 0.85250859365134646 0 0.85250859365134646 83.889950010799708 0 0 0 0 -588.89009400540408 77.395859750064702 0 77.395859750064702 90.431956852229959 0 0 0 0 -0.98766578287582085 -0.51700150246097643 0 -0.51700150246097643 -0.12278199224203251 0 0 0 0 -250.99298897283643 -50.413793354511483 0 -50.413793354511483 6.9131435364107467 0 0 0 0 -1.4445440951631783 -1.3554502947326306 0 -1.3554502947326306 -1.2433014942356291 0 0 0 0 -417.76372336208624 74.251209895118365 0 74.251209895118365 4.0765773895587643 0 0 0 0 -459.73643803625328 74.740704977594305 0 74.740704977594305 35.95064948764302 0 0 0 0 -499.89513994160734 97.178336281111172 0 97.178336281111172 31.25769138489656 0 0 0 0 -440.83722256607143 118.02732266538302 0 118.02732266538302 -16.191085199640408 0 0 0 0 -309.9568243993981 41.438606990967571 0 41.438606990967571 15.434982542415469 0 0 0 0 -235.34275115878881 45.561300381583237 0 45.561300381583237 -0.70257665313602047 0 0 0 0 -155.82252456348942 0.61447038968969991 0 0.61447038968969991 24.670155616465422 0 0 0 0 -255.0629642321037 -11.073555003944875 0 -11.073555003944875 41.986054172170952 0 0 0 0 -236.44758901447312 13.724236740529591 0 13.724236740529591 61.661093202588745 0 0 0 0 -483.14718720916426 130.39896780529594 0 130.39896780529594 -16.954405960188733 0 0 0 0 -500.00692842960325 158.31978158852368 0 158.31978158852368 -49.444408153465957 0 0 0 0 -418.32822311999553 158.57507679343558 0 158.57507679343558 -73.307130256043877 0 0 0 0 -140.7992716755316 -51.206051902929005 0 -51.206051902929005 19.475394603690802 0 0 0 0 -1.6471335987155964 -1.3423865926256191 0 -1.3423865926256191 -3.5588116649043631 0 0 0 0 -471.47018930441118 162.75015630520159 0 162.75015630520159 -139.91037411164402 0 0 0 0 -462.88310959377554 286.45060678050788 0 286.45060678050788 -105.93188056895957 0 0 0 0 -647.89413208380211 150.53121503619872 0 150.53121503619872 -32.08325416810446 0 0 0 0 -0.27416790360004839 -0.95953826811194531 0 -0.95953826811194531 -1.0066527467432855 0 0 0 0 -166.3587290920841 -25.660730993863581 0 -25.660730993863581 56.576298154324377 0 0 0 0 -177.81398903245281 -58.481292228664415 0 -58.481292228664415 47.492494766260734 0 0 0 0 -177.18570667921085 -27.498004835973916 0 -27.498004835973916 43.754333988223834 0 0 0 0 -245.48119793978913 -58.918666783619301 0 -58.918666783619301 61.756373227794285 0 0 0 0 -304.79430188222614 17.352389548591418 0 17.352389548591418 61.858972636886904 0 0 0 0 -263.42871103013749 -50.575758251282878 0 -50.575758251282878 61.917813342417503 0 0 0 0 -354.69162322723787 -119.54565642598141 0 -119.54565642598141 70.000643926061457 0 0 0 0 -229.75446862989702 -142.51544831988144 0 -142.51544831988144 5.3468244859232072 0 0 0 0 -136.02188853641564 -63.559470274559999 0 -63.559470274559999 3.2027246467673649 0 0 0 0 -25.065761042387749 -292.79603746893542 0 -292.79603746893542 -308.88545698795747 0 0 0 0 95.788410382399888 38.242467882118376 0 38.242467882118376 -130.24963870790225 0 0 0 0 -519.01088595178044 -175.84396291393614 0 -175.84396291393614 2.6041263051964165 0 0 0 0 -499.97799229188877 109.47882706312394 0 109.47882706312394 -30.697680002157998 0 0 0 0 -1.2013630244967635 -0.70362865472163527 0 -0.70362865472163527 -2.1082750619935648 0 0 0 0 -2.5308789676083379 2.5024789560082841 0 2.5024789560082841 -3.4431823224925679 0 0 0 0 -9.896877592511828 12.312119950649887 0 12.312119950649887 -67.058203841791084 0 0 0 0 -93.946792935404119 64.845816497242708 0 64.845816497242708 -54.108649212579962 0 0 0 0 -210.66288308929052 73.949760105696328 0 73.949760105696328 5.5338581986620738 0 0 0 0 -105.51751818122193 44.011592751791511 0 44.011592751791511 -21.110022767107694 0 0 0 0 -225.09801436056114 30.504196302482455 0 30.504196302482455 47.432066355776442 0 0 0 0 -243.44139286893096 43.388262302783346 0 43.388262302783346 61.735563510704196 0 0 0 0 -388.21106517639976 72.47932570159017 0 72.47932570159017 66.10858364219871 0 0 0 0 -5.8157975079381394 1.2878924768357107 0 1.2878924768357107 -0.51185314573866769 0 0 0 0 -188.83660989415148 155.91013338584219 0 155.91013338584219 -74.37575233690859 0 0 0 0 -572.02398747008647 64.51048990923853 0 64.51048990923853 67.767820303301278 0 0 0 0 18.232521782376352 6.3243833858113021 0 6.3243833858113021 -35.706546824807447 0 0 0 0 -97.724914420477489 -128.74640877292262 0 -128.74640877292262 -18.680299167986163 0 0 0 0 -364.18330924571455 -142.05453815306225 0 -142.05453815306225 14.367399692933532 0 0 0 0 -324.06008982329968 -18.133076083535002 0 -18.133076083535002 -6.3665138327044133 0 0 0 0 -601.85835626915832 -83.079264597408297 0 -83.079264597408297 42.129329146721879 0 0 0 0 -499.15447330722009 -214.41713730163778 0 -214.41713730163778 50.692448432941383 0 0 0 0 -207.34552618599719 -261.40855800176803 0 -261.40855800176803 -172.25251491121824 0 0 0 0 -654.71912433255511 83.661824154114697 0 83.661824154114697 86.804082288491315 0 0 0 0 -63.659962183435937 -46.954512894050005 0 -46.954512894050005 -54.244769690554776 0 0 0 0 -2.7573525062036124 3.401400803293896 0 3.401400803293896 -3.2875502486684756 0 0 0 0 -329.10470793951572 11.994450531703308 0 11.994450531703308 79.034164886938754 0 0 0 0 -308.60843855239546 -119.34733624171145 0 -119.34733624171145 29.430283635505241 0 0 0 0 -314.7589339025958 -110.05020735215679 0 -110.05020735215679 66.598712339014568 0 0 0 0 -500.0891594505207 -67.013550091782605 0 -67.013550091782605 75.591141796500636 0 0 0 0 -339.38640888255213 2.5848104109276697 0 2.5848104109276697 66.080011822907835 0 0 0 0 -356.78033498283912 50.161328961354513 0 50.161328961354513 -23.423217798323247 0 0 0 0 -108.96541994762583 5.2641841469963992 0 5.2641841469963992 -17.900233602395588 0 0 0 0 -1.4751646973834331 1.2064790864595683 0 1.2064790864595683 -1.0223404902454396 0 0 0 0 -126.19202905074417 14.334749738226424 0 14.334749738226424 -122.90636463278616 0 0 0 0 -315.70832134161219 -85.767587632617634 0 -85.767587632617634 0.86625977616175476 0 0 0 0 -426.49480438991645 34.367616979265641 0 34.367616979265641 44.427739729920283 0 0 0 0 -273.93068513383787 15.555424842330135 0 15.555424842330135 37.799132708471745 0 0 0 0 -282.38439636909652 -0.24577911755722326 0 -0.24577911755722326 9.1048563256305073 0 0 0 0 -85.188103874822446 -71.574362453429018 0 -71.574362453429018 -19.310183579720203 0 0 0 0 -178.71081723159568 -11.309104683687799 0 -11.309104683687799 7.9408965138971013 0 0 0 0 -96.800879124579751 15.379603168683726 0 15.379603168683726 -22.858752275559048 0 0 0 0 -278.18129225183111 35.835577227661211 0 35.835577227661211 18.479000765858657 0 0 0 0 -270.81352416827889 69.188206122862113 0 69.188206122862113 15.966885049712957 0 0 0 0 -500.24833756361659 119.11082547842581 0 119.11082547842581 66.625472133755579 0 0 0 0 -499.7452135898252 41.709521986326962 0 41.709521986326962 61.669850524067989 0 0 0 0 -369.33936883092019 87.749008832748615 0 87.749008832748615 64.564569105104255 0 0 0 0 -377.24971419094527 54.711103278518792 0 54.711103278518792 44.299275215546579 0 0 0 0 -5.2287922228279058 8.1712267066227078 0 8.1712267066227078 -5.1110482873091891 0 0 0 0 -5.0569767864740243 3.5158234014237237 0 3.5158234014237237 -31.008278953187091 0 0 0 0 3.34691378257412 11.392365452161764 0 11.392365452161764 -19.789288159575122 0 0 0 0 -0.068255613485604272 -0.080176233633379113 0 -0.080176233633379113 -0.094093335039780734 0 0 0 0 -7.4159304656504901 -17.203973491240458 0 -17.203973491240458 -5.869613054809208 0 0 0 0 -31.782891361879592 -4.7666125332717044 0 -4.7666125332717044 -17.35814258738246 0 0 0 0 -4.6824028768005519 -9.9373607947022293 0 -9.9373607947022293 -32.377453580845668 0 0 0 0 -97.08685664923587 4.8915517090866771 0 4.8915517090866771 -21.680350006736376 0 0 0 0 -35.637279924740142 -17.244988969796566 0 -17.244988969796566 -40.378517217983543 0 0 0 0 -82.915145164752104 -7.3924031988487791 0 -7.3924031988487791 -15.509882589043045 0 0 0 0 -29.39660966635347 5.5804161747860732 0 5.5804161747860732 -39.440315873762003 0 0 0 0 -25.693149880628425 -1.5096927569456327 0 -1.5096927569456327 -26.19365292592483 0 0 0 0 7.1124640192686002 12.081328853935688 0 12.081328853935688 -28.535254022343899 0 0 0 0 -28.604050290239684 -18.226455185195562 0 -18.226455185195562 -17.685087364870903 0 0 0 0 0.62300504028306847 0.10943434835287791 0 0.10943434835287791 -0.060285195736422499 0 0 0 0 -98.70942306393431 -63.295764929795169 0 -63.295764929795169 16.455958794613366 0 0 0 0 -21.636820322797575 -19.833015028513984 0 -19.833015028513984 -81.27280375666885 0 0 0 0 57.146162450154677 112.05390282021922 0 112.05390282021922 -42.737361150227912 0 0 0 0 60.633622959306194 -93.51673457825612 0 -93.51673457825612 -19.886993094960729 0 0 0 0 -21.78897646637688 -15.120848083127129 0 -15.120848083127129 63.039701721199961 0 0 0 0 1.0512453714307064 0.56925059901732533 0 0.56925059901732533 0.14493043555289337 0 0 0 0 -4.5790925384549155 10.346465002591032 0 10.346465002591032 -10.384309976274739 0 0 0 0 -3.0314200285001789 11.073407560500289 0 11.073407560500289 -18.902277357118216 0 0 0 0 -1.8269376895709684 12.712533242085028 0 12.712533242085028 -22.162213368700765 0 0 0 0 0.72809152780932251 0.58470925025973131 0 0.58470925025973131 0.26744233460084355 0 0 0 0 -15.568077895567967 23.277419974264209 0 23.277419974264209 22.922029168423762 0 0 0 0 -30.409704504833371 -2.7071109161148357 0 -2.7071109161148357 47.491701398806896 0 0 0 0 -6.8494696321085939 0.35368007051374661 0 0.35368007051374661 4.4442359246587841 0 0 0 0 -6.1569348584944237 -12.615912637944746 0 -12.615912637944746 29.441611445669281 0 0 0 0 -7.3125147540148703 0.6502910102739925 0 0.6502910102739925 0.85878141075350589 0 0 0 0 -11.802732467470378 -6.4614711628384782 0 -6.4614711628384782 -2.4797328834075074 0 0 0 0 -4.6712732187563688 -1.4394788498191957 0 -1.4394788498191957 -2.7707194436388818 0 0 0 0 -2.4009508436502074 51.69630578341139 0 51.69630578341139 134.31183658395554 0 0 0 0 -10.129840872836667 -15.962536915786586 0 -15.962536915786586 -99.003284658618782 0 0 0 0 -91.659392587591341 103.56635997616033 0 103.56635997616033 48.628656877263893 0 0 0 0 2.7436033490971568 -21.855880499182831 0 -21.855880499182831 38.49749228369781 0 0 0 0 116.50011664239719 63.389655602252901 0 63.389655602252901 -13.257091363060226 0 0 0 0 -3.1712743176651048 0.71633198818428134 0 0.71633198818428134 1.9265162171376899 0 0 0 0 -18.825585231406876 43.574540625253746 0 43.574540625253746 82.524342909064785 0 0 0 0 -15.319009342039037 3.0989756930087653 0 3.0989756930087653 0.67832763722158651 0 0 0 0 -36.342408975011494 -17.234585365181147 0 -17.234585365181147 49.257181700304784 0 0 0 0 -4.168747273481074 -0.72053898373029845 0 -0.72053898373029845 0.82733695580373023 0 0 0 0 -3.8082749332918566 -4.3413524937764159 0 -4.3413524937764159 5.395333058462537 0 0 0 0 -10.22207442344461 -11.34545995405972 0 -11.34545995405972 7.4127368878812376 0 0 0 0 -0.060818202230436214 -5.1188016314868499 0 -5.1188016314868499 1.3641847118004442 0 0 0 0 -1.7838236319702787 -6.0378237155682477 0 -6.0378237155682477 -1.1738343552565311 0 0 0 0 7.2192904949297372 -10.936871261743534 0 -10.936871261743534 -13.035989305230942 0 0 0 0 -22.851633792703069 -11.607266062901545 0 -11.607266062901545 7.4077703431861011 0 0 0 0 -10.676415491378066 6.1286848106822163 0 6.1286848106822163 -32.448565266713786 0 0 0 0 -14.530764787257795 -4.0087109701146346 0 -4.0087109701146346 -0.1698286954026571 0 0 0 0 -8.3973697699248078 -2.883431373731085 0 -2.883431373731085 0.96327608433989553 0 0 0 0 -3.6408752065526642 -4.021072373549373 0 -4.021072373549373 -3.2330318174346075 0 0 0 0 -6.6125916239307116 -5.0682860921142492 0 -5.0682860921142492 3.3838173986217157 0 0 0 0 -14.575389360175905 -3.7476281634527595 0 -3.7476281634527595 -3.4788212751652736 0 0 0 0 -9.3969588852377228 -6.461707439519941 0 -6.461707439519941 -3.3872813157859127 0 0 0 0 -27.018242027927045 -8.4111410373916442 0 -8.4111410373916442 -3.1019480623351683 0 0 0 0 -21.264470317784799 -7.2065925300726121 0 -7.2065925300726121 -3.7485688406855502 0 0 0 0 -20.739412589218318 -7.7706440745396037 0 -7.7706440745396037 -3.6312631507094011 0 0 0 0 -25.36720687235902 -8.7063230061446575 0 -8.7063230061446575 -2.865417946100024 0 0 0 0 -21.090886467458404 -7.0366486673578947 0 -7.0366486673578947 -1.9635741321591809 0 0 0 0 -19.193379143919628 -8.7774138373566188 0 -8.7774138373566188 -3.1942510114549805 0 0 0 0 -13.446058571258618 -6.9471898212291876 0 -6.9471898212291876 -3.4673556688045437 0 0 0 0 -22.081373539447668 -7.7346349280366553 0 -7.7346349280366553 -1.8628051324697026 0 0 0 0 -20.915388608509147 -9.07783261089034 0 -9.07783261089034 -2.3513456264222441 0 0 0 0 -25.952627108672459 -9.9240164857804984 0 -9.9240164857804984 1.6559215217861833 0 0 0 0 -23.986052111518802 -9.4964784235471598 0 -9.4964784235471598 -2.15935596361129 0 0 0 0 -28.346965374509637 -7.2123457357193956 0 -7.2123457357193956 -3.5084390745032579 0 0 0 0 -28.503049075317904 -7.5287189411862983 0 -7.5287189411862983 -0.57349320925004577 0 0 0 0 -29.306560029285151 -11.916335370492902 0 -11.916335370492902 -4.0708357045564298 0 0 0 0 -26.27793419421505 -10.577748297185963 0 -10.577748297185963 -4.104459323909623 0 0 0 0 17.052651708436315 10.669695487768422 0 10.669695487768422 6.6654188606908065 0 0 0 0 -37.553916102762742 -11.725465980625813 0 -11.725465980625813 -5.28798447130157 0 0 0 0 -26.210371405029946 -9.9961962570437208 0 -9.9961962570437208 -7.8288637981881948 0 0 0 0 -24.714367065809711 -8.4103864956770735 0 -8.4103864956770735 -3.771528664023208 0 0 0 0 -24.763742332534093 -10.82087270042507 0 -10.82087270042507 -5.1397152931931487 0 0 0 0 -28.391159307748239 -10.672685589787079 0 -10.672685589787079 -3.7345405037322053 0 0 0 0 -25.187986619500407 -10.911852999404175 0 -10.911852999404175 -4.7401034979402539 0 0 0 0 -27.777768817546985 -11.493302183754167 0 -11.493302183754167 -5.313312575648979 0 0 0 0 24.969666062504984 2.8097439191019475 0 2.8097439191019475 4.9938575443217132 0 0 0 0 9.5204190318027031 -1.34161816855908 0 -1.34161816855908 8.8750895000655419 0 0 0 0 -0.97051938270112359 -0.09890549709334806 0 -0.09890549709334806 0.27594581550844133 0 0 0 0 1.2140837702627323 6.5501751159094965 0 6.5501751159094965 8.4543374932513871 0 0 0 0 -5.5890805002846431 3.5753278965268143 0 3.5753278965268143 1.989226567141235 0 0 0 0 -0.060965406042253534 0.27834204360261339 0 0.27834204360261339 0.30757028978296264 0 0 0 0 -21.152878129523287 -18.904438964476867 0 -18.904438964476867 -14.039923324642018 0 0 0 0 7.2268917113883617 5.9987234916663397 0 5.9987234916663397 -14.472137751540572 0 0 0 0 -9.0796990048202133 5.7127701797444956 0 5.7127701797444956 -1.0727322545933475 0 0 0 0 -9.4471804054310269 0.050186611846065432 0 0.050186611846065432 -9.1843129235464858 0 0 0 0 -32.514082029352721 22.98729697464023 0 22.98729697464023 -30.448986312436773 0 0 0 0 -46.350637964675116 8.0054126934152237 0 8.0054126934152237 -3.6452264605678124 0 0 0 0 16.474176343367617 2.6730997716984461 0 2.6730997716984461 -13.025102017431436 0 0 0 0 -8.953842453874131 5.3104889708076257 0 5.3104889708076257 9.629080917472038 0 0 0 0 -7.3379728485306259 11.949370528865813 0 11.949370528865813 -26.734144598791318 0 0 0 0 -28.217258022936221 -6.0865874639249498 0 -6.0865874639249498 6.257412799072199 0 0 0 0 20.707672686108708 15.53736417030882 0 15.53736417030882 -6.4628809377884409 0 0 0 0 -2.7420421641623776 2.6520534085451306 0 2.6520534085451306 0.65324395304371374 0 0 0 0 22.018517280737797 11.771079709164496 0 11.771079709164496 4.221166331952702 0 0 0 0 -18.188804244174435 -8.0871181857907857 0 -8.0871181857907857 -6.8486384717785995 0 0 0 0 -31.763026820372033 -14.107514535709754 0 -14.107514535709754 9.3911187791355601 0 0 0 0 -19.535930797823454 -12.11761351338054 0 -12.11761351338054 -8.5368403676300204 0 0 0 0 -25.450497460724364 -13.357273290802439 0 -13.357273290802439 11.211854728983326 0 0 0 0 -2.9467934315971434 23.8700868855924 0 23.8700868855924 2.8655121750659731 0 0 0 0 -20.068697188928155 44.690986252787184 0 44.690986252787184 30.576551280647067 0 0 0 0 -3.3406666120155464 3.315027770276644 0 3.315027770276644 -0.83116495865960083 0 0 0 0 3.4723672319928482 8.1268202379409615 0 8.1268202379409615 -7.5530391238410175 0 0 0 0 0.00029312893527055905 0.0022317025052469575 0 0.0022317025052469575 0.19993730014363242 0 0 0 0 -9.4518768727166389 12.739308075849692 0 12.739308075849692 1.4646656851506066 0 0 0 0 -2.6037237834247673 3.7901972107302937 0 3.7901972107302937 -1.5597634423755884 0 0 0 0 51.361078068018742 22.135405609232969 0 22.135405609232969 -73.160346640749324 0 0 0 0 -110.75388752460458 9.7632602874148535 0 9.7632602874148535 51.23590900193367 0 0 0 0 -102.06372280762389 -37.49805267565177 0 -37.49805267565177 32.799830478340496 0 0 0 0 -51.31157313125459 -52.386923361877976 0 -52.386923361877976 -37.461662435510959 0 0 0 0 -43.597415744838145 40.307744921817061 0 40.307744921817061 26.457210391763411 0 0 0 0 26.957654678795734 25.817635044781774 0 25.817635044781774 26.797292229005386 0 0 0 0 -1.5176300295804417 -0.0058907342476532953 0 -0.0058907342476532953 0.081167747111554653 0 0 0 0 -25.905731591957192 -46.156536630390256 0 -46.156536630390256 -56.843596250853736 0 0 0 0 0.21797884534495715 0.24118149467295336 0 0.24118149467295336 0.14941651072197476 0 0 0 0 -4.3027537951625483 0.57901594388342503 0 0.57901594388342503 -0.085078784902434104 0 0 0 0 -7.8465675989209558 3.9196122526947335 0 3.9196122526947335 60.493690347400886 0 0 0 0 -23.398054875016442 5.5126200259516906 0 5.5126200259516906 80.304275543123381 0 0 0 0 -12.423757046666651 -1.2704652241964141 0 -1.2704652241964141 1.0127027828896473 0 0 0 0 -4.4052571217689547 -3.4709719531433052 0 -3.4709719531433052 -11.253875664262921 0 0 0 0 -12.45045545758876 -5.981000397039054 0 -5.981000397039054 -2.6243031766910576 0 0 0 0 -20.695045008661509 -14.319724733491597 0 -14.319724733491597 -9.3626340611267551 0 0 0 0 -25.946043013922463 -12.941498605807084 0 -12.941498605807084 0.86385457604700377 0 0 0 0 -29.374815649432549 -16.712170503938253 0 -16.712170503938253 -2.7759605419687432 0 0 0 0 -38.260864068140108 -27.304978692750979 0 -27.304978692750979 2.2011493186537905 0 0 0 0 -12.207712475043081 -19.656785238648013 0 -19.656785238648013 -42.594988048398619 0 0 0 0 -1.6898445715960406 -0.26189338859857969 0 -0.26189338859857969 -0.33217767463895598 0 0 0 0 -1.8524581398687587 -0.63210825827763983 0 -0.63210825827763983 -0.57667283960114446 0 0 0 0 -1.8643100953358953 -0.30765718420229859 0 -0.30765718420229859 -0.18912215103597418 0 0 0 0 -1.7121375769625757 -0.10103700212813438 0 -0.10103700212813438 -0.032462163382433573 0 0 0 0 -4.9276375867812021 -2.1388612159506408 0 -2.1388612159506408 0.76758900761001314 0 0 0 0 -1.7121287012492843 -0.10005387365602569 0 -0.10005387365602569 -0.37525289472830536 0 0 0 0 -1.1554915137785429 0.72426062472487729 0 0.72426062472487729 0.5711161211999638 0 0 0 0 -1.3737606857269462 0.11425185783017977 0 0.11425185783017977 -0.0052892020740319401 0 0 0 0 -5.458976367730429 2.7880539226605379 0 2.7880539226605379 -4.1436247562555195 0 0 0 0 -3.1473243481013924 6.9291369009427228 0 6.9291369009427228 -7.3175348034513945 0 0 0 0 1.3962877798658155 1.5750340593705232 0 1.5750340593705232 -1.5239505343141673 0 0 0 0 -0.73019467361916668 -0.972487467447257 0 -0.972487467447257 -2.9049829030027468 0 0 0 0 -0.69650367809481395 -0.22858215297196693 0 -0.22858215297196693 -0.43826925442584752 0 0 0 0 -1.0156943664715072 -2.4548845908129806 0 -2.4548845908129806 -1.0881509448242923 0 0 0 0 -1.0118908610929793 -3.0040471035146084 0 -3.0040471035146084 -2.8074435420030568 0 0 0 0 -3.9549787532596383 -4.9021307710363544 0 -4.9021307710363544 1.2885900166699003 0 0 0 0 -2.9041719039014424 -2.7805094692386092 0 -2.7805094692386092 -0.42836362647122428 0 0 0 0 -2.965323325532836 -5.1628394851532562 0 -5.1628394851532562 -6.8453113284390383 0 0 0 0 -13.649671474428033 -5.4879611377172068 0 -5.4879611377172068 -0.99690194128470466 0 0 0 0 -2.7894002367122539 -4.1715358982363568 0 -4.1715358982363568 -3.5259655306740569 0 0 0 0 -1.014799149191731 10.683606666658619 0 10.683606666658619 -31.045306301199275 0 0 0 0 -6.6805218583849637 -6.8507339770922897 0 -6.8507339770922897 -11.296077777485834 0 0 0 0 -0.4788786786830741 0.096450126081036869 0 0.096450126081036869 -0.019166783947440327 0 0 0 0 2.2969892214005085 -0.31728163467721515 0 -0.31728163467721515 -8.7934805861327732 0 0 0 0 -1.3648156061462942 3.7123507871364154 0 3.7123507871364154 -6.6729735139737727 0 0 0 0 -18.998038906331203 18.770837537097663 0 18.770837537097663 -15.756050348838926 0 0 0 0 -21.644197800018446 -9.5776977154915812 0 -9.5776977154915812 -7.5847354466848174 0 0 0 0 -51.137404687934577 8.8608470958394037 0 8.8608470958394037 4.5807967454773006 0 0 0 0 -29.698511702317774 6.7684172987624152 0 6.7684172987624152 4.7178018991455701 0 0 0 0 -40.130352731091989 -4.3135558714850504 0 -4.3135558714850504 -0.64225243779810626 0 0 0 0 -13.407713665503252 -2.3295059806823701 0 -2.3295059806823701 -0.52822693629255468 0 0 0 0 -30.723359792402334 4.5474849016515009 0 4.5474849016515009 3.8027331147800396 0 0 0 0 -4.6875799930203357 5.1160296293174952 0 5.1160296293174952 3.613023872770782 0 0 0 0 -9.8492685077144415 0.56194511876861952 0 0.56194511876861952 5.7707477399446816 0 0 0 0 -25.653185381228468 18.009773627099889 0 18.009773627099889 14.342748475856638 0 0 0 0 -46.880065868149586 11.648380475800579 0 11.648380475800579 12.78965093876468 0 0 0 0 -0.23750360899953904 0.16735494408329643 0 0.16735494408329643 -0.091216792311480166 0 0 0 0 -29.481375681934878 19.786877891189306 0 19.786877891189306 18.880004878814475 0 0 0 0 -63.797070147643808 -29.957602258317081 0 -29.957602258317081 11.241817551952636 0 0 0 0 -87.222612470073727 13.524074786518554 0 13.524074786518554 40.580894478524101 0 0 0 0 6.7165979849087307 1.2605190906294439 0 1.2605190906294439 3.5581011643359943 0 0 0 0 2.1979013352520269 19.749432643989394 0 19.749432643989394 8.9453963992555146 0 0 0 0 -16.902808709559395 -5.0806929607776965 0 -5.0806929607776965 -3.9150481637028633 0 0 0 0 -14.700752089751404 -11.619141647466961 0 -11.619141647466961 -2.3791786115020841 0 0 0 0 -31.948600805037131 -23.829676096333174 0 -23.829676096333174 -12.033923365899 0 0 0 0 -13.505339961091522 -10.543060017923949 0 -10.543060017923949 -14.616148614029129 0 0 0 0 -1.0584788547942798 0.24447236366485114 0 0.24447236366485114 0.68223316977553194 0 0 0 0 -18.36193499953697 0.22892464311678395 0 0.22892464311678395 9.7743797349538681 0 0 0 0 -12.744147119273293 3.4991649460258145 0 3.4991649460258145 0.585410091559595 0 0 0 0 -15.9498179682505 0.67294052033145135 0 0.67294052033145135 2.1985896407190353 0 0 0 0 -20.919437304393796 0.93052157755732878 0 0.93052157755732878 2.9377196380426653 0 0 0 0 -17.839716494083859 -0.14380994743929421 0 -0.14380994743929421 -7.8710704988748148 0 0 0 0 -0.69125931662189544 0.45587380049154724 0 0.45587380049154724 -0.34407137864439874 0 0 0 0 0.0046562845023068178 0.0088754943549016474 0 0.0088754943549016474 -0.17365559670895525 0 0 0 0 -15.625775475872842 3.316165560864011 0 3.316165560864011 -2.0500908367472448 0 0 0 0 -1.2278058781121217 2.7467622241088065 0 2.7467622241088065 5.2564552177566384 0 0 0 0 -6.8306635072003701 -4.3425318935269388 0 -4.3425318935269388 -1.3231600671622061 0 0 0 0 -17.497794116337445 -6.0609725145650515 0 -6.0609725145650515 -0.89702977158424346 0 0 0 0 -1.8553963336531147 0.5728144296656934 0 0.5728144296656934 0.066721850467358901 0 0 0 0 -0.97640473571430597 -0.27560120990865045 0 -0.27560120990865045 0.33505109677532174 0 0 0 0 -1.1462891372411832 2.0421416040367468 0 2.0421416040367468 1.9410197907886868 0 0 0 0 -2.9609167661237734 -0.64965271792868862 0 -0.64965271792868862 3.6662165198555385 0 0 0 0 -1.9654419026410324 -0.91720456948013407 0 -0.91720456948013407 2.6380299049632185 0 0 0 0 -2.1310287485703157 -1.4373341237355817 0 -1.4373341237355817 7.9138580757388581 0 0 0 0 -2.7156542640470889 -1.3242055090351954 0 -1.3242055090351954 3.4335435066052469 0 0 0 0 -2.5852739802603537 -0.23945815232545442 0 -0.23945815232545442 0.22111397060109539 0 0 0 0 -1.9798452351806191 -1.4960706551099179 0 -1.4960706551099179 -0.076665087753212902 0 0 0 0 -2.878341330954072 -2.0333393461029488 0 -2.0333393461029488 1.2369796156775692 0 0 0 0 -1.9662570996612772 -0.844982713472195 0 -0.844982713472195 -0.22626679257109572 0 0 0 0 -3.0391362706122891 -0.039169997399994827 0 -0.039169997399994827 1.8572535194444981 0 0 0 0 -3.1698042005073148 1.4904731880833424 0 1.4904731880833424 0.57770954248823614 0 0 0 0 -1.2447531895340642 -0.043938312381163414 0 -0.043938312381163414 0.25471848086349369 0 0 0 0 -0.71111147547367182 1.5346003598492128 0 1.5346003598492128 -0.09544546885786076 0 0 0 0 -2.7231957744570536 0.31244566472867064 0 0.31244566472867064 0.27320474991182664 0 0 0 0 -0.50542201993488334 -1.238950745108129 0 -1.238950745108129 0.17832747142131211 0 0 0 0 -2.3395550126964508 -0.09193492366525291 0 -0.09193492366525291 -0.2517123467583815 0 0 0 0 -1.0254334595019383 -0.58052663429528373 0 -0.58052663429528373 0.13311844856390054 0 0 0 0 0.32112948485337256 -0.6835357737278116 0 -0.6835357737278116 -0.56605264590905335 0 0 0 0 -2.2961604308184178 -0.45951635791311674 0 -0.45951635791311674 0.38754394989189223 0 0 0 0 -4.5612861981305741 -1.3157608630766084 0 -1.3157608630766084 3.1479034041089733 0 0 0 0 -0.69277391251080189 3.2392109361197026 0 3.2392109361197026 -2.1036573563641099 0 0 0 0 2.8573891676114727 -0.82797957745272299 0 -0.82797957745272299 -0.70608748246297637 0 0 0 0 1.3494261069745335 0.97944561007291497 0 0.97944561007291497 -0.38160199047104015 0 0 0 0 -1.6271356478525902 0.79059960933913853 0 0.79059960933913853 -0.30869961347891578 0 0 0 0 -2.1392530753746541 1.8556359696939637 0 1.8556359696939637 1.3584060164230891 0 0 0 0 -1.8709937838320911 0.19417868481872347 0 0.19417868481872347 0.48700120044634332 0 0 0 0 -2.2434101309992212 0.97833398810112104 0 0.97833398810112104 0.17727938293347201 0 0 0 0 -4.0325639264401616 -0.72985123444304634 0 -0.72985123444304634 -0.64367028481572675 0 0 0 0 -1.6055155793876672 0.71405187012385518 0 0.71405187012385518 0.45092329407392895 0 0 0 0 -3.3438031696286998 -0.30242668065767475 0 -0.30242668065767475 -0.76009593052071978 0 0 0 0 -4.2116955483442098 0.093702718162136378 0 0.093702718162136378 -0.93905239914758454 0 0 0 0 -5.9432752378495479 2.5932466548112458 0 2.5932466548112458 -0.04947907675557417 0 0 0 0 -2.1893811360738784 -1.3175977691384864 0 -1.3175977691384864 0.017432359137299569 0 0 0 0 -3.7420390415763904 -4.0383150712263216 0 -4.0383150712263216 -0.6023915527134136 0 0 0 0 -2.9376584554411238 0.83990802337106629 0 0.83990802337106629 0.0085125937644079386 0 0 0 0 -11.10197938811325 -2.1359226807537937 0 -2.1359226807537937 -0.083687546852971195 0 0 0 0 -12.176302764241882 3.2268671417508443 0 3.2268671417508443 -6.5960832299534218 0 0 0 0 -12.993918968818434 2.6342702067572361 0 2.6342702067572361 -1.3219586637869725 0 0 0 0 -15.752940640522411 0.37953495102860302 0 0.37953495102860302 1.3519231226970305 0 0 0 0 -24.857844643374847 -2.1552995670604105 0 -2.1552995670604105 1.1654087932807649 0 0 0 0 1.0641201206971118 -0.016608992553868163 0 -0.016608992553868163 -0.34035915813282824 0 0 0 0 -12.798332452160139 4.0318385256825735 0 4.0318385256825735 -0.85143499022639446 0 0 0 0 -11.521646904800036 -0.7469310570227421 0 -0.7469310570227421 1.1429434293464027 0 0 0 0 -12.343179091898492 -0.46115925156963655 0 -0.46115925156963655 2.1385413730963592 0 0 0 0 -10.214290965326654 2.2140871059328333 0 2.2140871059328333 -1.7336163234376727 0 0 0 0 -2.1947020204418486 3.3682144203511628 0 3.3682144203511628 -0.63564421626318302 0 0 0 0 -3.482231072851949 -1.0076604915505278 0 -1.0076604915505278 -0.051649502294328742 0 0 0 0 -12.016417314562204 -2.3126517158151252 0 -2.3126517158151252 -1.8888777541891386 0 0 0 0 -6.1753038692872906 -1.4764556063313137 0 -1.4764556063313137 0.030397591862083573 0 0 0 0 0.36086992792620443 0.6974249375942283 0 0.6974249375942283 -0.34783324043397984 0 0 0 0 -7.787972013543822 -2.9068993703175074 0 -2.9068993703175074 -3.5841326659183181 0 0 0 0 -3.7220236125667725 2.8827080574796682 0 2.8827080574796682 -1.6245697239604056 0 0 0 0 -1.0769322201285831 0.31222411137282791 0 0.31222411137282791 0.55596217093921041 0 0 0 0 -1.6808066701085798 0.31525090104280551 0 0.31525090104280551 -0.36935072865151708 0 0 0 0 -4.55289121754193 1.7691420488468448 0 1.7691420488468448 0.66205073283444171 0 0 0 0 -3.8444438795171987 -0.35793790542574211 0 -0.35793790542574211 0.11259992007058162 0 0 0 0 -0.47344526205284687 0.16222382845131733 0 0.16222382845131733 0.063996941856407696 0 0 0 0 -4.4716028088610074 -1.1104729656431687 0 -1.1104729656431687 -1.6487073606756439 0 0 0 0 -17.378773984352392 -7.1373155483291004 0 -7.1373155483291004 -2.3981244794935037 0 0 0 0 -0.79256891329963208 -0.24952633776058164 0 -0.24952633776058164 -0.83305019177721107 0 0 0 0 -13.069519082313946 -0.93149452847811354 0 -0.93149452847811354 -0.0044674206149153406 0 0 0 0 -4.9917375488421385 -1.0811543392300962 0 -1.0811543392300962 -1.3869935997894913 0 0 0 0 -15.26308686279117 -2.130592600281048 0 -2.130592600281048 2.2487476002481159 0 0 0 0 -3.1844822969324014 -1.2269770837258136 0 -1.2269770837258136 -0.67459775246962295 0 0 0 0 -4.9229660037299254 -1.3977352708219399 0 -1.3977352708219399 0.051194002276872652 0 0 0 0 -3.7183621752916451 -1.4933114662039415 0 -1.4933114662039415 -0.85645825679651466 0 0 0 0 -3.8047616145240681 0.097126256641384856 0 0.097126256641384856 0.24978247304788681 0 0 0 0 -5.3765955468879838 -1.1467825060424843 0 -1.1467825060424843 -0.36152568027964094 0 0 0 0 -3.4806634479957914 -0.3109210047667883 0 -0.3109210047667883 0.05833535686777383 0 0 0 0 -3.382578732778029 -0.044747171696390975 0 -0.044747171696390975 0.29267230985645465 0 0 0 0 -3.6780530934727267 -0.40610947685022047 0 -0.40610947685022047 0.291298909600755 0 0 0 0 -3.2238736414219602 -0.38521718971764329 0 -0.38521718971764329 -0.7617402841321228 0 0 0 0 -3.5460701659030747 -1.398019101260445 0 -1.398019101260445 0.57526412255270998 0 0 0 0 -3.9286714110742196 -0.2657277807269125 0 -0.2657277807269125 1.6275343801182203 0 0 0 0 -3.8574696911555293 -1.0733080891307623 0 -1.0733080891307623 0.31232503783436982 0 0 0 0 -4.9614229205035372 -0.95581019849549875 0 -0.95581019849549875 7.1946977456108243 0 0 0 0 -3.1585638651786034 0.37014386200777727 0 0.37014386200777727 0.19798857725612964 0 0 0 0 -2.8646039495886271 0.22362288343025227 0 0.22362288343025227 2.6053224213837893 0 0 0 0 -1.9404906333203549 0.67995881664053126 0 0.67995881664053126 0.00052019253609089655 0 0 0 0 -3.225788820522439 -0.38218384117207838 0 -0.38218384117207838 -0.59609217006510207 0 0 0 0 -4.3184264203014209 14.344759025897037 0 14.344759025897037 -18.85180739475031 0 0 0 0 -21.952795578859664 3.4628141124326741 0 3.4628141124326741 1.0378901513251648 0 0 0 0 -0.066024686033440361 -0.04420509518644522 0 -0.04420509518644522 -0.077843608924360291 0 0 0 0 -5.6051758187904852 10.926910253378432 0 10.926910253378432 -18.686679699213592 0 0 0 0 -4.8605296212258509 7.8785669846352491 0 7.8785669846352491 -21.93002246634757 0 0 0 0 0.85173034115359769 14.739565193356954 0 14.739565193356954 -31.386290414372692 0 0 0 0 -27.527188573818421 11.78790083719624 0 11.78790083719624 -18.11091734400749 0 0 0 0 17.05347283194078 40.412832839981114 0 40.412832839981114 0.099682434936962494 0 0 0 0 -39.276564507383227 42.135883855288924 0 42.135883855288924 27.057338391539105 0 0 0 0 -65.18572199665914 8.5137312692095026 0 8.5137312692095026 5.908616908005591 0 0 0 0 -40.773291459435313 -24.198852452576215 0 -24.198852452576215 3.2717914084068935 0 0 0 0 4.6041990526243808 -8.2147233228039678 0 -8.2147233228039678 -4.2442658027922437 0 0 0 0 -23.452237642275577 2.3760906185524675 0 2.3760906185524675 7.6920793792668576 0 0 0 0 -19.550752088798163 -2.4926595481345339 0 -2.4926595481345339 -2.401032776532233 0 0 0 0 -22.245059781211239 -2.0241546119508786 0 -2.0241546119508786 8.4200735032563117 0 0 0 0 -20.210616429350921 -3.4399675177997437 0 -3.4399675177997437 2.9090909927172603 0 0 0 0 -19.636610315483267 0.89764331218023585 0 0.89764331218023585 0.75349661899488396 0 0 0 0 -20.662742051136775 -1.0869272945240454 0 -1.0869272945240454 2.3491265084909045 0 0 0 0 -29.479850959665782 -1.1964894122871002 0 -1.1964894122871002 1.9525470425385976 0 0 0 0 -21.350691211433514 -11.61891461937843 0 -11.61891461937843 -8.5348140241675843 0 0 0 0 -20.949589510159058 -0.55381687906192667 0 -0.55381687906192667 1.3764638002666683 0 0 0 0 -21.898710008576472 -0.80705634039394525 0 -0.80705634039394525 2.8029191177250823 0 0 0 0 -21.07229105868646 -1.3652982173303485 0 -1.3652982173303485 3.1172510296539961 0 0 0 0 -21.134360946585787 -0.84430846080004462 0 -0.84430846080004462 2.8243019865874146 0 0 0 0 -21.383411617540332 -1.7777312721329395 0 -1.7777312721329395 3.857887126344572 0 0 0 0 -16.297193424421494 0.87683970087223884 0 0.87683970087223884 2.6347011513199021 0 0 0 0 -19.808438290523554 -3.0138098497802019 0 -3.0138098497802019 1.0073452009076744 0 0 0 0 -17.016031661345323 -2.4102111465377192 0 -2.4102111465377192 1.0628973933984156 0 0 0 0 -7.7173609343240059 4.2071792841649351 0 4.2071792841649351 0.55039406666093171 0 0 0 0 -2.3170543994101536 -4.0193525947643973 0 -4.0193525947643973 -2.7857871435620876 0 0 0 0 0.7107229500397807 3.2611541287132568 0 3.2611541287132568 -11.883383919835079 0 0 0 0 -0.10369147454920835 -0.13748253297194069 0 -0.13748253297194069 -0.18200465650122905 0 0 0 0 -1.9243056957584486 -0.90694115100617267 0 -0.90694115100617267 -3.7298522110442054 0 0 0 0 -1.0962805720884603 -5.4921519379535235 0 -5.4921519379535235 -9.7697003821823145 0 0 0 0 -1.1032548921535721 -5.6417299821514817 0 -5.6417299821514817 -4.8719338311267535 0 0 0 0 -8.3443807537269095 -6.2582639775259814 0 -6.2582639775259814 9.052939788645034 0 0 0 0 -9.1706576928700088 -4.4509298220397682 0 -4.4509298220397682 5.4970420569252667 0 0 0 0 -7.8698125750736381 -4.7111886977190682 0 -4.7111886977190682 14.045634481181636 0 0 0 0 -5.8652655693377937 -4.9901327644580649 0 -4.9901327644580649 -8.103206308430245 0 0 0 0 -5.3654483382451872 -1.6312462402020778 0 -1.6312462402020778 1.1987828915308647 0 0 0 0 -7.0009798055418404 -5.8800814605510006 0 -5.8800814605510006 -6.0633034647141173 0 0 0 0 -7.014125207743291 -3.8562965485271832 0 -3.8562965485271832 -4.6589275774193339 0 0 0 0 -20.175593607837072 -3.284085912721352 0 -3.284085912721352 3.0490216034764615 0 0 0 0 -42.454446599717812 -5.0739651528371255 0 -5.0739651528371255 4.0582226798756684 0 0 0 0 -22.117962946141233 -3.5022471705260543 0 -3.5022471705260543 3.6723100042198524 0 0 0 0 -24.672287322132632 2.9580215197091926 0 2.9580215197091926 3.1633279962061636 0 0 0 0 -24.344565915904241 -2.6059199708754761 0 -2.6059199708754761 4.3152818744808741 0 0 0 0 -15.276274238516635 2.594956576953237 0 2.594956576953237 -0.015974824986933811 0 0 0 0 -13.468974785209866 3.9911138574627785 0 3.9911138574627785 -0.36965312912738568 0 0 0 0 -29.924801420069343 9.2419285425254856 0 9.2419285425254856 -1.4812144019160201 0 0 0 0 -16.771910013729212 -20.930864990218598 0 -20.930864990218598 -19.91575629546972 0 0 0 0 -11.69559424765248 -3.8931220562118014 0 -3.8931220562118014 -3.6391952263359819 0 0 0 0 -37.065364890127853 -15.770932976682815 0 -15.770932976682815 45.678065349730588 0 0 0 0 -13.609992922716605 -0.39639100524386922 0 -0.39639100524386922 0.11575659383054564 0 0 0 0 -25.205544804162855 -2.7400807793853943 0 -2.7400807793853943 32.921365695444976 0 0 0 0 -46.582810713355229 26.154745965022116 0 26.154745965022116 1.497960595256143 0 0 0 0 -7.3633595550186328 -28.616289961187736 0 -28.616289961187736 -3.81796807895077 0 0 0 0 -32.050555090170612 -39.96317152567525 0 -39.96317152567525 12.532203074461677 0 0 0 0 -33.965925802000505 55.327600574498753 0 55.327600574498753 -0.076751626129691886 0 0 0 0 -12.60566260664973 -17.255023241953566 0 -17.255023241953566 -24.084299639712384 0 0 0 0 -24.105850537058245 -4.4171339814865291 0 -4.4171339814865291 13.665380742011862 0 0 0 0 -13.888474543047778 -9.1618383334827342 0 -9.1618383334827342 13.385057308421324 0 0 0 0 -10.168752527152208 -5.2353481222796781 0 -5.2353481222796781 -3.7633673334708533 0 0 0 0 0.033322206424377943 0.11632674828511069 0 0.11632674828511069 0.22517733222367009 0 0 0 0 34.33819546409552 -20.534188628030364 0 -20.534188628030364 -3.6088224784095928 0 0 0 0 -1.7723439237639127 2.1921748128037066 0 2.1921748128037066 2.147384628531313 0 0 0 0 15.81167852519161 -0.10746623766908669 0 -0.10746623766908669 3.7221454848663029 0 0 0 0 -25.954599018568047 -2.7532599325560057 0 -2.7532599325560057 16.131246616384828 0 0 0 0 -0.8568995158076973 -28.594059533171958 0 -28.594059533171958 14.079508116789555 0 0 0 0 -15.498866382186861 1.2789422259874392 0 1.2789422259874392 22.145055220696136 0 0 0 0 -2.4476866916883342 2.2714099082992854 0 2.2714099082992854 1.853295272094849 0 0 0 0 -5.9924137839046203 -1.34040257559302 0 -1.34040257559302 12.756730730523515 0 0 0 0 -6.0167184500787698 -7.0294534689924575 0 -7.0294534689924575 16.447805041861031 0 0 0 0 -11.035464803302602 -0.20384329332696893 0 -0.20384329332696893 6.3716268708897843 0 0 0 0 -11.725318798108674 -1.1294758528797146 0 -1.1294758528797146 12.136692115696462 0 0 0 0 -12.187470000631947 8.5811202538481304 0 8.5811202538481304 19.956935593605632 0 0 0 0 -12.858688967887723 -0.58152286058567615 0 -0.58152286058567615 0.1919789606013913 0 0 0 0 36.234826623422123 -8.0505064788744676 0 -8.0505064788744676 6.8964067069346129 0 0 0 0 -6.8070916109027166 13.929662096030986 0 13.929662096030986 -3.6146945104643375 0 0 0 0 -21.635273895412752 8.5257586429711267 0 8.5257586429711267 11.010630032310132 0 0 0 0 -20.126550709452204 6.9608156244468589 0 6.9608156244468589 14.161534835828171 0 0 0 0 -1.8454637434228971 -1.2975291859268978 0 -1.2975291859268978 -6.4277538579006972 0 0 0 0 -2.2595429647663039 -0.0008218363992154587 0 -0.0008218363992154587 -0.013607637562026091 0 0 0 0 -20.42633772636691 16.14977407183062 0 16.14977407183062 4.8740598154102486 0 0 0 0 -3.1837249892387263 -0.25359977750352414 0 -0.25359977750352414 -4.1274604651457665 0 0 0 0 -2.4823721737492406 -1.7732294047982791 0 -1.7732294047982791 -4.8913819513288672 0 0 0 0 -2.5582848653075416 -2.6326014139030391 0 -2.6326014139030391 -1.507253047407886 0 0 0 0 -3.069137901106842 -1.5161436907668531 0 -1.5161436907668531 -1.4920460666162114 0 0 0 0 -3.9701369193044229 -3.3082866116650962 0 -3.3082866116650962 1.5366120545099591 0 0 0 0 -2.6393131581355647 -2.6418240204722707 0 -2.6418240204722707 -2.3426409412554108 0 0 0 0 -3.2496284888133005 -2.2201764371806476 0 -2.2201764371806476 -0.74212857854587355 0 0 0 0 -3.4462911694954528 -1.3701782631303558 0 -1.3701782631303558 -1.8320433177221389 0 0 0 0 1.4358938220293567 -10.484712431071216 0 -10.484712431071216 7.2041472170083907 0 0 0 0 -3.6438148351112698 -0.11288835261565394 0 -0.11288835261565394 0.17017991330477727 0 0 0 0 -3.1598292475272842 -1.1153765358638343 0 -1.1153765358638343 -1.7724880800246012 0 0 0 0 5.5975860798289432 -4.9351490183387057 0 -4.9351490183387057 -11.460381780757189 0 0 0 0 -4.631501225529064 -1.0074907507160304 0 -1.0074907507160304 -0.83261162498371277 0 0 0 0 -3.8225577889215856 -0.85118283160869623 0 -0.85118283160869623 -1.8116625442952561 0 0 0 0 -3.5316181522416752 -1.7348922135581608 0 -1.7348922135581608 0.061404245879099345 0 0 0 0 -1.76553225618194 -0.097178280805450434 0 -0.097178280805450434 0.27045173719410565 0 0 0 0 -4.7757983255842191 -1.3312780590832745 0 -1.3312780590832745 -0.80870704979523111 0 0 0 0 -4.1634365055138005 -1.7354351181382981 0 -1.7354351181382981 -0.76045678051627874 0 0 0 0 -0.20858465648300628 -0.34946134988213462 0 -0.34946134988213462 -0.49801474969547366 0 0 0 0 -6.0184914657563695 3.1178246975782073 0 3.1178246975782073 -2.1426350715742188 0 0 0 0 -5.5481384009917747 -1.6479393760940582 0 -1.6479393760940582 -0.25986059818968954 0 0 0 0 -14.322702019173448 4.1779079192959756 0 4.1779079192959756 1.6107790914567275 0 0 0 0 -13.802804825423664 5.2387643293096602 0 5.2387643293096602 1.3222891919166955 0 0 0 0 -0.55469948347389142 -0.37958030666501852 0 -0.37958030666501852 -0.24725484490150271 0 0 0 0 -0.017500011123047443 -10.38980959048372 0 -10.38980959048372 -25.966475535029844 0 0 0 0 -11.800281922804061 7.1004684766483663 0 7.1004684766483663 -10.445798776137202 0 0 0 0 -0.33032318349306422 -0.95486235157719079 0 -0.95486235157719079 -0.55118661151018244 0 0 0 0 -2.2217417718102297 -1.4671649341536863 0 -1.4671649341536863 -0.26183963149196643 0 0 0 0 4.8724435951844498 -1.0351418100196454 0 -1.0351418100196454 -6.9679074938689922 0 0 0 0 -43.240208663217572 5.3782453359069677 0 5.3782453359069677 59.557134955390296 0 0 0 0 -17.548360593485995 -10.976657418175556 0 -10.976657418175556 19.301761526390905 0 0 0 0 -7.043098408030346 -3.5587934584100012 0 -3.5587934584100012 3.627552338388945 0 0 0 0 -13.542251099589212 -0.27071780105133675 0 -0.27071780105133675 0.36484829762072035 0 0 0 0 -0.5625340689416789 -0.24420012807447056 0 -0.24420012807447056 -0.10013262348547813 0 0 0 0 -23.725446259288404 -21.360055142195279 0 -21.360055142195279 21.307347156565704 0 0 0 0 -43.549840858109178 38.495300779083891 0 38.495300779083891 38.904778258902013 0 0 0 0 -4.7180998505450589 35.696502191954778 0 35.696502191954778 -53.209231683327175 0 0 0 0 -20.987100177653701 -14.094185370405569 0 -14.094185370405569 10.879329122294394 0 0 0 0 -9.8588758114353823 -12.482371215864646 0 -12.482371215864646 -22.094893619105846 0 0 0 0 6.763420460744328 -18.880823777339913 0 -18.880823777339913 11.703808962808864 0 0 0 0 -2.1490432627747915 0.28826407326647668 0 0.28826407326647668 0.24108649736145088 0 0 0 0 24.68790381586814 11.813110818568475 0 11.813110818568475 3.4463721619775072 0 0 0 0 -9.7318202475906901 -0.64638602525081978 0 -0.64638602525081978 29.99402632344129 0 0 0 0 3.1006628326267673 14.113770380956169 0 14.113770380956169 -10.765866494059765 0 0 0 0 13.622180250924885 19.492672937506541 0 19.492672937506541 1.345972698922651 0 0 0 0 1.3108519914208046 21.680511698108205 0 21.680511698108205 0.95725336388727555 0 0 0 0 -16.19441148793203 10.04685430543644 0 10.04685430543644 5.1338595809121443 0 0 0 0 0.46468787565149228 15.858714057450939 0 15.858714057450939 14.747616783822039 0 0 0 0 -2.9927426989402153 0.14963198447198778 0 0.14963198447198778 -0.22444389048859592 0 0 0 0 -2.2944732974914026 -1.9577885646931552 0 -1.9577885646931552 -0.38397835775650108 0 0 0 0 -3.4365690284414541 13.804033238940406 0 13.804033238940406 14.591269330193484 0 0 0 0 -6.585010388171213 -2.0019525055463667 0 -2.0019525055463667 -1.1074734018193055 0 0 0 0 -6.5877856121815057 -1.9995812143980913 0 -1.9995812143980913 -0.92933790933181726 0 0 0 0 -7.9029916824809794 -1.0177494108307952 0 -1.0177494108307952 -0.40597204353066035 0 0 0 0 -0.0022627009975622059 4.4618465419691518 0 4.4618465419691518 -7.4211400482219005 0 0 0 0 -29.491856913717129 -16.557320031616996 0 -16.557320031616996 -15.29734058022791 0 0 0 0 10.674713416006853 40.988815963239574 0 40.988815963239574 -85.709537600518956 0 0 0 0 -5.5515198521930129 1.5220646671183193 0 1.5220646671183193 -0.17090391005611127 0 0 0 0 -0.70530025203925106 14.019994782870015 0 14.019994782870015 19.537012023352247 0 0 0 0 -10.963011710069964 -4.348013856856312 0 -4.348013856856312 -1.6924058418410937 0 0 0 0 -2.6302367239213962 1.4591953875671575 0 1.4591953875671575 0.16365073080490089 0 0 0 0 2.4631562735035004 13.932290803833151 0 13.932290803833151 -19.177129471854471 0 0 0 0 -6.2452183824044143 0.080987674983693303 0 0.080987674983693303 0.31151231524400003 0 0 0 0 12.453457207082892 -4.45794961799524 0 -4.45794961799524 -33.68066365495639 0 0 0 0 -1.8839950653168671 -8.653059967500468 0 -8.653059967500468 13.227665756325507 0 0 0 0 -4.9776926511910915 0.85335444821383533 0 0.85335444821383533 2.9890529845941103 0 0 0 0 -3.8424534708909084 0.69212299561230284 0 0.69212299561230284 0.021047688887567625 0 0 0 0 -4.4846490497120612 0.75354622568137586 0 0.75354622568137586 2.7384778392096365 0 0 0 0 -4.3550894942013656 1.5601253042776406 0 1.5601253042776406 -0.30253817925573401 0 0 0 0 -4.6136340752932812 -0.27865482227088312 0 -0.27865482227088312 0.093466240580278151 0 0 0 0 -0.74625411156696408 -0.056508270981929953 0 -0.056508270981929953 -0.019863789413465116 0 0 0 0 -11.301088791562506 16.695087918507625 0 16.695087918507625 -14.669437167270303 0 0 0 0 12.584774499769992 0.61774515165660659 0 0.61774515165660659 -20.949105463013922 0 0 0 0 -43.396532777409675 -51.784716846720571 0 -51.784716846720571 50.023051099813529 0 0 0 0 -42.509120495058369 11.548857693573019 0 11.548857693573019 4.1228111341526983 0 0 0 0 -5.1346106597351309 0.55141076542392398 0 0.55141076542392398 -0.14878017475928118 0 0 0 0 -1.0845397688989351 2.4555717478497705 0 2.4555717478497705 -0.35023647500855759 0 0 0 0 -2.460056093126874 1.8415785617676557 0 1.8415785617676557 -0.3874595747183649 0 0 0 0 1.2541599063727062 -1.9447633267663065 0 -1.9447633267663065 -0.27856406075729456 0 0 0 0 -1.4339456721607953 1.7437464970637544 0 1.7437464970637544 -0.4461770575955023 0 0 0 0 -5.5566112987366978 0.56785416053864424 0 0.56785416053864424 -0.14825836985119523 0 0 0 0 -0.040906407664803746 0.12323839353850935 0 0.12323839353850935 -0.1843135529227391 0 0 0 0 -0.22684263182782161 5.9815770759641751 0 5.9815770759641751 4.124808238207919 0 0 0 0 -14.192481789568888 15.671838085262969 0 15.671838085262969 -0.96348539013565848 0 0 0 0 -9.2058223855445647 8.1026176722875896 0 8.1026176722875896 -17.930643407021222 0 0 0 0 -0.18391927855246704 -0.060748212204197294 0 -0.060748212204197294 0.034828343662531611 0 0 0 0 -1.1203392452874528 0.041458569613458174 0 0.041458569613458174 0.010082114521527102 0 0 0 0 -1.0874868970152534 -0.34386402445080866 0 -0.34386402445080866 -0.46781055640184732 0 0 0 0 -0.56376964603413282 -0.44088536156013669 0 -0.44088536156013669 -0.5947225041195332 0 0 0 0 37.122405558954938 -1.2027235794831057 0 -1.2027235794831057 -22.198649538225439 0 0 0 0 15.01314854218603 17.428202240820497 0 17.428202240820497 -17.101902959615586 0 0 0 0 -9.0554720485076086 10.702903084492753 0 10.702903084492753 3.6856649605623346 0 0 0 0 -8.6782966524539802 15.749919669080764 0 15.749919669080764 15.72959071520426 0 0 0 0 1.1834521292936415 28.612073116576695 0 28.612073116576695 13.76699188928098 0 0 0 0 -5.9843736220990991 16.325268981988266 0 16.325268981988266 -0.82811554388533182 0 0 0 0 -1.4334516726284363 7.849472552745631 0 7.849472552745631 2.9245746309547371 0 0 0 0 -6.7988777702253174 14.840708882318921 0 14.840708882318921 0.68802349424187526 0 0 0 0 -4.2179936786997665 13.193208489128706 0 13.193208489128706 4.4743922853988636 0 0 0 0 -32.928854343140003 -4.0654643429205564 0 -4.0654643429205564 8.7529522519071747 0 0 0 0 12.141365560770019 -3.5055816287014139 0 -3.5055816287014139 8.7578301218416641 0 0 0 0 -23.591556917469902 -15.015644218920091 0 -15.015644218920091 7.505907410308196 0 0 0 0 -33.605551434111419 -16.285924028860151 0 -16.285924028860151 8.20310410118541 0 0 0 0 -39.430428074051356 -18.779241126474417 0 -18.779241126474417 8.3510980907685735 0 0 0 0 -59.750737964445861 25.948587449409928 0 25.948587449409928 0.9826733231670346 0 0 0 0 -115.35111920700888 -15.395558572700601 0 -15.395558572700601 8.7656528111705825 0 0 0 0 -1.5662215991928834 -0.2064928410328018 0 -0.2064928410328018 -0.072531547621564441 0 0 0 0 -32.336002510108841 -36.177052510826059 0 -36.177052510826059 -5.572883632493955 0 0 0 0 -83.032902015083607 86.294554206687877 0 86.294554206687877 -74.369429125356078 0 0 0 0 -87.033303718358553 95.801400908391443 0 95.801400908391443 -66.564089635626374 0 0 0 0 -154.74094983727247 -18.15938403706344 0 -18.15938403706344 48.952805349548441 0 0 0 0 -12.460305491398003 -23.398784043115654 0 -23.398784043115654 8.6266834811694153 0 0 0 0 -25.612000153721624 22.658569998895075 0 22.658569998895075 -43.828394741864116 0 0 0 0 -88.853142701749221 -3.1810419414054927 0 -3.1810419414054927 11.773824920767499 0 0 0 0 -3.2226683374613594 -2.8994114506625293 0 -2.8994114506625293 -0.44327694383403182 0 0 0 0 -7.9030021528366206 -0.55435730110208503 0 -0.55435730110208503 -1.3704649959169046 0 0 0 0 16.711389646165394 -19.28311998219931 0 -19.28311998219931 -7.5431412325017959 0 0 0 0 12.255642391657943 -55.445642873339693 0 -55.445642873339693 19.414348384864581 0 0 0 0 -8.474976858565924 -0.84520792941171408 0 -0.84520792941171408 0.54447948478258468 0 0 0 0 21.409806097948774 24.550086199851251 0 24.550086199851251 -51.290233611272015 0 0 0 0 1.0516006601081784 -0.78577462388391028 0 -0.78577462388391028 -0.56843667232689032 0 0 0 0 48.176115545200588 -0.73783100032903803 0 -0.73783100032903803 -8.2128002267497777 0 0 0 0 51.41351788756873 26.313876179063726 0 26.313876179063726 -126.4351428686864 0 0 0 0 79.036316530937256 -74.046144984410262 0 -74.046144984410262 54.846424242430004 0 0 0 0 -2.6952383273959066 -0.39726032183020221 0 -0.39726032183020221 -0.14398647978607282 0 0 0 0 -4.98247625277304 0.049361033352525396 0 0.049361033352525396 -1.3070021124499931 0 0 0 0 -8.0013918570935232 0.71133069967870477 0 0.71133069967870477 -0.71799187204019077 0 0 0 0 -4.3791501403184157 0.52343045732229143 0 0.52343045732229143 0.14961958388649066 0 0 0 0 -5.5813134793335166 0.24990356577666972 0 0.24990356577666972 -0.77694134274426574 0 0 0 0 -3.2318076159512072 -0.10308434359136798 0 -0.10308434359136798 0.23969456442290138 0 0 0 0 -5.3400643037020927 0.31599365883037489 0 0.31599365883037489 -1.6313759386595201 0 0 0 0 -1.653777219469462 -0.063748887305543178 0 -0.063748887305543178 0.20499447425934947 0 0 0 0 -4.318577024374747 0.82059092913710163 0 0.82059092913710163 -0.78694479356929037 0 0 0 0 -3.668946436964871 -0.062127398401061407 0 -0.062127398401061407 -0.061071903676079994 0 0 0 0 -5.625551185866243 1.7145648050518503 0 1.7145648050518503 -1.1250756096348198 0 0 0 0 -3.4053929039766047 0.39889988865099069 0 0.39889988865099069 -1.1964324489097109 0 0 0 0 -3.2479808681474651 0.75774999564626455 0 0.75774999564626455 -1.6984212342615592 0 0 0 0 -2.1223155080313063 1.1907028471832177 0 1.1907028471832177 0.2276996262859825 0 0 0 0 -2.3676731982159205 1.091881446223012 0 1.091881446223012 -0.89029423585053014 0 0 0 0 -6.154030962916984 2.73636372539463 0 2.73636372539463 -3.7063580913032723 0 0 0 0 -6.2520233369065181 6.6331528014113701 0 6.6331528014113701 -0.64402925123746968 0 0 0 0 0.22644819812837336 0.16184785413135416 0 0.16184785413135416 0.87438891297055332 0 0 0 0 -13.302968448806496 -5.1115560851251445 0 -5.1115560851251445 5.6992750601498017 0 0 0 0 10.265103384736165 -5.8768531741482679 0 -5.8768531741482679 -5.1295940125731647 0 0 0 0 -13.075244869414291 1.8279220904675242 0 1.8279220904675242 9.3798230740570006 0 0 0 0 -13.005689465438195 1.5325871855812281 0 1.5325871855812281 -0.21926591625221903 0 0 0 0 -14.935748250637289 8.1406370936746058 0 8.1406370936746058 -21.642010024517393 0 0 0 0 -48.511333655883746 -2.3322452349889868 0 -2.3322452349889868 7.1966734621214599 0 0 0 0 -43.009537069883834 -14.238806388364248 0 -14.238806388364248 18.830320368771297 0 0 0 0 -35.096859629668032 -11.349356223381047 0 -11.349356223381047 1.2323131248687673 0 0 0 0 1.6763851499188434 -5.3405189054120967 0 -5.3405189054120967 -9.1741171259667169 0 0 0 0 -14.170692500779012 4.080211128480272 0 4.080211128480272 10.946023900313776 0 0 0 0 -7.0546839604579645 -5.0900330391590387 0 -5.0900330391590387 16.87415031320981 0 0 0 0 -4.4661385624588519 -0.72092970186108984 0 -0.72092970186108984 -0.13035243746620928 0 0 0 0 -21.220742072483631 7.992755340832268 0 7.992755340832268 -12.823021404096806 0 0 0 0 -12.561101391939985 9.5511090328705315 0 9.5511090328705315 -10.56133717036019 0 0 0 0 -14.307486644639994 18.511280968132397 0 18.511280968132397 -27.142815435951821 0 0 0 0 -14.335342707912901 7.8246287220624389 0 7.8246287220624389 -9.8406447398329391 0 0 0 0 -7.1049921131021385 -1.3347017185109737 0 -1.3347017185109737 0.081382358619527029 0 0 0 0 -7.8205579880307141 3.6951490490100412 0 3.6951490490100412 5.2129389957354135 0 0 0 0 -11.392636798309468 2.4301575511998124 0 2.4301575511998124 8.5966497926773968 0 0 0 0 -9.3371509551602685 1.1642752312387898 0 1.1642752312387898 2.3486736068729215 0 0 0 0 0.76894686705827553 -6.0874890266607125 0 -6.0874890266607125 1.7434834183119392 0 0 0 0 -1.9576855588309967 0.29375893993562352 0 0.29375893993562352 1.7382264339015299 0 0 0 0 -11.619150020437871 1.3582972060335123 0 1.3582972060335123 6.5035252343259344 0 0 0 0 -3.812413247391305 -7.7679474138335678 0 -7.7679474138335678 4.6202424996994864 0 0 0 0 -2.2157521745918984 -3.5133734317685423 0 -3.5133734317685423 2.6709408651385047 0 0 0 0 -1.8239813634886559 -5.1806768539754273 0 -5.1806768539754273 4.3170830161160438 0 0 0 0 -7.7105514515581035 -2.4886553246484482 0 -2.4886553246484482 6.87874788919396 0 0 0 0 -2.2366987587072344 -4.0734364376717487 0 -4.0734364376717487 4.7364597334302516 0 0 0 0 -2.7182661859058772 -0.19800644688681457 0 -0.19800644688681457 0.013757733424972912 0 0 0 0 -2.4066557736373397 -4.4229929289412837 0 -4.4229929289412837 4.594136741223565 0 0 0 0 -17.392149344129621 6.9008703917244247 0 6.9008703917244247 -6.8551753084730365 0 0 0 0 -15.641120253902272 1.4184811949363905 0 1.4184811949363905 2.0769233378558098 0 0 0 0 -8.5449218348325999 -1.5457821104556779 0 -1.5457821104556779 1.3392783935983921 0 0 0 0 -2.5220326671837938 -5.2984526951076418 0 -5.2984526951076418 6.2259731893665844 0 0 0 0 -0.83042446382814772 -0.070875400529931465 0 -0.070875400529931465 0.39816753188343268 0 0 0 0 0.35495408362213521 -0.89732078687018269 0 -0.89732078687018269 -0.18559018901322322 0 0 0 0 -10.07863319304397 -0.70313770450712809 0 -0.70313770450712809 5.3266983383083186 0 0 0 0 -15.477597163380096 -1.369293466240066 0 -1.369293466240066 6.5248825273073976 0 0 0 0 -7.5535608682346265 -2.2803431616871208 0 -2.2803431616871208 2.2525728717565698 0 0 0 0 -7.1894447917766229 -1.4062545733470984 0 -1.4062545733470984 4.2743408340509177 0 0 0 0 -0.52179039651787207 -3.2707862375551429 0 -3.2707862375551429 3.1580395006206459 0 0 0 0 0.92436005593731352 -0.44858829044669335 0 -0.44858829044669335 3.8573501063450522 0 0 0 0 3.3049870384179485 -3.1082597114858572 0 -3.1082597114858572 4.5836973782058976 0 0 0 0 -0.85879817247405299 -6.6352965160708663 0 -6.6352965160708663 6.508490563551959 0 0 0 0 16.635411480172024 -14.10315082601565 0 -14.10315082601565 9.5691169375515983 0 0 0 0 -17.040573226010054 -3.4709481309936905 0 -3.4709481309936905 3.7481558718403676 0 0 0 0 -16.560786442039159 -6.0691157730597993 0 -6.0691157730597993 2.5655243072878875 0 0 0 0 -30.996962043739131 -4.5816940286712509 0 -4.5816940286712509 4.0620290192175048 0 0 0 0 -16.501948240731053 1.7245081468178114 0 1.7245081468178114 2.7422734323173188 0 0 0 0 -14.948326543576059 -5.1372863069874768 0 -5.1372863069874768 -1.0595533699369355 0 0 0 0 -3.2968668427723742 -4.3384695308249235 0 -4.3384695308249235 3.2090229840111988 0 0 0 0 -7.638942421379852 -2.231388751286687 0 -2.231388751286687 3.4866844869782909 0 0 0 0 -8.0752422736829885 0.27674733914841454 0 0.27674733914841454 2.4147433500539002 0 0 0 0 -12.289183122417626 -2.6112726288331487 0 -2.6112726288331487 1.3938294485588472 0 0 0 0 -12.281613274766187 2.2715283661378862 0 2.2715283661378862 1.5293625194106468 0 0 0 0 -9.6273760024405419 -0.53533074340582232 0 -0.53533074340582232 4.4962627291246235 0 0 0 0 -10.042791657949238 -1.4518311351465627 0 -1.4518311351465627 2.5157105417100993 0 0 0 0 -16.071506155292212 2.0296584141460308 0 2.0296584141460308 4.3206739123028228 0 0 0 0 -13.050123585279039 6.4407063866424608 0 6.4407063866424608 10.757685677531811 0 0 0 0 -8.6717198349856517 -3.9201171585688712 0 -3.9201171585688712 0.83324562490898302 0 0 0 0 -18.263883675947909 -1.3633730197940963 0 -1.3633730197940963 1.0450263603840568 0 0 0 0 -6.5076988486578102 0.89930658172886524 0 0.89930658172886524 9.6393339369789857 0 0 0 0 -11.137039782745205 -4.6069490617608864 0 -4.6069490617608864 7.1081293494559077 0 0 0 0 1.1060735751577795 2.8364045826103279 0 2.8364045826103279 3.3709115744209299 0 0 0 0 -1.5743735174047395 -0.92258492999076092 0 -0.92258492999076092 0.01222238476658577 0 0 0 0 -20.782209883829069 -15.323730438596435 0 -15.323730438596435 -5.482137959780033 0 0 0 0 -4.5505529599417969 12.694153699974919 0 12.694153699974919 12.925312168853367 0 0 0 0 -0.0012872860853323509 0.092189728037401997 0 0.092189728037401997 -0.10042747628271276 0 0 0 0 -5.9985799441278136 -1.2807370965129028 0 -1.2807370965129028 -0.10341007688548617 0 0 0 0 -8.8784546176582353 -4.8304024664746521 0 -4.8304024664746521 5.0540967982523739 0 0 0 0 -6.1819509228788725 -1.764928689506579 0 -1.764928689506579 -0.40551308663331559 0 0 0 0 -8.6157280938053873 -2.8029769192112894 0 -2.8029769192112894 3.2860264805109978 0 0 0 0 -8.3385419633740412 -12.206290090373564 0 -12.206290090373564 -13.639793513216318 0 0 0 0 -6.8522944584150309 -2.7910715924207707 0 -2.7910715924207707 -4.7837040577532264 0 0 0 0 -5.2855622618757252 -1.5960192608330743 0 -1.5960192608330743 8.5428077507023659 0 0 0 0 -0.91172167925160652 -0.44136032218845012 0 -0.44136032218845012 0.11459413699992371 0 0 0 0 -5.9517667417861446 -7.5621160085907775 0 -7.5621160085907775 -1.7199979155939786 0 0 0 0 -4.4822601245223268 -7.9472072808243865 0 -7.9472072808243865 -0.038953903151124791 0 0 0 0 -0.031770927725011777 0.062683992030670765 0 0.062683992030670765 0.054551668692869426 0 0 0 0 -1.0346776864788012 0.85340490491422116 0 0.85340490491422116 2.1916607539186828 0 0 0 0 -22.404313130948253 -20.282762721355166 0 -20.282762721355166 -10.092479576169438 0 0 0 0 -9.9364834813543439 8.751995799419575 0 8.751995799419575 18.54360545529444 0 0 0 0 -16.539642381534577 -2.1633863548157279 0 -2.1633863548157279 3.816824849046764 0 0 0 0 -4.3006752394250043 -8.2607608620918924 0 -8.2607608620918924 0.49227693263483729 0 0 0 0 -14.288025292034263 -11.977758442210707 0 -11.977758442210707 0.2911601142582243 0 0 0 0 -10.925560167032472 -7.653662272620501 0 -7.653662272620501 1.1063289119872763 0 0 0 0 -17.298303257916132 -18.354999269224756 0 -18.354999269224756 -0.72150840033374131 0 0 0 0 -9.25519016881276 -19.055729036874027 0 -19.055729036874027 -0.67587812809350289 0 0 0 0 -23.276423933903743 -14.064315862649941 0 -14.064315862649941 19.476771347623156 0 0 0 0 -4.0117401788476172 0.1175095985781951 0 0.1175095985781951 -2.9435237404813392 0 0 0 0 1.7275227836375961 -1.8961202700038768 0 -1.8961202700038768 -34.387669772372881 0 0 0 0 -14.956583684897282 -33.20429698826743 0 -33.20429698826743 -32.126781176018198 0 0 0 0 -6.5985284049399979 -9.3866812467053222 0 -9.3866812467053222 1.8122318136186095 0 0 0 0 -4.6666633283723513 -11.480006580741716 0 -11.480006580741716 -18.151185759899704 0 0 0 0 -541.35368339056799 -135.39545201210197 0 -135.39545201210197 -33.953578876498582 0 0 0 0 -21.973244266600204 12.467863897787936 0 12.467863897787936 72.028482843494032 0 0 0 0 -21.624348557643771 -25.646321217763528 0 -25.646321217763528 72.455889118469088 0 0 0 0 56.953642827101476 -27.280767969524604 0 -27.280767969524604 15.417985187230983 0 0 0 0 -58.589857921028397 -39.473099471952025 0 -39.473099471952025 29.527104953725811 0 0 0 0 -25.384673273409817 -11.008984827509977 0 -11.008984827509977 31.815527187101281 0 0 0 0 -28.977382060087393 -21.966084930912828 0 -21.966084930912828 8.7631954653675166 0 0 0 0 -41.628308976840344 -16.640389805868011 0 -16.640389805868011 45.747114961913127 0 0 0 0 -37.812313962737335 -35.433081962149899 0 -35.433081962149899 8.627407857849926 0 0 0 0 -149.8509536222316 -39.896011085244439 0 -39.896011085244439 -20.674030690072129 0 0 0 0 -33.358024999354939 -31.412942429973917 0 -31.412942429973917 -27.350754705893451 0 0 0 0 -500.59903189587305 238.50649513488028 0 238.50649513488028 -271.36223762158676 0 0 0 0 112.82911761666693 125.32374557502493 0 125.32374557502493 -96.607339149300259 0 0 0 0 -0.87227157236369945 0.91508346784156758 0 0.91508346784156758 -0.36575923359886486 0 0 0 0 -36.409287967906209 53.410914675919145 0 53.410914675919145 -25.840724762067282 0 0 0 0 9.005334070032859 46.582583635277615 0 46.582583635277615 -34.906263934439451 0 0 0 0 -255.16140162153351 201.62138455783469 0 201.62138455783469 -122.58005041746429 0 0 0 0 -627.57514374951825 360.75027870353034 0 360.75027870353034 -155.21350568056656 0 0 0 0 -163.31936823150795 223.53790674224578 0 223.53790674224578 -174.19337995576379 0 0 0 0 -85.168959484262245 258.08635025842557 0 258.08635025842557 -148.68784895371553 0 0 0 0 -499.77932666850677 132.30279089615982 0 132.30279089615982 -10.309516229578335 0 0 0 0 -282.98139982161842 147.82181404633715 0 147.82181404633715 -172.73833485166125 0 0 0 0 -1.5478940808938924 -0.24293603221956039 0 -0.24293603221956039 -0.11384335575191348 0 0 0 0 -275.63600052222063 171.72590936294242 0 171.72590936294242 -107.35362187063066 0 0 0 0 -25.559951003662832 -40.748150409469588 0 -40.748150409469588 -63.805251553343126 0 0 0 0 -87.504930456680995 135.98187741765585 0 135.98187741765585 -116.41413258236453 0 0 0 0 -237.37187876499729 100.63521974116776 0 100.63521974116776 -90.276651914487317 0 0 0 0 -219.8863276694608 -18.597073733340665 0 -18.597073733340665 66.474289919442882 0 0 0 0 -3.6773871956021367 -0.95353472338366885 0 -0.95353472338366885 -4.3500580637919342 0 0 0 0 -5.0132227184608382 -3.5086690337221569 0 -3.5086690337221569 2.501892130256806 0 0 0 0 -3.5251116664138329 -0.79608180293598851 0 -0.79608180293598851 -0.16118916461393262 0 0 0 0 -117.31278032426985 8.7494177887402103 0 8.7494177887402103 -1.3644418947415318 0 0 0 0 -1.5045714964334183 -0.059226846180081782 0 -0.059226846180081782 -0.26991333522552652 0 0 0 0 -88.933731752747008 -142.21685448265535 0 -142.21685448265535 82.851438778464953 0 0 0 0 -61.857154944829745 176.14937552540903 0 176.14937552540903 -5.7990288266715666 0 0 0 0 -120.43097656691901 121.31606488697466 0 121.31606488697466 48.815659091627417 0 0 0 0 -2.8509707009307732 1.1005140222825076 0 1.1005140222825076 -0.21876965506083415 0 0 0 0 -303.48661220093527 -41.203403540134829 0 -41.203403540134829 167.69479882760029 0 0 0 0 -119.46090701304706 225.92064857592854 0 225.92064857592854 30.880080088264194 0 0 0 0 -22.685487586473755 -168.18635104930951 0 -168.18635104930951 -127.87167493606685 0 0 0 0 -400.87971444459981 -56.829319539397467 0 -56.829319539397467 165.44822929065145 0 0 0 0 -472.96222342602687 142.57618826959339 0 142.57618826959339 130.31937728501552 0 0 0 0 -401.71336009378433 -132.22407439066484 0 -132.22407439066484 -20.930751942151346 0 0 0 0 -125.79405017488489 -111.76880731102423 0 -111.76880731102423 59.468741108817369 0 0 0 0 -2.1310373050637779 0.21538852456864177 0 0.21538852456864177 0.082033084815059748 0 0 0 0 -69.896856498705347 88.553318100751255 0 88.553318100751255 -126.61166814855147 0 0 0 0 -0.29462528166684798 -0.70292804805647435 0 -0.70292804805647435 0.34598636492983181 0 0 0 0 -290.47544286403286 -196.61159434373491 0 -196.61159434373491 20.483941926485215 0 0 0 0 -499.11003412138143 -22.286100976853376 0 -22.286100976853376 117.7890843565343 0 0 0 0 155.01053973020271 2.7267444035335586 0 2.7267444035335586 -66.38543814430254 0 0 0 0 114.34009038248541 68.381643126811852 0 68.381643126811852 -156.82387405098132 0 0 0 0 -326.10012656380286 -134.84401252471699 0 -134.84401252471699 115.76692340132242 0 0 0 0 -2.8010020041228341 1.1344506665559342 0 1.1344506665559342 -0.41342295167005821 0 0 0 0 -109.82716201829726 267.17882022141214 0 267.17882022141214 -131.5774281212218 0 0 0 0 -289.21774187498966 165.1988629602381 0 165.1988629602381 13.731253229660775 0 0 0 0 -498.74319038373483 281.51919009791249 0 281.51919009791249 -14.057328744244556 0 0 0 0 -291.65190491078647 151.2840865806271 0 151.2840865806271 -52.385543608717185 0 0 0 0 -180.05512400991483 110.52590450225567 0 110.52590450225567 -161.174627269968 0 0 0 0 -276.25604154452049 56.500572938951493 0 56.500572938951493 20.635988934251589 0 0 0 0 -339.26546574381337 102.75122121089994 0 102.75122121089994 16.198131794077732 0 0 0 0 -241.89406019065791 96.705265152826243 0 96.705265152826243 5.1102697281241447 0 0 0 0 -333.10568022470363 150.86231828026806 0 150.86231828026806 17.923219015831037 0 0 0 0 -161.71866919330841 55.755621334286445 0 55.755621334286445 10.711541046988122 0 0 0 0 7.5539582319888723 79.435793899794731 0 79.435793899794731 25.804118798541701 0 0 0 0 -108.47101432178903 22.234126931757203 0 22.234126931757203 12.417857436460437 0 0 0 0 -268.63129441247202 33.25813535772275 0 33.25813535772275 10.087145923741758 0 0 0 0 -121.59649990509445 112.92531761822821 0 112.92531761822821 17.082789687987656 0 0 0 0 -115.43658980961345 17.363372246905172 0 17.363372246905172 -46.05866407304417 0 0 0 0 -190.64390575353627 -39.616842637839582 0 -39.616842637839582 4.5042661155163657 0 0 0 0 -242.18325531381129 88.1107845521814 0 88.1107845521814 -53.383426459880567 0 0 0 0 -162.38743174580304 60.185298303166299 0 60.185298303166299 -3.9767064408257919 0 0 0 0 -243.8954828509909 75.363099825525879 0 75.363099825525879 -1.9550480266282619 0 0 0 0 -198.9334231294647 38.75870029357926 0 38.75870029357926 -1.939712651109005 0 0 0 0 -170.2494866393381 28.723548276804731 0 28.723548276804731 4.70703192227875 0 0 0 0 -172.06125126381403 23.597582623171949 0 23.597582623171949 -5.7509951073246697 0 0 0 0 -73.444715759117571 31.049324749542158 0 31.049324749542158 -22.231873181220671 0 0 0 0 -78.493537479665747 3.5275331057312944 0 3.5275331057312944 5.2973563337584011 0 0 0 0 -24.198102492488488 -2.3792576574574085 0 -2.3792576574574085 -25.07763405722929 0 0 0 0 -2.2505194069790377 18.512185539275322 0 18.512185539275322 8.0560836944792129 0 0 0 0 -5.208194267012459 -26.70782153865521 0 -26.70782153865521 17.119789986942209 0 0 0 0 -14.401671356253246 1.0561711864463774 0 1.0561711864463774 -1.9523555975747371 0 0 0 0 -22.930818917544173 -16.298192685075872 0 -16.298192685075872 -22.232952376084519 0 0 0 0 -3.8773736286239 -24.99560764206019 0 -24.99560764206019 -13.130996799654362 0 0 0 0 3.3829493046782773 -2.39362335596193 0 -2.39362335596193 -7.8758760077822316 0 0 0 0 3.5395625893825127 0.424377334806044 0 0.424377334806044 -28.376766607551907 0 0 0 0 -3.6385198720074072 -9.2321395551447232 0 -9.2321395551447232 7.7062443670562573 0 0 0 0 -2.9938337312560179 -13.634355410741154 0 -13.634355410741154 2.470535767458216 0 0 0 0 -0.50593563973598066 -17.35463624272203 0 -17.35463624272203 13.051536684027241 0 0 0 0 -2.1411672924202776 -3.4397412759781929 0 -3.4397412759781929 -1.1457324771798767 0 0 0 0 -15.590794194031332 -2.7723080125729176 0 -2.7723080125729176 57.486803938087093 0 0 0 0 -10.923222054091184 -8.2142361533729691 0 -8.2142361533729691 29.141752680135383 0 0 0 0 -8.0230457574180036 1.431463868611587 0 1.431463868611587 4.1641315847117042 0 0 0 0 -6.0881946324402083 -1.0378431598714448 0 -1.0378431598714448 -0.023175583554971929 0 0 0 0 -6.336603187052126 -0.58884211926809682 0 -0.58884211926809682 -0.0029397276029615727 0 0 0 0 -20.139362636786103 6.2999974545031563 0 6.2999974545031563 0.1595081154981699 0 0 0 0 -8.73486494573865 -1.4506421702991759 0 -1.4506421702991759 5.2793235864262158 0 0 0 0 -5.7752030073045395 -1.8155327565575754 0 -1.8155327565575754 -0.47215964010576233 0 0 0 0 -11.019381758120403 -6.4706744133336684 0 -6.4706744133336684 0.86739158620332546 0 0 0 0 -5.5954983520077803 1.197927685941977 0 1.197927685941977 -2.5380542035905052 0 0 0 0 66.982667144196512 -10.212187516102656 0 -10.212187516102656 -0.71258319782478452 0 0 0 0 -1.8119002936067901 -0.34490894664092542 0 -0.34490894664092542 -0.2707979608736224 0 0 0 0 -6.8109593548015255 -3.4566601648785458 0 -3.4566601648785458 -1.7817644724712807 0 0 0 0 67.264435657923514 -6.5287173378263468 0 -6.5287173378263468 -130.45930052329931 0 0 0 0 -52.519212572492165 -2.0801837481338303 0 -2.0801837481338303 74.368535894677905 0 0 0 0 -1.6791676381417915 0.32703298063710307 0 0.32703298063710307 -0.13334806838980318 0 0 0 0 -3.0052901511740533 -0.20489641153541871 0 -0.20489641153541871 0.075839273732659751 0 0 0 0 -4.4922260146577173 -1.4744190805129733 0 -1.4744190805129733 0.51090170113337763 0 0 0 0 -0.99640614621966961 0.030139862094529235 0 0.030139862094529235 -1.4104604710362096 0 0 0 0 -4.7802804319808825 -0.33578069006858857 0 -0.33578069006858857 0.12619791925882723 0 0 0 0 -8.0323894484381526 -0.66267360048320256 0 -0.66267360048320256 3.6468387094188301 0 0 0 0 -67.367346097240187 33.001346230181298 0 33.001346230181298 -53.130499529444251 0 0 0 0 -138.3717785063663 0.60382645641539057 0 0.60382645641539057 41.955725037213824 0 0 0 0 -205.15060561723283 -61.8697444835109 0 -61.8697444835109 5.1086448988417033 0 0 0 0 -195.47924230972956 53.03724280198935 0 53.03724280198935 -5.2653453690381866 0 0 0 0 -176.65958699800979 1.593416605057314 0 1.593416605057314 17.833458995773071 0 0 0 0 -123.31491221970822 1.1130740856291368 0 1.1130740856291368 12.520856805406027 0 0 0 0 -134.90300492132587 5.2294247140666812 0 5.2294247140666812 8.5488763481329215 0 0 0 0 -165.3950733254824 22.728019027553955 0 22.728019027553955 46.932051238530221 0 0 0 0 -147.62213828762864 34.35867820645376 0 34.35867820645376 53.899156342685728 0 0 0 0 -103.67708481572033 0.0021653087949573546 0 0.0021653087949573546 -7.3515007965388577 0 0 0 0 -94.311306769894514 28.194034154897736 0 28.194034154897736 22.097716287055846 0 0 0 0 -117.58270849230547 16.424732748683368 0 16.424732748683368 6.0960546723867992 0 0 0 0 -128.88125947683602 14.74137304734802 0 14.74137304734802 17.808009566012061 0 0 0 0 4.6625364209904774 3.5093014293099714 0 3.5093014293099714 -20.48435720814814 0 0 0 0 -16.782136732132471 8.3959620401287793 0 8.3959620401287793 -9.2759286267578318 0 0 0 0 -6.951879344540373 -4.45857984185227 0 -4.45857984185227 -12.662101938320802 0 0 0 0 -12.015435863431549 2.3720689907629549 0 2.3720689907629549 -8.67018178982471 0 0 0 0 4.8568552738280548 -3.4557507238589587 0 -3.4557507238589587 -6.8654324898045616 0 0 0 0 1.3765611980845733 0.12534541018533218 0 0.12534541018533218 -9.7276818198486126 0 0 0 0 0.45559951792006359 -2.5298229329879405 0 -2.5298229329879405 -3.6057787982397258 0 0 0 0 1.1979663001831944 -0.75643802305493502 0 -0.75643802305493502 -0.59426440061612618 0 0 0 0 12.224607564133024 14.016150868840171 0 14.016150868840171 7.4035781426114227 0 0 0 0 0.30961505443520876 -0.14442647226299865 0 -0.14442647226299865 0.16668379320738347 0 0 0 0 -62.554758965230036 12.74323981837108 0 12.74323981837108 30.828080234887523 0 0 0 0 13.367929037278145 4.1280573847657251 0 4.1280573847657251 -37.170275578416977 0 0 0 0 -51.623179464713843 -36.69862365134486 0 -36.69862365134486 -24.754915790651552 0 0 0 0 28.531170032427028 -8.7549978839429627 0 -8.7549978839429627 -19.123415299007434 0 0 0 0 -56.864993720153819 -42.792227146110861 0 -42.792227146110861 -3.9426998394243782 0 0 0 0 -1.1665484887390392 11.34433660996956 0 11.34433660996956 6.2131582750739653 0 0 0 0 -68.258007418708416 -17.597893162325931 0 -17.597893162325931 -15.318389529324349 0 0 0 0 -96.035840792958894 -66.278655520830625 0 -66.278655520830625 -91.117588664053983 0 0 0 0 -110.25868979558578 65.61820695396159 0 65.61820695396159 -77.888218799483184 0 0 0 0 -173.86852467428974 -6.9609569657017687 0 -6.9609569657017687 -6.8866942043152903 0 0 0 0 -133.34885602503203 75.555335064184789 0 75.555335064184789 -18.404321763940516 0 0 0 0 -34.253927402705926 51.19594700491291 0 51.19594700491291 -27.690121201661896 0 0 0 0 -14.836079027229289 42.344733209097058 0 42.344733209097058 -28.8226529621179 0 0 0 0 -28.757508584409834 58.952360301948374 0 58.952360301948374 -33.317350208351399 0 0 0 0 5.9789886884790917 23.808843592480912 0 23.808843592480912 -21.13588491577093 0 0 0 0 2.7249270172168281 44.823288315120863 0 44.823288315120863 -50.138107787354329 0 0 0 0 6.5010946298541512 10.860872484830338 0 10.860872484830338 -12.295950539404771 0 0 0 0 -9.0045556261767956 14.697409755343415 0 14.697409755343415 41.415860033378976 0 0 0 0 -15.357244719897153 70.003664902559422 0 70.003664902559422 -68.48754926869583 0 0 0 0 -0.082899495608785401 17.619895789026259 0 17.619895789026259 -30.744708863685446 0 0 0 0 -7.7570291085037297 19.500951408655169 0 19.500951408655169 -17.063834485466714 0 0 0 0 4.7929123680610246 23.489071205541677 0 23.489071205541677 -16.032729499273955 0 0 0 0 -1.0509353938314234 28.968071035029197 0 28.968071035029197 -27.79371775154118 0 0 0 0 -1.0147476766942418 39.890910652075718 0 39.890910652075718 -36.740749990187851 0 0 0 0 -5.0462021621301574 27.045256589497967 0 27.045256589497967 -17.697340584039466 0 0 0 0 -1.7632064929645139 28.895063364468797 0 28.895063364468797 -3.9372686783601694 0 0 0 0 6.2948656046717133 19.341226858054824 0 19.341226858054824 -0.75241928147067938 0 0 0 0 -1.3000973900478812 24.47713328244879 0 24.47713328244879 30.132197539983281 0 0 0 0 -0.79462699589885233 20.300898010276512 0 20.300898010276512 3.2319062934493559 0 0 0 0 6.8003785227836033 24.961134397916567 0 24.961134397916567 -18.304590103762905 0 0 0 0 10.841152533115974 21.638929579027035 0 21.638929579027035 3.309775452472195 0 0 0 0 5.8370256797144293 17.46577760296293 0 17.46577760296293 8.4229418527497728 0 0 0 0 -0.30199423703425055 23.701170371873559 0 23.701170371873559 5.2189281280545856 0 0 0 0 -1.069538457172257 13.942835226780858 0 13.942835226780858 -4.7053615088343577 0 0 0 0 -1.4891988500232856 23.811743530165018 0 23.811743530165018 58.231908065100924 0 0 0 0 6.2181416484386318 20.29154243804237 0 20.29154243804237 29.682549944935332 0 0 0 0 0.70417968009905962 21.237625367401222 0 21.237625367401222 29.645704761783691 0 0 0 0 6.4799266638348172 11.386317158942347 0 11.386317158942347 57.56155119905452 0 0 0 0 18.337977013167574 24.02174931083232 0 24.02174931083232 29.640159038886452 0 0 0 0 -17.885817860996212 -30.930477753385617 0 -30.930477753385617 38.303166395132848 0 0 0 0 -14.39384553687546 26.278516705356083 0 26.278516705356083 -36.604935513628959 0 0 0 0 21.605276187090794 -59.43563501960989 0 -59.43563501960989 -79.294396338137062 0 0 0 0 -5.22764461399629 31.989621843138707 0 31.989621843138707 73.375933820829687 0 0 0 0 3.691093455124701 38.332365122917736 0 38.332365122917736 56.121689952764541 0 0 0 0 -15.560615481196805 28.453575502750255 0 28.453575502750255 35.745124947432487 0 0 0 0 -0.43449904502239756 0.24727822003460531 0 0.24727822003460531 -0.14664416658039725 0 0 0 0 30.385172592847727 52.517138038808412 0 52.517138038808412 -74.39556996355077 0 0 0 0 -5.9214863796852999 2.3423976783172362 0 2.3423976783172362 -0.790712838377162 0 0 0 0 -97.812842941307792 -39.405428384309687 0 -39.405428384309687 8.9432395976712087 0 0 0 0 -1.9910273037150592 0.68888050177927518 0 0.68888050177927518 -0.28390805853409073 0 0 0 0 -37.472925333232297 10.872831321289823 0 10.872831321289823 56.679835424833072 0 0 0 0 -3.1493200490274944 36.47170632725107 0 36.47170632725107 50.632947828863507 0 0 0 0 -4.9667592401469021 1.8687511931306127 0 1.8687511931306127 -0.57870797277644259 0 0 0 0 -22.94082958904221 -9.4298910425603708 0 -9.4298910425603708 -26.298195668743119 0 0 0 0 -20.872140064865818 15.302817243268748 0 15.302817243268748 6.6118669613248358 0 0 0 0 -15.858487528721184 4.7139736357011088 0 4.7139736357011088 -26.947600834315949 0 0 0 0 -37.14734701994729 -19.071131828967623 0 -19.071131828967623 -15.999412592746467 0 0 0 0 -65.56923685977354 -10.882696534577263 0 -10.882696534577263 -30.818078722018527 0 0 0 0 -120.81360556421177 -0.21322559934060337 0 -0.21322559934060337 -9.9436554215102433 0 0 0 0 -85.209632294223127 -17.61086064168353 0 -17.61086064168353 -25.843218774562274 0 0 0 0 -44.831486519720102 -12.67487177903206 0 -12.67487177903206 -29.168477528420908 0 0 0 0 -63.990909408005535 -6.5440384255147421 0 -6.5440384255147421 -21.045507563146657 0 0 0 0 -8.8012343823236279 8.7818949673967381 0 8.7818949673967381 -24.942482646702501 0 0 0 0 -28.917821397911894 -3.9431507462163609 0 -3.9431507462163609 -23.684663426548241 0 0 0 0 -36.013410043683052 -0.77839212410435721 0 -0.77839212410435721 -19.041090650998513 0 0 0 0 -50.527419826377809 -10.47288193678321 0 -10.47288193678321 -19.484867441353856 0 0 0 0 -31.968933823910533 -12.116265514463933 0 -12.116265514463933 -28.030507602103853 0 0 0 0 -82.583897501119793 -9.7120562963826274 0 -9.7120562963826274 -20.432897539340047 0 0 0 0 -57.317961670517434 -20.197557675190865 0 -20.197557675190865 -32.374283066513271 0 0 0 0 -68.732776787554997 -3.182151017978299 0 -3.182151017978299 -27.400470555920037 0 0 0 0 -22.21579951392664 7.1876094226761325 0 7.1876094226761325 2.4705797933345366 0 0 0 0 3.2842607467299274 -4.7877595750276072 0 -4.7877595750276072 -2.5490760681643678 0 0 0 0 -13.406289984839304 0.77407520289295917 0 0.77407520289295917 -0.32409646197072561 0 0 0 0 -11.864958568118254 2.468293242987329 0 2.468293242987329 -11.884786021804047 0 0 0 0 -31.111498712062428 20.383921101601004 0 20.383921101601004 -7.6080094834790088 0 0 0 0 -17.410843120484628 7.1063891249457924 0 7.1063891249457924 -13.642583003418849 0 0 0 0 -31.148759359737397 -7.6950810461365506 0 -7.6950810461365506 -5.9268015663842561 0 0 0 0 -15.180727609444148 -13.482528504612446 0 -13.482528504612446 -17.551921283133993 0 0 0 0 -13.971869465162058 -5.1328799399161653 0 -5.1328799399161653 2.2356831016825254 0 0 0 0 -8.5176098868712415 -11.321943962547607 0 -11.321943962547607 8.3494476189379156 0 0 0 0 0.11341521809530919 -0.11227274660963005 0 -0.11227274660963005 -0.055110986570103604 0 0 0 0 -9.9817632121602173 -6.8841992558076868 0 -6.8841992558076868 2.7008790964221134 0 0 0 0 3.4255596961576202 -1.9651275466491711 0 -1.9651275466491711 2.1913586952171045 0 0 0 0 -17.87913026034812 -17.747102647976817 0 -17.747102647976817 -7.3757342698037576 0 0 0 0 -10.727845571567855 -12.114312056388997 0 -12.114312056388997 -11.348047315422946 0 0 0 0 -5.9600017113141348 -11.071874539485634 0 -11.071874539485634 -11.138360642665248 0 0 0 0 -30.31494845425118 -21.467665385706596 0 -21.467665385706596 -9.9846602059078009 0 0 0 0 -17.154248025738411 -16.245485322337231 0 -16.245485322337231 -18.185957905375176 0 0 0 0 -27.448245954457207 -21.525784598486553 0 -21.525784598486553 -17.472212452503527 0 0 0 0 -24.8262550988469 -25.014898763649967 0 -25.014898763649967 -13.520277091101462 0 0 0 0 -19.538358529857987 -19.885877375015752 0 -19.885877375015752 -14.467350111812152 0 0 0 0 -22.297035531788197 -19.732530470206768 0 -19.732530470206768 -9.2318618491737396 0 0 0 0 -62.640719848102151 -13.239643728697985 0 -13.239643728697985 -17.466909904118438 0 0 0 0 -62.985326606807234 -15.081030599450798 0 -15.081030599450798 -25.251749498723939 0 0 0 0 -33.566085298029918 -14.491766324886584 0 -14.491766324886584 -21.64098073594073 0 0 0 0 -42.753702781034121 -22.471436099067319 0 -22.471436099067319 -23.842619644742229 0 0 0 0 -28.108573578380401 -23.102301844337717 0 -23.102301844337717 -19.813468040317275 0 0 0 0 -41.503681618461314 -16.879219037392488 0 -16.879219037392488 -18.057329120427426 0 0 0 0 -43.192299423647 -21.943527132098325 0 -21.943527132098325 -15.143067312503206 0 0 0 0 -46.732334954792805 -19.74658462605089 0 -19.74658462605089 -17.207506497360896 0 0 0 0 -53.149051866291643 -4.2161725195226154 0 -4.2161725195226154 -18.024119210342178 0 0 0 0 -43.19959548181464 -15.238952253833418 0 -15.238952253833418 -21.999614545481052 0 0 0 0 -53.703318229942852 8.679314276615969 0 8.679314276615969 -16.224653098794761 0 0 0 0 -71.075033928468457 5.2391169277039253 0 5.2391169277039253 -15.204288969772733 0 0 0 0 -82.421410947865979 11.04416067573527 0 11.04416067573527 -15.229035892399281 0 0 0 0 -72.117948577440757 -9.4532796051622654 0 -9.4532796051622654 -13.299422464181589 0 0 0 0 -69.6484660411204 22.228072381620507 0 22.228072381620507 -14.967724547783661 0 0 0 0 -76.132927072805273 18.602126190370996 0 18.602126190370996 -12.77584573458671 0 0 0 0 -85.960065277737385 27.853229034044944 0 27.853229034044944 -16.478257337733567 0 0 0 0 -78.840255501607885 34.145419723650605 0 34.145419723650605 -15.807746629800022 0 0 0 0 -89.502868434282959 33.499836572050071 0 33.499836572050071 -12.360621470044862 0 0 0 0 -90.851232002045663 35.76916599407906 0 35.76916599407906 -15.872340339961056 0 0 0 0 -107.26409709470238 19.983557765534215 0 19.983557765534215 -12.649248628377563 0 0 0 0 -108.34507551596391 34.816137071015532 0 34.816137071015532 -12.234652776669009 0 0 0 0 -103.93725206147019 35.631240241079922 0 35.631240241079922 -13.01080666618418 0 0 0 0 -86.209790489887496 -7.1441096060527798 0 -7.1441096060527798 -13.587424048979926 0 0 0 0 -87.404542016984806 6.5209156022984871 0 6.5209156022984871 -14.985249333836876 0 0 0 0 -86.9184362017632 7.6270755859495694 0 7.6270755859495694 -12.904071332077706 0 0 0 0 -122.73563572369301 1.9492590968470722 0 1.9492590968470722 -13.175783365650886 0 0 0 0 -94.577795130740981 -23.774932963336028 0 -23.774932963336028 -32.560996163708523 0 0 0 0 -111.08688944147201 3.1566221179879221 0 3.1566221179879221 -28.73635493082692 0 0 0 0 -109.45296033385699 8.5150532335763955 0 8.5150532335763955 -52.336692861885695 0 0 0 0 -106.6954554337554 7.3842378616699875 0 7.3842378616699875 -19.421599757625017 0 0 0 0 -150.69716880226417 -18.830742100079874 0 -18.830742100079874 -31.084862336457718 0 0 0 0 -142.37785431139986 33.049421500404833 0 33.049421500404833 -24.964457451996168 0 0 0 0 -159.30962223838151 36.848140252890516 0 36.848140252890516 -12.050954842845215 0 0 0 0 -89.801498412558999 57.018217092405393 0 57.018217092405393 -26.776996968254025 0 0 0 0 -210.13499998465193 92.715497686395111 0 92.715497686395111 -42.23025037301386 0 0 0 0 -75.951804210125147 95.487667943729775 0 95.487667943729775 -111.04111354315364 0 0 0 0 -207.44079849218338 79.03217173228677 0 79.03217173228677 -30.502000363818865 0 0 0 0 -0.17112487249468789 -0.27720587324147283 0 -0.27720587324147283 -0.11650541940827636 0 0 0 0 -164.59898422159415 17.555747755825792 0 17.555747755825792 -35.299126559594242 0 0 0 0 -246.83441382657259 52.807479249028802 0 52.807479249028802 -37.082940946926684 0 0 0 0 -170.68599653248265 -25.577216222670927 0 -25.577216222670927 -55.224403594886553 0 0 0 0 -109.5435115801555 -29.339002241756113 0 -29.339002241756113 -15.368158891343455 0 0 0 0 -0.41831881164074136 -0.15095037111023912 0 -0.15095037111023912 -0.34192056157501405 0 0 0 0 -109.66844871098125 -67.0606658231967 0 -67.0606658231967 0.8342223773609021 0 0 0 0 -121.30769624296921 11.811874387427679 0 11.811874387427679 4.7320286003632646 0 0 0 0 -216.43809219699637 -18.873095223490509 0 -18.873095223490509 9.6570410797808108 0 0 0 0 -149.23448452199688 38.909960239404427 0 38.909960239404427 -38.155322755651014 0 0 0 0 -1.5197877965607631 2.2617176292873182 0 2.2617176292873182 -2.7218287615401096 0 0 0 0 0.13859926778661702 2.2479490099597115 0 2.2479490099597115 -8.3009729957983041 0 0 0 0 -2.8543189919911356 4.8084463074025621 0 4.8084463074025621 -3.6857373031587031 0 0 0 0 -3.524008670424621 4.1980387540245943 0 4.1980387540245943 0.069048409825199997 0 0 0 0 -0.093249663878854472 0.21640169217964395 0 0.21640169217964395 -0.30978688125668885 0 0 0 0 -3.5746882415646439 -0.61292424320203054 0 -0.61292424320203054 -9.0049722127928362 0 0 0 0 -1.3321423748888037 3.6229030917280625 0 3.6229030917280625 -8.7806223444681706 0 0 0 0 -16.071864716261217 28.83186364458561 0 28.83186364458561 -1.9462188093880286 0 0 0 0 0.31826643215841699 1.1087584174858591 0 1.1087584174858591 -1.578380639962063 0 0 0 0 -8.136452431947248 5.5437031476956804 0 5.5437031476956804 -34.240220524165125 0 0 0 0 -0.59640952489918131 -0.68331664325942798 0 -0.68331664325942798 -0.61082667417387737 0 0 0 0 -0.65892742833179507 -0.57923076293874542 0 -0.57923076293874542 -0.80921309954157716 0 0 0 0 -0.80904407178517956 -0.18951218073619869 0 -0.18951218073619869 -1.2252832206132924 0 0 0 0 -0.082273820736844527 -0.44973698571311616 0 -0.44973698571311616 -0.26021170951838712 0 0 0 0 -89.183243455536939 54.679939336657611 0 54.679939336657611 -21.365587443804316 0 0 0 0 -71.822371398573296 55.945946996511566 0 55.945946996511566 -26.29395815070211 0 0 0 0 -0.37314025057855815 3.4192510512457659 0 3.4192510512457659 -3.4757649708819827 0 0 0 0 -1.0276111643771171 0.55905823014624489 0 0.55905823014624489 -0.33481065937360843 0 0 0 0 -0.35522939095881773 -0.39176448929030361 0 -0.39176448929030361 -0.57243840740818297 0 0 0 0 6.0430246205771709 -4.1903728573731769 0 -4.1903728573731769 -6.7353307642026152 0 0 0 0 0.76777594271759142 -0.78126103023907945 0 -0.78126103023907945 -3.2849271871065753 0 0 0 0 -1.0294500213354798 -0.70189827947634287 0 -0.70189827947634287 -0.89433971545884638 0 0 0 0 -58.93591148200283 26.483334912254659 0 26.483334912254659 -21.150996307643027 0 0 0 0 -58.862118677623585 47.428903348292351 0 47.428903348292351 -31.491037861932227 0 0 0 0 -79.840943321978898 41.109332232866564 0 41.109332232866564 -18.369051563869334 0 0 0 0 -103.27775901276911 53.197509631038898 0 53.197509631038898 -17.596573247240485 0 0 0 0 -105.38483817028032 19.647857142688963 0 19.647857142688963 20.207577396517081 0 0 0 0 -72.094536597458841 32.847215504633994 0 32.847215504633994 -18.078508651668017 0 0 0 0 -82.370966215320095 41.728574349451605 0 41.728574349451605 -18.29699485244727 0 0 0 0 -86.376382365141581 36.166099210441246 0 36.166099210441246 -18.787813365154875 0 0 0 0 -82.045827845548843 38.051508889330137 0 38.051508889330137 -20.023047835512443 0 0 0 0 -87.559178718550129 34.182447706338621 0 34.182447706338621 -18.115910116746218 0 0 0 0 -102.17219335039101 52.185145064243329 0 52.185145064243329 -33.294310318854514 0 0 0 0 -71.535480885566813 32.961116780722364 0 32.961116780722364 -20.595981132797448 0 0 0 0 -2.7603690244902808 -4.5475252866009157 0 -4.5475252866009157 2.5352308024686749 0 0 0 0 -7.2689032497444259 1.1155269062487037 0 1.1155269062487037 1.6908157936125576 0 0 0 0 -2.4704549873053021 -0.96562649267449341 0 -0.96562649267449341 -0.38624069766949765 0 0 0 0 0.071810714985923063 -0.006499754102800015 0 -0.006499754102800015 -0.25900126946570401 0 0 0 0 -10.651864634628112 -7.6405338075791747 0 -7.6405338075791747 1.6754301345874296 0 0 0 0 -0.19577237269656761 -0.14716276218780155 0 -0.14716276218780155 -0.086808503936411485 0 0 0 0 6.3046834650725465 7.6421910545850551 0 7.6421910545850551 -3.8463348401113535 0 0 0 0 -8.5071271252117242 5.9607880911651705 0 5.9607880911651705 4.1383181598196188 0 0 0 0 -10.387702250827573 -2.9411764164256056 0 -2.9411764164256056 4.7786853697026714 0 0 0 0 -4.9125629505293631 7.0097630445812911 0 7.0097630445812911 -6.9654066603341107 0 0 0 0 -6.417952148636715 3.5470716714876858 0 3.5470716714876858 -0.93714240025826712 0 0 0 0 -6.1418739877985047 8.2231230966095836 0 8.2231230966095836 0.31198509206922154 0 0 0 0 -17.661231140227272 7.9480323085454074 0 7.9480323085454074 -13.27435827611589 0 0 0 0 -8.3419718717872406 0.68955513507906829 0 0.68955513507906829 -7.6450813266351361 0 0 0 0 -6.5349680618633954 1.7282456189991535 0 1.7282456189991535 -10.639723801014156 0 0 0 0 -8.8373459302089827 4.8110388225137513 0 4.8110388225137513 -6.3395320213664945 0 0 0 0 -12.029274841375212 -8.4255967827861014 0 -8.4255967827861014 -7.6096794975825901 0 0 0 0 -7.0529291584302598 -2.0232822659368708 0 -2.0232822659368708 -5.241197079053336 0 0 0 0 -14.216712823698771 -11.365718972558454 0 -11.365718972558454 5.0376557684423915 0 0 0 0 -6.2857821559776887 -3.0442352501144399 0 -3.0442352501144399 -30.1017488919897 0 0 0 0 -10.331931799934807 -21.335029863300861 0 -21.335029863300861 -13.524789503286343 0 0 0 0 -10.438154035275225 -7.0272734631322038 0 -7.0272734631322038 -6.8633758471803503 0 0 0 0 -12.534897697695669 -2.3172708061304093 0 -2.3172708061304093 1.5660213642432552 0 0 0 0 -9.3334524333166868 -3.7241779175767533 0 -3.7241779175767533 -10.767787355364817 0 0 0 0 0.10351265198462414 0.088071664023592011 0 0.088071664023592011 0.080450868273321152 0 0 0 0 -2.9400635331212577 6.8586380664639819 0 6.8586380664639819 -9.1247085418297047 0 0 0 0 -10.031995033058109 -6.2235525170956407 0 -6.2235525170956407 14.957627171606248 0 0 0 0 -1.7136866752264419 3.9588129074233507 0 3.9588129074233507 -6.7474701396179739 0 0 0 0 6.1766447343550945 -6.3750942669752249 0 -6.3750942669752249 -2.6571743375502592 0 0 0 0 -12.459381988095059 -2.5514272812172223 0 -2.5514272812172223 -7.7600894658669404 0 0 0 0 -1.2813514663376964 -5.2528088609259385 0 -5.2528088609259385 11.583599052143484 0 0 0 0 0.14830837498185193 0.64084785098032793 0 0.64084785098032793 -0.036737967854173381 0 0 0 0 -0.8603119115624267 4.2892297513463404 0 4.2892297513463404 -2.2198869957325087 0 0 0 0 2.3451039126372848 3.806441633314904 0 3.806441633314904 3.2545620314760981 0 0 0 0 -1.0270278050842307 -2.7655738105705723 0 -2.7655738105705723 -3.2202309449110658 0 0 0 0 8.2799341896007661 -0.86779670869424308 0 -0.86779670869424308 -4.8901048055038245 0 0 0 0 1.7482854402563248 -1.6798147859852861 0 -1.6798147859852861 -4.797009097662368 0 0 0 0 2.1106326101303523 -2.6361745225932509 0 -2.6361745225932509 -8.0445743111001775 0 0 0 0 0.73918355475012731 -4.8823372199143478 0 -4.8823372199143478 -7.4547813203209898 0 0 0 0 -0.85468709478232086 -1.5457113336302655 0 -1.5457113336302655 -8.431894913736528 0 0 0 0 -5.9966697380353366 2.3544288451787452 0 2.3544288451787452 -6.9027921873570222 0 0 0 0 -0.22406501771733645 2.4031060748694273 0 2.4031060748694273 -8.9141538145745471 0 0 0 0 -0.80832201455414321 -2.2259902640216751 0 -2.2259902640216751 -22.939770333980732 0 0 0 0 -24.666021503184474 19.350300007620049 0 19.350300007620049 -0.5405600832187929 0 0 0 0 -0.23302487620151169 -3.2921025865393858 0 -3.2921025865393858 -3.2529058434198816 0 0 0 0 4.0905099135992202 -3.4087408070638503 0 -3.4087408070638503 -10.188045702635463 0 0 0 0 -0.15173893390633708 0.14949835938591605 0 0.14949835938591605 -14.345491115763934 0 0 0 0 -3.4531566281502926 -7.9252457344108507 0 -7.9252457344108507 -10.546444474993052 0 0 0 0 0.52803443828332775 -5.6333162383800186 0 -5.6333162383800186 -9.1010891629711637 0 0 0 0 0.97158831624086872 -6.2580395169221674 0 -6.2580395169221674 -10.920446061804682 0 0 0 0 0.017400171343759263 -0.0090098077119257214 0 -0.0090098077119257214 -0.31178380373008929 0 0 0 0 -8.156273299420306 -12.073986618353615 0 -12.073986618353615 -11.939682162555755 0 0 0 0 -20.177876081057576 -2.284190695234031 0 -2.284190695234031 -4.2800046434549586 0 0 0 0 -3.0766298547017641 -8.5792478467493538 0 -8.5792478467493538 -20.636418054397211 0 0 0 0 -11.444598255080535 -6.0865861829793175 0 -6.0865861829793175 -2.9765972710238202 0 0 0 0 -7.2627604269222132 -3.1776549076230367 0 -3.1776549076230367 -2.2499140517936667 0 0 0 0 -0.83863313124915351 -1.0347713392414448 0 -1.0347713392414448 0.43232122713118315 0 0 0 0 -7.4476383233918586 -7.8631738302690977 0 -7.8631738302690977 -5.4533998528681877 0 0 0 0 10.115095297712003 1.8062225541608825 0 1.8062225541608825 -6.4246387285358537 0 0 0 0 -7.4490280282270618 -2.7087187542996389 0 -2.7087187542996389 1.3049082021865388 0 0 0 0 -1.4304434582627279 -0.082359515108984094 0 -0.082359515108984094 -0.62951561854117122 0 0 0 0 -11.437963229134397 -3.279307703523898 0 -3.279307703523898 3.1590510467453896 0 0 0 0 -1.6536431605093043 -4.3350754664034525 0 -4.3350754664034525 3.1823914091850156 0 0 0 0 -1.506994955232742 0.088286831062872162 0 0.088286831062872162 0.38594709397228266 0 0 0 0 -11.820587255154578 2.1763099524205813 0 2.1763099524205813 -4.86307147578583 0 0 0 0 -4.4856015877268192 1.6818463846793748 0 1.6818463846793748 -6.7637395076745861 0 0 0 0 -0.21266429816520827 -5.9366921127914196 0 -5.9366921127914196 -6.6159212287459468 0 0 0 0 -10.201207484192139 -3.3149177791987086 0 -3.3149177791987086 -3.8949778407567237 0 0 0 0 -2.4731156162788466 -3.4592730881873877 0 -3.4592730881873877 -5.8482698311635204 0 0 0 0 -5.2778119455841264 -1.9357862382037894 0 -1.9357862382037894 -6.5539964395732113 0 0 0 0 -2.6681805101232499 -4.0879561829047475 0 -4.0879561829047475 -7.5102175582616582 0 0 0 0 8.8380879416024385 -7.1222465435873517 0 -7.1222465435873517 -7.7562108358985142 0 0 0 0 -3.2049825866219805 -3.5717471003740684 0 -3.5717471003740684 -2.806540021189619 0 0 0 0 -17.30289302040353 -8.4865060074284031 0 -8.4865060074284031 -0.021989734282044537 0 0 0 0 -3.2203184727775902 -5.8819795821148242 0 -5.8819795821148242 -5.1394213329490412 0 0 0 0 -22.413854153794603 0.51200822103160704 0 0.51200822103160704 -0.048057835785812131 0 0 0 0 -17.740941501157323 6.9936335123130675 0 6.9936335123130675 -3.8775766156996951 0 0 0 0 -8.7649254975114843 0.0047321218963247702 0 0.0047321218963247702 -3.6948242191672307 0 0 0 0 -4.608592512017708 -0.27420997953431936 0 -0.27420997953431936 -1.0499869820512799 0 0 0 0 -5.1782970364793073 -0.9319191196519796 0 -0.9319191196519796 -0.23708990882220959 0 0 0 0 -2.1109573543974784 0.85046370442319486 0 0.85046370442319486 -0.2268040579712689 0 0 0 0 -55.028385711561967 16.050185134066453 0 16.050185134066453 7.9179898541195826 0 0 0 0 -4.1392394849879297 0.34033715306545964 0 0.34033715306545964 -0.22105640915013303 0 0 0 0 -3.0492677652004829 -10.940546526591476 0 -10.940546526591476 -2.3134386068126673 0 0 0 0 -7.7544932246139524 -1.3806922073139987 0 -1.3806922073139987 -1.3708276938081667 0 0 0 0 -6.389205591263817 -0.062687781047543467 0 -0.062687781047543467 -1.5709205144461933 0 0 0 0 -8.9911135181878521 -1.1439631943973438 0 -1.1439631943973438 -0.26284211914151001 0 0 0 0 -5.1600697866720182 -0.14360180011143719 0 -0.14360180011143719 -0.21213251769081559 0 0 0 0 -5.2218405648407042 -0.8618277727639736 0 -0.8618277727639736 -1.783253958420687 0 0 0 0 -3.0179677460282717 -0.06079945526298558 0 -0.06079945526298558 -1.0945002417562262 0 0 0 0 -7.0372092213542601 0.20002419304341856 0 0.20002419304341856 5.0107072992282298 0 0 0 0 -3.4467358197517797 -0.35916111963769026 0 -0.35916111963769026 -0.11935418095947625 0 0 0 0 -3.0674014059962476 -0.14656683935568515 0 -0.14656683935568515 -0.37261061788553984 0 0 0 0 -2.3388500271801558 -0.052326397250368029 0 -0.052326397250368029 -1.520033682924848 0 0 0 0 -3.2984756079702038 -0.9137384599424081 0 -0.9137384599424081 -4.3781560185627768 0 0 0 0 -1.2953157290376112 1.1255974272504545 0 1.1255974272504545 -4.4681342467107186 0 0 0 0 -2.2937209273618357 0.83118589225272332 0 0.83118589225272332 -0.41122171086791903 0 0 0 0 0.32118119408832513 1.52426846784833 0 1.52426846784833 -6.7310938008695302 0 0 0 0 -7.500664454314574 -0.33859518927124554 0 -0.33859518927124554 2.1269339565767211 0 0 0 0 -2.6716479450446684 5.3595540790521454 0 5.3595540790521454 -7.5322247024173521 0 0 0 0 -0.71863765720204276 -0.11399640434131697 0 -0.11399640434131697 0.13328961536927575 0 0 0 0 -1.8367862237386845 1.9951834158728232 0 1.9951834158728232 -5.2140987629093161 0 0 0 0 -5.8064019055418612 -0.99420841153096262 0 -0.99420841153096262 -2.6813482319253126 0 0 0 0 -14.388554882112203 2.7016947539998455 0 2.7016947539998455 -4.2728859540234225 0 0 0 0 -6.6265478680315653 -1.4746015792500771 0 -1.4746015792500771 2.9193120496795473 0 0 0 0 -5.0729359764983428 2.201560531629184 0 2.201560531629184 -0.11412533274136649 0 0 0 0 -6.0542442947907205 0.59115666422675872 0 0.59115666422675872 -1.1283612995325711 0 0 0 0 -0.83621964487330036 -0.15570564642156559 0 -0.15570564642156559 0.12843286741243576 0 0 0 0 -3.7224002246856571 0.62489305460940159 0 0.62489305460940159 -1.4516632691194502 0 0 0 0 -6.1542320057607185 0.85339638975425558 0 0.85339638975425558 -0.69372252659556466 0 0 0 0 -6.0084670472501784 0.55448561326205237 0 0.55448561326205237 -0.45767885560280774 0 0 0 0 -3.8725015039396427 1.8798441955343423 0 1.8798441955343423 -1.033972975050728 0 0 0 0 -0.26024209340903326 5.7999402921081753 0 5.7999402921081753 0.59600961031600264 0 0 0 0 -3.7192238006731486 3.258904967675619 0 3.258904967675619 2.4944673181155572 0 0 0 0 -11.105111092549009 1.4035868671122387 0 1.4035868671122387 2.6918227001280002 0 0 0 0 -23.095131604359267 -31.179561927815712 0 -31.179561927815712 -27.97065988984059 0 0 0 0 -2.1169005954538438 0.076812945115050546 0 0.076812945115050546 -0.27566350005887569 0 0 0 0 -13.528907337206419 5.6245751395297248 0 5.6245751395297248 1.023145894859482 0 0 0 0 -4.0720890429409167 0.59019349487415695 0 0.59019349487415695 -0.59846154907290838 0 0 0 0 70.130246877837067 45.741270567095057 0 45.741270567095057 -65.052127090129488 0 0 0 0 -6.3647082754948769 -5.2684524681035896 0 -5.2684524681035896 -3.9914711996922563 0 0 0 0 13.861577073094395 15.522324047737243 0 15.522324047737243 3.6997256338124309 0 0 0 0 1.2647819389644042 -2.0429067860966654 0 -2.0429067860966654 -19.221151319294506 0 0 0 0 17.237570319077577 5.2721770370851289 0 5.2721770370851289 -22.483552296327389 0 0 0 0 -0.10740370747653638 0.24221247645160926 0 0.24221247645160926 -0.34787946258571967 0 0 0 0 -8.98988305011585 -5.3798414832858299 0 -5.3798414832858299 -1.6191973471285337 0 0 0 0 18.570908666748664 4.5709139821761937 0 4.5709139821761937 -23.980356137298031 0 0 0 0 -4.7540807750939393 -1.8903773106421511 0 -1.8903773106421511 -1.9713184300310331 0 0 0 0 -2.5056648321986472 0.39965474737110185 0 0.39965474737110185 -0.062888759939539796 0 0 0 0 -4.2828438283472678 0.28586476987516107 0 0.28586476987516107 0.039228607208755761 0 0 0 0 -0.64044626031292462 0.62901919027032083 0 0.62901919027032083 -0.44544534393366819 0 0 0 0 -5.8022337469205922 17.132107822862508 0 17.132107822862508 15.027176450725335 0 0 0 0 5.5724489927387992 1.7802713609590342 0 1.7802713609590342 2.254472400806435 0 0 0 0 -0.35021086469481982 -0.24037355317720166 0 -0.24037355317720166 -0.26017688532983851 0 0 0 0 -1.0053779644773044 2.9086162417427772 0 2.9086162417427772 -16.749291962721088 0 0 0 0 -13.739404422861639 8.8811338131361879 0 8.8811338131361879 -6.831630743642279 0 0 0 0 -30.208047870626615 8.871268848387615 0 8.871268848387615 18.949009019815662 0 0 0 0 -11.155232208363941 -8.5284897255970691 0 -8.5284897255970691 -2.0890789137685886 0 0 0 0 -9.7010166565564759 9.9183543375504541 0 9.9183543375504541 -11.772565606093053 0 0 0 0 -4.6953676066590333 5.6589174844272065 0 5.6589174844272065 -8.5789774181402549 0 0 0 0 -13.535490238343414 8.3033432369400657 0 8.3033432369400657 -6.4034072667636792 0 0 0 0 -0.21502104361111452 -0.10337620537508596 0 -0.10337620537508596 -0.14335060270605054 0 0 0 0 -9.3515661388594538 5.5321497510635993 0 5.5321497510635993 -5.5255593239579639 0 0 0 0 -11.544278104597197 7.248254348398234 0 7.248254348398234 -6.78213938896846 0 0 0 0 -11.640379438745526 7.2208451925345116 0 7.2208451925345116 -6.0034527098769672 0 0 0 0 -1.9496781400509251 -0.81666832119598576 0 -0.81666832119598576 -0.76745358735612068 0 0 0 0 -4.8468986877252078 -0.090054069740249487 0 -0.090054069740249487 0.2058396941697474 0 0 0 0 22.249076680962091 -1.0948108231690412 0 -1.0948108231690412 -14.695243308780491 0 0 0 0 -5.4292777887521879 0.51251344931688436 0 0.51251344931688436 0.69269386026249435 0 0 0 0 -4.9373422173589461 -2.7357844668684947 0 -2.7357844668684947 1.5668120722890535 0 0 0 0 -2.128861611756796 -1.0980425227744759 0 -1.0980425227744759 -0.19472533128108593 0 0 0 0 -5.8416772338537157 -0.47932371823543463 0 -0.47932371823543463 2.5916814766084428 0 0 0 0 -5.1013750301594882 -0.21235419457032378 0 -0.21235419457032378 0.44954763346855486 0 0 0 0 -3.5966199564909402 0.89918191700697037 0 0.89918191700697037 -1.2066249708463817 0 0 0 0 -4.1767474313160164 -0.4089683509228621 0 -0.4089683509228621 -1.0488798310925063 0 0 0 0 0.54797380539642049 -0.90831858884503869 0 -0.90831858884503869 -1.4069745046517141 0 0 0 0 -0.08499321515360192 -0.43066465832113343 0 -0.43066465832113343 -0.18652862865930764 0 0 0 0 -2.8117928383574675 -0.21765746210187453 0 -0.21765746210187453 0.24133789739727601 0 0 0 0 -1.7644722165924762 -0.52695339433169452 0 -0.52695339433169452 -0.092238882682686762 0 0 0 0 -2.5707160341331701 0.40761831662558734 0 0.40761831662558734 4.4933950542959131 0 0 0 0 -2.1234561460018275 0.21751050884851186 0 0.21751050884851186 -1.6629533696435317 0 0 0 0 -2.1955243238942046 -0.71682280396836617 0 -0.71682280396836617 -1.5571546011085573 0 0 0 0 -3.5440623530108155 1.5121127361230506 0 1.5121127361230506 -0.82456427891271478 0 0 0 0 -3.3759648333696095 0.43167998589671597 0 0.43167998589671597 -0.55008211338605406 0 0 0 0 -3.3409983536121217 -0.44896074683448717 0 -0.44896074683448717 -1.0770255777656246 0 0 0 0 -5.3147837585339062 -0.086486114026211425 0 -0.086486114026211425 -0.62393433104767126 0 0 0 0 -4.9814663974818814 0.71145155799158033 0 0.71145155799158033 -0.37082118835659372 0 0 0 0 -4.1099887142869704 0.99745041065808948 0 0.99745041065808948 -1.2909384361898546 0 0 0 0 -3.8491951831275664 -0.19556630568893024 0 -0.19556630568893024 0.1415146108425348 0 0 0 0 -4.0621509103792084 0.23535077450093178 0 0.23535077450093178 -0.037274198543122056 0 0 0 0 -9.2099036405495553 -8.5770236240959861 0 -8.5770236240959861 7.4713561725154136 0 0 0 0 -4.0386431225319512 -0.31340110895647366 0 -0.31340110895647366 0.031692485236004396 0 0 0 0 -3.9211243883111138 -0.44367692691877636 0 -0.44367692691877636 -1.0253121327153707 0 0 0 0 -3.8670006630630809 -0.083387268858088781 0 -0.083387268858088781 -0.74683438124068857 0 0 0 0 -3.651800425644069 -0.0091447776372888256 0 -0.0091447776372888256 2.7998181814750254 0 0 0 0 -18.13468608925541 12.345223229193692 0 12.345223229193692 32.245741786422187 0 0 0 0 0.78824442399309191 2.4979466609335077 0 2.4979466609335077 -1.2188464946358124 0 0 0 0 -2.1968342248217194 -0.28966266455155121 0 -0.28966266455155121 -0.015369330202155362 0 0 0 0 -3.4601350550797179 0.095237091804449392 0 0.095237091804449392 0.42597217383439556 0 0 0 0 -3.7476250608542614 -3.4344687317999316 0 -3.4344687317999316 1.3213745639296235 0 0 0 0 -3.1818824916990724 -0.87128195189122448 0 -0.87128195189122448 -0.19749183783196586 0 0 0 0 -2.6452988723794988 -0.79522067977796951 0 -0.79522067977796951 0.15635452758348833 0 0 0 0 -3.457751965334146 -0.46124078966634452 0 -0.46124078966634452 -0.089383549440632065 0 0 0 0 -4.3898864616743367 -0.034589456802557095 0 -0.034589456802557095 -0.25456515089123855 0 0 0 0 -4.5457168014863782 -0.23688666872953945 0 -0.23688666872953945 -0.44966646511785768 0 0 0 0 -3.6489412270508819 -0.31654283235226494 0 -0.31654283235226494 0.68750191561657914 0 0 0 0 -3.4535732078635983 0.33154739057961169 0 0.33154739057961169 0.012605540446032945 0 0 0 0 -6.0000920776919919 -0.32030013806791802 0 -0.32030013806791802 -0.5770613941585907 0 0 0 0 -5.9887047365385797 -0.25595267420195 0 -0.25595267420195 -0.26867218950110328 0 0 0 0 -1.2220313020526388 0.56012755613364273 0 0.56012755613364273 -0.40696810114488158 0 0 0 0 -6.1207667697517536 -0.21879086895876299 0 -0.21879086895876299 -1.2208361835171857 0 0 0 0 -5.7198307885528266 -0.17358722812741689 0 -0.17358722812741689 -1.2239198175403168 0 0 0 0 -5.276955618070815 -0.15359739065581834 0 -0.15359739065581834 -0.99202552794253052 0 0 0 0 -5.8036661877602 -0.53962598844728404 0 -0.53962598844728404 -1.2677757008747221 0 0 0 0 -6.0656874102905931 -0.59258501226725002 0 -0.59258501226725002 -1.2721595917355657 0 0 0 0 -5.7792613073761459 -0.65275394247615282 0 -0.65275394247615282 -1.3368266236005866 0 0 0 0 -6.2426002855816023 -0.82967881972430746 0 -0.82967881972430746 -1.045037378697657 0 0 0 0 -2.2742782334180922 -0.5654376261550591 0 -0.5654376261550591 -0.58411220911075512 0 0 0 0 -6.8659218212358155 -0.41257243616894357 0 -0.41257243616894357 -0.97632282434472017 0 0 0 0 -3.2720069206898188 -0.83442120732655667 0 -0.83442120732655667 -0.48529880935552683 0 0 0 0 -4.4851727961165109 -0.49028561839811413 0 -0.49028561839811413 -0.017727530384138879 0 0 0 0 -4.0137236983546671 -0.95205062899772541 0 -0.95205062899772541 -0.16657226297459207 0 0 0 0 -3.3730810399893016 -0.69072713320383627 0 -0.69072713320383627 -0.13658303906632341 0 0 0 0 -1.7372333635030373 -1.9704824364040405 0 -1.9704824364040405 -4.4796459657629839 0 0 0 0 -3.3471028575357757 -1.0615167523776661 0 -1.0615167523776661 -0.47520496606270379 0 0 0 0 -4.424661486938021 -1.9846245251782761 0 -1.9846245251782761 -5.0297934936484126 0 0 0 0 -3.6899115616302964 -0.89990235737982438 0 -0.89990235737982438 -1.3446209170268935 0 0 0 0 -4.3587394676324038 -0.97734163395239193 0 -0.97734163395239193 -0.64789049993851222 0 0 0 0 -3.5435836849428597 -0.75818342309696618 0 -0.75818342309696618 -0.99380743495783008 0 0 0 0 -2.8824158505851649 -0.85313712973440226 0 -0.85313712973440226 -0.91547981850540916 0 0 0 0 -4.040820374921168 -1.004971240640316 0 -1.004971240640316 -0.76054094870681865 0 0 0 0 40.010845399147229 -7.8058184415832983 0 -7.8058184415832983 -5.7140030971968372 0 0 0 0 -2.0054846001356412 -0.79020655955453556 0 -0.79020655955453556 -1.1281398383243166 0 0 0 0 -4.1075805005557413 -0.27877651049561791 0 -0.27877651049561791 -0.92628735793869055 0 0 0 0 -2.4397718615542754 0.30642334972698126 0 0.30642334972698126 -0.41032334286329075 0 0 0 0 1.8250580973954129 0.62312434945934569 0 0.62312434945934569 1.2378734846550969 0 0 0 0 -6.141879272816368 -1.0364326243138606 0 -1.0364326243138606 23.971502850531095 0 0 0 0 0.13162972066811562 -0.90151093898955992 0 -0.90151093898955992 7.155691961353341 0 0 0 0 -0.94853948572826852 0.45967752431495135 0 0.45967752431495135 0.20211266429845909 0 0 0 0 -2.2037054197388102 0.27274224153872395 0 0.27274224153872395 0.10668622087706581 0 0 0 0 -1.4766730116662075 1.6974916985136019 0 1.6974916985136019 2.2054619625712348 0 0 0 0 -3.457780523796004 0.65091617420942605 0 0.65091617420942605 0.96884915100974234 0 0 0 0 2.8597656545953214 0.66609130915290393 0 0.66609130915290393 2.4488787763328332 0 0 0 0 -3.1460662621844762 0.50408690493098529 0 0.50408690493098529 0.97491750918657405 0 0 0 0 -4.0129590803675512 -0.35065784748129203 0 -0.35065784748129203 0.10590143984529732 0 0 0 0 -3.4214896977655371 -0.88698063362846824 0 -0.88698063362846824 -0.58057572288672077 0 0 0 0 -2.7624442376220841 0.036950198889392105 0 0.036950198889392105 -0.054429533347562509 0 0 0 0 2.0846155510407698 3.722453024277911 0 3.722453024277911 -12.041199830594906 0 0 0 0 -0.077329711920608446 -0.022789786729182193 0 -0.022789786729182193 -0.21631873820954084 0 0 0 0 -5.3124865889276407 10.811701559477825 0 10.811701559477825 8.6270527856930386 0 0 0 0 -2.1083351535967267 -1.5505960117648954 0 -1.5505960117648954 -2.3734333933233529 0 0 0 0 -0.1185796095560363 0.90286799853478428 0 0.90286799853478428 -3.2054162993418345 0 0 0 0 0.37770456072394154 3.0378110983186843 0 3.0378110983186843 -0.095403746987162918 0 0 0 0 -2.7068666073567158 1.0964053462508128 0 1.0964053462508128 0.43524396032120172 0 0 0 0 -1.8606572629612259 1.8195191687297498 0 1.8195191687297498 0.5252400617309243 0 0 0 0 -26.409622644698175 3.7201444403099941 0 3.7201444403099941 -0.70854440140634267 0 0 0 0 -20.703308936639587 -27.579989748161807 0 -27.579989748161807 39.38312543418273 0 0 0 0 -1.5656512859790723 -30.884895389377498 0 -30.884895389377498 -26.763862010141452 0 0 0 0 34.992917243318516 -14.711514480310086 0 -14.711514480310086 -15.165631436690433 0 0 0 0 -2.219102110258973 -25.248763497865326 0 -25.248763497865326 3.8722845927300114 0 0 0 0 26.924066766682699 -4.8260857644769857 0 -4.8260857644769857 13.1357989785472 0 0 0 0 -40.741570074447736 -51.48620064050823 0 -51.48620064050823 13.901958535446255 0 0 0 0 10.330234570779794 23.839878791889575 0 23.839878791889575 -38.632389558944055 0 0 0 0 -58.481158507003784 30.616723925108104 0 30.616723925108104 -21.557607781451537 0 0 0 0 -0.7472138705004685 0.064204331101504322 0 0.064204331101504322 -0.027896805789308848 0 0 0 0 1.356954305760155 -1.7723578369107287 0 -1.7723578369107287 -17.82307471831669 0 0 0 0 -16.933161812065009 45.905119488161048 0 45.905119488161048 -1.4814685134587364 0 0 0 0 3.2483843372519914 -6.832145575376444 0 -6.832145575376444 -14.039405358092239 0 0 0 0 -4.2530763415379624 14.351492426969656 0 14.351492426969656 -5.6262410220411709 0 0 0 0 -21.500176940554866 -3.6293560300668872 0 -3.6293560300668872 15.077576899787573 0 0 0 0 -4.225013301992476 -3.356808494332995 0 -3.356808494332995 -7.7641970970270222 0 0 0 0 -12.335469424224357 -9.0944950089263443 0 -9.0944950089263443 -1.8121160541203096 0 0 0 0 -4.5061262367871677 0.20417529465424877 0 0.20417529465424877 7.9547462116945553 0 0 0 0 -3.3519556524324798 -4.466257603609435 0 -4.466257603609435 -6.4383824596662578 0 0 0 0 -4.0447803372753697 -3.2215623026285414 0 -3.2215623026285414 -1.6226638303627752 0 0 0 0 -2.9426690734408112 -2.2055078833259358 0 -2.2055078833259358 -5.0978968445295152 0 0 0 0 -4.0830677200810896 -0.41866864493944433 0 -0.41866864493944433 -7.5338057741663924 0 0 0 0 4.6129328282158895 -3.4393348606273548 0 -3.4393348606273548 -9.7906682941881229 0 0 0 0 1.2491700209648116 6.6613168555673923 0 6.6613168555673923 -7.8035880703933103 0 0 0 0 -7.7670799786001226 -3.2727247289964794 0 -3.2727247289964794 -3.3338453026900083 0 0 0 0 -1.6655159150018335 -3.9102182848706377 0 -3.9102182848706377 -4.6240318457429339 0 0 0 0 -4.8311601941672961 -3.2287535010415809 0 -3.2287535010415809 -3.5254523260451833 0 0 0 0 -7.6377847216535883 -4.9618993527010389 0 -4.9618993527010389 -2.2749137778687327 0 0 0 0 -0.66927556854081316 -0.62070324246676112 0 -0.62070324246676112 -0.15286454199705179 0 0 0 0 3.496816381589388 -5.1189654267302984 0 -5.1189654267302984 -4.0756128914359913 0 0 0 0 0.54555504518407361 -2.385063827680824 0 -2.385063827680824 -4.5873833297382589 0 0 0 0 -0.48730038079202131 -5.1235047851933189 0 -5.1235047851933189 -2.5040700897932311 0 0 0 0 -2.2400138973475805 -7.1287009525015037 0 -7.1287009525015037 -3.488961702672583 0 0 0 0 -0.80626531966017589 -3.1276947118055993 0 -3.1276947118055993 -3.5728932909064506 0 0 0 0 -0.93376125532779497 -1.9118399111271174 0 -1.9118399111271174 -4.6575554358207683 0 0 0 0 1.8024561093172906 -1.0856411274380662 0 -1.0856411274380662 -6.6619682017971265 0 0 0 0 -6.5593556466197924 -2.3577953065350172 0 -2.3577953065350172 -1.4969645604254538 0 0 0 0 -6.9621905251586327 -4.2835240592298902 0 -4.2835240592298902 -3.5997868156094341 0 0 0 0 -2.5714518833835101 -2.7324696252914662 0 -2.7324696252914662 -3.5684029631947234 0 0 0 0 -1.4065707857357665 -1.4600493834150257 0 -1.4600493834150257 -4.5212414627510782 0 0 0 0 -5.6847421662380384 -1.6520024337581845 0 -1.6520024337581845 -1.7553444051021643 0 0 0 0 -3.2271054937327888 1.0158281739501862 0 1.0158281739501862 0.37244220039840736 0 0 0 0 -5.9086960242084388 -0.48596804908345348 0 -0.48596804908345348 -1.8934612299515123 0 0 0 0 -5.2618805029288183 -0.85241134620127168 0 -0.85241134620127168 -1.4791588586252828 0 0 0 0 -7.5037081246958834 -1.4929945102934141 0 -1.4929945102934141 -0.82966908697733288 0 0 0 0 -1.5713185067030382 1.0877997545633158 0 1.0877997545633158 -0.54856954110515121 0 0 0 0 -5.8355183104591788 -0.88384629499525147 0 -0.88384629499525147 -1.3222875360211219 0 0 0 0 -9.3575697360554386 -4.4254944195023285 0 -4.4254944195023285 -4.6204989739712801 0 0 0 0 -2.9398406799993033 1.69010495833093 0 1.69010495833093 0.36900381102717805 0 0 0 0 -6.0664837990434535 -0.092748191611917719 0 -0.092748191611917719 -2.3646136365648545 0 0 0 0 -7.4827910975109262 -1.0539540890950434 0 -1.0539540890950434 -1.3672555009006828 0 0 0 0 -9.122139118114319 0.0086034489638677769 0 0.0086034489638677769 -2.0457400087757378 0 0 0 0 -5.4231837578004161 -1.4006450812228195 0 -1.4006450812228195 -7.0877299267267517 0 0 0 0 0.014504549218056439 -0.023487761151822106 0 -0.023487761151822106 -0.44283933602492997 0 0 0 0 -8.1984971704732743 -2.3205115635360016 0 -2.3205115635360016 -2.9225845363798157 0 0 0 0 -9.8648383080512758 -2.8415313916194123 0 -2.8415313916194123 -2.4605626203070869 0 0 0 0 -7.3261367564509783 24.635034540299856 0 24.635034540299856 -7.8746417171935832 0 0 0 0 -37.187717508201786 -26.484050487908789 0 -26.484050487908789 6.7143033543599699 0 0 0 0 -8.2012972244483535 -1.3346731324322718 0 -1.3346731324322718 -4.7628701560477111 0 0 0 0 -7.2151959403710926 -0.79448320137789707 0 -0.79448320137789707 1.2867272669730774 0 0 0 0 -10.521714830812925 15.382239286342099 0 15.382239286342099 15.697975116135751 0 0 0 0 -5.7650369012844749 0.86222599283019008 0 0.86222599283019008 -2.7474510731419741 0 0 0 0 -7.5680230867328646 -5.0851723625767136 0 -5.0851723625767136 1.6666273668081431 0 0 0 0 -4.4293404615859986 -0.85038619106798763 0 -0.85038619106798763 -0.29228219381667281 0 0 0 0 -0.84546039402551543 -0.015295501520865784 0 -0.015295501520865784 0.50712454778446148 0 0 0 0 -11.154678220904316 -3.9018628436219842 0 -3.9018628436219842 -4.516184208408049 0 0 0 0 -16.365796725671316 -21.49532549913333 0 -21.49532549913333 -9.7004917918052413 0 0 0 0 -0.45185811414838284 -0.051634943544304202 0 -0.051634943544304202 0.035011935628035951 0 0 0 0 -0.5791258216740971 4.9489022632157287 0 4.9489022632157287 -18.780397841889908 0 0 0 0 -2.6878795095235546 2.9964693015678563 0 2.9964693015678563 4.5541154584420838 0 0 0 0 -24.889951135421143 4.2621524098239618 0 4.2621524098239618 -6.7751581893235837 0 0 0 0 -7.0072473811160307 -20.011898395087854 0 -20.011898395087854 -24.971005432583269 0 0 0 0 15.652478101659597 0.1433622773799641 0 0.1433622773799641 -2.6118438408445854 0 0 0 0 2.2231685333870894 -7.3072835022886897 0 -7.3072835022886897 -4.7476005133071242 0 0 0 0 -9.0321719298143286 -1.5243355296598353 0 -1.5243355296598353 0.94267489964611662 0 0 0 0 -1.1285749985993334 -9.2552833032377571 0 -9.2552833032377571 -6.0378823101937087 0 0 0 0 -23.202048558418028 -9.6109513014142465 0 -9.6109513014142465 20.850369273704928 0 0 0 0 7.2620902027923648 1.7765685464897842 0 1.7765685464897842 0.43558585401660821 0 0 0 0 7.0093184844670304 -7.5719225802149595 0 -7.5719225802149595 -2.5065383006769366 0 0 0 0 0.2157079378684803 -0.88489849321779579 0 -0.88489849321779579 -1.7044627746679124 0 0 0 0 0.90828447221736042 -1.984697610292983 0 -1.984697610292983 1.5939583135434532 0 0 0 0 11.064900629574822 2.1010232325394327 0 2.1010232325394327 -0.64368293252726971 0 0 0 0 -9.6014503640830355 -31.645759229091766 0 -31.645759229091766 -11.555640167148567 0 0 0 0 4.0859498776616761 -11.598193450863448 0 -11.598193450863448 -5.0709027869357897 0 0 0 0 2.0146242993279215 -7.4876632220837971 0 -7.4876632220837971 -4.3975409558401868 0 0 0 0 29.879270494327329 -5.0483545038412672 0 -5.0483545038412672 -25.281342146810744 0 0 0 0 -8.2028761681065134 -2.1585666142519386 0 -2.1585666142519386 -7.5682123347130243 0 0 0 0 -33.72552855272852 -17.527541904605375 0 -17.527541904605375 3.050856451250155 0 0 0 0 -37.176729258122123 -6.4250307011023224 0 -6.4250307011023224 0.62976274594706183 0 0 0 0 -16.543943895141638 -11.447653722612172 0 -11.447653722612172 0.42694696512510433 0 0 0 0 -19.301594463318906 -14.030523800459022 0 -14.030523800459022 4.3027439876736651 0 0 0 0 -2.0290347444897634 -1.7908254367916214 0 -1.7908254367916214 2.2677480478335212 0 0 0 0 -18.868467432188481 -15.487527301714699 0 -15.487527301714699 0.8234878533314216 0 0 0 0 -23.347486164939255 -12.02549001816449 0 -12.02549001816449 -0.56523560353228675 0 0 0 0 -19.212138163373595 -11.359776052956173 0 -11.359776052956173 -0.65162674716654934 0 0 0 0 -22.795779909540215 -13.491970543013977 0 -13.491970543013977 -0.18406242306818399 0 0 0 0 -21.107691327282737 -12.228731350576112 0 -12.228731350576112 -1.4303585913858399 0 0 0 0 -27.099459253686291 -7.630360992461874 0 -7.630360992461874 4.6992042013319235 0 0 0 0 -22.084884691874322 -14.705161369396286 0 -14.705161369396286 -1.3518378251366272 0 0 0 0 -9.1992680458324685 -12.446543578112085 0 -12.446543578112085 -2.3520218054320878 0 0 0 0 -20.682827156312214 -20.074126976893425 0 -20.074126976893425 -2.6390675362949594 0 0 0 0 -33.513140138502422 -13.486832404508078 0 -13.486832404508078 3.557012178336322 0 0 0 0 -33.187205460094447 -12.310858485109975 0 -12.310858485109975 6.4208730064344195 0 0 0 0 -30.728956075999804 -12.318330941174615 0 -12.318330941174615 3.139798489288296 0 0 0 0 -33.89861278483346 -25.685176367903654 0 -25.685176367903654 -5.0205004019574062 0 0 0 0 -3.535293606403684 -1.887863401931952 0 -1.887863401931952 -11.197377122041132 0 0 0 0 -16.849821143095369 -12.432595823731276 0 -12.432595823731276 -1.8564074960304424 0 0 0 0 -17.070334366660859 -21.121126328422292 0 -21.121126328422292 -3.3368574025482189 0 0 0 0 -25.09563414966459 -16.954360817495797 0 -16.954360817495797 1.8920173751794209 0 0 0 0 -34.092610658295314 -31.110661338229022 0 -31.110661338229022 -14.17452893599966 0 0 0 0 -43.210742695416684 -13.691740322129021 0 -13.691740322129021 -3.6819013237112017 0 0 0 0 -34.923314369424475 -30.601710532153447 0 -30.601710532153447 2.462198981231154 0 0 0 0 -22.17347108740509 -26.778365668581074 0 -26.778365668581074 3.6017004618929604 0 0 0 0 2.3904871377186572 -7.6243956423548518 0 -7.6243956423548518 -3.5653610704786178 0 0 0 0 15.298239551575705 -16.833364157711131 0 -16.833364157711131 -12.435267298679037 0 0 0 0 -5.7052005152546599 2.16922938874501 0 2.16922938874501 0.86459161675382745 0 0 0 0 1.330617035540854 0.44844409409556363 0 0.44844409409556363 0.0042588485809815779 0 0 0 0 -4.6193141648209348 -3.9412577182919133 0 -3.9412577182919133 0.22368497376857555 0 0 0 0 -0.51056270610570209 -1.3191716702760914 0 -1.3191716702760914 4.1179125938665493 0 0 0 0 -0.51056270610206411 -1.3191716702762051 0 -1.3191716702762051 4.1179125938660377 0 0 0 0 -6.1310170086890139 -4.135345736500426 0 -4.135345736500426 4.9175035221914527 0 0 0 0 -0.51056270610297361 -1.3191716702744429 0 -1.3191716702744429 4.1179125938652987 0 0 0 0 -1.9759069189458387 2.5846437422261488 0 2.5846437422261488 7.0070682712139387 0 0 0 0 -3.303112133778086 0.38087602536158016 0 0.38087602536158016 -3.7374553219473547 0 0 0 0 -15.191408361571121 4.7841468408063719 0 4.7841468408063719 19.906828414507174 0 0 0 0 -5.8947926009355776 0.39284660592575094 0 0.39284660592575094 0.22491922359714484 0 0 0 0 -5.8856602751179707 2.8924579474379595 0 2.8924579474379595 1.8880738199051947 0 0 0 0 -2.5269129381376843 6.8792770817535391 0 6.8792770817535391 5.4445455901312485 0 0 0 0 -4.6539931499037266 2.7114039271764732 0 2.7114039271764732 1.8221359339641978 0 0 0 0 31.795664772653254 -7.0356061546314947 0 -7.0356061546314947 6.0713513703233275 0 0 0 0 -0.43389839369956107 0.17120742529619015 0 0.17120742529619015 -0.028778773378597744 0 0 0 0 -4.9075339083331926 6.6532948930898232 0 6.6532948930898232 5.7475920158156697 0 0 0 0 -5.252554477277954 1.9188482222335033 0 1.9188482222335033 -0.56434933370259444 0 0 0 0 -6.2853002469491912 1.25846857529163 0 1.25846857529163 -0.40784216890943981 0 0 0 0 -5.8759854986654716 0.76884898116609524 0 0.76884898116609524 0.37777074101015806 0 0 0 0 -8.7721588343811163 0.57927786600365749 0 0.57927786600365749 -0.69709949242013636 0 0 0 0 -4.9658257193441386 0.17558805873258621 0 0.17558805873258621 -2.4945860166013318 0 0 0 0 -1.1309623078934763 0.15138906631887572 0 0.15138906631887572 0.40332074811403096 0 0 0 0 -8.2590107283267571 3.0458097671117557 0 3.0458097671117557 2.811175012952333 0 0 0 0 -9.5966637799920136 2.7369134250751692 0 2.7369134250751692 3.6236663993253728 0 0 0 0 -5.8165338357957808 73.161346619185977 0 73.161346619185977 -22.850991262058912 0 0 0 0 -10.385560164491835 1.7135155936262372 0 1.7135155936262372 2.6911677496627249 0 0 0 0 40.574032441084455 24.813352732841523 0 24.813352732841523 -21.378250379260507 0 0 0 0 -0.73841011140499679 0.14979914270492856 0 0.14979914270492856 0.31886311238149934 0 0 0 0 14.878843052782031 -3.3278038970964019 0 -3.3278038970964019 7.0368807831886215 0 0 0 0 -12.542791415571628 5.3499210796989303 0 5.3499210796989303 17.774092778551676 0 0 0 0 -14.10864683240834 -7.8403329286160783 0 -7.8403329286160783 12.667170069111515 0 0 0 0 1.5736017057961362 17.326807413812986 0 17.326807413812986 5.4618142203417079 0 0 0 0 -15.510434392865591 -3.2024558517772981 0 -3.2024558517772981 3.5400389046781839 0 0 0 0 -49.447375705947707 13.011949558322193 0 13.011949558322193 5.2854125903090541 0 0 0 0 -39.375140761632792 -11.559539822627784 0 -11.559539822627784 0.73224016511663592 0 0 0 0 -29.404897892381996 6.8447974135085587 0 6.8447974135085587 27.86850969197755 0 0 0 0 -22.951599357037594 -10.39847220446638 0 -10.39847220446638 -10.639337632332143 0 0 0 0 -28.012573181034895 -3.4835354522928128 0 -3.4835354522928128 -5.0803656197231248 0 0 0 0 -24.954294211814158 3.5790083581367753 0 3.5790083581367753 10.483822202978558 0 0 0 0 -40.05011710436338 -8.6453078645815253 0 -8.6453078645815253 15.873978370662542 0 0 0 0 -28.455282895554319 -0.39144341850943931 0 -0.39144341850943931 11.444085836282568 0 0 0 0 -59.989912875499613 -3.2555627668738651 0 -3.2555627668738651 11.546851797224519 0 0 0 0 -114.97788145063987 -21.30417678477022 0 -21.30417678477022 -4.229137232413648 0 0 0 0 -37.040480305025994 -19.240682210933812 0 -19.240682210933812 -4.2001957547172424 0 0 0 0 -18.350324651446499 6.2378524386586491 0 6.2378524386586491 -19.156283719348515 0 0 0 0 -13.664534474786706 22.373821474671246 0 22.373821474671246 -20.843888947320877 0 0 0 0 -21.982628042630495 -8.113164832256416 0 -8.113164832256416 20.65469874729169 0 0 0 0 9.239658564190222 24.546043790070215 0 24.546043790070215 9.6919276859752301 0 0 0 0 -0.96927791640854011 0.53217540206376057 0 0.53217540206376057 -0.2446287178507226 0 0 0 0 -4.6540797143511554 6.3377513472076146 0 6.3377513472076146 5.7059072789075174 0 0 0 0 11.498131303299488 4.5926061045641973 0 4.5926061045641973 -14.242402410101676 0 0 0 0 13.361285123750349 -1.4667056594520886 0 -1.4667056594520886 -10.766311653086234 0 0 0 0 3.719462832955287 -0.2085945497906323 0 -0.2085945497906323 -6.0430588551175788 0 0 0 0 10.919361302183461 8.6318278213364295 0 8.6318278213364295 1.6526211073636432 0 0 0 0 -1.2467476267483946 0.75166352160165761 0 0.75166352160165761 -0.42959438433805669 0 0 0 0 -2.9961401165728603 2.9086006242655706 0 2.9086006242655706 7.5628192166941375 0 0 0 0 -0.25656410033161592 -1.3897790921989639 0 -1.3897790921989639 0.075009991310821533 0 0 0 0 0.045016874076281965 -2.8036240241936241 0 -2.8036240241936241 3.0701330812115941 0 0 0 0 9.6933824399775403 -5.4358833349776035 0 -5.4358833349776035 -1.4748448790485895 0 0 0 0 9.3910435021334706 -7.5211345436101738 0 -7.5211345436101738 -15.839696033273526 0 0 0 0 18.898196393022772 -23.217821549417181 0 -23.217821549417181 6.5853801331003297 0 0 0 0 -5.0536867755772619 -4.9176284662397052 0 -4.9176284662397052 14.483929027111401 0 0 0 0 0.042842708546500852 -0.11154380971780142 0 -0.11154380971780142 0.24851993389195126 0 0 0 0 29.158708775595187 -9.3500958065362738 0 -9.3500958065362738 -4.2870003282428115 0 0 0 0 -10.359888058100296 -35.47403902035154 0 -35.47403902035154 7.2291746626090791 0 0 0 0 -55.044113236661815 -4.304567389405122 0 -4.304567389405122 12.621126290151096 0 0 0 0 -19.974724118781523 2.9843069647578773 0 2.9843069647578773 5.7403802257338157 0 0 0 0 24.316856047391866 -7.6892243194024914 0 -7.6892243194024914 -32.616609059878783 0 0 0 0 4.301763149373528 15.144606618941481 0 15.144606618941481 -33.180999204304044 0 0 0 0 -122.98418961273865 -9.495961641911066 0 -9.495961641911066 15.687506974456596 0 0 0 0 -39.222382713035586 35.669378102090178 0 35.669378102090178 -60.646943162378648 0 0 0 0 -44.076753677829402 -38.685957228630343 0 -38.685957228630343 -61.897898797102066 0 0 0 0 -52.685021834447525 -0.90575883505283628 0 -0.90575883505283628 16.714504951152776 0 0 0 0 -49.089367304865391 17.229529713363306 0 17.229529713363306 8.2852484431016364 0 0 0 0 -2.7646593841409413 6.0861952306154592 0 6.0861952306154592 7.3109576924200042 0 0 0 0 -20.066272115154788 0.076202389275238147 0 0.076202389275238147 19.040543068366304 0 0 0 0 -3.9518949301971418 -0.64911983627710113 0 -0.64911983627710113 -0.12396116169897264 0 0 0 0 -0.23823979380995297 -5.2053236307436919 0 -5.2053236307436919 4.685389988912334 0 0 0 0 -9.4626270158710213 -7.9660134782996579 0 -7.9660134782996579 4.6924484513140214 0 0 0 0 -15.64573673065297 -11.00175186274339 0 -11.00175186274339 13.137632136678008 0 0 0 0 -2.3603266775808152 -10.671108719178505 0 -10.671108719178505 -3.2365326244446919 0 0 0 0 -0.72404921027191449 -7.6301746241014428 0 -7.6301746241014428 2.3490704597901413 0 0 0 0 -0.46977590211935549 -0.45883569663774892 0 -0.45883569663774892 0.69955041056397094 0 0 0 0 -6.4432843752293678 -0.8851034152706454 0 -0.8851034152706454 0.48532382312423705 0 0 0 0 -16.044805853118305 -14.689191842347839 0 -14.689191842347839 -16.525249234079272 0 0 0 0 -3.8675353015851215 -8.9210612702864296 0 -8.9210612702864296 5.4786514744705528 0 0 0 0 -8.9834475662682962 -2.1622431101063739 0 -2.1622431101063739 10.030702353216725 0 0 0 0 1.4205109812955925 -2.5770280843021283 0 -2.5770280843021283 0.35276653930554858 0 0 0 0 -2.6812184415949432 -1.9971217938439132 0 -1.9971217938439132 0.71016867424502306 0 0 0 0 -8.1709256289032055 -3.4070429589553441 0 -3.4070429589553441 0.18601133454740193 0 0 0 0 0.4143527633305375 -0.1059746669931787 0 -0.1059746669931787 -0.12081704011759653 0 0 0 0 -1.9477308790246752 -0.11800266357420242 0 -0.11800266357420242 0.078861408890851692 0 0 0 0 -4.3223852604278363 -0.79288638495336272 0 -0.79288638495336272 2.2538826288199587 0 0 0 0 -2.5296932086594097 -0.27110437148803612 0 -0.27110437148803612 0.19068599403135522 0 0 0 0 -2.1616376955222769 0.047575459759690575 0 0.047575459759690575 0.08635891087975392 0 0 0 0 -1.1730332048214471 -0.97576360505180215 0 -0.97576360505180215 0.0033848383589165643 0 0 0 0 -1.8664435522714484 -0.35659429696687539 0 -0.35659429696687539 0.1310271461130128 0 0 0 0 -1.7865207988018028 -1.9488840860776975 0 -1.9488840860776975 -0.00240560881491092 0 0 0 0 -15.288144997586389 -7.6241230385129732 0 -7.6241230385129732 -1.8582193089163863 0 0 0 0 -22.321275797115959 -6.9233975865610233 0 -6.9233975865610233 12.659575570513653 0 0 0 0 -15.412768779724843 -16.146495222946832 0 -16.146495222946832 3.1233690347598895 0 0 0 0 -18.830672429380911 -6.3999174361240421 0 -6.3999174361240421 10.606593560714941 0 0 0 0 -14.238982302641029 -5.2012529456222598 0 -5.2012529456222598 -1.7323860751145403 0 0 0 0 -16.879168320167885 -6.2441973303883316 0 -6.2441973303883316 9.6908150166182168 0 0 0 0 -32.136840467727609 -10.774289427914709 0 -10.774289427914709 8.4786864593477276 0 0 0 0 -18.169758349046333 -16.949138169447338 0 -16.949138169447338 1.8298652154792308 0 0 0 0 -10.938215921805408 -16.979145853711884 0 -16.979145853711884 -1.6903893085711843 0 0 0 0 0.028045825749442699 -8.2640453797885272 0 -8.2640453797885272 -2.4169321218613642 0 0 0 0 -17.696393937772456 -16.127263210746776 0 -16.127263210746776 3.2241777707197343 0 0 0 0 1.7667725696892376 -7.2087743121331869 0 -7.2087743121331869 -5.858136100962497 0 0 0 0 -1.2909887155750681 -2.0400383683934633 0 -2.0400383683934633 -0.42092059415251382 0 0 0 0 -0.97705860179640069 -0.072815434067980522 0 -0.072815434067980522 -0.006142183474957319 0 0 0 0 -73.079156588221849 45.442417899072495 0 45.442417899072495 -19.823700605196819 0 0 0 0 -14.870014575722053 -37.370295871983842 0 -37.370295871983842 -51.693587286337106 0 0 0 0 -71.118010834537927 4.8223243507929112 0 4.8223243507929112 27.562381032570954 0 0 0 0 -19.3895715064873 14.333921417493087 0 14.333921417493087 -4.1017900249585182 0 0 0 0 -16.817412713733006 -4.2712202587204118 0 -4.2712202587204118 2.9091172036980879 0 0 0 0 1.5178837355497308 -14.424360717583028 0 -14.424360717583028 8.2563149878952515 0 0 0 0 -2.1046352468130558 -1.0611703278078899 0 -1.0611703278078899 2.6839493804031003 0 0 0 0 -48.048342518348363 -15.779356435167642 0 -15.779356435167642 49.707271429790353 0 0 0 0 -71.397817207469416 12.445707080835007 0 12.445707080835007 27.269988473618817 0 0 0 0 -1.3359018134923417 -0.31095421182528443 0 -0.31095421182528443 -0.11959287536932023 0 0 0 0 -46.962644166648715 48.563769181331793 0 48.563769181331793 -32.374673523762397 0 0 0 0 -143.83527571003287 19.526766825333141 0 19.526766825333141 50.592003028692815 0 0 0 0 -4.0494839416833202 -4.1481602043071177 0 -4.1481602043071177 -105.73449193433544 0 0 0 0 41.539100429345126 51.057149663943164 0 51.057149663943164 -157.45502148859669 0 0 0 0 0.29073492557276071 0.30454374054087019 0 0.30454374054087019 0.58629913346545548 0 0 0 0 -8.5652993224221063 -38.979930873208843 0 -38.979930873208843 -27.668898037327324 0 0 0 0 -29.711770362297557 -34.679109940591445 0 -34.679109940591445 6.1524159948735928 0 0 0 0 -52.281726104156405 -53.695293770375599 0 -53.695293770375599 -3.1713879557050291 0 0 0 0 -79.412173070600147 -28.970421934482175 0 -28.970421934482175 31.172715325808952 0 0 0 0 -14.693059190827285 3.0221604290079824 0 3.0221604290079824 24.743167934202887 0 0 0 0 -50.09635149366386 -7.1901201085039048 0 -7.1901201085039048 41.434534616831769 0 0 0 0 -12.027319850210461 -16.876831454167871 0 -16.876831454167871 5.2396744604793639 0 0 0 0 -19.137051077779688 -22.575193649325598 0 -22.575193649325598 12.644707662944654 0 0 0 0 -13.196262120604388 -15.124052585263762 0 -15.124052585263762 13.495041857306788 0 0 0 0 -6.1827423895764468 -24.189809296851955 0 -24.189809296851955 -7.2835586753412258 0 0 0 0 5.9868182617419734 -19.952336111157479 0 -19.952336111157479 -9.3052314148450819 0 0 0 0 1.6181676386386243 -14.92908729246949 0 -14.92908729246949 -9.9494562885100777 0 0 0 0 -0.84023012619991277 -7.6667264476608636 0 -7.6667264476608636 -6.628898095850559 0 0 0 0 2.739928462878197 -11.992477777806577 0 -11.992477777806577 -3.6123801888344502 0 0 0 0 -0.3687407074839939 -6.049407949778697 0 -6.049407949778697 -1.8286537452446794 0 0 0 0 -5.9665920431252744 -2.7854093727892746 0 -2.7854093727892746 -3.6627243408046297 0 0 0 0 -5.310297143571006 -4.4561924414919636 0 -4.4561924414919636 -1.4186306782906772 0 0 0 0 -5.0538087034183263 -3.8182282262673777 0 -3.8182282262673777 -0.082959206793603357 0 0 0 0 -5.7246584295685352 -2.2571309311378229 0 -2.2571309311378229 0.0012893187202109857 0 0 0 0 -6.5564546178648015 -2.0269290456557099 0 -2.0269290456557099 -0.73848594101642995 0 0 0 0 -7.9767094843355153 -4.312133544725171 0 -4.312133544725171 1.5642685788545094 0 0 0 0 -2.9384544575133358 -2.2391063585671462 0 -2.2391063585671462 -0.014823879594764056 0 0 0 0 -9.0867636267303169 -8.1665313185294721 0 -8.1665313185294721 13.758342184711168 0 0 0 0 -5.1181730388043434 -17.818918744752722 0 -17.818918744752722 1.4989964543095482 0 0 0 0 -27.707975873968735 -21.480779235056076 0 -21.480779235056076 -18.475480288593644 0 0 0 0 -0.29281113647246926 0.25465241363937174 0 0.25465241363937174 -0.1183260151083616 0 0 0 0 -25.485627996829862 -18.6182762142912 0 -18.6182762142912 -18.593574543492537 0 0 0 0 -4.8634684010601887 -1.6642581010379014 0 -1.6642581010379014 0.12981778403004296 0 0 0 0 -6.5413128555010189 8.9860225299999144 0 8.9860225299999144 2.6563065970648267 0 0 0 0 -0.92573120491261918 -0.45162339631417225 0 -0.45162339631417225 0.42004026649276227 0 0 0 0 -5.506668433703453 -6.009741534650118 0 -6.009741534650118 -2.8181639649708501 0 0 0 0 -5.049896881901077 -3.7691461178252537 0 -3.7691461178252537 -2.5073301080508581 0 0 0 0 -3.7193428719023407 -1.3349205039348666 0 -1.3349205039348666 -0.93564363194307354 0 0 0 0 -2.8686408005755766 -1.5153061969832038 0 -1.5153061969832038 0.67310185714620729 0 0 0 0 -6.8535430607105354 -2.9727378104121271 0 -2.9727378104121271 -0.091906225047637236 0 0 0 0 -3.7652955590071815 -2.3265140899327132 0 -2.3265140899327132 -1.1188353866869791 0 0 0 0 -4.1318988383348003 -2.8801512179668864 0 -2.8801512179668864 -1.5992569368049199 0 0 0 0 -1.5829894186296967 -0.32096260716895308 0 -0.32096260716895308 -0.45033883772167749 0 0 0 0 -6.4550567028126125 -3.0265510508317277 0 -3.0265510508317277 1.4696640114235606 0 0 0 0 -6.0633110981936653 -1.4351006520757466 0 -1.4351006520757466 1.3143269464383138 0 0 0 0 -6.1357718966880839 -1.9072555972251166 0 -1.9072555972251166 -1.553358326353532 0 0 0 0 -4.4372504514107076 -1.8334899141915728 0 -1.8334899141915728 -0.58936361726346698 0 0 0 0 -7.2342170763669174 -3.6845255828413883 0 -3.6845255828413883 -1.9073133017656119 0 0 0 0 -6.8995993313556596 -3.1300532134202541 0 -3.1300532134202541 1.5704989343187208 0 0 0 0 -6.5608446809782208 -2.6448070916696906 0 -2.6448070916696906 0.19984175152148964 0 0 0 0 -7.2374326627363246 -4.530197933121471 0 -4.530197933121471 -0.38937860032388016 0 0 0 0 -6.4748697664155372 -3.5167615804401606 0 -3.5167615804401606 -1.3611066359404731 0 0 0 0 -7.1224827346973285 -4.6692122212353837 0 -4.6692122212353837 -1.9576266420709771 0 0 0 0 -0.37103551887543196 -0.21323775024689828 0 -0.21323775024689828 -0.081574623618767106 0 0 0 0 0.92101019368260495 -7.5560734897624116 0 -7.5560734897624116 13.549638024510614 0 0 0 0 -0.9686416566285061 -0.88133235385316766 0 -0.88133235385316766 14.299418232169501 0 0 0 0 -6.7235815918652406 -15.106725700693005 0 -15.106725700693005 -9.0958447367548843 0 0 0 0 -5.0234948796355638 -4.3914496226456663 0 -4.3914496226456663 -7.2725571776211382 0 0 0 0 -5.1451365603365957 -7.7064482592403465 0 -7.7064482592403465 -0.53806568578693259 0 0 0 0 -13.37119643880601 0.3144973651231453 0 0.3144973651231453 3.5544667522433429 0 0 0 0 -5.3690344860910955 -3.894854180077175 0 -3.894854180077175 -1.2475709325660205 0 0 0 0 -6.6990245526335777 -1.0769271847615247 0 -1.0769271847615247 0.56535280628278728 0 0 0 0 -0.66215843972076982 -6.3800917426047192 0 -6.3800917426047192 23.430472204373018 0 0 0 0 -0.55917686348934548 0.1079829964478683 0 0.1079829964478683 0.58266835101016001 0 0 0 0 -1.8155114303997379 12.422596726811662 0 12.422596726811662 6.2022763483862491 0 0 0 0 -21.772011093506762 3.8793684287567203 0 3.8793684287567203 5.0181897530956689 0 0 0 0 -22.117058373016164 2.4151230350321384 0 2.4151230350321384 21.168564994574808 0 0 0 0 -80.432507156148404 -16.19690909538258 0 -16.19690909538258 19.519106289870251 0 0 0 0 16.618241351344295 5.671322391732474 0 5.671322391732474 32.228647496046619 0 0 0 0 -31.950673839044725 -35.343527940003014 0 -35.343527940003014 20.177897822441309 0 0 0 0 -61.546540796691744 33.58965351311258 0 33.58965351311258 49.788571404409595 0 0 0 0 -0.51446510961064273 0.050383970733462125 0 0.050383970733462125 0.04097562588655479 0 0 0 0 -45.912927417851506 -28.197775728495799 0 -28.197775728495799 18.282616667004731 0 0 0 0 -34.754652087173611 -33.83220835766133 0 -33.83220835766133 6.8844449443553231 0 0 0 0 -30.200037146744876 -38.903436356781299 0 -38.903436356781299 -5.1353999900725285 0 0 0 0 -34.476973221445974 -38.906839242362821 0 -38.906839242362821 11.893932037516379 0 0 0 0 -33.024794219468617 0.44070230971090041 0 0.44070230971090041 2.0926999975797571 0 0 0 0 -42.42876766342647 -41.921208958159696 0 -41.921208958159696 11.51193585197791 0 0 0 0 -33.610166715627379 -29.523725183494996 0 -29.523725183494996 18.598748773246825 0 0 0 0 3.6587614216909401 15.558175340841174 0 15.558175340841174 35.103660287785033 0 0 0 0 0.34671733547952499 4.2336818190416352 0 4.2336818190416352 33.71204124592748 0 0 0 0 -2.2922328016679216 -31.046134721618387 0 -31.046134721618387 13.370963952288776 0 0 0 0 -4.5805854304110198 12.424822892250177 0 12.424822892250177 35.709296015266546 0 0 0 0 -1.202767128582543 0.19302753564589548 0 0.19302753564589548 0.088442578403811312 0 0 0 0 -24.221049940100784 4.5098611965299824 0 4.5098611965299824 78.512033226734758 0 0 0 0 -0.87771173889831289 4.799357683265157 0 4.799357683265157 47.367203315864572 0 0 0 0 0.086711665804809712 0.041787298935216821 0 0.041787298935216821 -0.023570875022881133 0 0 0 0 7.7841028529930796 26.065011437288803 0 26.065011437288803 27.700360490199728 0 0 0 0 -8.0365304820325036 9.8568225921553676 0 9.8568225921553676 18.378264170374791 0 0 0 0 4.8398232863758395 -12.875384777736549 0 -12.875384777736549 40.125424573895089 0 0 0 0 -18.424013529462059 29.579947312915124 0 29.579947312915124 4.3128924908305635 0 0 0 0 -17.60057361619954 -17.652776228579228 0 -17.652776228579228 19.88003595878132 0 0 0 0 -17.646939125361087 12.977119547607572 0 12.977119547607572 21.235187471294921 0 0 0 0 -18.654933698655555 -4.0675445587983177 0 -4.0675445587983177 3.6927764224743669 0 0 0 0 -42.024107852250751 8.6110465942856536 0 8.6110465942856536 -3.157281683578276 0 0 0 0 -31.493198736681663 -21.792075655517436 0 -21.792075655517436 -15.220702972235358 0 0 0 0 -7.1098762335957417 24.623875987269116 0 24.623875987269116 -9.9913948973357947 0 0 0 0 -53.206126237787259 32.366334823313878 0 32.366334823313878 -11.1533676588042 0 0 0 0 -20.572160045871271 14.773570074489498 0 14.773570074489498 -19.599412235501859 0 0 0 0 -70.274025229680205 9.6627078368738921 0 9.6627078368738921 -18.18377402862302 0 0 0 0 -61.07454305299882 -0.59154161824039875 0 -0.59154161824039875 -6.7774726108749164 0 0 0 0 -64.918167903985889 -41.957486247589571 0 -41.957486247589571 -44.911697509896612 0 0 0 0 -52.511328505193632 -50.887669632084908 0 -50.887669632084908 -38.542706848619105 0 0 0 0 -0.31563323562263723 -0.34376267218088519 0 -0.34376267218088519 -0.59277512420120093 0 0 0 0 1.099232789237206 6.3852222240443268 0 6.3852222240443268 -38.473480833845429 0 0 0 0 -12.945721824136058 -44.585523173917181 0 -44.585523173917181 -59.550974984120955 0 0 0 0 -83.034450248359803 -45.426837642719875 0 -45.426837642719875 -5.0896269977624797 0 0 0 0 -36.295649430402761 -2.9367003833416447 0 -2.9367003833416447 -40.362609357779547 0 0 0 0 -32.484064774776016 34.056959839627837 0 34.056959839627837 -14.579887238627521 0 0 0 0 -45.505638589343334 15.553370831491861 0 15.553370831491861 -28.200233479524769 0 0 0 0 -29.299776338098923 2.165367877182689 0 2.165367877182689 -31.483602307876936 0 0 0 0 -13.66448592167194 22.649471581415241 0 22.649471581415241 -26.994911969481194 0 0 0 0 -21.642958914199312 12.266006300410425 0 12.266006300410425 -30.365823575875993 0 0 0 0 -21.25790390737032 27.223259154049174 0 27.223259154049174 -27.26068664617469 0 0 0 0 -15.971474737469208 42.493935229954118 0 42.493935229954118 -28.724855964376957 0 0 0 0 -19.414522979805042 42.710299465452181 0 42.710299465452181 -22.696706143786969 0 0 0 0 -57.380273234300574 50.283097553105719 0 50.283097553105719 -23.598124230999019 0 0 0 0 -36.211195827352412 41.534260858634184 0 41.534260858634184 -26.312673047893554 0 0 0 0 -14.21690620647837 46.693091220590077 0 46.693091220590077 -23.000855549607365 0 0 0 0 -29.188867961115932 50.807750842918267 0 50.807750842918267 -20.285083645293298 0 0 0 0 -54.141984293953783 52.917139020427499 0 52.917139020427499 -13.582443986881572 0 0 0 0 -7.7707338536231845 44.007399300917015 0 44.007399300917015 -38.180619726215127 0 0 0 0 -27.534458365365481 33.464971935854578 0 33.464971935854578 -2.0624738289709512 0 0 0 0 -3.3174107708296106 29.168655544249305 0 29.168655544249305 -4.1658854343120879 0 0 0 0 -1.278437496908964 -0.39854376426524141 0 -0.39854376426524141 23.253712468758863 0 0 0 0 -1.2315609712510804 0.31394509696684603 0 0.31394509696684603 0.05387080932618038 0 0 0 0 -7.3539240485624759 -0.051594334855053603 0 -0.051594334855053603 46.194064962136451 0 0 0 0 -19.056909963564863 19.615093778055893 0 19.615093778055893 58.115809397371891 0 0 0 0 4.9090331158965625 11.287401613938215 0 11.287401613938215 33.957664769452549 0 0 0 0 -0.53463128934930948 0.22980580185627941 0 0.22980580185627941 -0.033434442038498491 0 0 0 0 -27.618256868767503 -13.863767215809503 0 -13.863767215809503 8.2999197488962864 0 0 0 0 8.3052916616984476 -11.810929030195091 0 -11.810929030195091 -2.140611442536283 0 0 0 0 -102.43426595970823 6.897887499363037 0 6.897887499363037 24.120438123158351 0 0 0 0 -94.312272342319034 12.40749140386373 0 12.40749140386373 -26.444396045670914 0 0 0 0 -81.595757890914115 19.412615335147166 0 19.412615335147166 -18.946103040891558 0 0 0 0 -51.804804061456707 1.0054138984276619 0 1.0054138984276619 -32.407006196195994 0 0 0 0 -50.317523109993772 2.5246410199686693 0 2.5246410199686693 -31.366723206168416 0 0 0 0 -65.471305604179406 -6.1437304849173984 0 -6.1437304849173984 -23.93324882245156 0 0 0 0 -25.962163038852395 24.727893804497626 0 24.727893804497626 6.0210152268764432 0 0 0 0 -4.706389493710958 24.80888553032662 0 24.80888553032662 5.9703869541538381 0 0 0 0 -0.34393153122908648 0.13032997044443961 0 0.13032997044443961 -0.074206018735507584 0 0 0 0 -114.02866110554532 -44.150301889551429 0 -44.150301889551429 -7.3596122092766336 0 0 0 0 -104.82402136208202 0.12477524477810675 0 0.12477524477810675 -8.9496341816494578 0 0 0 0 -74.946037990697846 -16.92633117209698 0 -16.92633117209698 -2.5346532208008057 0 0 0 0 -9.118705892466096 -10.677526624553025 0 -10.677526624553025 7.670801817667666 0 0 0 0 -0.2145782043262443 -8.5484349245117528 0 -8.5484349245117528 -1.3887142823900831 0 0 0 0 -3.3154803811851252 -5.5109221876886068 0 -5.5109221876886068 -0.66926855708524613 0 0 0 0 -12.277711888069916 -20.881472469379219 0 -20.881472469379219 2.1750700239715002 0 0 0 0 -37.447163162200468 -3.1874768151275248 0 -3.1874768151275248 6.9031008591341561 0 0 0 0 2.68507066890038 -2.8556515153121609 0 -2.8556515153121609 6.8429261013763636 0 0 0 0 -5.6792828622953948 -8.620898217068202 0 -8.620898217068202 7.7101853964035172 0 0 0 0 -0.61803826130724371 0.38496810830453443 0 0.38496810830453443 -0.14545179152480481 0 0 0 0 -4.2638629856520538 -3.0668525243350473 0 -3.0668525243350473 0.70357127303600464 0 0 0 0 -2.8077138744165495 2.3219405515757217 0 2.3219405515757217 11.282582925804235 0 0 0 0 1.0761117901333819 -2.81600807312077 0 -2.81600807312077 -0.23420974975238096 0 0 0 0 0.77333912940051164 0.014134926729852282 0 0.014134926729852282 -11.691734281030449 0 0 0 0 -37.195538911690164 15.07421226522041 0 15.07421226522041 -7.2491143713768906 0 0 0 0 -22.163021959445359 -5.4536971765073758 0 -5.4536971765073758 -3.976643095848317 0 0 0 0 -1.1910245949171996 -0.71791996985701378 0 -0.71791996985701378 -0.4569682803847166 0 0 0 0 -5.498954301082108 2.0273966976916711 0 2.0273966976916711 -9.6806386802468296 0 0 0 0 -87.982240309182544 15.49407743479901 0 15.49407743479901 4.5245427153544142 0 0 0 0 14.223392023575798 2.2225853340445383 0 2.2225853340445383 -5.7300426390243047 0 0 0 0 -4.221461982554036 -1.7564136167504425 0 -1.7564136167504425 -0.71346611391696912 0 0 0 0 0.24426582259684437 -9.2235794878616844 0 -9.2235794878616844 1.339909968667655 0 0 0 0 2.8664020526675813 -9.7683861738312316 0 -9.7683861738312316 -8.149326771693211 0 0 0 0 -60.042502540062287 -69.788169672858032 0 -69.788169672858032 34.439339387306802 0 0 0 0 -93.109196873155838 -23.487628018850984 0 -23.487628018850984 -4.5615942115016423 0 0 0 0 -92.839741181360296 -21.499987295308756 0 -21.499987295308756 8.2131684714655648 0 0 0 0 -60.599356853181916 -29.595951051447003 0 -29.595951051447003 -4.9573674792945894 0 0 0 0 -120.30597680052506 -48.49441196163167 0 -48.49441196163167 -9.7323502743885797 0 0 0 0 -56.447488369233042 -22.760721060819492 0 -22.760721060819492 -40.763939453298235 0 0 0 0 -65.282040736569598 -4.325440703850302 0 -4.325440703850302 -10.609505680375833 0 0 0 0 -65.438523981381465 -11.795760878827885 0 -11.795760878827885 -107.95541029451488 0 0 0 0 -162.49057921296412 15.846632484663814 0 15.846632484663814 16.99413039641172 0 0 0 0 -59.596742067614855 -25.68589388738954 0 -25.68589388738954 30.317890852104938 0 0 0 0 -87.629345674316596 -0.9293647484222447 0 -0.9293647484222447 32.24736536814703 0 0 0 0 -51.483842422720045 17.638853494885979 0 17.638853494885979 -7.59845873008544 0 0 0 0 -57.337683071625406 -12.97902033605817 0 -12.97902033605817 32.971936065660998 0 0 0 0 -51.14455682642938 -11.385544013381832 0 -11.385544013381832 23.641203077490559 0 0 0 0 -52.598798363174069 -19.166465634919035 0 -19.166465634919035 40.645700353332359 0 0 0 0 -56.523604710482687 -12.177338021810669 0 -12.177338021810669 33.364457333452492 0 0 0 0 -72.232784260505923 -42.87513209154605 0 -42.87513209154605 25.711201174619305 0 0 0 0 -77.799520052263233 -22.413375740611627 0 -22.413375740611627 33.666929155348754 0 0 0 0 -56.876891054057978 -3.0878563912351069 0 -3.0878563912351069 23.81899906203671 0 0 0 0 -5.6855028846508091 -5.1116825124059906 0 -5.1116825124059906 0.49483940507781887 0 0 0 0 -18.270751756939717 -8.5686389897444997 0 -8.5686389897444997 19.506902568669943 0 0 0 0 -14.009607164976387 1.8083941156641004 0 1.8083941156641004 5.1769605723803238 0 0 0 0 -33.901635493702997 -2.772293140567001 0 -2.772293140567001 22.678599968577601 0 0 0 0 -34.702104174994588 -4.985536828542422 0 -4.985536828542422 26.121461476341892 0 0 0 0 -50.098806280831013 -29.836529187820645 0 -29.836529187820645 -2.592553997476216 0 0 0 0 -17.604842686592828 -3.4110824806271873 0 -3.4110824806271873 0.25678207449529755 0 0 0 0 -43.905300170683404 1.4970089093682191 0 1.4970089093682191 24.688315774954162 0 0 0 0 -5.7540835009663169 -25.152469173229633 0 -25.152469173229633 15.962533805919293 0 0 0 0 -7.1213110215125006 0.15968990793773141 0 0.15968990793773141 4.0879947153580192 0 0 0 0 -21.168394000843819 -28.472136602828641 0 -28.472136602828641 31.185679659923835 0 0 0 0 -17.193042968800455 1.4579810774249609 0 1.4579810774249609 1.329992133502401 0 0 0 0 -45.420705403783813 14.220262805301218 0 14.220262805301218 0.86513010986095651 0 0 0 0 -59.986601557676295 16.600272328557878 0 16.600272328557878 -17.012366462777663 0 0 0 0 -71.77523992100032 5.4097937182533542 0 5.4097937182533542 3.2345646054944837 0 0 0 0 -34.75879837836942 -8.7426444739113549 0 -8.7426444739113549 31.152632769929426 0 0 0 0 0.55826782053053625 0.032777293335897184 0 0.032777293335897184 1.3927509529905215 0 0 0 0 43.505001873096944 -85.843751274879509 0 -85.843751274879509 25.729692807065931 0 0 0 0 74.256915187542745 8.2497457551281741 0 8.2497457551281741 -134.56457819230582 0 0 0 0 32.829210454759959 4.3237916676806094 0 4.3237916676806094 34.042362724095334 0 0 0 0 -55.268895621266097 -97.17858568140278 0 -97.17858568140278 -79.700980810634633 0 0 0 0 -0.037663490814048295 0.0032315391384716285 0 0.0032315391384716285 0.26277054531142552 0 0 0 0 -148.26620313885405 10.40528250124359 0 10.40528250124359 16.169411936873303 0 0 0 0 181.4956192856755 -75.437161379665497 0 -75.437161379665497 -81.988589362510538 0 0 0 0 -81.831805076463297 -51.737089205728694 0 -51.737089205728694 -17.493024280106187 0 0 0 0 -53.028378932829128 -5.022193038354601 0 -5.022193038354601 5.6099809783318051 0 0 0 0 -3.4436009474711682 -10.302252818238458 0 -10.302252818238458 -12.777638071506317 0 0 0 0 -29.0143514914771 -17.069794088080812 0 -17.069794088080812 -25.473411758984867 0 0 0 0 -27.843087922380619 -3.6592455973940332 0 -3.6592455973940332 -3.799880945200357 0 0 0 0 -7.7414840774504228 -1.1921477692686437 0 -1.1921477692686437 -2.6280970188961419 0 0 0 0 -10.19317699978501 -15.658255934718113 0 -15.658255934718113 6.7026242111628562 0 0 0 0 -14.364314739254041 -8.406634437791638 0 -8.406634437791638 0.95571751141392269 0 0 0 0 -66.114537426838979 -14.640152183481462 0 -14.640152183481462 0.080042591024266585 0 0 0 0 -35.825571528611363 -2.3216563681105526 0 -2.3216563681105526 -5.5008402507182836 0 0 0 0 -24.084303524688039 -20.195783322738748 0 -20.195783322738748 -9.6287920459151337 0 0 0 0 4.2224393752894684 -10.60507544250197 0 -10.60507544250197 2.3706991909228918 0 0 0 0 2.6500982582756478 -6.2797477569357056 0 -6.2797477569357056 24.088164041382015 0 0 0 0 8.4331641678926417 -5.0600769742536613 0 -5.0600769742536613 -5.9900926502780294 0 0 0 0 0.76349996591500258 -7.732340352211267 0 -7.732340352211267 10.546666039278534 0 0 0 0 3.4192007013893999 -7.7842931141454983 0 -7.7842931141454983 -7.5351546942951586 0 0 0 0 -0.44915158275896871 -0.14641952840463723 0 -0.14641952840463723 0.48056014603574249 0 0 0 0 -0.84040090870803397 -1.5968697853909362 0 -1.5968697853909362 -6.1905597324317796 0 0 0 0 0.0043482913060870487 -6.4523432510241605 0 -6.4523432510241605 14.098064126577128 0 0 0 0 14.653046329659446 -15.794303206272957 0 -15.794303206272957 7.2827316976855059 0 0 0 0 6.4419212988782419 -22.278324617670705 0 -22.278324617670705 20.143814599654661 0 0 0 0 -32.31132377949325 57.693533989669959 0 57.693533989669959 -19.594629326975792 0 0 0 0 -1.7109201416046815 -1.837293126756423 0 -1.837293126756423 -1.5438059672357185 0 0 0 0 -7.7862930053754553 -14.309559412098992 0 -14.309559412098992 -28.133228808332774 0 0 0 0 -34.230106292685377 22.96823224469459 0 22.96823224469459 15.091689342633117 0 0 0 0 -8.870365850475082 -21.457930467839446 0 -21.457930467839446 16.112519386745731 0 0 0 0 -6.6757610261218581 -1.8189954127448242 0 -1.8189954127448242 -1.4160632394695614 0 0 0 0 -36.500726774665964 -2.9790240850722753 0 -2.9790240850722753 2.5074103713643794 0 0 0 0 -21.893365149675038 -3.895767983922851 0 -3.895767983922851 -0.71756632045979774 0 0 0 0 -27.691938786739229 2.3902332576876972 0 2.3902332576876972 -3.4605821064872657 0 0 0 0 -28.019226041700676 3.9894559316543763 0 3.9894559316543763 1.954013521931131 0 0 0 0 -36.912137088861982 -16.958557654751758 0 -16.958557654751758 2.605761096207857 0 0 0 0 -24.007775662747321 -7.8536018155472149 0 -7.8536018155472149 8.3417441716542271 0 0 0 0 -22.755640762349856 -22.515923105610547 0 -22.515923105610547 9.5968139447793419 0 0 0 0 -7.5595554972737773 -15.546653536940767 0 -15.546653536940767 12.139076727473366 0 0 0 0 -32.696168608961671 -9.067295655826932 0 -9.067295655826932 11.118460030171093 0 0 0 0 -16.862867657680212 -3.8042925854578584 0 -3.8042925854578584 0.64994366476810139 0 0 0 0 -24.707035051996627 -18.435731667065966 0 -18.435731667065966 29.382232803163788 0 0 0 0 -20.218217877618372 -7.4908097111967891 0 -7.4908097111967891 12.112189365909273 0 0 0 0 -21.043123618170284 -23.105452846755952 0 -23.105452846755952 15.190608693049398 0 0 0 0 -15.376617849978729 -5.773780408606715 0 -5.773780408606715 -1.5668174315935981 0 0 0 0 -15.146717456377239 -6.4558734773129736 0 -6.4558734773129736 -1.1467034205285771 0 0 0 0 -12.998087451134552 -16.910044637415957 0 -16.910044637415957 -1.6292645509483634 0 0 0 0 -17.812601739514321 3.1927391430374996 0 3.1927391430374996 0.051458141725959194 0 0 0 0 -43.173795025750223 -6.2471601472678913 0 -6.2471601472678913 10.410232446884351 0 0 0 0 -13.491701431397814 -13.226267607647941 0 -13.226267607647941 -11.519263437383415 0 0 0 0 -48.093315734983662 -46.387163652012944 0 -46.387163652012944 -31.379760781766208 0 0 0 0 0.53913107561915297 0.07672714124851332 0 0.07672714124851332 -0.16092057954263295 0 0 0 0 -28.894361906852282 147.78341808391667 0 147.78341808391667 154.20757222934446 0 0 0 0 1.7433539242883853 -24.007878981691476 0 -24.007878981691476 110.4288331393991 0 0 0 0 -20.753222492766099 23.226858571035905 0 23.226858571035905 54.595699768809027 0 0 0 0 -0.70526030264397832 -2.5208491978571956 0 -2.5208491978571956 0.16667546072552808 0 0 0 0 -22.646616090209136 49.20498018786077 0 49.20498018786077 155.1141448714161 0 0 0 0 -26.367933820714825 4.5853617645347668 0 4.5853617645347668 1.9744435618320697 0 0 0 0 -18.125669656821628 1.4084987087340908 0 1.4084987087340908 14.832277816860106 0 0 0 0 -23.217991419969621 11.705315182461451 0 11.705315182461451 14.574218695463358 0 0 0 0 -41.187467829597153 0.62381051650424979 0 0.62381051650424979 13.960346368928313 0 0 0 0 -31.353085804916191 5.3135574795048939 0 5.3135574795048939 11.502552324826055 0 0 0 0 -38.170008039049208 -1.6611107088300372 0 -1.6611107088300372 13.543107392684817 0 0 0 0 -44.452850115679212 14.315151870657289 0 14.315151870657289 8.4102627674033101 0 0 0 0 -64.474488749385273 -24.154514585614713 0 -24.154514585614713 28.333817561088267 0 0 0 0 -48.371510043460148 5.6726499465507345 0 5.6726499465507345 53.686880226978104 0 0 0 0 -18.178446026335223 -1.9659464983591306 0 -1.9659464983591306 17.110319127509527 0 0 0 0 -31.434607625176795 8.5491583164701126 0 8.5491583164701126 19.094451619539143 0 0 0 0 -6.1528891011548694 3.5105401702861627 0 3.5105401702861627 4.6104811446150507 0 0 0 0 -20.321320569531963 -8.1533879949697621 0 -8.1533879949697621 31.770403634111346 0 0 0 0 -40.237171021148242 35.407241044842408 0 35.407241044842408 0.27006229191403008 0 0 0 0 -5.5009054040799512 -1.0984714146792243 0 -1.0984714146792243 -0.22375745189791263 0 0 0 0 -54.809114189702086 36.754385136300357 0 36.754385136300357 37.571587592293554 0 0 0 0 -0.045346879545832053 -3.789984279909163 0 -3.789984279909163 -6.5405347807767384 0 0 0 0 -10.890622253549736 0.0084761581456405111 0 0.0084761581456405111 2.08632006048515 0 0 0 0 -26.292510550392763 -0.30991114396323383 0 -0.30991114396323383 2.2358779729498082 0 0 0 0 -38.305895683333802 -85.948686569324593 0 -85.948686569324593 -132.34754069269718 0 0 0 0 -167.15294462352176 -56.933569549679873 0 -56.933569549679873 29.260056723421172 0 0 0 0 -1.8622200985384367 -0.26402585382575783 0 -0.26402585382575783 -0.09879053228655954 0 0 0 0 -42.361932614790931 117.17769583728688 0 117.17769583728688 -89.947141480620701 0 0 0 0 -2.4612724778244228 -22.859060393657643 0 -22.859060393657643 25.259923781151429 0 0 0 0 -36.517241287861907 -60.411349688617932 0 -60.411349688617932 -30.344632754272993 0 0 0 0 -134.13500124681013 -36.128224453017083 0 -36.128224453017083 -4.7788835873478774 0 0 0 0 -86.165111274045557 27.126705769694865 0 27.126705769694865 -115.15910336291034 0 0 0 0 -59.985494116734117 -21.200719961914501 0 -21.200719961914501 -28.080623802022046 0 0 0 0 -40.988742969799205 -20.837404589940633 0 -20.837404589940633 -67.311720670584009 0 0 0 0 -42.917726795063572 -74.964510973729972 0 -74.964510973729972 -33.272667103170306 0 0 0 0 -40.700646379402315 -67.155945794234299 0 -67.155945794234299 -65.774393611404918 0 0 0 0 -10.492355779719219 -58.579546745808443 0 -58.579546745808443 -30.831512253205062 0 0 0 0 -25.348277755921117 16.560063752928727 0 16.560063752928727 18.889498764703603 0 0 0 0 -0.96908708794371989 -0.58969595706597566 0 -0.58969595706597566 -0.27260905682327796 0 0 0 0 -150.72798066208634 -61.180295104130323 0 -61.180295104130323 -22.923767376463957 0 0 0 0 -81.870043141374481 -63.789567917577187 0 -63.789567917577187 -24.362421655906701 0 0 0 0 -67.063420383832636 -51.920007533727073 0 -51.920007533727073 -29.332403468798248 0 0 0 0 -45.995077973319894 -68.170870960129548 0 -68.170870960129548 -26.152447157508959 0 0 0 0 -13.200928557366751 -19.758910550092537 0 -19.758910550092537 -22.38225115322669 0 0 0 0 -45.40790405474354 -16.647966886421699 0 -16.647966886421699 -12.755450206093201 0 0 0 0 2.0353875379405508 14.133049103921621 0 14.133049103921621 1.4436788040229374 0 0 0 0 -4.7442585382814286 -3.3940071369952136 0 -3.3940071369952136 -0.78565587232333201 0 0 0 0 14.479056826210581 3.9858711104191684 0 3.9858711104191684 -0.14875762728047448 0 0 0 0 -6.1356739639906763 2.13464797111987 0 2.13464797111987 2.5349837653693466 0 0 0 0 -7.5384414108084457 -5.802092294184618 0 -5.802092294184618 -6.7927092269400191 0 0 0 0 -18.769286053189717 -6.7261498848460519 0 -6.7261498848460519 -2.8542044408529819 0 0 0 0 -7.599159746763462 -5.4041110423172292 0 -5.4041110423172292 -3.0365613917739438 0 0 0 0 -4.9890070894143719 -16.822333087554171 0 -16.822333087554171 -13.699734431080657 0 0 0 0 -2.2078049950034568 -1.9560345079462849 0 -1.9560345079462849 -2.5448635785239446 0 0 0 0 -0.85514489410799399 -0.56244002180353192 0 -0.56244002180353192 0.74704706274323929 0 0 0 0 -9.0303069709352712 -0.23745139465938792 0 -0.23745139465938792 -1.0367820685299876 0 0 0 0 3.063360975584601 -35.308826214055728 0 -35.308826214055728 -66.058018113211119 0 0 0 0 -24.903827343594457 -71.773188172784558 0 -71.773188172784558 -62.138083611179383 0 0 0 0 -14.707443705472542 -189.3586272346073 0 -189.3586272346073 -117.23557244215363 0 0 0 0 -9.3759263934671253 5.0633766965629832 0 5.0633766965629832 -195.70132967926861 0 0 0 0 -19.072452652140782 -2.2821622674341029 0 -2.2821622674341029 -1.27463693219687 0 0 0 0 -8.5542423330290376 -6.1121688843016138 0 -6.1121688843016138 -4.4730418423334868 0 0 0 0 -36.278370231795407 5.1092472217192153 0 5.1092472217192153 38.319686568604425 0 0 0 0 -29.822716164580886 -6.7070632058931485 0 -6.7070632058931485 -1.2906010459261437 0 0 0 0 -6.2165492479313471 -2.512145773530353 0 -2.512145773530353 -0.37910970239392183 0 0 0 0 -34.393532843985895 -33.896636022696896 0 -33.896636022696896 1.2202188621185996 0 0 0 0 -33.926268414828961 -7.4135036139138588 0 -7.4135036139138588 0.42001566046044103 0 0 0 0 -48.472239272850857 0.1889578467996671 0 0.1889578467996671 34.062014796130825 0 0 0 0 -37.079323037165523 -110.78556505593724 0 -110.78556505593724 88.352840582173712 0 0 0 0 -65.993223973540807 -9.7642436686729752 0 -9.7642436686729752 93.30196760077024 0 0 0 0 -28.851337603442516 -18.267871900510045 0 -18.267871900510045 0.091580348895149655 0 0 0 0 -54.601669366984424 -16.128373263320782 0 -16.128373263320782 48.569375791173115 0 0 0 0 -13.086548052954521 -1.6184363501510255 0 -1.6184363501510255 3.4008138028819106 0 0 0 0 -67.135594951385428 10.049510238233893 0 10.049510238233893 58.141910014579253 0 0 0 0 -224.61758523594472 61.086103847980212 0 61.086103847980212 108.50194701829275 0 0 0 0 2.2830672110476371 -106.77879875890568 0 -106.77879875890568 151.40615876747279 0 0 0 0 -51.704200001549907 26.552410906058128 0 26.552410906058128 74.050784289947387 0 0 0 0 -50.436506603138696 29.878727385761294 0 29.878727385761294 64.976087334211797 0 0 0 0 -17.766585915092946 -10.148434925076288 0 -10.148434925076288 3.3267034834407241 0 0 0 0 -18.553132001929153 -1.91929069803854 0 -1.91929069803854 2.2504693025749818 0 0 0 0 66.9943362956692 60.297706612732327 0 60.297706612732327 66.093549247080659 0 0 0 0 -3.2072117742406263 0.80858674269274111 0 0.80858674269274111 3.0378481590441124 0 0 0 0 7.2894531394231308 -72.550387000262504 0 -72.550387000262504 36.954966027222895 0 0 0 0 -66.84826652826996 8.0299381176226348 0 8.0299381176226348 116.77445287932346 0 0 0 0 -70.110024486146358 33.608615513688278 0 33.608615513688278 -12.294699809639042 0 0 0 0 49.632582892900245 30.078406439783862 0 30.078406439783862 78.387305501094033 0 0 0 0 1.1113400385329442 5.8385759766782144 0 5.8385759766782144 168.38341761790389 0 0 0 0 -42.666285484746368 -67.954545150895868 0 -67.954545150895868 28.880692868218603 0 0 0 0 -47.848349187070198 -98.338528115590577 0 -98.338528115590577 -10.577655906445898 0 0 0 0 -34.897774000452046 -30.729321546635106 0 -30.729321546635106 -4.0131777908118238 0 0 0 0 -137.57613250308714 -114.34795529992334 0 -114.34795529992334 -36.545371261158152 0 0 0 0 -86.922340453675133 -43.426070258802838 0 -43.426070258802838 -34.78991816335715 0 0 0 0 0.29645759138409744 -0.49008160935479594 0 -0.49008160935479594 -1.364187133380671 0 0 0 0 -243.02193529193028 -77.130514456606647 0 -77.130514456606647 -23.561926616856226 0 0 0 0 -108.48197477524991 101.90188943816685 0 101.90188943816685 -141.01661708220058 0 0 0 0 -143.14999201052524 -125.32927835185706 0 -125.32927835185706 -151.61831824306773 0 0 0 0 -110.65360159204283 37.856552953085384 0 37.856552953085384 73.509654113843197 0 0 0 0 -68.816755964036929 -66.415340838854831 0 -66.415340838854831 -12.86678206434226 0 0 0 0 -13.134702959238894 4.7479750939570735 0 4.7479750939570735 -0.80784001472346745 0 0 0 0 -0.5469357236422141 -0.80560019002986039 0 -0.80560019002986039 -0.19666891447886958 0 0 0 0 -9.6051575468463852 4.702436986861116 0 4.702436986861116 -3.3117383251353374 0 0 0 0 -11.546982259349534 1.1438908030287394 0 1.1438908030287394 -1.3349952082069194 0 0 0 0 -6.8187187857001845 4.2620185701054538 0 4.2620185701054538 -2.1756181660906577 0 0 0 0 -5.4046206754137529 2.7009797298150033 0 2.7009797298150033 -2.7043546777640586 0 0 0 0 -87.899595959946964 7.4991949036742795 0 7.4991949036742795 13.479916016415999 0 0 0 0 -41.878412295693124 -0.8195019629289817 0 -0.8195019629289817 -9.9926446042391319 0 0 0 0 -33.955919461364829 25.735614933073975 0 25.735614933073975 19.186944400034122 0 0 0 0 -37.35535438267857 51.502048847488084 0 51.502048847488084 -8.0955196588803346 0 0 0 0 -1.6480110524228451 -0.50358664528444308 0 -0.50358664528444308 -0.78974779415376783 0 0 0 0 -9.1191006236877001 3.2555726724892793 0 3.2555726724892793 -0.90523577956690815 0 0 0 0 -121.62951310003336 -164.34499259368113 0 -164.34499259368113 -275.03132817435016 0 0 0 0 -5.1521256263376927 0.92337739890194825 0 0.92337739890194825 -3.3437561752625697 0 0 0 0 -376.31033642175134 -92.229329394800629 0 -92.229329394800629 310.54932599500353 0 0 0 0 29.710005125614771 82.543561131620834 0 82.543561131620834 105.05534203420405 0 0 0 0 -1.6528188724030048 2.0155420480780855 0 2.0155420480780855 -1.3770916166981726 0 0 0 0 -7.0605215517884972 4.5771200702702686 0 4.5771200702702686 -1.8594576267785214 0 0 0 0 -53.310027118466678 -23.414610602819238 0 -23.414610602819238 12.811645613974633 0 0 0 0 -2.6438106502136058 0.90166821680904263 0 0.90166821680904263 0.61837522216161722 0 0 0 0 -1.0624977910947564 0.61041638152323685 0 0.61041638152323685 -0.42908793936112488 0 0 0 0 -2.1501050885381119 -1.4247259404857004 0 -1.4247259404857004 -3.9821211239424201 0 0 0 0 -13.529656350255209 -4.6999153482059626 0 -4.6999153482059626 5.3031841990047042 0 0 0 0 -19.52823266514315 -36.081148892682791 0 -36.081148892682791 -11.332467246412307 0 0 0 0 -29.460340511830509 -103.5841343751232 0 -103.5841343751232 -100.34044523076591 0 0 0 0 -8.2008619088555861 -34.878716932643101 0 -34.878716932643101 -11.689697180688512 0 0 0 0 -2.7599642918973828 -0.55983987488738407 0 -0.55983987488738407 -0.16398785723130149 0 0 0 0 -17.143115670196948 -30.635349777379872 0 -30.635349777379872 50.019492326564205 0 0 0 0 -3.1963836572922446 -25.842388983730416 0 -25.842388983730416 -13.768614384847638 0 0 0 0 -12.941800936098844 -26.173667440320628 0 -26.173667440320628 -12.777473729724875 0 0 0 0 0.59245549155275512 -21.972306954101953 0 -21.972306954101953 -57.362230812853042 0 0 0 0 -6.4462633375542282 -22.580716508656394 0 -22.580716508656394 -10.875803071647624 0 0 0 0 -18.33194257885134 -22.436341167497773 0 -22.436341167497773 -14.588589933838193 0 0 0 0 1.0628198290232831 -39.436953039930671 0 -39.436953039930671 -13.606121091155842 0 0 0 0 -17.080538585865725 -8.9579604933714734 0 -8.9579604933714734 17.687734077458678 0 0 0 0 -7.9427168148181728 -1.4337874815362575 0 -1.4337874815362575 -0.19427560957462975 0 0 0 0 -25.493378922221268 -19.458034216973211 0 -19.458034216973211 4.5982718582898201 0 0 0 0 -59.818053087818043 -10.933810571283715 0 -10.933810571283715 7.0629064627074172 0 0 0 0 -8.4285474669968607 -18.053557214327981 0 -18.053557214327981 -4.0378343135930663 0 0 0 0 -16.240432193651031 2.7612174655273236 0 2.7612174655273236 3.1059549889133677 0 0 0 0 -12.376598368807024 -1.880689244611591 0 -1.880689244611591 -0.18645758280968894 0 0 0 0 0.22947745842338918 -14.728964373693714 0 -14.728964373693714 -12.149199708447441 0 0 0 0 -35.692440951695971 -29.523733650917052 0 -29.523733650917052 99.660329837865845 0 0 0 0 -2.7440308365548844 -6.030912217685966 0 -6.030912217685966 -6.9205930859902764 0 0 0 0 -30.16086819445718 6.1750534841544322 0 6.1750534841544322 54.804583914187447 0 0 0 0 -15.359850678256407 -50.413880942920571 0 -50.413880942920571 -131.55861510254749 0 0 0 0 -102.27957750909763 -17.182309690254442 0 -17.182309690254442 -4.2919354480866332 0 0 0 0 -41.791346247107413 15.290664900692292 0 15.290664900692292 24.809440308421131 0 0 0 0 12.839337710012387 -4.1331193299972995 0 -4.1331193299972995 23.867643161626347 0 0 0 0 -29.238200162608024 53.723819296609904 0 53.723819296609904 -55.263426866924647 0 0 0 0 -27.705591747368999 -4.7273551351265723 0 -4.7273551351265723 -29.422577767777739 0 0 0 0 -0.58508745801872841 -0.49542927821322813 0 -0.49542927821322813 -0.63735022548412479 0 0 0 0 -70.683824712455817 67.661652978559147 0 67.661652978559147 -48.789441862424042 0 0 0 0 -94.667920338967633 12.139300560953984 0 12.139300560953984 -25.214582181484275 0 0 0 0 14.115057940432052 -1.7571723326210531 0 -1.7571723326210531 -0.53009097285428197 0 0 0 0 11.21686662544289 -20.060559783416466 0 -20.060559783416466 -22.559472021260831 0 0 0 0 10.449645310584856 -12.437623266802035 0 -12.437623266802035 -13.011893305406602 0 0 0 0 -52.214406920600595 6.1336428590894343 0 6.1336428590894343 2.709069766126504 0 0 0 0 4.6229160324360237 15.194681588582739 0 15.194681588582739 2.2723792085628247 0 0 0 0 -45.820013155945162 6.3601997009370734 0 6.3601997009370734 63.473310854567984 0 0 0 0 -50.715076846044667 -12.838961088955443 0 -12.838961088955443 91.564308183529533 0 0 0 0 -16.142654265773988 -2.1693418465023027 0 -2.1693418465023027 -0.21416260074071458 0 0 0 0 -24.490635164629566 -5.2062588617281875 0 -5.2062588617281875 -1.0164233209883946 0 0 0 0 -4.1859333292486554 -1.2384434529267594 0 -1.2384434529267594 -31.165612063874235 0 0 0 0 -18.111722740739424 14.104713849199385 0 14.104713849199385 -5.8222012954030902 0 0 0 0 -12.945670749255441 6.12041344438137 0 6.12041344438137 -25.471017643874234 0 0 0 0 -19.610822081835241 -1.9597714533101298 0 -1.9597714533101298 -0.081612584400741539 0 0 0 0 9.0610747862701828 -0.62540082975962719 0 -0.62540082975962719 16.43656639950547 0 0 0 0 -10.485709571170446 2.0714297651017919 0 2.0714297651017919 -3.7468084344366597 0 0 0 0 -13.224774313508533 8.2248172056907372 0 8.2248172056907372 16.908948264851219 0 0 0 0 -7.0878292205927664 4.1764881844909771 0 4.1764881844909771 22.10482394936378 0 0 0 0 -2.9854573689699464 -4.0808913502422204 0 -4.0808913502422204 -1.4640648524626259 0 0 0 0 -5.3114076693382231 -16.067792734005735 0 -16.067792734005735 29.934422373484232 0 0 0 0 -1.9277187268362468 4.4606023450117789 0 4.4606023450117789 50.880173861365165 0 0 0 0 -8.3833455141357263 14.631906327608444 0 14.631906327608444 -4.9628660553682309 0 0 0 0 -0.38985833523354785 1.4700833925517118 0 1.4700833925517118 0.60482271258028719 0 0 0 0 -14.083680800452385 -8.7790942139291346 0 -8.7790942139291346 40.62945345336081 0 0 0 0 -9.3769549274271071 -1.4545847269336658 0 -1.4545847269336658 0.30857776879509147 0 0 0 0 -15.633374436194572 10.382374751437226 0 10.382374751437226 31.871838489828122 0 0 0 0 -19.288092732677001 -9.1740273531660375 0 -9.1740273531660375 34.535254832435726 0 0 0 0 -1.512738940451527 -13.015686080182263 0 -13.015686080182263 17.065756018105446 0 0 0 0 -1.5963071270625306 -0.66147013539934463 0 -0.66147013539934463 0.43461936943176838 0 0 0 0 -12.225246469901322 8.3265642927674435 0 8.3265642927674435 11.55427468267635 0 0 0 0 -14.162026297610282 1.6431630818053691 0 1.6431630818053691 18.602983388758219 0 0 0 0 -12.60748548468473 7.6706793577181429 0 7.6706793577181429 2.1122224783844104 0 0 0 0 -18.173316686566977 5.1642916672196861 0 5.1642916672196861 10.425368691012835 0 0 0 0 -13.225191283150707 6.3845783189132135 0 6.3845783189132135 7.8416571232675096 0 0 0 0 -7.7231459223294223 9.3377956056060611 0 9.3377956056060611 0.97063587798038498 0 0 0 0 -16.758874073893821 6.7261200031128396 0 6.7261200031128396 2.0300306648554169 0 0 0 0 -12.623165296393381 4.8950729207200965 0 4.8950729207200965 7.5322228379759508 0 0 0 0 -9.2575167143150701 3.0120547470153856 0 3.0120547470153856 1.3012800577580796 0 0 0 0 -10.389362785364938 1.4502215905644107 0 1.4502215905644107 4.2077389764276063 0 0 0 0 -16.094955173288326 9.1937799102894076 0 9.1937799102894076 9.4203895452373025 0 0 0 0 -8.6488437031403009 13.205695640337865 0 13.205695640337865 3.1563153504633874 0 0 0 0 -8.6082797048361712 5.313987762828484 0 5.313987762828484 0.38330808001337702 0 0 0 0 15.695443937445816 13.033092603618229 0 13.033092603618229 2.7764569501138538 0 0 0 0 42.565223745672483 2.0703446344996053 0 2.0703446344996053 -0.75293538271630212 0 0 0 0 -10.117486661962744 -0.62273865274003981 0 -0.62273865274003981 10.830996921002793 0 0 0 0 -2.2358767872413985 0.8044094703286877 0 0.8044094703286877 0.82830690481406166 0 0 0 0 -15.397299248030322 6.6938635271103237 0 6.6938635271103237 16.330041113461053 0 0 0 0 44.384050528930857 24.034282369036443 0 24.034282369036443 -36.594856325667081 0 0 0 0 0.045925102531676032 0.23805705208293926 0 0.23805705208293926 0.1683118039578656 0 0 0 0 5.7428266275692295 1.5423161015364997 0 1.5423161015364997 23.087204484768336 0 0 0 0 -9.1512671438504185 -15.52396729863904 0 -15.52396729863904 8.1606534400988622 0 0 0 0 -7.2403778259895262 -15.778765418056043 0 -15.778765418056043 38.180154734840862 0 0 0 0 -3.4918953656169833 -28.003949798717038 0 -28.003949798717038 -10.111092893518844 0 0 0 0 12.284517366220825 -2.8045943355315317 0 -2.8045943355315317 2.1691473804798429 0 0 0 0 -43.243033959233799 -21.324508857590956 0 -21.324508857590956 2.810369451623302 0 0 0 0 -43.403710956472423 -25.430159212218236 0 -25.430159212218236 -21.791706619048455 0 0 0 0 -74.33638659049393 -6.6258425406525134 0 -6.6258425406525134 -15.32691342461905 0 0 0 0 -93.466831210364035 -30.819589474397219 0 -30.819589474397219 -30.865012221199436 0 0 0 0 -77.554370906207623 2.1005086011202252 0 2.1005086011202252 -52.959859903564393 0 0 0 0 -114.01718214747962 -36.387198848341086 0 -36.387198848341086 -31.91559540456484 0 0 0 0 -37.306925916527689 -24.363533835324859 0 -24.363533835324859 -28.99482189176797 0 0 0 0 -46.912042204003228 11.282836368047924 0 11.282836368047924 -16.945640213847568 0 0 0 0 16.337065521111072 -19.048357709445245 0 -19.048357709445245 -7.0511461407202773 0 0 0 0 -13.387939376098075 2.5187536847129195 0 2.5187536847129195 -11.146318267430615 0 0 0 0 16.735748904548018 42.771933949442769 0 42.771933949442769 -4.7380386091063542 0 0 0 0 -16.253918448914192 18.273047180971275 0 18.273047180971275 21.965740808316554 0 0 0 0 42.231468393866777 22.113780032877806 0 22.113780032877806 -10.488168122531306 0 0 0 0 -16.743979297380065 19.104515765878233 0 19.104515765878233 3.175607108456461 0 0 0 0 -13.450723534975623 33.16590470157422 0 33.16590470157422 2.1130874200478047 0 0 0 0 2.3627058564343315 22.10575433204842 0 22.10575433204842 5.181980599334679 0 0 0 0 3.9700382515329693 26.67874208564831 0 26.67874208564831 2.1768100204824918 0 0 0 0 -29.979909056568431 17.342699432989377 0 17.342699432989377 11.153931251319385 0 0 0 0 -33.117137807676045 21.336393751683715 0 21.336393751683715 6.1104568979980058 0 0 0 0 -61.900915022391928 16.850215839928637 0 16.850215839928637 6.7540352987271035 0 0 0 0 -84.616006721149461 4.2266922310274424 0 4.2266922310274424 -17.114718183761056 0 0 0 0 -23.208059237077578 29.654769614006284 0 29.654769614006284 -12.856962847493378 0 0 0 0 -50.559026561953942 17.319178096765029 0 17.319178096765029 -4.3030839048996654 0 0 0 0 -15.652087249462397 8.754341156858013 0 8.754341156858013 -34.593204482297779 0 0 0 0 -62.859820821193352 -13.716549298001496 0 -13.716549298001496 -45.167106737441713 0 0 0 0 -56.888105597379763 32.339663432145073 0 32.339663432145073 -39.512865808035485 0 0 0 0 -105.62687375953465 -41.144725510840829 0 -41.144725510840829 -111.37948916477299 0 0 0 0 -106.7266762797808 37.816299618671167 0 37.816299618671167 -68.13259353572343 0 0 0 0 -151.36689373192894 -18.756150229682135 0 -18.756150229682135 -9.2483678326951804 0 0 0 0 -75.679610914339719 -62.48179650844142 0 -62.48179650844142 -47.489548311376325 0 0 0 0 -63.279369205363764 -18.781058757533401 0 -18.781058757533401 -9.5525435256342277 0 0 0 0 -70.224474477893182 -37.296311947979248 0 -37.296311947979248 -11.859679998588717 0 0 0 0 -64.645347641449916 23.288186319729959 0 23.288186319729959 -7.0106039402020315 0 0 0 0 -46.414885218797281 -1.6929919230256019 0 -1.6929919230256019 8.2854205504000333 0 0 0 0 -85.402521932774107 -9.3535735900607335 0 -9.3535735900607335 6.7872902846434044 0 0 0 0 -55.36379729523469 -9.7024328604744028 0 -9.7024328604744028 12.629748606693852 0 0 0 0 -40.809736598495874 -24.12647919516246 0 -24.12647919516246 -2.0424284000966964 0 0 0 0 -57.685226322813833 6.2234432186980371 0 6.2234432186980371 15.087658767868902 0 0 0 0 -20.445366917540014 -17.637444498110995 0 -17.637444498110995 -0.33709759787156912 0 0 0 0 -23.800642525377043 -22.786416936789493 0 -22.786416936789493 -6.6434735808873029 0 0 0 0 -36.228948580679571 -17.99488121410127 0 -17.99488121410127 5.7504130707953678 0 0 0 0 -35.255324330879375 -21.105723899935185 0 -21.105723899935185 -4.6610517276845371 0 0 0 0 -35.430584060493857 -26.919333289411554 0 -26.919333289411554 -7.9675185688531656 0 0 0 0 -12.995921212882081 -21.882217878263827 0 -21.882217878263827 -23.350661105473478 0 0 0 0 -20.475784083890176 -29.418055652562714 0 -29.418055652562714 -35.732389069931003 0 0 0 0 -22.257692888581005 -22.16353939769084 0 -22.16353939769084 -20.9914183948747 0 0 0 0 -2.9765663175930968 -14.988714002212816 0 -14.988714002212816 -35.616154094929016 0 0 0 0 -1.2625761825838708 -0.16473059240280463 0 -0.16473059240280463 -0.0063297638019506053 0 0 0 0 -1.1689375455886264 -0.35428621606482302 0 -0.35428621606482302 -0.25235027094847318 0 0 0 0 -9.0470657405803649 -3.1809152681259008 0 -3.1809152681259008 10.56999541943128 0 0 0 0 -3.8768680254634091 10.795261226983428 0 10.795261226983428 -13.336785676095076 0 0 0 0 -133.35690717346006 31.558572585223033 0 31.558572585223033 -8.8805815691932253 0 0 0 0 -0.73073679747709264 -0.37465687504939993 0 -0.37465687504939993 -0.15691614370406537 0 0 0 0 -1.2026260693837685 -23.092020797444377 0 -23.092020797444377 -60.454763839325494 0 0 0 0 -24.392684808373815 -7.8952891794477154 0 -7.8952891794477154 9.8637856977608607 0 0 0 0 -182.03717910640034 -64.769766074969027 0 -64.769766074969027 -7.0932181794312328 0 0 0 0 -180.81364327023402 -37.512339257420336 0 -37.512339257420336 -32.005898565683594 0 0 0 0 -134.32650136045413 -9.9109851996656744 0 -9.9109851996656744 -20.895985517965187 0 0 0 0 -102.97214726536913 -8.5443873307132208 0 -8.5443873307132208 -21.139238031423702 0 0 0 0 0.095560752507022784 -0.031808786200480554 0 -0.031808786200480554 -0.18837188794636461 0 0 0 0 -104.87784171810836 15.829569021100646 0 15.829569021100646 -5.4730712851415149 0 0 0 0 -0.39843511173223334 -0.3779802190707322 0 -0.3779802190707322 0.093819747059681213 0 0 0 0 -151.95142317275076 2.0761633863836266 0 2.0761633863836266 8.2198473983639389 0 0 0 0 -13.463770209587892 11.737664652866769 0 11.737664652866769 -7.6335594302532996 0 0 0 0 -9.8926405864131084 3.5791130040900683 0 3.5791130040900683 -3.2571759669198102 0 0 0 0 -5.0250385412182368 3.3388442324028915 0 3.3388442324028915 -3.8347554187322768 0 0 0 0 -0.75145187947331848 -0.34211600455505753 0 -0.34211600455505753 -0.098615195121394411 0 0 0 0 -1.3622068148792721 0.27036185787182454 0 0.27036185787182454 -0.013145495942583629 0 0 0 0 -16.499422496062834 43.816590767090837 0 43.816590767090837 -27.230997341745578 0 0 0 0 -115.9703792044038 64.054317555095366 0 64.054317555095366 73.645763840270675 0 0 0 0 -4.7530192810336303 22.816236125932555 0 22.816236125932555 6.7788823050694873 0 0 0 0 -0.25881019880580425 7.0076802513527312 0 7.0076802513527312 8.6509158602516578 0 0 0 0 -4.7299692805045197 7.6819849488811158 0 7.6819849488811158 25.504685089924664 0 0 0 0 -18.044026453722836 -7.6089998294745556 0 -7.6089998294745556 12.960982692857897 0 0 0 0 -16.257642522499737 -32.926772751622138 0 -32.926772751622138 -26.439023160556189 0 0 0 0 -18.410468469934131 -5.2782892495376927 0 -5.2782892495376927 10.015710841394252 0 0 0 0 -16.434995980933763 2.1277561567069512 0 2.1277561567069512 20.286291816196695 0 0 0 0 -21.390521266643191 -11.129092814346194 0 -11.129092814346194 9.7413758915128028 0 0 0 0 -26.921800918755252 -8.8607953361875218 0 -8.8607953361875218 17.673925917497399 0 0 0 0 -27.358182784748351 -16.075818851396662 0 -16.075818851396662 5.8601951278097957 0 0 0 0 -20.795127805933589 -17.790298316306007 0 -17.790298316306007 -0.32808681736398526 0 0 0 0 -27.424397470287659 -15.298493422318359 0 -15.298493422318359 9.0717207701067082 0 0 0 0 -39.448535590981919 2.3087809403530741 0 2.3087809403530741 20.177138644149181 0 0 0 0 -29.338964316209967 9.5586391331172536 0 9.5586391331172536 14.840670737393005 0 0 0 0 -36.19829152200964 -10.107603459049272 0 -10.107603459049272 15.541554263860007 0 0 0 0 -31.944434580198504 -6.9959281243384908 0 -6.9959281243384908 11.959102645780604 0 0 0 0 -22.277420833912402 -4.7022993734317993 0 -4.7022993734317993 16.583380639965924 0 0 0 0 -19.547318144690507 3.8735412944114387 0 3.8735412944114387 18.984262407244842 0 0 0 0 -12.858020709698394 -0.43676263425692241 0 -0.43676263425692241 23.684112360014325 0 0 0 0 -22.618736241009174 2.0428426511657278 0 2.0428426511657278 33.400823166390865 0 0 0 0 -14.457601323914396 1.2710043920291265 0 1.2710043920291265 0.11595149243780123 0 0 0 0 -9.1772410736621168 13.476793882341326 0 13.476793882341326 24.731739223853765 0 0 0 0 -27.9506861859536 -0.46922964188081551 0 -0.46922964188081551 24.368780705132053 0 0 0 0 -11.740641299746514 1.2185415216567357 0 1.2185415216567357 0.5153327641146761 0 0 0 0 -16.175909781435621 14.891545021686795 0 14.891545021686795 33.234150346882871 0 0 0 0 -14.678538603104244 4.0836881103848555 0 4.0836881103848555 -14.434693378506779 0 0 0 0 30.792152561378316 15.999787031702112 0 15.999787031702112 -94.895047695870289 0 0 0 0 -2.628501581555021 -0.59430455610334576 0 -0.59430455610334576 0.99114366645755481 0 0 0 0 -5.4685692394377838 10.366906096558182 0 10.366906096558182 25.437237574117319 0 0 0 0 -16.628818292259893 14.111255798687637 0 14.111255798687637 19.135690113197825 0 0 0 0 -25.113281853238732 8.7680423776986345 0 8.7680423776986345 24.903177365223232 0 0 0 0 -3.9900495865149423 20.293932232685279 0 20.293932232685279 14.570988063384235 0 0 0 0 -18.063905034486197 15.308261170289938 0 15.308261170289938 23.661043847599785 0 0 0 0 -19.146335131787055 22.957686257151408 0 22.957686257151408 11.441664621286627 0 0 0 0 -15.559985146173858 19.092645732419783 0 19.092645732419783 14.773585822837049 0 0 0 0 -32.471584549090039 11.900444503640188 0 11.900444503640188 19.657994898409243 0 0 0 0 15.353244937559793 21.381549000098232 0 21.381549000098232 3.3845239688806714 0 0 0 0 -5.9990360311558106 22.570389028473954 0 22.570389028473954 16.736040074852326 0 0 0 0 3.8615884852442832 17.810613714094927 0 17.810613714094927 14.187087290225918 0 0 0 0 -7.5296441163736745 27.554560153550824 0 27.554560153550824 6.9519507596331493 0 0 0 0 6.1593600743653951 9.5039015227824848 0 9.5039015227824848 -2.2995745448964726 0 0 0 0 -2.3693724211443623 -18.74778598388184 0 -18.74778598388184 -35.445885993666707 0 0 0 0 -0.9180806706549518 1.0999456669842735 0 1.0999456669842735 -0.15718483334423328 0 0 0 0 1.344382170694189 21.132729630159488 0 21.132729630159488 16.923533405857938 0 0 0 0 -5.2884055256229203 1.7782337588123589 0 1.7782337588123589 -0.55349048323854477 0 0 0 0 -25.524342907734535 19.208144368151807 0 19.208144368151807 30.664673126541629 0 0 0 0 -7.251785159445582 2.3051568160757601 0 2.3051568160757601 0.49958220872277304 0 0 0 0 -2.0898487355880206 33.969012813778534 0 33.969012813778534 -3.2793877525764401 0 0 0 0 -5.0627498606481822 13.186291361174824 0 13.186291361174824 21.706945511982497 0 0 0 0 -6.629020984066301 11.163345527567685 0 11.163345527567685 23.310843403954891 0 0 0 0 -6.0182094983247225 11.284547458781617 0 11.284547458781617 25.21809810115694 0 0 0 0 -5.8008300592227897 9.4478967747158151 0 9.4478967747158151 20.831055639349188 0 0 0 0 -6.2205241818046488 8.4225225918271036 0 8.4225225918271036 16.724738085176398 0 0 0 0 -6.3478955325917923 6.8485682976136673 0 6.8485682976136673 22.016341796032435 0 0 0 0 -2.9505810868758999 5.2578937910925561 0 5.2578937910925561 15.988938304783915 0 0 0 0 -3.5480072238970024 8.7903242576464038 0 8.7903242576464038 20.02776670949055 0 0 0 0 -5.493696186793386 8.7619709288644216 0 8.7619709288644216 21.248828980892995 0 0 0 0 -0.97715873858396662 5.0966745627418106 0 5.0966745627418106 24.81713586419545 0 0 0 0 -3.8239625176138361 7.1294179992675595 0 7.1294179992675595 26.128612969123935 0 0 0 0 -6.1042381661682157 8.928086439182664 0 8.928086439182664 24.830439338563565 0 0 0 0 -1.9351082765351748 6.7120769268822187 0 6.7120769268822187 22.405201435739741 0 0 0 0 -18.221060816227691 -7.0661684118928179 0 -7.0661684118928179 11.343259990661181 0 0 0 0 -4.1762348205520539 15.399838694235143 0 15.399838694235143 26.633953044077543 0 0 0 0 -1.7857060447713593 -49.703837538142352 0 -49.703837538142352 -24.493262941652091 0 0 0 0 -3.6653129754073035 1.1340120865216967 0 1.1340120865216967 -0.26193928200034711 0 0 0 0 5.8744965498808597 12.841516914924199 0 12.841516914924199 18.31460539018633 0 0 0 0 1.1372813592861348 12.648266314992611 0 12.648266314992611 18.914235253311787 0 0 0 0 5.9952266181826417 7.3696841236505009 0 7.3696841236505009 19.491188005307492 0 0 0 0 -5.498234757595128 6.7032022631533721 0 6.7032022631533721 15.662216608759877 0 0 0 0 -2.4408394788988517 9.0912389527174184 0 9.0912389527174184 8.2515464782503329 0 0 0 0 -6.3139937170526537 5.025465351866572 0 5.025465351866572 11.759610573124213 0 0 0 0 -1.9682546667972929 6.774994467469952 0 6.774994467469952 5.7756897182433136 0 0 0 0 -5.5475471810896124 2.8113103852096657 0 2.8113103852096657 6.0170661151896212 0 0 0 0 -6.4777639810363326 5.22660192767502 0 5.22660192767502 16.125970809868136 0 0 0 0 -4.3804643528601446 8.0786393426582421 0 8.0786393426582421 12.944680770672619 0 0 0 0 -7.3810621746124525 8.3006833931375184 0 8.3006833931375184 4.7708408723553362 0 0 0 0 -6.8435352375272487 7.6935054241687055 0 7.6935054241687055 10.902073408027348 0 0 0 0 -8.0510915139020653 6.0671147158921599 0 6.0671147158921599 14.575717186022871 0 0 0 0 -5.5540946954788524 5.5927694135922792 0 5.5927694135922792 1.8193780169057447 0 0 0 0 -8.7414072921746993 4.0969663152021383 0 4.0969663152021383 6.8014534706997409 0 0 0 0 -6.7637596745662449 2.8323132187134945 0 2.8323132187134945 -2.3979152813674034 0 0 0 0 -9.4816138619735284 9.9602656747897385 0 9.9602656747897385 4.8300264816003278 0 0 0 0 -8.7394393744218206 -1.9486184863929357 0 -1.9486184863929357 24.713032193114429 0 0 0 0 -13.851300612363957 7.3448839672645292 0 7.3448839672645292 22.880284262944286 0 0 0 0 -8.8139791017601965 4.5799546525741448 0 4.5799546525741448 17.160359287236247 0 0 0 0 -8.5389030422084033 5.5521853613196299 0 5.5521853613196299 18.835986684102636 0 0 0 0 -8.3721400403251209 6.8037471701516949 0 6.8037471701516949 18.646612462389839 0 0 0 0 -9.5253342024880112 5.8055320285270682 0 5.8055320285270682 18.966536481920031 0 0 0 0 -9.8394469851955364 7.9610050508640455 0 7.9610050508640455 16.78579307673732 0 0 0 0 -10.061844241872677 7.042636081989329 0 7.042636081989329 18.766978333775569 0 0 0 0 -7.1717060978371592 7.9074294560437579 0 7.9074294560437579 14.20107812770096 0 0 0 0 -7.1908561921591172 6.684158682827416 0 6.684158682827416 18.612063147382514 0 0 0 0 -5.7830333028759924 9.7834256817902201 0 9.7834256817902201 19.416308016590378 0 0 0 0 -7.492814328878012 6.7745333496371813 0 6.7745333496371813 17.711383912749625 0 0 0 0 -5.7989301890265779 10.054866937266809 0 10.054866937266809 19.00432200957539 0 0 0 0 4.4346136146086792 1.1631456879911184 0 1.1631456879911184 -23.625584417364962 0 0 0 0 -29.119146617267688 -70.72056439594553 0 -70.72056439594553 43.563965501691229 0 0 0 0 -3.4634588924163836 12.673174869216439 0 12.673174869216439 20.227116391288718 0 0 0 0 -0.3293450634779802 -0.07234641936928643 0 -0.07234641936928643 0.021833318624033149 0 0 0 0 42.832716952308147 40.829958636317343 0 40.829958636317343 -45.813963972275474 0 0 0 0 -2.8842508390371222 9.4767155637767928 0 9.4767155637767928 16.991524825606945 0 0 0 0 -5.636830733390525 6.859346156544035 0 6.859346156544035 14.505928535781038 0 0 0 0 -4.0698096823434753 17.636112222124581 0 17.636112222124581 -5.8919061076896924 0 0 0 0 -5.9708416788016621 18.323930005005764 0 18.323930005005764 10.891291831931312 0 0 0 0 0.72658791632238717 -4.6796138614236327 0 -4.6796138614236327 -4.378453280584381 0 0 0 0 -5.4200020347627884 3.2692243478654373 0 3.2692243478654373 0.48835354153632027 0 0 0 0 -6.6776733198748843 8.8105988324400641 0 8.8105988324400641 -2.6749688916955847 0 0 0 0 -26.595602950238572 -37.74277075566809 0 -37.74277075566809 20.79711655373012 0 0 0 0 0.29276282613579241 3.3689871593024527 0 3.3689871593024527 -0.53409868128909466 0 0 0 0 -6.6096886351306807 15.436371629718 0 15.436371629718 -13.536189768376971 0 0 0 0 0.52103673844709419 0.5227484880168678 0 0.5227484880168678 -0.66549181355692222 0 0 0 0 -3.782445176399051 -0.046008271647508536 0 -0.046008271647508536 11.971929557045655 0 0 0 0 -63.402177703945199 27.372188944376376 0 27.372188944376376 6.6952249075548025 0 0 0 0 -5.1671363003096502 2.5984116016084577 0 2.5984116016084577 -0.60018696464162435 0 0 0 0 0.92290915460944234 -5.8617764086042357 0 -5.8617764086042357 18.703895982692785 0 0 0 0 -7.4731033267435123 9.1538651919571237 0 9.1538651919571237 -3.8689375599856533 0 0 0 0 -12.12806748658295 22.438273061789459 0 22.438273061789459 7.2144160827210726 0 0 0 0 -0.29586888092887165 0.61210534212301226 0 0.61210534212301226 -0.062436857830362014 0 0 0 0 -23.229701729265798 8.168472618658484 0 8.168472618658484 -1.4259640438227734 0 0 0 0 -11.409418034767441 10.619789443779212 0 10.619789443779212 -10.96171383753483 0 0 0 0 -15.60792556488741 5.9139594370891473 0 5.9139594370891473 -4.6756749171069032 0 0 0 0 -12.518937495657156 8.369153298719084 0 8.369153298719084 -3.5959985868114472 0 0 0 0 -17.868650328826334 9.2900405524756593 0 9.2900405524756593 -0.84959028334355935 0 0 0 0 -14.61530856518948 11.826512049959319 0 11.826512049959319 0.31104875450284908 0 0 0 0 -12.924198740154679 7.2428123964348856 0 7.2428123964348856 -3.0895375771566478 0 0 0 0 -23.712068625722168 6.2425152168598856 0 6.2425152168598856 -3.1330057990882096 0 0 0 0 -31.219693519034536 0.57869487806091513 0 0.57869487806091513 -4.047981963589109 0 0 0 0 -12.549877758490766 12.681523061972513 0 12.681523061972513 -3.8936496003063894 0 0 0 0 -27.857572064513079 11.958710876361664 0 11.958710876361664 0.30545021072265399 0 0 0 0 -45.647674348707369 -11.674883397458007 0 -11.674883397458007 -5.1423901885941632 0 0 0 0 -42.325286916176992 1.9342048428863308 0 1.9342048428863308 29.029118570071546 0 0 0 0 -6.5193404118626859 9.4550122319153083 0 9.4550122319153083 -2.4621000833091529 0 0 0 0 -21.757113389221558 -22.623070888626671 0 -22.623070888626671 -4.7582523920552475 0 0 0 0 -47.522002398269251 -9.9382570648977797 0 -9.9382570648977797 -2.3350450575998991 0 0 0 0 -61.324958079509997 -28.248154077477068 0 -28.248154077477068 -11.363650036041946 0 0 0 0 -37.014117631595582 1.3488623417481946 0 1.3488623417481946 -5.5449234849995932 0 0 0 0 -23.266178054158445 -7.7399253927447269 0 -7.7399253927447269 -7.9934804842405871 0 0 0 0 -78.189552670606645 -10.824225014861007 0 -10.824225014861007 -6.8280124422273554 0 0 0 0 -34.454271477037764 12.793350338675335 0 12.793350338675335 -13.282942444761126 0 0 0 0 -74.898202988114235 -28.803682017729933 0 -28.803682017729933 -12.608664667212881 0 0 0 0 -85.337798009650214 -16.132408164949037 0 -16.132408164949037 -27.651502706632176 0 0 0 0 -152.82614535140783 -9.7016358629312069 0 -9.7016358629312069 -0.081556828323063241 0 0 0 0 -71.2873675089686 -40.751496622687931 0 -40.751496622687931 -5.9292669580510982 0 0 0 0 -0.26135569738818276 0.014778685705232775 0 0.014778685705232775 9.7588322127542537e-05 0 0 0 0 -0.1942185997559136 8.0324949268188064 0 8.0324949268188064 -16.777429854655988 0 0 0 0 -12.444972389435861 -11.220055722374472 0 -11.220055722374472 -5.0899959172681761 0 0 0 0 -8.3459974499310192 -2.3329735547601942 0 -2.3329735547601942 -0.41778352319558465 0 0 0 0 -7.5267317485831882 -7.4472395885124385 0 -7.4472395885124385 -12.301787545867967 0 0 0 0 -0.40975832963729175 0.06627393832477857 0 0.06627393832477857 0.0093747552202087421 0 0 0 0 -17.117607867317929 7.1649599429738027 0 7.1649599429738027 -0.019347790299775708 0 0 0 0 -6.1537467618745723 -1.4886319529720198 0 -1.4886319529720198 4.410751305286845 0 0 0 0 -0.19553676769537276 0.0008602916113780168 0 0.0008602916113780168 0.010342368104614565 0 0 0 0 1.9237413821801965 4.1070246491003086 0 4.1070246491003086 0.008207869622868201 0 0 0 0 -6.3354263992969209 -8.7355657985661068 0 -8.7355657985661068 -9.0216020697727473 0 0 0 0 -7.6145465148547373 -7.6130331609292412 0 -7.6130331609292412 -8.1464214569137852 0 0 0 0 -16.321974502505327 -10.404415876660632 0 -10.404415876660632 -7.5877396937075972 0 0 0 0 -8.8419579021147001 -4.3320607269948468 0 -4.3320607269948468 -7.9842968564649652 0 0 0 0 -12.079856527096126 -6.0016900378624172 0 -6.0016900378624172 -8.5807624374689091 0 0 0 0 -9.2391387992593081 -7.1578180479590507 0 -7.1578180479590507 -15.315721632222505 0 0 0 0 -7.3553582131025905 -4.5322392670279044 0 -4.5322392670279044 -11.794993124613644 0 0 0 0 -9.5943838090543068 4.8403740400712607 0 4.8403740400712607 -15.962342184939473 0 0 0 0 -9.5701629499772025 1.744179194097029 0 1.744179194097029 -1.1142190693299483 0 0 0 0 -5.6878215493925381 1.3945505933909423 0 1.3945505933909423 -9.5075010926783392 0 0 0 0 -8.7062981395683892 0.35792761644955107 0 0.35792761644955107 0.050892047756159187 0 0 0 0 -6.0564745031169878 4.5345301098630699 0 4.5345301098630699 -1.7248849093959393 0 0 0 0 -8.0966671503610996 3.8990334345207529 0 3.8990334345207529 5.0322360501817798 0 0 0 0 -7.9978255217647529 6.6487110198051056 0 6.6487110198051056 7.5333171112232762 0 0 0 0 -4.783200795913217 5.5152616656082287 0 5.5152616656082287 -1.9508962796523406 0 0 0 0 -9.969483681170459 7.2437756984172097 0 7.2437756984172097 -2.4184328702112126 0 0 0 0 -12.007160270428358 5.53315958451984 0 5.53315958451984 -3.8505866967603097 0 0 0 0 -10.972879846689466 0.67292590895779636 0 0.67292590895779636 -4.1990925095890645 0 0 0 0 -10.520415697235876 0.66653141008865191 0 0.66653141008865191 -4.6260462635877744 0 0 0 0 -15.895965616712601 3.1556446196925112 0 3.1556446196925112 -2.0868868787476273 0 0 0 0 -20.677664534374344 -0.79143710196164463 0 -0.79143710196164463 -4.6642125080500092 0 0 0 0 -44.697756737006785 2.4924677320546795 0 2.4924677320546795 -0.31984550368515485 0 0 0 0 -25.265468850906473 -20.180574303069566 0 -20.180574303069566 -14.715952637753837 0 0 0 0 -22.754588522711856 14.834882317025951 0 14.834882317025951 -0.062807196905780807 0 0 0 0 -20.370421522615288 7.3403561143619758 0 7.3403561143619758 -4.1653951352136431 0 0 0 0 -18.472333683443139 10.607744207602828 0 10.607744207602828 -5.1287273828404096 0 0 0 0 -16.577787885260477 11.332846019056525 0 11.332846019056525 -6.3644875187379455 0 0 0 0 -18.947485621642045 -5.3936135030103625 0 -5.3936135030103625 -4.5927485336203944 0 0 0 0 -10.744368382205721 11.199775956394769 0 11.199775956394769 -6.8768603186736117 0 0 0 0 -0.00283641269093593 0.054006292665427225 0 0.054006292665427225 0.076585438095733094 0 0 0 0 -10.708377150932392 16.776353290346311 0 16.776353290346311 -4.1950999254628094 0 0 0 0 0.85510571746272035 -1.2040611641567176 0 -1.2040611641567176 0.41889125642189634 0 0 0 0 3.1278481068220572 -2.0827026231492045 0 -2.0827026231492045 -0.87254369386391151 0 0 0 0 -0.076922650731493292 -0.034478414451299955 0 -0.034478414451299955 0.001099345707901983 0 0 0 0 -14.63533187781286 1.3922061358953566 0 1.3922061358953566 0.012921801902811395 0 0 0 0 3.0873754210660991 0.7936937050924997 0 0.7936937050924997 -1.7732104316266768 0 0 0 0 -7.7564974587348843 -2.2073979547852893 0 -2.2073979547852893 -5.4073837097531836 0 0 0 0 -16.030792855875916 13.152346730319515 0 13.152346730319515 -4.7727270117868485 0 0 0 0 -0.042189338781273733 0.1036753091785485 0 0.1036753091785485 0.36526055997100559 0 0 0 0 -9.3147578296466236 9.3661960439453118 0 9.3661960439453118 -2.9361576497821247 0 0 0 0 -21.373803904169108 14.515541962343297 0 14.515541962343297 -2.7390620315543828 0 0 0 0 -12.898351673039315 12.597176923661118 0 12.597176923661118 -4.6714558262354871 0 0 0 0 -16.5456129633003 10.962665773108903 0 10.962665773108903 -0.079203378557778592 0 0 0 0 -4.4299062688064623 14.536834344995311 0 14.536834344995311 -0.80797568009859333 0 0 0 0 0.29119728118273613 0.20346550064879665 0 0.20346550064879665 0.55737087366813587 0 0 0 0 -25.793456007255372 -6.953589742966706 0 -6.953589742966706 51.440196846869696 0 0 0 0 -30.908737550382739 15.449748462277578 0 15.449748462277578 7.2147303673658314 0 0 0 0 -6.0144100764555333 0.90469841915245297 0 0.90469841915245297 4.9310158514687714 0 0 0 0 -6.8767311186729785 -2.2007161425661366 0 -2.2007161425661366 2.3606207829429025 0 0 0 0 -2.0592910937696445 0.63810571835432839 0 0.63810571835432839 1.6473145188623042 0 0 0 0 -9.4896941273691482 1.9004094788361954 0 1.9004094788361954 1.3680752196015078 0 0 0 0 -3.8272524015101226 1.2923877868626619 0 1.2923877868626619 4.0565023835946477 0 0 0 0 -3.9232207478635246 1.0362681434609726 0 1.0362681434609726 3.4169696715729287 0 0 0 0 -4.5083251951473358 3.739564024191111 0 3.739564024191111 7.5864805649086406 0 0 0 0 -4.6324595039477572 3.1798304536733895 0 3.1798304536733895 12.482253906773053 0 0 0 0 -1.6990625395847019 7.2892386527599911 0 7.2892386527599911 10.981323529902085 0 0 0 0 -3.4613183542805928 0.5008723472593033 0 0.5008723472593033 4.6775208626917788 0 0 0 0 -2.074664767289164 -0.76382260461629414 0 -0.76382260461629414 7.8060498295769776 0 0 0 0 -5.1748748689788044 -0.19604448314203182 0 -0.19604448314203182 7.7871427108287321 0 0 0 0 -3.2086974357166582 -1.6728672806388971 0 -1.6728672806388971 -0.35335166114259664 0 0 0 0 -2.5925872894367785 -0.32344704171887884 0 -0.32344704171887884 -1.9172706318036035 0 0 0 0 -7.9156898551864288 -2.9458550047212952 0 -2.9458550047212952 0.047074597493406145 0 0 0 0 -3.0487674351024907 0.55959551709335642 0 0.55959551709335642 -3.5433051079961615 0 0 0 0 -2.4745106955488154 -5.1999715617648121 0 -5.1999715617648121 -2.61662209732458 0 0 0 0 0.090918395097482119 0.0085572433173446427 0 0.0085572433173446427 -0.26234654870071106 0 0 0 0 -1.9887292389974007 -0.16619327959401531 0 -0.16619327959401531 0.12508702038479225 0 0 0 0 -7.1429669933295372 -2.3596450498072272 0 -2.3596450498072272 -1.4289530572046942 0 0 0 0 -3.1145578050411409 0.84669998741247809 0 0.84669998741247809 0.3213644542927292 0 0 0 0 -47.436193756449939 -10.950751001796135 0 -10.950751001796135 4.0695586187488857 0 0 0 0 -2.3492068880678012 1.0879679335972021 0 1.0879679335972021 1.1588249306248117 0 0 0 0 -2.6452704514776997 5.2267551539894441 0 5.2267551539894441 -1.9079081296162599 0 0 0 0 -54.566302739247476 -17.05599421676456 0 -17.05599421676456 4.4692306015924714 0 0 0 0 -44.891365336381568 -6.0591373106635444 0 -6.0591373106635444 -30.874532768210315 0 0 0 0 -88.02808212058153 -31.751173276872748 0 -31.751173276872748 4.2375649821375987 0 0 0 0 -66.595698576331415 -48.592668465715121 0 -48.592668465715121 -7.1698463935906886 0 0 0 0 -56.196833010729279 -36.135434146829539 0 -36.135434146829539 1.6234180413803188 0 0 0 0 -72.429185332026464 -40.68026678744647 0 -40.68026678744647 0.37651350015714513 0 0 0 0 -46.057771520063397 -29.961190530314354 0 -29.961190530314354 2.8024417063742675 0 0 0 0 -65.302197643904265 -38.147006307813463 0 -38.147006307813463 2.0999055554540291 0 0 0 0 -22.864122330865939 6.0054433589920109 0 6.0054433589920109 -3.611100878944967 0 0 0 0 -33.228729884420318 2.8929600561561415 0 2.8929600561561415 2.1126316546238399 0 0 0 0 -51.049346679548762 -36.080177120682748 0 -36.080177120682748 -16.26237499823884 0 0 0 0 -26.677095258121881 -14.74529090406719 0 -14.74529090406719 -5.4350359220815108 0 0 0 0 -74.140669945170885 -18.852045462497813 0 -18.852045462497813 0.25821494567220782 0 0 0 0 -50.274446344204534 -12.08423523511712 0 -12.08423523511712 -9.5034852057215744 0 0 0 0 -53.9231068588997 1.4558960055040302 0 1.4558960055040302 8.7616071096137489 0 0 0 0 -77.005218128315391 -23.433840985030351 0 -23.433840985030351 -3.6757495004828371 0 0 0 0 -92.686155090965258 -66.087216738137215 0 -66.087216738137215 -47.777513066770098 0 0 0 0 -90.398897368440885 1.405421224960044 0 1.405421224960044 -48.713874799743067 0 0 0 0 -60.776040109185487 -36.907710313065941 0 -36.907710313065941 -28.508113094466161 0 0 0 0 -61.388529399784602 -3.0793975591585081 0 -3.0793975591585081 -7.6123309377155266 0 0 0 0 -27.412917528536127 -35.196114017872844 0 -35.196114017872844 -24.397520994062418 0 0 0 0 -119.9114287143675 -53.285298303421875 0 -53.285298303421875 -1.1395011159553619 0 0 0 0 -65.668220918318184 -42.197970288809017 0 -42.197970288809017 -1.1350859134672504 0 0 0 0 -24.924675372227284 -45.595408035191205 0 -45.595408035191205 -63.488437433722154 0 0 0 0 -0.93185758180234757 -0.31765210979942893 0 -0.31765210979942893 0.046143079826735989 0 0 0 0 -2.0630694445803606 0.034639499838075238 0 0.034639499838075238 2.4494986090994675 0 0 0 0 -11.967225245989539 -2.7073548680798751 0 -2.7073548680798751 -5.2420074583040659 0 0 0 0 -2.8949586116336832 1.8658691509929091 0 1.8658691509929091 0.87261529632554335 0 0 0 0 -1.9365993504502086 0.76100699749484946 0 0.76100699749484946 1.6956532185971263 0 0 0 0 -52.659190336864413 19.010904453740075 0 19.010904453740075 -3.5771009948994381 0 0 0 0 -106.40278221209883 8.2084776931899981 0 8.2084776931899981 2.2293567949090516 0 0 0 0 -1.6698605537411986 0.85057805166914946 0 0.85057805166914946 0.11328703998236875 0 0 0 0 -1.8838394293888996 0.63654448075066972 0 0.63654448075066972 0.42200164776018706 0 0 0 0 -2.9064222032211546 1.7837798573907566 0 1.7837798573907566 0.43883339331729587 0 0 0 0 -92.935353206034051 -45.9197165409946 0 -45.9197165409946 -9.1957055899623104 0 0 0 0 -75.905232033797802 -37.961803780997656 0 -37.961803780997656 -6.8123314151018093 0 0 0 0 -57.579492560649669 -34.825806241049143 0 -34.825806241049143 -6.754108353598852 0 0 0 0 -130.70351414095103 -45.308391606479589 0 -45.308391606479589 -1.7609717806917047 0 0 0 0 -93.944350281291918 -43.000329531745805 0 -43.000329531745805 -9.4458913996072713 0 0 0 0 -86.375147940274474 -50.210279227484641 0 -50.210279227484641 -8.4849576824147217 0 0 0 0 -78.295037131872959 -22.949574505429833 0 -22.949574505429833 -6.077942105949905 0 0 0 0 -99.771916067164057 -57.412554661179058 0 -57.412554661179058 -39.064063026449382 0 0 0 0 -123.7949121093352 -18.727692623930359 0 -18.727692623930359 -11.472973902652742 0 0 0 0 -1.0468953854473 0.54603336998908603 0 0.54603336998908603 0.041591905218123865 0 0 0 0 -0.035386927524996281 0.98027139170099764 0 0.98027139170099764 0.00048608204964985485 0 0 0 0 -170.55000642442428 -89.040907733225879 0 -89.040907733225879 -31.282009631063097 0 0 0 0 -0.55408425363884461 0.11687020364676926 0 0.11687020364676926 0.075846325881985838 0 0 0 0 -2.0781362206816993 1.2621237471696967 0 1.2621237471696967 -1.426284326911639 0 0 0 0 -3.9794675121574983 0.62425075530564822 0 0.62425075530564822 0.18156828488175436 0 0 0 0 -0.8385899800914558 1.4002040050203739 0 1.4002040050203739 0.18624527869245289 0 0 0 0 -0.92548152184281207 0.38433078494920497 0 0.38433078494920497 0.14126666622875148 0 0 0 0 -1.9268288362509338 1.0834563825260699 0 1.0834563825260699 -0.00012737962180623319 0 0 0 0 -2.4272833752838778 0.83352070972569658 0 0.83352070972569658 0.20700068840513852 0 0 0 0 -2.7283633255005952 1.2112960621324964 0 1.2112960621324964 0.0020420661317111432 0 0 0 0 -1.4128607220991398 1.5235809753726144 0 1.5235809753726144 -0.18361114101546994 0 0 0 0 -1.3139794337646435 0.70127989335062224 0 0.70127989335062224 0.56693906404968386 0 0 0 0 -0.95173346472165576 2.0834267835771763 0 2.0834267835771763 -0.30416793687510468 0 0 0 0 -3.7156797875031771 2.3102460562676015 0 2.3102460562676015 -0.18830406867493821 0 0 0 0 -3.1253890066418535 2.4972230105752118 0 2.4972230105752118 -0.021950460642413461 0 0 0 0 -1.0800562342137709 1.4165870078289933 0 1.4165870078289933 -2.0300291919493265 0 0 0 0 -4.0453487459526514 -0.6143815886822992 0 -0.6143815886822992 1.4463970593635258 0 0 0 0 -1.6721783630505342 0.69381665588236174 0 0.69381665588236174 0.91131732604810267 0 0 0 0 -0.36816365106816562 -0.097380546546716573 0 -0.097380546546716573 0.37178023839500218 0 0 0 0 -1.1888835324534739 1.8700730634438436 0 1.8700730634438436 -1.5034563725729755 0 0 0 0 -1.6891125683234236 1.7682472830942597 0 1.7682472830942597 -1.0649526919709689 0 0 0 0 -0.17849963206321462 0.24923461070982711 0 0.24923461070982711 -0.1876547968979918 0 0 0 0 -1.3130352300722734 2.2944698992681918 0 2.2944698992681918 -1.5107679188974992 0 0 0 0 -3.0742170135563356 4.1277724318958917 0 4.1277724318958917 -1.4852033705860777 0 0 0 0 -2.6688901683801305 2.6463049997632595 0 2.6463049997632595 2.9140802384304152 0 0 0 0 -4.8613264703208188 2.3851904260677657 0 2.3851904260677657 3.007447057104855 0 0 0 0 -0.28450597187475779 0.74580854220760351 0 0.74580854220760351 -0.50003749478351578 0 0 0 0 -2.23164745680333 0.47009013421541113 0 0.47009013421541113 3.4471118866457644 0 0 0 0 -3.1036354842417495 1.728807670030136 0 1.728807670030136 1.7372805933123345 0 0 0 0 2.1645362073750221 6.8892148470287404 0 6.8892148470287404 -3.1484538675039744 0 0 0 0 0.86956789696414916 0.72678354242609444 0 0.72678354242609444 -0.36004011028577376 0 0 0 0 -2.6129520483867239 1.7205684378007327 0 1.7205684378007327 -0.97341544261254398 0 0 0 0 -1.1922901626021485 2.3558208765803101 0 2.3558208765803101 6.9167430661179878 0 0 0 0 -0.83550511300745711 1.2485843165904513 0 1.2485843165904513 -0.91048368542175595 0 0 0 0 -1.8283180938306032 1.9012463132251476 0 1.9012463132251476 -0.8220852027904153 0 0 0 0 0.96980378381522314 1.2826901736525471 0 1.2826901736525471 -1.3977936667758328 0 0 0 0 -0.48778624942497117 1.383563991418562 0 1.383563991418562 -1.0631495400949635 0 0 0 0 0.92052143188720947 3.7744545649364425 0 3.7744545649364425 1.0883282491430037 0 0 0 0 0.24813560230722942 2.0333283508248363 0 2.0333283508248363 -3.4098529498403991 0 0 0 0 0.036266313572333786 -0.011273391813359623 0 -0.011273391813359623 0.0094343775414912866 0 0 0 0 -0.96083097112932592 1.6558334280704465 0 1.6558334280704465 3.4755606420352452 0 0 0 0 2.1284723977714748 3.1596099816327352 0 3.1596099816327352 0.00087561831884173848 0 0 0 0 2.1224227435122884 3.3853933026987093 0 3.3853933026987093 2.1059934574291717 0 0 0 0 2.1043550137546845 4.2626476747336932 0 4.2626476747336932 0.0013592180704731565 0 0 0 0 2.1055455844834796 6.6979655239615408 0 6.6979655239615408 5.4105263212888648 0 0 0 0 1.5380843669427122 5.2215227656944609 0 5.2215227656944609 1.7549901224656228 0 0 0 0 0.71268318552210985 2.6535716224538834 0 2.6535716224538834 4.9766601923907468 0 0 0 0 0.72817728078916844 3.8144281886419762 0 3.8144281886419762 3.8047516276270645 0 0 0 0 0.63009686579971458 3.4138685240885835 0 3.4138685240885835 2.2089784212685077 0 0 0 0 0.99060189665578946 2.4947443600393742 0 2.4947443600393742 2.1071238910921766 0 0 0 0 0.48556223049308755 10.016705555430743 0 10.016705555430743 9.2114086309591148 0 0 0 0 3.0329960330036556 7.8387512913834199 0 7.8387512913834199 0.0083782304058262671 0 0 0 0 2.1460822702101723 3.6775788607556734 0 3.6775788607556734 8.5907773071473521 0 0 0 0 -7.1443644667288027 1.8737872355545697 0 1.8737872355545697 33.182044489271426 0 0 0 0 -22.543744562919528 19.463040332030594 0 19.463040332030594 -17.704097616963743 0 0 0 0 -0.015202720756860799 4.1762906096284693 0 4.1762906096284693 11.783302419985747 0 0 0 0 0.27864504447615701 0.20135441417772437 0 0.20135441417772437 0.063874027306368722 0 0 0 0 -4.0149617168963232 -0.031506064961000391 0 -0.031506064961000391 -7.0250250405508581 0 0 0 0 -4.6954319285559905 -0.9000965669095109 0 -0.9000965669095109 -6.0550829737524339 0 0 0 0 -0.79464464697321091 1.0427918281440824 0 1.0427918281440824 -11.211308627093416 0 0 0 0 -11.673411656276585 8.4298104099760565 0 8.4298104099760565 -11.788247405211452 0 0 0 0 0.68011931319640695 0.24377261507840586 0 0.24377261507840586 0.13612101999438594 0 0 0 0 1.204462637236702 2.2351812755622933 0 2.2351812755622933 2.3442704590784142 0 0 0 0 3.2636814207253337 -0.3835557007004553 0 -0.3835557007004553 -9.7937373733010418 0 0 0 0 3.568324688831126 3.9811142074929222 0 3.9811142074929222 -8.6339464227321159 0 0 0 0 0.8278880633930612 0.14607653089700001 0 0.14607653089700001 -1.9573983824178356 0 0 0 0 6.9382682231171202 11.917452478605881 0 11.917452478605881 2.0806109950057703 0 0 0 0 -22.051317325662239 6.6696056545265492 0 6.6696056545265492 21.776064722002989 0 0 0 0 0.44931684990262966 19.768042750959321 0 19.768042750959321 21.864710833187814 0 0 0 0 -2.4323354661967045 1.5721760472630795 0 1.5721760472630795 -0.94408160510861183 0 0 0 0 3.1671334368465978 0.69435739864935542 0 0.69435739864935542 5.8853581517557245 0 0 0 0 -0.40422610095265554 9.242802046936248 0 9.242802046936248 -10.10295774119156 0 0 0 0 -28.030730790333109 -0.10039092781867964 0 -0.10039092781867964 -10.004369444339517 0 0 0 0 -32.631694416648315 13.566925003676943 0 13.566925003676943 -8.2948048218651138 0 0 0 0 -15.810681799430313 -1.3675159556676277 0 -1.3675159556676277 -0.74425281719663872 0 0 0 0 3.0367864556665154 11.352164637907919 0 11.352164637907919 -4.5325226439513244 0 0 0 0 -2.8702926455825946 21.165546749676565 0 21.165546749676565 12.029793281451063 0 0 0 0 -1.8858887064486041 1.2702866392464589 0 1.2702866392464589 -0.74784185251598811 0 0 0 0 -71.428863042143348 6.6232136953583733 0 6.6232136953583733 15.004831612626617 0 0 0 0 -39.306524772764533 -3.4288213511149763 0 -3.4288213511149763 14.464623302367443 0 0 0 0 -0.77486606035770222 0.50764816991136286 0 0.50764816991136286 -0.30268683732842883 0 0 0 0 8.6813829760649242 40.264281471143946 0 40.264281471143946 -29.288999509213909 0 0 0 0 -17.909725428547972 72.858221664320695 0 72.858221664320695 -26.602141243243878 0 0 0 0 -4.4923719695307227 -0.37332727707638469 0 -0.37332727707638469 21.698522229524656 0 0 0 0 19.46899439794197 19.016338682656624 0 19.016338682656624 -7.0216574596834107 0 0 0 0 -9.7456557825662458 -11.075311698587427 0 -11.075311698587427 4.8784143926960724 0 0 0 0 -5.7736716446343053 5.5063857901448614 0 5.5063857901448614 10.352920144921313 0 0 0 0 -23.071533944490511 2.3476029910144689 0 2.3476029910144689 2.9066415846384999 0 0 0 0 -9.8612998959561082 -10.496487816538036 0 -10.496487816538036 3.8084525985455002 0 0 0 0 -5.2048133423268155 -4.3654656741832696 0 -4.3654656741832696 3.558418833706277 0 0 0 0 -16.622789433392427 -8.1947491739844622 0 -8.1947491739844622 11.658966318096418 0 0 0 0 10.067575954333734 2.3771918677662143 0 2.3771918677662143 -1.1590827671356578 0 0 0 0 7.0739132069284096 25.509635078315455 0 25.509635078315455 29.556998461735247 0 0 0 0 -49.080600213845173 21.437971699205917 0 21.437971699205917 -2.945496293585677 0 0 0 0 -28.326854649974848 47.287913652770442 0 47.287913652770442 19.741677578112217 0 0 0 0 -41.916064663062571 -6.503028424863146 0 -6.503028424863146 -3.6256580341844895 0 0 0 0 -0.28028067216983032 -0.025504496221847361 0 -0.025504496221847361 0.19309613047499652 0 0 0 0 16.943774713230596 6.2157378392400915 0 6.2157378392400915 23.522222049629818 0 0 0 0 -0.34814660447227652 -0.96911834442602185 0 -0.96911834442602185 2.8163594900023554 0 0 0 0 -8.9313656751219241 -8.6057971887275642 0 -8.6057971887275642 -3.9738779604592196 0 0 0 0 -33.336144712282476 1.5640944650498341 0 1.5640944650498341 7.1953194479108333 0 0 0 0 -63.562799875058772 20.783580475809089 0 20.783580475809089 1.2133155973562566 0 0 0 0 -37.596088948344914 11.315576330193721 0 11.315576330193721 4.0964828639434927 0 0 0 0 -35.851262930162193 17.165091979668205 0 17.165091979668205 -14.899851850666664 0 0 0 0 -27.423356899751525 12.887735691654498 0 12.887735691654498 -7.577378970695122 0 0 0 0 0.025396825874580031 0.41074267892242844 0 0.41074267892242844 -0.27252511968131743 0 0 0 0 -67.607423668629963 29.601524692359277 0 29.601524692359277 -2.9543223488021795 0 0 0 0 -34.943727093505004 24.345521149652939 0 24.345521149652939 -95.176186579379419 0 0 0 0 -25.764975315260017 12.892299195464915 0 12.892299195464915 -8.698959487125407 0 0 0 0 -44.9689670231528 19.258232633752073 0 19.258232633752073 -2.3270141189770754 0 0 0 0 -45.674755996087697 15.053386961386536 0 15.053386961386536 -6.5878465455454034 0 0 0 0 -35.180042028652679 16.903933278082775 0 16.903933278082775 2.4786738813869107 0 0 0 0 -32.432831029153022 22.601815317229949 0 22.601815317229949 -9.8844911836184792 0 0 0 0 0.032825303803988959 0.4251491194199879 0 0.4251491194199879 -0.13300672669677138 0 0 0 0 -77.682682918490173 18.386794852434193 0 18.386794852434193 9.8049644347324829 0 0 0 0 -88.045126691133191 14.240051817816898 0 14.240051817816898 2.5499492312301015 0 0 0 0 -39.613454051073859 4.0031166129839804 0 4.0031166129839804 -9.5574453304257077 0 0 0 0 9.3136353726949892 21.235664097616009 0 21.235664097616009 -2.8521817021928229 0 0 0 0 -26.628808034143731 17.586294081535328 0 17.586294081535328 1.9820056167582152 0 0 0 0 -0.0019003891120004113 0.21026305960440794 0 0.21026305960440794 -0.027967051144631383 0 0 0 0 -25.792637934699655 28.767237501503839 0 28.767237501503839 1.7316268366927261 0 0 0 0 -43.373617391740481 31.506151452197088 0 31.506151452197088 4.8218712258108667 0 0 0 0 -33.384757247967173 21.618763897777058 0 21.618763897777058 14.587985465221777 0 0 0 0 -35.792138679531035 41.350295820494928 0 41.350295820494928 -9.3846606111778783 0 0 0 0 -0.21568954256618866 -0.08845735954287548 0 -0.08845735954287548 -0.045796166912545067 0 0 0 0 5.7807713002657692 -0.43569605602993988 0 -0.43569605602993988 27.754011875950368 0 0 0 0 -30.44687092748245 31.170566257202921 0 31.170566257202921 -5.3978435660054629 0 0 0 0 -35.704474590715108 28.655194836262325 0 28.655194836262325 6.8308936455909759 0 0 0 0 -37.998586220726793 33.521795443204617 0 33.521795443204617 -2.6008548057760379 0 0 0 0 -29.35996531422461 25.212094463617433 0 25.212094463617433 5.3217404341175012 0 0 0 0 -26.57031549545809 33.332052956608756 0 33.332052956608756 2.0201578955021944 0 0 0 0 -31.694522503405096 25.613457260764648 0 25.613457260764648 2.4780176503568754 0 0 0 0 -30.814184857918008 20.58721499687671 0 20.58721499687671 -9.018154230298185 0 0 0 0 -45.603168261524388 26.514833831139825 0 26.514833831139825 -7.6310200589609281 0 0 0 0 -26.89840690609708 26.308838365179497 0 26.308838365179497 -1.0206609394867243 0 0 0 0 -29.082397250493159 27.749521645698437 0 27.749521645698437 3.4392853930237131 0 0 0 0 -24.262331789129348 29.07939499204263 0 29.07939499204263 0.73932727933694764 0 0 0 0 0.0504074856091421 0.05452580544565766 0 0.05452580544565766 0.025514070547030664 0 0 0 0 -20.173722078459832 24.623565585900273 0 24.623565585900273 -7.6563352897486325 0 0 0 0 -16.162799373827511 16.361087459040416 0 16.361087459040416 15.290947456634186 0 0 0 0 -17.355526173522776 11.364528902611109 0 11.364528902611109 -5.5888204452174293 0 0 0 0 -0.53149059181168923 13.078802555292118 0 13.078802555292118 -0.0063183080265279846 0 0 0 0 -42.218496976271126 29.69980471187969 0 29.69980471187969 -16.260657467177289 0 0 0 0 -30.831494331901013 18.131638744681524 0 18.131638744681524 0.011373164943322675 0 0 0 0 -41.067552688789419 0.8440822615653214 0 0.8440822615653214 -22.793247756806728 0 0 0 0 -64.270352300893137 3.0686953906569965 0 3.0686953906569965 -0.06615246555017526 0 0 0 0 -74.7020423447957 25.925561992098054 0 25.925561992098054 -44.965757905124192 0 0 0 0 -88.63053364400912 -38.522218964141032 0 -38.522218964141032 -61.019932845948979 0 0 0 0 -132.642020856827 -33.238028664940181 0 -33.238028664940181 0.064041657143010522 0 0 0 0 -58.71126591902248 22.726315046105693 0 22.726315046105693 23.256557968010362 0 0 0 0 0.38090021073730895 -16.683238577012361 0 -16.683238577012361 -0.050115108411849352 0 0 0 0 -46.669770608395993 -73.940934336948573 0 -73.940934336948573 -106.72453688099509 0 0 0 0 -1.1835270594841489 -0.26100723568853601 0 -0.26100723568853601 -0.039785179087794678 0 0 0 0 -120.15513231048499 -54.909727671488554 0 -54.909727671488554 -25.441078681040985 0 0 0 0 -11.873844476013801 -24.489916266477259 0 -24.489916266477259 -36.887307517533877 0 0 0 0 -59.933359646576719 -42.007531188471091 0 -42.007531188471091 -29.179908863515351 0 0 0 0 -12.926207596867243 -25.101632131578583 0 -25.101632131578583 -18.017213312088415 0 0 0 0 -49.518963537979289 -60.530913448675889 0 -60.530913448675889 1.8379870146253552 0 0 0 0 -44.757587137121845 18.838226275311641 0 18.838226275311641 16.696543165204048 0 0 0 0 -41.268126989607481 22.717099857798196 0 22.717099857798196 4.9572490926397279 0 0 0 0 -27.946696735484693 22.411883856750784 0 22.411883856750784 -15.153359857776422 0 0 0 0 -59.66068641364518 4.6418160708968852 0 4.6418160708968852 -14.886474995546465 0 0 0 0 -13.658334187257424 3.4991862935091582 0 3.4991862935091582 0.0090961596057799795 0 0 0 0 -17.781530606778688 1.345659619145267 0 1.345659619145267 4.2629176963782314 0 0 0 0 -9.1288238899396674 1.7424126173239363 0 1.7424126173239363 -0.3979255530118575 0 0 0 0 -8.4331997727883845 -1.0553562741899767 0 -1.0553562741899767 2.5298401284885763 0 0 0 0 0.050469466060157231 0.31103667675242086 0 0.31103667675242086 0.039436623004073322 0 0 0 0 -0.31522456337574667 -0.12649891920139211 0 -0.12649891920139211 0.050616888062208279 0 0 0 0 -1.4042802192079762 2.5573089405504503 0 2.5573089405504503 -0.0036532970343608625 0 0 0 0 7.110498953901697 -9.3357461510312341 0 -9.3357461510312341 7.5300308562996801 0 0 0 0 -3.0185218812915764 -0.10808060729313507 0 -0.10808060729313507 0.20097500451869685 0 0 0 0 -26.265030716376714 -18.988197550658725 0 -18.988197550658725 -17.765275302437374 0 0 0 0 -26.501931584563863 -28.747534052455919 0 -28.747534052455919 -31.771954769934808 0 0 0 0 -31.832751639829439 -26.357713381784123 0 -26.357713381784123 -16.69242715145624 0 0 0 0 -10.711150947608076 -7.5899534268068845 0 -7.5899534268068845 -20.586489892529357 0 0 0 0 -2.2855322289041595 1.5827389782275532 0 1.5827389782275532 0.3611952871938543 0 0 0 0 -13.621172544198089 -7.3500074990215563 0 -7.3500074990215563 4.1308331944376917 0 0 0 0 -2.6462906791039131 4.3978023361496561 0 4.3978023361496561 -1.9999485315736387 0 0 0 0 6.2520382785041875 -5.7126331688989609 0 -5.7126331688989609 -28.425751743885598 0 0 0 0 -2.1416634779824157 2.1569513534913867 0 2.1569513534913867 -0.12506924456376878 0 0 0 0 -28.913489269431921 -23.541088468229958 0 -23.541088468229958 -14.931921071505514 0 0 0 0 -39.472805181234435 9.4927584050676543 0 9.4927584050676543 0.56960925379468463 0 0 0 0 -0.23860859115179522 -0.15120863263419793 0 -0.15120863263419793 -0.090891479264968017 0 0 0 0 -37.123994721601775 27.939359959764861 0 27.939359959764861 -13.706551748575915 0 0 0 0 -18.645331066188191 11.146969070377814 0 11.146969070377814 -11.522482179479915 0 0 0 0 -23.294089728611652 6.7258043492443633 0 6.7258043492443633 -0.13868283630646516 0 0 0 0 -58.171497800786597 1.1348568205452771 0 1.1348568205452771 -2.3138682889755273 0 0 0 0 -2.8512142400213669 2.0478987019307624 0 2.0478987019307624 -0.52530226321595674 0 0 0 0 -26.630249154480225 6.255103901775982 0 6.255103901775982 16.684638304833101 0 0 0 0 -42.973241020937166 -31.864541931906238 0 -31.864541931906238 -14.017669499595257 0 0 0 0 -54.765245511463945 -44.22299040026266 0 -44.22299040026266 -24.844537957945988 0 0 0 0 -29.912608538279301 -28.558617373959201 0 -28.558617373959201 -11.060044824986562 0 0 0 0 -30.439816294820048 -36.145841419485819 0 -36.145841419485819 -25.773028861537966 0 0 0 0 -40.412545985751422 -40.015828081933677 0 -40.015828081933677 -23.370943778199432 0 0 0 0 -24.076640665081868 -21.919760195708591 0 -21.919760195708591 -18.946291503702298 0 0 0 0 -33.192767967871077 -11.484844434524888 0 -11.484844434524888 5.1454264320378797 0 0 0 0 -15.368416227716807 -0.37402542505142833 0 -0.37402542505142833 5.0596729412096693 0 0 0 0 -20.553664524997657 5.8353292999882456 0 5.8353292999882456 31.196108218621021 0 0 0 0 -7.9800544287354569 1.3995151579977119 0 1.3995151579977119 8.8721133124648759 0 0 0 0 -23.063607993005462 -11.112681272931439 0 -11.112681272931439 5.1082659050284747 0 0 0 0 -18.855002971749855 -6.7641682808536814 0 -6.7641682808536814 24.836558533771495 0 0 0 0 -31.102972383065207 -7.3947215179861132 0 -7.3947215179861132 1.9493314926411358 0 0 0 0 -10.662763396272567 -11.544115085648627 0 -11.544115085648627 2.3033494668118237 0 0 0 0 -19.833738609757347 -9.8764527059424267 0 -9.8764527059424267 0.13251408629309935 0 0 0 0 -20.440457771335502 -21.599245209468513 0 -21.599245209468513 -22.099128558860571 0 0 0 0 -29.572962549664226 -20.781116491599164 0 -20.781116491599164 -17.631820783445761 0 0 0 0 -34.536694010077554 -34.664214428562275 0 -34.664214428562275 -29.189407268227001 0 0 0 0 -45.756565530622538 -17.820513157347307 0 -17.820513157347307 -53.209987544184173 0 0 0 0 -66.242453364458925 -7.7245417031235775 0 -7.7245417031235775 -22.102045538205857 0 0 0 0 -29.60190182843462 -25.060508045231352 0 -25.060508045231352 -14.277985742946612 0 0 0 0 -27.158419917195715 -2.6698517721049484 0 -2.6698517721049484 20.665269387079434 0 0 0 0 -23.465142620851111 -19.939211172640967 0 -19.939211172640967 10.929283329413579 0 0 0 0 -44.759706867225759 -8.5414729038263317 0 -8.5414729038263317 4.8857227313741873 0 0 0 0 -49.022516456233916 -29.973530931385227 0 -29.973530931385227 -11.202457819897518 0 0 0 0 -60.890405652102345 -27.679743865526007 0 -27.679743865526007 -10.609028591258436 0 0 0 0 -51.328415025789582 -11.637675667184908 0 -11.637675667184908 12.02239110769591 0 0 0 0 -54.381751832047485 -27.915779755591743 0 -27.915779755591743 -26.22916191178183 0 0 0 0 -57.315231350777367 -42.196553346932795 0 -42.196553346932795 -33.319754180724885 0 0 0 0 -38.60962165303954 -38.426316771275594 0 -38.426316771275594 -40.632514931059859 0 0 0 0 -45.187877924582608 -33.064739158634012 0 -33.064739158634012 -26.409987637789413 0 0 0 0 -110.15066649714208 -33.883315080279317 0 -33.883315080279317 -23.061629143277997 0 0 0 0 -51.714494972700777 -60.437047121783394 0 -60.437047121783394 -77.42664447505274 0 0 0 0 -0.41765427030544799 0.55940542991897946 0 0.55940542991897946 -0.64714411675208083 0 0 0 0 -6.1197397388059471 -4.4189265663137292 0 -4.4189265663137292 14.332464942354363 0 0 0 0 -0.035627118883894582 -6.2879795516275507 0 -6.2879795516275507 24.623740020597552 0 0 0 0 -16.016627322323984 17.999569737181048 0 17.999569737181048 2.690666847360859 0 0 0 0 -0.56144447722306268 -0.23728386156959225 0 -0.23728386156959225 -0.055462785976037265 0 0 0 0 -27.883078142768682 -6.505776475344021 0 -6.505776475344021 38.149915385514788 0 0 0 0 -0.26487623000284799 -0.21501367741694466 0 -0.21501367741694466 -0.11206585496069282 0 0 0 0 -43.790250258953165 16.15996113670991 0 16.15996113670991 7.8534341328385722 0 0 0 0 -64.855257169210745 -21.874424859751784 0 -21.874424859751784 4.3221673605443698 0 0 0 0 -25.182575491699026 -2.500849251581883 0 -2.500849251581883 7.0111967888681406 0 0 0 0 -5.3346067480088095 1.3072748196333634 0 1.3072748196333634 -0.80578883917075927 0 0 0 0 -24.1093521393434 7.111153113055547 0 7.111153113055547 17.204296632819705 0 0 0 0 -25.944400549749844 -2.8496989397160633 0 -2.8496989397160633 9.4420002650839479 0 0 0 0 -18.92896766024387 -2.9057206270540519 0 -2.9057206270540519 15.726885176024325 0 0 0 0 -17.265474638501928 6.3894413857561005 0 6.3894413857561005 16.606059986546938 0 0 0 0 -16.672996200980378 6.3645713414333898 0 6.3645713414333898 14.982647324309426 0 0 0 0 -20.558555909366987 5.7841467176281753 0 5.7841467176281753 22.524862589304547 0 0 0 0 -12.401495123257064 -0.95282289230405581 0 -0.95282289230405581 9.2706141435049858 0 0 0 0 -5.0122360340537853 8.6302348977672523 0 8.6302348977672523 15.476179101642032 0 0 0 0 0.27917997871554689 -6.52521073993762 0 -6.52521073993762 13.365524123381363 0 0 0 0 12.309200319494266 -1.0081118166359033 0 -1.0081118166359033 17.764619877607458 0 0 0 0 -0.42790398391816353 -0.071099297732853728 0 -0.071099297732853728 0.33396423629454364 0 0 0 0 -2.0271860525772354 2.1448418504881772 0 2.1448418504881772 24.849890651311853 0 0 0 0 -0.81795183233043645 -4.6954656531635806 0 -4.6954656531635806 17.894364412995401 0 0 0 0 -0.30500664494047669 5.5672383133018855 0 5.5672383133018855 24.06000117206861 0 0 0 0 -7.9961261237040162 -12.15898092769703 0 -12.15898092769703 41.840888947286544 0 0 0 0 -41.552369685481608 -50.230676285566723 0 -50.230676285566723 39.37254826861539 0 0 0 0 -12.124187157527103 -3.6831082434362798 0 -3.6831082434362798 52.723100001573812 0 0 0 0 -12.517066461242393 -3.1007354564368228 0 -3.1007354564368228 55.948741409596664 0 0 0 0 -33.666794009586738 -41.073894267801052 0 -41.073894267801052 32.452786726102573 0 0 0 0 -13.590726564242658 -1.0131595395082118 0 -1.0131595395082118 -0.0040508954156321386 0 0 0 0 -5.6492600222481997 3.617712215692336 0 3.617712215692336 62.504845551327435 0 0 0 0 1.8902793845809356 44.750620255100785 0 44.750620255100785 21.765610696956841 0 0 0 0 0.48610195016044599 14.505900751259503 0 14.505900751259503 50.985233949865787 0 0 0 0 -0.25677150113721581 -0.080720655393783147 0 -0.080720655393783147 0.27664539682926503 0 0 0 0 -4.2509905714496199 17.482195737299207 0 17.482195737299207 70.348979483868106 0 0 0 0 -24.517279519626754 -16.084815126041917 0 -16.084815126041917 7.1057985042055378 0 0 0 0 -31.068507535415847 -10.844029801766283 0 -10.844029801766283 38.081324157237646 0 0 0 0 -18.327717413601931 -4.7608347674099605 0 -4.7608347674099605 22.231755615869375 0 0 0 0 -21.461400509609575 -0.70655197805837133 0 -0.70655197805837133 54.692340159773494 0 0 0 0 -19.520596571255737 1.8155508129550526 0 1.8155508129550526 34.940137372017944 0 0 0 0 -29.859283826897808 -2.6868498761602382 0 -2.6868498761602382 60.27708675421627 0 0 0 0 -12.482129075789274 1.6668657732247087 0 1.6668657732247087 0.50704603994411301 0 0 0 0 -4.9817545664000136 4.9736914561983667 0 4.9736914561983667 16.595144510294858 0 0 0 0 -13.211942976908304 -2.425754559630414 0 -2.425754559630414 0.15377069291635614 0 0 0 0 -26.748396749384483 -5.3313742260123149 0 -5.3313742260123149 75.198390327206084 0 0 0 0 -1.4798456515163707 31.349830593072205 0 31.349830593072205 37.721064495463338 0 0 0 0 -12.456791114385851 1.1153280007536068 0 1.1153280007536068 68.694922845274235 0 0 0 0 -16.886655244445137 -10.94073151194948 0 -10.94073151194948 58.102134303322629 0 0 0 0 -13.983604437748909 -8.2648176856728242 0 -8.2648176856728242 51.191159420754047 0 0 0 0 -1.0860783651605743 -4.7047326308899073 0 -4.7047326308899073 31.112455730408783 0 0 0 0 -1.9880466794206768 -1.9973362834077193 0 -1.9973362834077193 23.008979711529719 0 0 0 0 -5.2446306318033749 5.047725869875336 0 5.047725869875336 25.636353871937445 0 0 0 0 -4.8091246840940585 3.0580078830519142 0 3.0580078830519142 33.302305930564387 0 0 0 0 -9.1926708039127334 9.6937992712619234 0 9.6937992712619234 25.747069922365426 0 0 0 0 -5.8376901134033687 6.6216928528056087 0 6.6216928528056087 27.265130763915437 0 0 0 0 -10.592387917751694 8.1456555656674823 0 8.1456555656674823 21.616310531456065 0 0 0 0 -7.6081554162137763 3.8017373922069737 0 3.8017373922069737 26.199540386524632 0 0 0 0 -5.6018586878972201 -19.702310041028795 0 -19.702310041028795 23.460081942701407 0 0 0 0 -1.7005918499542254 -0.016986204592268184 0 -0.016986204592268184 0.061309598172944346 0 0 0 0 -6.4784483360153899 4.4109001179849656 0 4.4109001179849656 30.240058839962785 0 0 0 0 -5.555671337712738 5.0925688145362642 0 5.0925688145362642 25.279425591830659 0 0 0 0 -0.62884135876281633 0.017217519935177172 0 0.017217519935177172 0.0053191387803085965 0 0 0 0 -17.577184953688629 28.326851955503344 0 28.326851955503344 -10.820373549490924 0 0 0 0 -59.427397855479171 22.156360407695452 0 22.156360407695452 39.01845042126979 0 0 0 0 -16.491221132190731 6.1184521301521499 0 6.1184521301521499 -28.790123739200226 0 0 0 0 -51.831722238503232 -39.589375065405605 0 -39.589375065405605 8.42432509370974 0 0 0 0 -23.814539005710685 -8.8174442575725607 0 -8.8174442575725607 29.938212409285086 0 0 0 0 -31.834424363774815 23.877104520956436 0 23.877104520956436 56.097966210873892 0 0 0 0 9.8452439277043595 -32.084702526013871 0 -32.084702526013871 36.671956042459897 0 0 0 0 -13.318324899442814 -0.56501212481045249 0 -0.56501212481045249 0.29954640766056551 0 0 0 0 -38.595787074915279 18.818147591063735 0 18.818147591063735 65.046193217531709 0 0 0 0 -35.930108457752794 2.752632098156937 0 2.752632098156937 70.713190923479715 0 0 0 0 -33.366170508201321 11.711892143885279 0 11.711892143885279 50.195753680296626 0 0 0 0 -32.455258482377985 6.6617048015672964 0 6.6617048015672964 53.44017855863558 0 0 0 0 -28.364852766892 18.64119317668542 0 18.64119317668542 37.364856495736888 0 0 0 0 -18.699314046341669 28.999900746760943 0 28.999900746760943 10.934730099029366 0 0 0 0 -6.3297891580505166 -12.830340530573039 0 -12.830340530573039 40.33783396284889 0 0 0 0 253.10456564910419 -27.324444900531034 0 -27.324444900531034 -98.354264714607325 0 0 0 0 34.331770757791674 26.264742753105679 0 26.264742753105679 3.6361010717675981 0 0 0 0 -88.263327832362847 94.418006435986172 0 94.418006435986172 -21.626458984723513 0 0 0 0 -47.251182653420983 8.4715445692087599 0 8.4715445692087599 2.2100922332417667 0 0 0 0 -51.667919527470076 2.4356399646038653 0 2.4356399646038653 5.6850605707068667 0 0 0 0 -52.084859632013831 -10.459548993606973 0 -10.459548993606973 46.941246407614926 0 0 0 0 -71.840942765338696 8.3706394001933404 0 8.3706394001933404 40.627832683009956 0 0 0 0 -101.46435549012676 19.992555927030025 0 19.992555927030025 89.529062638982396 0 0 0 0 -111.00295748071949 32.126090660071782 0 32.126090660071782 75.828107009389896 0 0 0 0 -85.140807535994099 -1.9630384148413214 0 -1.9630384148413214 113.23172209059157 0 0 0 0 -47.572328885807565 -9.3140991009315002 0 -9.3140991009315002 61.915323188185084 0 0 0 0 -48.666495607467368 -19.760282397743595 0 -19.760282397743595 74.767225951614023 0 0 0 0 -46.435407900004975 -1.569401494940081 0 -1.569401494940081 29.975849133316842 0 0 0 0 -21.64339202881456 -24.106126057668689 0 -24.106126057668689 48.519554535115276 0 0 0 0 -23.06806353595266 -5.307936827593835 0 -5.307936827593835 44.78181431181838 0 0 0 0 -20.265954952556058 -27.186391627645207 0 -27.186391627645207 71.24178836116721 0 0 0 0 -26.049357864647391 -21.423483558328485 0 -21.423483558328485 75.961693006966925 0 0 0 0 -37.323759093196713 -11.945052224547965 0 -11.945052224547965 74.656230264203259 0 0 0 0 -50.108757688089099 -34.24787956219825 0 -34.24787956219825 126.43064894609944 0 0 0 0 10.047584801257472 -45.823457250412503 0 -45.823457250412503 95.941836865891901 0 0 0 0 -1.76208620418533 -0.59668570689532796 0 -0.59668570689532796 0.008027054634263453 0 0 0 0 -50.902777260665061 -8.6754568169588993 0 -8.6754568169588993 74.974378006946495 0 0 0 0 -56.641531618992303 -0.75272784305298046 0 -0.75272784305298046 70.203325863868258 0 0 0 0 -19.997443108974522 0.29116303614228478 0 0.29116303614228478 0.23433741468198435 0 0 0 0 133.02780642689322 -50.490713464413147 0 -50.490713464413147 -12.554490309350967 0 0 0 0 -212.80734576038503 125.33738924664897 0 125.33738924664897 121.68569296228964 0 0 0 0 -57.354963278194191 -29.702121476518187 0 -29.702121476518187 125.85728378404747 0 0 0 0 -17.784122841275554 -0.77587965823878813 0 -0.77587965823878813 0.39272134774265349 0 0 0 0 -15.658998369442998 3.2892108614007043 0 3.2892108614007043 99.588256897310316 0 0 0 0 -106.0524710751879 41.940609266070851 0 41.940609266070851 69.6616947186576 0 0 0 0 -6.702433304331997 1.5276942024014164 0 1.5276942024014164 0.3596540044418064 0 0 0 0 -11.377632581188664 -19.27383742788561 0 -19.27383742788561 29.720998881967347 0 0 0 0 -8.2842044311837526 -22.583226812362909 0 -22.583226812362909 24.440367000724336 0 0 0 0 -5.8562630793694552 -20.611940166804629 0 -20.611940166804629 21.706312152596183 0 0 0 0 37.010282810782883 3.5767679478560979 0 3.5767679478560979 63.970914601028198 0 0 0 0 10.55332587076191 -19.474507794492979 0 -19.474507794492979 50.246892367674263 0 0 0 0 -9.3467875689748325 4.5815340164563736 0 4.5815340164563736 63.959223285296503 0 0 0 0 -3.3989965527289314 -12.790959177955301 0 -12.790959177955301 24.961922194151271 0 0 0 0 -13.525058264390282 6.7616501448575264 0 6.7616501448575264 33.591834734369741 0 0 0 0 -0.98275606523020542 -6.0633844081904158 0 -6.0633844081904158 41.891401671443532 0 0 0 0 -9.4554165951194591 0.60343807215951983 0 0.60343807215951983 32.484549623836301 0 0 0 0 -15.772525241822223 10.666004288842913 0 10.666004288842913 60.718292782993785 0 0 0 0 -12.227106835302038 1.1891592759104697 0 1.1891592759104697 55.006369966877003 0 0 0 0 -11.800977447775949 -11.620825384050704 0 -11.620825384050704 70.60422172656672 0 0 0 0 -23.305201291996127 0.85490718030655444 0 0.85490718030655444 28.074757362328683 0 0 0 0 -16.064416618276937 -16.011603588246572 0 -16.011603588246572 27.657404871329845 0 0 0 0 -7.7617845981949358 -11.563186814412347 0 -11.563186814412347 25.165505256829789 0 0 0 0 -0.3387435929048479 -4.4314944221210055 0 -4.4314944221210055 29.256332863079024 0 0 0 0 -10.313152653106954 -6.5289512784735848 0 -6.5289512784735848 36.952365390762452 0 0 0 0 -111.08530380998855 -35.09467832689586 0 -35.09467832689586 60.757894364649317 0 0 0 0 -2.0581603350440218 0.07697865032697937 0 0.07697865032697937 0.10101331889302351 0 0 0 0 12.629820755077162 56.322882194427166 0 56.322882194427166 -43.066011742312185 0 0 0 0 41.167774848043791 25.638356656640326 0 25.638356656640326 -86.014758963759959 0 0 0 0 -4.1250582784205108 -15.038112817406613 0 -15.038112817406613 8.9894838776574488 0 0 0 0 -6.5769335809636686 -20.506680356655806 0 -20.506680356655806 12.727080280298537 0 0 0 0 -1.7583761980276904 -3.6275948931952371 0 -3.6275948931952371 26.258003774885992 0 0 0 0 -0.15326542282218725 -8.4689275948413751 0 -8.4689275948413751 19.349409005893449 0 0 0 0 -6.2286255676015116 -17.178595399713174 0 -17.178595399713174 21.405770815205415 0 0 0 0 -8.39145753977391 -18.513676215105932 0 -18.513676215105932 21.41879262534485 0 0 0 0 -80.397115492210105 -15.244027144463303 0 -15.244027144463303 41.143661315342456 0 0 0 0 -61.69374003831399 -7.4485400384412515 0 -7.4485400384412515 39.93370012926033 0 0 0 0 -18.958182333521108 -29.480676215775816 0 -29.480676215775816 10.124238139077306 0 0 0 0 -18.318393371782349 1.6080627922799522 0 1.6080627922799522 38.145224367359333 0 0 0 0 -37.479784976082556 -38.405011056499575 0 -38.405011056499575 -7.069676216567359 0 0 0 0 -1.0048590056327846 0.23737638141651773 0 0.23737638141651773 0.026332507123744575 0 0 0 0 -48.466731187358164 68.238509172424187 0 68.238509172424187 -33.713861080798779 0 0 0 0 -86.473183880153556 17.861154250146683 0 17.861154250146683 -15.786898162312696 0 0 0 0 -28.908559379041435 -8.8076050541783957 0 -8.8076050541783957 -55.793002192342101 0 0 0 0 -82.732567168901937 34.92486991895165 0 34.92486991895165 16.674146723401918 0 0 0 0 -20.505473567834997 37.372058468517082 0 37.372058468517082 -47.70141387387946 0 0 0 0 -26.843988891912886 7.4666587959743538 0 7.4666587959743538 22.578306408841627 0 0 0 0 -20.852999744127828 21.489992365107 0 21.489992365107 -13.213138294938972 0 0 0 0 -32.387793496142876 15.708197757844133 0 15.708197757844133 4.3927704836750365 0 0 0 0 -51.160649382904921 31.177157378096524 0 31.177157378096524 -16.032347568701766 0 0 0 0 -35.274161461833501 11.899787327921956 0 11.899787327921956 -15.49762274092933 0 0 0 0 -37.33022264190231 42.614529741504242 0 42.614529741504242 -45.635461143631801 0 0 0 0 -39.438608205139644 19.03205839982121 0 19.03205839982121 -7.3928783705344472 0 0 0 0 -31.002116520032359 20.869873041755696 0 20.869873041755696 -8.8043276971816908 0 0 0 0 -44.654674987479666 17.225993884670157 0 17.225993884670157 -7.2852790219231931 0 0 0 0 -38.499341858960747 21.787427060009009 0 21.787427060009009 -26.236348641523023 0 0 0 0 -39.160757090412517 11.557767391242749 0 11.557767391242749 -8.1458025837649757 0 0 0 0 -7.8682529009192876 18.8658114716971 0 18.8658114716971 -27.322985878065538 0 0 0 0 -22.935224529150219 -6.3598454013144305 0 -6.3598454013144305 -68.859852831786611 0 0 0 0 -45.44658015264713 53.056306565018815 0 53.056306565018815 -34.523059946872763 0 0 0 0 -0.49048210769321798 -0.53807907270930144 0 -0.53807907270930144 -0.75526653276234024 0 0 0 0 38.670254341411237 24.732243419120266 0 24.732243419120266 -53.057737331639373 0 0 0 0 -35.597049515735534 -5.702344820800235 0 -5.702344820800235 -16.957366587345888 0 0 0 0 -34.350074305741146 17.102844452885599 0 17.102844452885599 -3.4264270029962045 0 0 0 0 -39.284549223510794 11.705778244904316 0 11.705778244904316 -0.97551258000072494 0 0 0 0 -37.110681427213194 4.5707622346279138 0 4.5707622346279138 -5.7042806150763994 0 0 0 0 -32.875656234058852 13.08175302895998 0 13.08175302895998 -10.345495769608135 0 0 0 0 -38.426316679703632 10.459891931474544 0 10.459891931474544 -20.697763377897218 0 0 0 0 -64.239894488639038 7.6512059573133229 0 7.6512059573133229 -9.9093461757179853 0 0 0 0 -49.802987503521763 31.750365371707787 0 31.750365371707787 -19.638582558060421 0 0 0 0 -40.403024891807945 22.82556299969508 0 22.82556299969508 -11.543108266356995 0 0 0 0 -44.411950987470846 23.003976423901562 0 23.003976423901562 -11.041718124338729 0 0 0 0 -48.302473812531389 19.179701910140082 0 19.179701910140082 -5.1390910531780065 0 0 0 0 -38.611489933878147 12.986488267476258 0 12.986488267476258 -6.3021719059447143 0 0 0 0 -43.569951808865881 16.531290937759074 0 16.531290937759074 -11.409170582656721 0 0 0 0 -44.413849017969369 16.881671579577237 0 16.881671579577237 -0.83497276267638654 0 0 0 0 -5.7895479384551436 26.377236693970474 0 26.377236693970474 -22.795566358385258 0 0 0 0 -0.12391400262961128 -0.079606693763400571 0 -0.079606693763400571 -0.16588982576673555 0 0 0 0 -44.637499541997386 24.321222519938232 0 24.321222519938232 -14.730536090497765 0 0 0 0 -56.990270798225538 19.618733065915961 0 19.618733065915961 -6.3224608176955144 0 0 0 0 -1.3633603144618487 -0.74755695423703816 0 -0.74755695423703816 0.031468605947686523 0 0 0 0 -42.028595415549717 14.110516266361472 0 14.110516266361472 -5.5574101902891471 0 0 0 0 -2.1114185028167753 1.6506920245828702 0 1.6506920245828702 0.58333622708232724 0 0 0 0 -2.4217826423528095 -2.87822644482344 0 -2.87822644482344 6.9301595402631619 0 0 0 0 -0.76067321508279129 0.4627471351697352 0 0.4627471351697352 0.2561416867325147 0 0 0 0 -4.8539374602532916 1.4953916851939937 0 1.4953916851939937 0.37451871449554375 0 0 0 0 -6.0015666704484829 0.092257553748275711 0 0.092257553748275711 0.52524627127954204 0 0 0 0 -0.53917174965926229 0.22907856266325943 0 0.22907856266325943 0.56331764717943589 0 0 0 0 -12.242767541587455 -0.02139228915291369 0 -0.02139228915291369 -2.4762989400920858 0 0 0 0 -28.795456362214281 -0.039043257128128062 0 -0.039043257128128062 -13.187667368177244 0 0 0 0 -31.487486061239451 2.9716024378176087 0 2.9716024378176087 -3.2568765254204664 0 0 0 0 -29.421627959665784 4.851458729010119 0 4.851458729010119 -1.9114135044477507 0 0 0 0 -27.471315743122432 4.1073922782776435 0 4.1073922782776435 -1.9973844716083704 0 0 0 0 -45.820051056723003 14.410411411982842 0 14.410411411982842 -6.0001210561206335 0 0 0 0 -42.472060271093142 -20.13124667846057 0 -20.13124667846057 0.3411677685268657 0 0 0 0 -7.5709980690753582 7.2049006838761898 0 7.2049006838761898 -12.570650690986895 0 0 0 0 -5.4252029638123531 -7.7926095068781365 0 -7.7926095068781365 -11.037337056455044 0 0 0 0 -4.8083862121461607 3.4261740445793976 0 3.4261740445793976 -21.456301757500682 0 0 0 0 -21.622307411993461 17.566311961258464 0 17.566311961258464 -24.785799886421117 0 0 0 0 -18.986305083597244 4.9565562767940037 0 4.9565562767940037 -11.129605465952181 0 0 0 0 -16.349948670115054 8.8818672227026809 0 8.8818672227026809 -15.170258676020467 0 0 0 0 -9.8638467569835484 2.3862492703696176 0 2.3862492703696176 -9.568029307885908 0 0 0 0 -0.97691961224976076 -1.5099798633638208 0 -1.5099798633638208 -2.5448952234385063 0 0 0 0 -15.507100554009412 13.873723037351681 0 13.873723037351681 -18.332549405747017 0 0 0 0 -9.8843261735737542 5.3900745182627361 0 5.3900745182627361 -16.611853665353408 0 0 0 0 -1.4865499348507036 -2.450855067581716 0 -2.450855067581716 -4.1909821348362923 0 0 0 0 -18.645677740619249 12.236681256049906 0 12.236681256049906 -14.781951220920583 0 0 0 0 -20.243495432753662 16.207113943257866 0 16.207113943257866 -7.9491144212639142 0 0 0 0 -31.375703969569258 11.560695057697217 0 11.560695057697217 -9.805311964585826 0 0 0 0 -35.75550791601745 6.5558993103755938 0 6.5558993103755938 -3.8751866803219599 0 0 0 0 -30.684971137608954 1.3646995821462156 0 1.3646995821462156 -1.3485330466551204 0 0 0 0 -40.067261688609506 12.08170544759264 0 12.08170544759264 6.3205542612781755 0 0 0 0 -49.311179373496088 3.6662652668317151 0 3.6662652668317151 -1.3403502537938721 0 0 0 0 -33.372739208630264 -8.5591701227897374 0 -8.5591701227897374 -1.0517265579324828 0 0 0 0 -23.598364629448042 -11.827057296147672 0 -11.827057296147672 -11.304691125649697 0 0 0 0 -27.173712381804762 -8.190070396485936 0 -8.190070396485936 -7.1447771428274791 0 0 0 0 -22.498418948908238 -7.7762083334151271 0 -7.7762083334151271 -10.166965149132011 0 0 0 0 -21.612278459680965 -6.2739240678890837 0 -6.2739240678890837 -7.900294529926839 0 0 0 0 -30.509126950920745 0.011545009132078121 0 0.011545009132078121 -5.2592779930471352 0 0 0 0 -22.611681543411123 -0.45671836565742296 0 -0.45671836565742296 -5.344281151088353 0 0 0 0 -18.375885968797775 1.3516466649494987 0 1.3516466649494987 -5.2246466477862441 0 0 0 0 -12.663864806774654 -8.3488612531038484 0 -8.3488612531038484 -5.6455046741771184 0 0 0 0 -15.852470474032089 -4.6311429518185605 0 -4.6311429518185605 -9.3405057225400014 0 0 0 0 -15.396653507587871 -2.1747275520509106 0 -2.1747275520509106 5.5065586428145252 0 0 0 0 -9.6451936626453971 -5.3143438990106233 0 -5.3143438990106233 -1.2958627045461526 0 0 0 0 -21.241478000696134 7.9887700078301123 0 7.9887700078301123 -7.539694442391351 0 0 0 0 -21.250946234020375 -6.0567995014048961 0 -6.0567995014048961 11.150631363364823 0 0 0 0 -19.01860980366564 -11.651554245650345 0 -11.651554245650345 -4.7857731186256842 0 0 0 0 -31.611738295776377 -16.287718472302402 0 -16.287718472302402 -1.6466318196121392 0 0 0 0 -7.3300913215025503 -11.605510321393695 0 -11.605510321393695 6.4601728738709312 0 0 0 0 -16.364854576577272 -5.0442592649048947 0 -5.0442592649048947 3.1116914132327906 0 0 0 0 -11.609614592336698 -5.7253927888319964 0 -5.7253927888319964 -5.6681461620028131 0 0 0 0 -12.572732655940854 -12.292462706415677 0 -12.292462706415677 -5.2302361213669428 0 0 0 0 -16.842068220686087 -7.998955867829352 0 -7.998955867829352 -12.652485100073136 0 0 0 0 -17.291931112986276 -10.187036304268418 0 -10.187036304268418 -3.9661774271118304 0 0 0 0 -20.288105313446977 -12.995530427740164 0 -12.995530427740164 -13.82349181539405 0 0 0 0 -21.451572592650336 -12.473190032069851 0 -12.473190032069851 -4.9337894242356413 0 0 0 0 -25.820187357329814 -11.972522879101007 0 -11.972522879101007 -21.431107193298885 0 0 0 0 -27.608039035848833 -10.471731762172226 0 -10.471731762172226 -13.730422684789573 0 0 0 0 -25.276114154375591 -11.277443451987153 0 -11.277443451987153 -11.774349647676445 0 0 0 0 -28.846368028910547 -21.914461286514324 0 -21.914461286514324 -21.644756281209766 0 0 0 0 -30.132681274145398 -20.051981743878741 0 -20.051981743878741 -14.210766155876609 0 0 0 0 -9.6876780535599814 3.231313097189572 0 3.231313097189572 4.7681808168693083 0 0 0 0 -19.267674362697107 -9.7967384762439451 0 -9.7967384762439451 -10.359693752917792 0 0 0 0 -20.73629363154032 -13.926423102684566 0 -13.926423102684566 -13.642855766085532 0 0 0 0 -21.9488815912473 -13.147072206847383 0 -13.147072206847383 -12.114181716637091 0 0 0 0 -22.187910450162235 -13.8827574724898 0 -13.8827574724898 -9.5990520891113533 0 0 0 0 -8.841107416754987 3.4378661297503594 0 3.4378661297503594 5.4742270657888952 0 0 0 0 -7.2830404247551996 12.83628018620152 0 12.83628018620152 18.125633466290431 0 0 0 0 -1.487801481072438 4.9268521182309541 0 4.9268521182309541 -2.3224532815887642 0 0 0 0 -6.5614865971905374 18.174734832170998 0 18.174734832170998 7.3806164619433048 0 0 0 0 -4.2886622072431919 12.39773471782442 0 12.39773471782442 20.015674947113666 0 0 0 0 11.990754462156929 24.788758639430284 0 24.788758639430284 17.576053849002445 0 0 0 0 -25.820187357312534 -11.972522879104872 0 -11.972522879104872 -21.431107193297422 0 0 0 0 -52.742642307593087 -8.7379123767789793 0 -8.7379123767789793 -12.702726305949682 0 0 0 0 -37.51175817068679 9.0095439819602916 0 9.0095439819602916 -2.5679799620324388 0 0 0 0 -22.179463924683546 7.5660785190755462 0 7.5660785190755462 17.283559420296456 0 0 0 0 -20.322679935004032 6.6524387411774342 0 6.6524387411774342 -5.8849429320184754 0 0 0 0 -44.784516940214871 2.9484189363929545 0 2.9484189363929545 19.799967143038856 0 0 0 0 -49.184821303219508 8.314405125574531 0 8.314405125574531 26.176074071866424 0 0 0 0 -28.529025582968188 12.311726417511068 0 12.311726417511068 17.590436842087854 0 0 0 0 -14.951454489185835 5.8648411266829044 0 5.8648411266829044 15.448909873334628 0 0 0 0 -15.74846568040418 21.489959096793289 0 21.489959096793289 36.00706963798757 0 0 0 0 -11.116144640603309 1.7996554454779399 0 1.7996554454779399 3.6315014979321196 0 0 0 0 -19.06646065545192 -4.6841728751995504 0 -4.6841728751995504 -5.6000563341253695 0 0 0 0 -5.6246616243303311 -1.1622947828088028 0 -1.1622947828088028 2.0382528116687726 0 0 0 0 -16.198407645414747 0.47229620766147029 0 0.47229620766147029 1.410534961541726 0 0 0 0 -30.32675180392971 6.7765953317102685 0 6.7765953317102685 29.146666902453831 0 0 0 0 -29.605143609981724 0.48820941320065003 0 0.48820941320065003 25.997594059113453 0 0 0 0 -4.0408028311789259 1.1194896331581221 0 1.1194896331581221 -0.27502267498359689 0 0 0 0 -34.285470879473905 -12.161327059999792 0 -12.161327059999792 -8.0022074077453453 0 0 0 0 -8.0916892450975304 1.2085166930147442 0 1.2085166930147442 4.9172888569426032 0 0 0 0 -32.785566960278629 -28.465986820037074 0 -28.465986820037074 -11.935458000339395 0 0 0 0 -25.820187357334362 -11.972522879108965 0 -11.972522879108965 -21.431107193293428 0 0 0 0 -14.24811163121376 -5.2617232961089258 0 -5.2617232961089258 -13.389401983820676 0 0 0 0 1.5136698011303906 12.624771483706979 0 12.624771483706979 11.353612975914984 0 0 0 0 2.8995992510651831 29.735782997770059 0 29.735782997770059 30.263384499143399 0 0 0 0 -16.265263587039954 -13.380500271100459 0 -13.380500271100459 -1.2376615006218117 0 0 0 0 -20.031943143893841 -10.525961311715889 0 -10.525961311715889 -7.9626057732678817 0 0 0 0 -23.104543669313443 -3.3217066435801712 0 -3.3217066435801712 20.53228819949527 0 0 0 0 -23.791240180387636 -2.106326632708361 0 -2.106326632708361 0.10095931605337194 0 0 0 0 -29.530457173047353 -16.576475832926889 0 -16.576475832926889 10.27840549784446 0 0 0 0 -104.19041927823491 -68.126617758022633 0 -68.126617758022633 62.255525417501019 0 0 0 0 -2.4465259149695342 -0.34696070774825194 0 -0.34696070774825194 -0.078156320341952551 0 0 0 0 7.7740369171197017 -9.4108280663995032 0 -9.4108280663995032 -45.814193107333836 0 0 0 0 -1.3284643969159333 -23.500183665572116 0 -23.500183665572116 9.7589063984312361 0 0 0 0 -18.674325744349517 -2.7618361072053119 0 -2.7618361072053119 -1.9490957718223001 0 0 0 0 -19.025408404784685 -2.2473738080430508 0 -2.2473738080430508 -1.4510428154331265 0 0 0 0 -14.184228672630962 -1.6337490150233007 0 -1.6337490150233007 -0.40404005136009408 0 0 0 0 -12.038647200978978 3.4933299181262978 0 3.4933299181262978 0.090286709220912975 0 0 0 0 -3.8646280832481352 149.13023314270652 0 149.13023314270652 2.923359622002522 0 0 0 0 -6.7343765366430546 4.043062260028135 0 4.043062260028135 1.1463210875420593 0 0 0 0 59.282977156715788 29.721461443805509 0 29.721461443805509 -2.67063052555784 0 0 0 0 -117.69545223410933 -30.281463843704842 0 -30.281463843704842 13.199904561853032 0 0 0 0 17.942715962188231 -72.371149984063493 0 -72.371149984063493 -78.352583920737771 0 0 0 0 -17.73331620368117 -15.812448670712797 0 -15.812448670712797 12.338737925742237 0 0 0 0 -44.301063000920294 0.3699141666605783 0 0.3699141666605783 10.678068930885843 0 0 0 0 3.1431090351161401 -16.475567330768172 0 -16.475567330768172 -15.235684891155955 0 0 0 0 -15.263979871282572 -12.596257002651171 0 -12.596257002651171 3.220584253293282 0 0 0 0 -17.133813909855235 56.415239161474688 0 56.415239161474688 -2.1792097872234706 0 0 0 0 -0.26611154542479198 35.636565658513348 0 35.636565658513348 19.006802390464827 0 0 0 0 13.506439960797707 -6.5023406258839742 0 -6.5023406258839742 54.992317745886339 0 0 0 0 4.7151953942284308 23.02639498824125 0 23.02639498824125 -11.742897570130026 0 0 0 0 -97.932896729617823 50.875236162469079 0 50.875236162469079 6.860875862218677 0 0 0 0 -32.475932189940067 50.761241468524645 0 50.761241468524645 -32.08694288809243 0 0 0 0 -41.620481413892776 32.705870707802603 0 32.705870707802603 7.2270457903358647 0 0 0 0 -21.053637405923837 34.480954024452345 0 34.480954024452345 6.9511571386582318 0 0 0 0 -11.489704567295121 36.090029829107436 0 36.090029829107436 -5.0232328507951607 0 0 0 0 -9.6850978150825995 51.515770817285187 0 51.515770817285187 -0.39934660341987183 0 0 0 0 -2.5146130777502549 33.214267696839642 0 33.214267696839642 16.398246812575053 0 0 0 0 -23.474619041851838 53.644903065083213 0 53.644903065083213 6.8525951610458264 0 0 0 0 -99.361470866256241 18.383929972466831 0 18.383929972466831 51.576443447581823 0 0 0 0 -117.05237631081036 66.911481791401116 0 66.911481791401116 51.828429669208845 0 0 0 0 -0.045658425214675447 0.079020195288620698 0 0.079020195288620698 -0.12693172269716557 0 0 0 0 -18.158159515291118 15.522270956077605 0 15.522270956077605 44.246918982707712 0 0 0 0 17.525270167405324 17.27822420499021 0 17.27822420499021 17.317222023599413 0 0 0 0 -56.896480094444996 -15.214786973930813 0 -15.214786973930813 -13.190347977684951 0 0 0 0 -46.290083678515657 31.361171449107474 0 31.361171449107474 -26.623470491413059 0 0 0 0 -42.962816560127976 5.3675240071233929 0 5.3675240071233929 75.115245622727059 0 0 0 0 -67.946048760033136 43.823652460717881 0 43.823652460717881 61.186086903820637 0 0 0 0 -27.536420156455279 48.078478000120924 0 48.078478000120924 54.373625864167082 0 0 0 0 -1.3241672539770661 -36.804166276888964 0 -36.804166276888964 71.593879638029648 0 0 0 0 25.947709087391559 0.2967248084091807 0 0.2967248084091807 40.423586337178307 0 0 0 0 -34.223461064771982 10.240282266373356 0 10.240282266373356 41.007812174103918 0 0 0 0 -4.8165645495137142 -10.782737458268116 0 -10.782737458268116 26.453878062601916 0 0 0 0 -49.463500028365161 -6.6852146695296142 0 -6.6852146695296142 25.578025237947713 0 0 0 0 -22.703791072653985 -12.490086016811631 0 -12.490086016811631 59.593982984438298 0 0 0 0 -20.167911305328744 -12.163033084643985 0 -12.163033084643985 12.360627755774885 0 0 0 0 -33.108041802508524 12.457204601963213 0 12.457204601963213 18.766060741204257 0 0 0 0 -38.145593823086529 1.6861734545724403 0 1.6861734545724403 26.024286252525755 0 0 0 0 -18.472686864370189 8.6185418111632544 0 8.6185418111632544 -4.1296818994931073 0 0 0 0 -22.523675669493969 -3.7568128086255683 0 -3.7568128086255683 20.673258766934737 0 0 0 0 -9.5783509486936964 -1.2877069787215305 0 -1.2877069787215305 4.8075039306187932 0 0 0 0 -13.514973232899138 -6.2814832886639351 0 -6.2814832886639351 38.466530912859298 0 0 0 0 -24.219509927075705 -5.7037518551755966 0 -5.7037518551755966 40.084789143845626 0 0 0 0 -8.5461779891229526 -7.2501867746871085 0 -7.2501867746871085 18.5172070787537 0 0 0 0 -13.247584990152063 -5.3360133112153534 0 -5.3360133112153534 25.482919901526429 0 0 0 0 -5.1035799154997221 -14.056334132103274 0 -14.056334132103274 26.828327526689918 0 0 0 0 -4.4979209535486007 -7.3811676414352405 0 -7.3811676414352405 36.115464033519288 0 0 0 0 -12.803032612644053 -1.3266096386224484 0 -1.3266096386224484 0.0081357408138693632 0 0 0 0 -12.77587616830715 -11.028086983982632 0 -11.028086983982632 60.216075217404068 0 0 0 0 -9.4986351515508431 -11.233091504992757 0 -11.233091504992757 50.262224908023654 0 0 0 0 5.983589379598925 -4.5322291546177098 0 -4.5322291546177098 54.084310029429844 0 0 0 0 -2.7427458971615124 -15.405684450940271 0 -15.405684450940271 50.464200681129967 0 0 0 0 -27.311664250730246 -17.771670922526255 0 -17.771670922526255 96.277789914531525 0 0 0 0 -10.811476116047189 -1.1202123970420259 0 -1.1202123970420259 0.049823291417518595 0 0 0 0 -13.471655999343056 -12.810075813592903 0 -12.810075813592903 39.836905897783922 0 0 0 0 -18.560415339881729 -13.510036963281948 0 -13.510036963281948 66.834917296438334 0 0 0 0 -3.5040024725531111 -8.9919699758484057 0 -8.9919699758484057 38.402999877292771 0 0 0 0 -10.137204924350954 -12.694945113627455 0 -12.694945113627455 53.041856360880274 0 0 0 0 -12.15386966605729 4.5781105410905525 0 4.5781105410905525 78.210476080195804 0 0 0 0 -17.546262780386314 -14.951358228981121 0 -14.951358228981121 43.711419114045725 0 0 0 0 -38.551565222574254 -46.554822164646623 0 -46.554822164646623 42.175130846643412 0 0 0 0 -29.979465729882577 -26.24440916497656 0 -26.24440916497656 71.878444500489138 0 0 0 0 -19.224533448908915 -6.5510315306544271 0 -6.5510315306544271 60.904221203844486 0 0 0 0 -15.317472345353266 -0.84986829465647107 0 -0.84986829465647107 0.1887501443815518 0 0 0 0 4.2475395450383076 44.593579172778732 0 44.593579172778732 3.1731206313324094 0 0 0 0 -2.4887100968353479 -0.7627469319205602 0 -0.7627469319205602 37.155148511118796 0 0 0 0 -14.404741205501523 -4.1859145896769405 0 -4.1859145896769405 15.078300119773644 0 0 0 0 -2.5090969602042605 -16.399041842694487 0 -16.399041842694487 15.157253047574045 0 0 0 0 -22.770444031130864 -29.895145046237591 0 -29.895145046237591 42.184555241990211 0 0 0 0 -9.794866554490909 -10.495033971618568 0 -10.495033971618568 -1.0160721449913979 0 0 0 0 -2.9385516654338062 -15.833746819203668 0 -15.833746819203668 12.443503087820545 0 0 0 0 -12.182715029635801 -7.0030526224387586 0 -7.0030526224387586 22.922962224738285 0 0 0 0 -0.50157619496258121 -17.083906445404637 0 -17.083906445404637 28.714673008686873 0 0 0 0 -18.280887792471731 -4.2328912382130284 0 -4.2328912382130284 38.127813191727455 0 0 0 0 -14.456144108040462 -4.067006519761776 0 -4.067006519761776 15.697384229953514 0 0 0 0 -12.568115808256891 -14.377710172009134 0 -14.377710172009134 24.683359554124763 0 0 0 0 -11.877959060504509 -3.9653787873020292 0 -3.9653787873020292 24.384306353131876 0 0 0 0 -19.095049246222516 -10.058939274841975 0 -10.058939274841975 22.771245914534575 0 0 0 0 -15.269931636193633 -13.700817281760294 0 -13.700817281760294 17.023951365220228 0 0 0 0 -25.566583324805833 -11.341811950216879 0 -11.341811950216879 30.51926450960616 0 0 0 0 -12.209402083330133 -9.0521668775121498 0 -9.0521668775121498 18.820362801272665 0 0 0 0 -20.684103802410842 -2.4630738877623242 0 -2.4630738877623242 -0.20859762813888455 0 0 0 0 -7.1792760737491221 -0.7676784853605263 0 -0.7676784853605263 0.021434267291186568 0 0 0 0 -21.494778740470792 -30.44645712704596 0 -30.44645712704596 19.969091998990223 0 0 0 0 3.6552503335333313 22.878153742129939 0 22.878153742129939 -5.064515591967961 0 0 0 0 -17.691540495165476 -1.6406926754054054 0 -1.6406926754054054 -0.022982030564599409 0 0 0 0 -74.035930517713496 -27.48862398500053 0 -27.48862398500053 -35.547085700927084 0 0 0 0 -65.668524530203285 226.97605741074898 0 226.97605741074898 -115.88283992995055 0 0 0 0 -498.79853495902989 118.44974337472939 0 118.44974337472939 48.620542457041267 0 0 0 0 -1.2977307343644302 -0.19055374553230209 0 -0.19055374553230209 -0.19146533439148361 0 0 0 0 -168.39581277611251 44.02246426685489 0 44.02246426685489 -79.141239626943118 0 0 0 0 -7.1177456839832303 1.683224573281862 0 1.683224573281862 -47.937683091044008 0 0 0 0 -13.536007406835779 9.0782797526790038 0 9.0782797526790038 -7.1147993444608559 0 0 0 0 -13.373168721826005 2.9973645093917014 0 2.9973645093917014 -9.4779242117685953 0 0 0 0 -5.7140965908229191 -15.137007285948854 0 -15.137007285948854 -36.323302249765931 0 0 0 0 -5.466286034040877 -17.24599888681032 0 -17.24599888681032 -55.766368924318755 0 0 0 0 -42.91597596909196 -31.537864278405195 0 -31.537864278405195 -17.397700219594867 0 0 0 0 -9.2127815625212861 2.4066419020034573 0 2.4066419020034573 -23.224106373907375 0 0 0 0 -22.618425658080014 14.02082970387324 0 14.02082970387324 31.757940764988348 0 0 0 0 -53.677484648935206 -73.183888386130718 0 -73.183888386130718 66.22284610122648 0 0 0 0 -10.400901357544633 -0.71270378537741763 0 -0.71270378537741763 0.061997757613988513 0 0 0 0 -4.8196115457976703 -24.753787986317434 0 -24.753787986317434 89.099075110748458 0 0 0 0 -24.111796460612823 -2.2503462808888059 0 -2.2503462808888059 53.417244461461962 0 0 0 0 -2.4122395770291618 -0.54846041299637704 0 -0.54846041299637704 1.1459162344084397 0 0 0 0 -41.767029835344147 -93.25718142290323 0 -93.25718142290323 -187.21664321903901 0 0 0 0 -3.6513529709095707 1.2040853424302327 0 1.2040853424302327 -0.90519963345677734 0 0 0 0 -12.876305953817791 101.52044598513773 0 101.52044598513773 -88.037837357546209 0 0 0 0 -16.038913575586776 -9.4613744345620852 0 -9.4613744345620852 9.8059469345483521 0 0 0 0 -46.722681305976664 17.657792583583301 0 17.657792583583301 33.176393483764002 0 0 0 0 0.83323268609183287 41.026262370704451 0 41.026262370704451 37.099675757752493 0 0 0 0 -1.3307304589356832 0.87200671833419641 0 0.87200671833419641 -0.53250764145096618 0 0 0 0 -499.59236948537909 -120.85558502825516 0 -120.85558502825516 50.503234354236234 0 0 0 0 -191.97264012330197 -100.43099940151268 0 -100.43099940151268 51.154204622036083 0 0 0 0 -499.00181864338305 3.7104416041325581 0 3.7104416041325581 55.937370912732796 0 0 0 0 -2.7036001972157138 -0.30246866902606495 0 -0.30246866902606495 -0.4206738653302789 0 0 0 0 -172.792361392163 93.214230565712782 0 93.214230565712782 -59.366209987760584 0 0 0 0 -497.10861073164597 -175.33004860556784 0 -175.33004860556784 8.0490450660267712 0 0 0 0 -114.32296988186226 -10.756705030022166 0 -10.756705030022166 -0.11516377698313846 0 0 0 0 43.10011589797432 -69.469956865006623 0 -69.469956865006623 -130.45483537950528 0 0 0 0 10.11471643425557 -123.10184060912317 0 -123.10184060912317 -100.35376376334014 0 0 0 0 -133.11312995943626 30.979115794105777 0 30.979115794105777 117.4942528505605 0 0 0 0 -1.1656080875542685 -0.45581898588584224 0 -0.45581898588584224 0.11672019948337538 0 0 0 0 -498.02931913058637 -256.79114042033376 0 -256.79114042033376 6.0013383291706885 0 0 0 0 -176.25147431732194 -12.167446454377707 0 -12.167446454377707 11.527266840366327 0 0 0 0 -125.02944053008105 -44.913905825755201 0 -44.913905825755201 29.860452772770948 0 0 0 0 -112.30404725503422 20.337313178679299 0 20.337313178679299 -25.292557032047299 0 0 0 0 -94.325130566265216 -55.632757429138287 0 -55.632757429138287 -81.708236241256174 0 0 0 0 6.8043226702502579 -121.57585951695008 0 -121.57585951695008 -93.437594970153484 0 0 0 0 -1.1536004401960156 -0.38095925699959543 0 -0.38095925699959543 -0.017369299862848936 0 0 0 0 11.015577336814204 -31.485417522502704 0 -31.485417522502704 4.9192698133587385 0 0 0 0 14.464145265316802 13.763909158384477 0 13.763909158384477 19.988868279348679 0 0 0 0 -97.02407805754774 -120.26763617495426 0 -120.26763617495426 -37.901938921157608 0 0 0 0 -69.181569600641524 -21.911159836460264 0 -21.911159836460264 14.276850044871981 0 0 0 0 -13.431891679045293 20.688526502533037 0 20.688526502533037 -30.096132472711282 0 0 0 0 -47.053553170000669 38.020099293079653 0 38.020099293079653 13.180432559983167 0 0 0 0 4.5291389335143322 6.3741695208575138 0 6.3741695208575138 21.276153246566224 0 0 0 0 -57.74644567803216 12.384222170644794 0 12.384222170644794 22.272560533776769 0 0 0 0 -52.255303799938702 20.378097945785012 0 20.378097945785012 0.46802653539687356 0 0 0 0 -62.539447870734875 -12.285645824658145 0 -12.285645824658145 -40.88677745081678 0 0 0 0 -44.720838930220907 -10.816982613652868 0 -10.816982613652868 -47.726692563934478 0 0 0 0 -47.175622544775251 0.88887362421739802 0 0.88887362421739802 -31.816092665328231 0 0 0 0 -44.628104522709691 -8.7178597056112199 0 -8.7178597056112199 -31.732948657560296 0 0 0 0 -29.430863649557978 -28.59857924668372 0 -28.59857924668372 -6.7427932281291643 0 0 0 0 -0.21140051420469774 -0.011258294710419614 0 -0.011258294710419614 -0.008392303506880118 0 0 0 0 2.1269004921341548 -12.723738701497643 0 -12.723738701497643 -5.1415382233318931 0 0 0 0 -11.953393781242994 3.9840727149235877 0 3.9840727149235877 8.030415096570513 0 0 0 0 -0.59575929156483909 0.079775417999879084 0 0.079775417999879084 -0.0078243954760815054 0 0 0 0 10.125410912690313 13.010519591197136 0 13.010519591197136 -6.7443959066820653 0 0 0 0 -1.5801074084301945 13.720861419938146 0 13.720861419938146 -3.1299575593274227 0 0 0 0 -6.4538864895657753 15.380967502695047 0 15.380967502695047 2.5224900333283387 0 0 0 0 -0.45373020312728585 0.33234266492469067 0 0.33234266492469067 -0.0063093128557949029 0 0 0 0 -0.21156058512072207 0.14204638713864998 0 0.14204638713864998 -0.02780760062687947 0 0 0 0 -1.1048110390238435 26.740010185656338 0 26.740010185656338 -55.42736805376542 0 0 0 0 -7.0984439758249209 10.14305422109226 0 10.14305422109226 -2.7024719587126498 0 0 0 0 -1.6761041719146306 19.762820988685853 0 19.762820988685853 -5.8031933952080941 0 0 0 0 -4.9086892308332608 15.3212880220198 0 15.3212880220198 2.336035376211651 0 0 0 0 -5.4229634400762734 21.524483236801281 0 21.524483236801281 11.532356402786611 0 0 0 0 -7.2143438522734868 9.1827003688779936 0 9.1827003688779936 18.779280414488291 0 0 0 0 -7.2064641705073882 10.95903460897954 0 10.95903460897954 6.7120818614798239 0 0 0 0 -6.1864195621880071 -4.9801292676356272 0 -4.9801292676356272 4.7486396420069639 0 0 0 0 -9.2677915421099897 -15.528082028734872 0 -15.528082028734872 24.217792977744633 0 0 0 0 -17.998586058694855 32.819288554413497 0 32.819288554413497 32.711077626657833 0 0 0 0 -11.407081387808567 -0.4924688570197584 0 -0.4924688570197584 0.12039298923072249 0 0 0 0 -22.230785647643643 11.195143209434026 0 11.195143209434026 60.690407143667699 0 0 0 0 -31.099016359066809 -14.209094634338264 0 -14.209094634338264 41.023809592627096 0 0 0 0 -55.652456894337774 -2.1910213290833909 0 -2.1910213290833909 116.20836815840104 0 0 0 0 -11.660969754508095 -0.76061190085544306 0 -0.76061190085544306 0.13964355798030867 0 0 0 0 -3.9802281312104242 -21.498042162668135 0 -21.498042162668135 -18.058458645240933 0 0 0 0 -2.3059514143697015 6.4467029516964871 0 6.4467029516964871 -32.579469297032261 0 0 0 0 -28.562179683555769 6.1297524757561348 0 6.1297524757561348 -7.12125542972462 0 0 0 0 -21.76393913121683 -12.890039979689263 0 -12.890039979689263 -34.49908765231983 0 0 0 0 -0.30298981764950739 -0.18917615638433993 0 -0.18917615638433993 -0.18937683910992631 0 0 0 0 -3.0000250421035162 2.2845216648794064 0 2.2845216648794064 -10.805964446487792 0 0 0 0 -2.9228923837272305 1.3641858803725171 0 1.3641858803725171 -5.8057762035202813 0 0 0 0 -5.8385908376245652 -3.5545190760746657 0 -3.5545190760746657 -5.5173417334093529 0 0 0 0 1.3044506980822916 -3.160045048395645 0 -3.160045048395645 -7.0194023055221493 0 0 0 0 -7.6302339282274261 -1.4779108510779295 0 -1.4779108510779295 -2.5793351808120306 0 0 0 0 -7.9252850576813216 -0.38687515287061558 0 -0.38687515287061558 -2.6046691220248386 0 0 0 0 -5.9283248718093091 -1.5789579482383829 0 -1.5789579482383829 -2.8623230066038445 0 0 0 0 -8.7508771731995694 1.0891551466091016 0 1.0891551466091016 -4.4769287803113684 0 0 0 0 -4.367341711611779 3.6797938072684317 0 3.6797938072684317 -0.28994868463498324 0 0 0 0 -9.9318793301299593 -1.8212587450767899 0 -1.8212587450767899 -2.3732829433840976 0 0 0 0 16.382660361373837 91.405852962029456 0 91.405852962029456 68.18063344708321 0 0 0 0 -34.9650679482329 -23.556203870433627 0 -23.556203870433627 15.873700043958443 0 0 0 0 -22.005300967671474 -8.4009376183899853 0 -8.4009376183899853 28.747945037827478 0 0 0 0 -13.957735766774931 5.3893399681049345 0 5.3893399681049345 21.668494186846914 0 0 0 0 -6.0712059172576396 1.4134872813521149 0 1.4134872813521149 1.6071920679825102 0 0 0 0 -9.6168945126040484 0.089807940103106443 0 0.089807940103106443 0.10155182075716458 0 0 0 0 -10.643222949724077 -2.4474417820936445 0 -2.4474417820936445 3.0926926976483458 0 0 0 0 -5.6623220869760189 1.9437229410950696 0 1.9437229410950696 -9.7189523494264662 0 0 0 0 -18.817331068253225 -2.0792516196295594 0 -2.0792516196295594 0.76947517201992355 0 0 0 0 -12.521509622201997 -2.3784069725549077 0 -2.3784069725549077 -0.015041750271352239 0 0 0 0 -16.197385090305943 -2.0950491415918862 0 -2.0950491415918862 6.3649396142703267 0 0 0 0 -3.5551743959274482 -0.6918668602441258 0 -0.6918668602441258 -0.37638063220361134 0 0 0 0 -0.0063043862810339135 -0.010583585466928724 0 -0.010583585466928724 -0.37511187594567563 0 0 0 0 -16.759545500985041 -6.6871015424235836 0 -6.6871015424235836 -8.1902138458233242 0 0 0 0 -1.5625911532551982 -0.80318828455941826 0 -0.80318828455941826 -7.6146418661325583 0 0 0 0 -7.4967841964371473 4.250330764001756 0 4.250330764001756 2.3698419774724826 0 0 0 0 -4.3345472370201605 -0.77372303542009746 0 -0.77372303542009746 -7.1854270879169029 0 0 0 0 -11.49245630533369 6.7783375790786398 0 6.7783375790786398 6.0587631148148375 0 0 0 0 -10.461029718428712 -0.44461616125841363 0 -0.44461616125841363 0.055423956320274963 0 0 0 0 -7.1946700049047649 10.428829267894855 0 10.428829267894855 7.4086154736446215 0 0 0 0 -5.0689509501880821 13.761331895115127 0 13.761331895115127 9.2144811676180893 0 0 0 0 -0.8338785258210919 2.6004228309195994 0 2.6004228309195994 0.025504629330967386 0 0 0 0 -3.2136098711748673 9.2445807610702282 0 9.2445807610702282 3.9464943786380573 0 0 0 0 -5.1237725715559463 15.614317177368548 0 15.614317177368548 7.2986596840427751 0 0 0 0 -2.0710124355755397 13.587374974042771 0 13.587374974042771 9.301355752584417 0 0 0 0 -0.42708965023859236 0.30885666866021461 0 0.30885666866021461 0.019332552594538664 0 0 0 0 -5.9464638355930219 9.6856543589898365 0 9.6856543589898365 31.175213302176864 0 0 0 0 1.4177566001781088 2.8623264578141345 0 2.8623264578141345 14.157690358984269 0 0 0 0 0.065886258558748523 9.4916871408047001 0 9.4916871408047001 2.3328349331581961 0 0 0 0 -5.4143573343972093 1.0017258334460664 0 1.0017258334460664 13.526965175826682 0 0 0 0 -1.3305586492060684 0.5464961955697577 0 0.5464961955697577 2.3189231959289978 0 0 0 0 0.94052795564584812 4.5943163014173818 0 4.5943163014173818 2.7485670721459279 0 0 0 0 2.019958626384323 5.0448621083119676 0 5.0448621083119676 1.2346538204520954 0 0 0 0 -0.99074378889851289 0.13954942495210854 0 0.13954942495210854 -0.0083572008037985281 0 0 0 0 -1.3473645696344647 1.5358694564708222 0 1.5358694564708222 -1.3931444673779358 0 0 0 0 -1.7442586996967293 1.0839684317320137 0 1.0839684317320137 1.6408587427918315 0 0 0 0 -1.3797056578409581 0.15439276205847285 0 0.15439276205847285 0.0013853725461134177 0 0 0 0 -8.4615822867799579 4.3127457311457551 0 4.3127457311457551 16.120503635413016 0 0 0 0 9.5865887627833217 5.3081049483983449 0 5.3081049483983449 -14.041497371668907 0 0 0 0 -0.18509046489293013 0.11499923697608871 0 0.11499923697608871 0.023916151491609319 0 0 0 0 0.85376275159978832 -7.9060819825023643 0 -7.9060819825023643 19.705587441306612 0 0 0 0 -32.11270573314323 4.5744560138155101 0 4.5744560138155101 48.997911704860563 0 0 0 0 8.2490193498360895 14.212434979701918 0 14.212434979701918 11.555838996729001 0 0 0 0 0.38986450364996017 2.3110181879104745 0 2.3110181879104745 2.7979346821533895 0 0 0 0 -19.469839478568247 17.730465591104458 0 17.730465591104458 -3.3847033417628936 0 0 0 0 -12.657582383644694 -11.788705733285042 0 -11.788705733285042 -14.946197413891554 0 0 0 0 -43.052992931747212 -10.479440485710217 0 -10.479440485710217 16.94887576158731 0 0 0 0 -7.4203884124326578 -0.57644106102795689 0 -0.57644106102795689 -23.742360174825066 0 0 0 0 -6.8656951281245711 -7.289478673104675 0 -7.289478673104675 6.662606908983399 0 0 0 0 -6.0659932854400722 -13.795800150421734 0 -13.795800150421734 25.781900021291211 0 0 0 0 8.4288486416025989 -4.4669402362639588 0 -4.4669402362639588 4.2814142994730915 0 0 0 0 -7.9316054359951522 3.0878892863850522 0 3.0878892863850522 18.608664437829404 0 0 0 0 -10.280543850311005 -2.0402810524333397 0 -2.0402810524333397 7.957322577860606 0 0 0 0 -30.843706206815114 8.6088954214009128 0 8.6088954214009128 30.281347693610325 0 0 0 0 -1.6071282015913013 0.041611953540499957 0 0.041611953540499957 0.04314484882235238 0 0 0 0 -1.633797677786788 -0.19663833555726562 0 -0.19663833555726562 -0.85282945661553544 0 0 0 0 -13.571673058409942 9.0225304064977188 0 9.0225304064977188 28.3362267899237 0 0 0 0 -5.3889004971206305 1.5483094737356939 0 1.5483094737356939 -0.012265631503381093 0 0 0 0 -0.25272105586268623 0.070435625132635238 0 0.070435625132635238 0.16719040844491717 0 0 0 0 15.096616643553716 -10.142885379114201 0 -10.142885379114201 15.324269554953949 0 0 0 0 -11.703194878636168 -17.596409210337786 0 -17.596409210337786 16.558070246769873 0 0 0 0 -1.1463522118950635 -0.51013254317391343 0 -0.51013254317391343 -0.072227829747910505 0 0 0 0 -9.8041519275502651 4.3953311119227294 0 4.3953311119227294 -2.5087164118663319 0 0 0 0 6.8880634056695271 -26.866567042171056 0 -26.866567042171056 21.102887143961055 0 0 0 0 -8.3736250410747743 4.6659371206531466 0 4.6659371206531466 -4.1475254475354424 0 0 0 0 -1.1481863758235704 0.044191303888025502 0 0.044191303888025502 -2.8232704453859978 0 0 0 0 -0.05976554127038014 -0.3877827601871302 0 -0.3877827601871302 0.0057277161408984126 0 0 0 0 -9.6789034460398398 4.0060555439818524 0 4.0060555439818524 -1.4178774522113673 0 0 0 0 -15.113054229075715 3.9946385321972517 0 3.9946385321972517 1.1786020150042029 0 0 0 0 -11.405142509931466 5.3395830405890887 0 5.3395830405890887 -2.4473339317980507 0 0 0 0 -11.884079068520805 6.4167043821969241 0 6.4167043821969241 -2.7384627114775721 0 0 0 0 -10.392860466181446 5.7837079452027762 0 5.7837079452027762 -3.3900919896667032 0 0 0 0 -18.163922593177176 7.2525656656478859 0 7.2525656656478859 -1.588688080458553 0 0 0 0 -16.434512772601011 6.7875719276938256 0 6.7875719276938256 -3.7616687501300241 0 0 0 0 -16.345805505057797 10.529969851808596 0 10.529969851808596 -6.9425502817006093 0 0 0 0 -0.74695743181643337 -0.41028146633306761 0 -0.41028146633306761 -0.10143530773596116 0 0 0 0 10.397070441093888 -23.14155437023771 0 -23.14155437023771 24.225811758071991 0 0 0 0 5.4472148676195502 -2.508079809998172 0 -2.508079809998172 7.796611531718824 0 0 0 0 15.001016988515403 -27.809772235237226 0 -27.809772235237226 13.222230054554515 0 0 0 0 -15.89346228235172 -10.221437866832947 0 -10.221437866832947 6.2724764541729456 0 0 0 0 -6.3608756128114337 -1.7373090854990161 0 -1.7373090854990161 -0.62781483543444971 0 0 0 0 1.3327121598858866 -4.7061321804796421 0 -4.7061321804796421 -12.259891056473748 0 0 0 0 -10.204515672916386 1.3895211862169674 0 1.3895211862169674 -2.9378657688136229 0 0 0 0 3.7452947705369297 -7.9183159577193436 0 -7.9183159577193436 -0.40995011185034969 0 0 0 0 -2.0398691293303273 4.7795575408063691 0 4.7795575408063691 -7.6707388442459603 0 0 0 0 -15.152323127173077 4.2537104365713958 0 4.2537104365713958 -5.1214784640099538 0 0 0 0 -42.689161611329837 -0.13019431220469357 0 -0.13019431220469357 -2.0712076565500865 0 0 0 0 -13.13289034790796 -1.290382839087215 0 -1.290382839087215 -2.3590200139179522 0 0 0 0 -5.3457291286476902 3.9873760901097555 0 3.9873760901097555 -9.0765212390593035 0 0 0 0 -9.3187722857730222 -2.4528456878159046 0 -2.4528456878159046 -0.45177254759357754 0 0 0 0 -9.51044983644897 -6.0886992636621358 0 -6.0886992636621358 2.2460201354535698 0 0 0 0 -5.8297073615976842 -5.2114486468374821 0 -5.2114486468374821 -2.4713799176520581 0 0 0 0 -10.71780952309382 -7.3051500078425988 0 -7.3051500078425988 11.138062637253213 0 0 0 0 -11.394507685718054 -16.822822230964562 0 -16.822822230964562 8.0150337837982875 0 0 0 0 -20.081317214566752 -13.779774642511809 0 -13.779774642511809 6.9497835470808127 0 0 0 0 5.495705099299812 -11.484308880750177 0 -11.484308880750177 -3.5172004499623881 0 0 0 0 -7.5198689502994966 -19.817185543202186 0 -19.817185543202186 0.46299044210286411 0 0 0 0 -0.37774836072640028 -1.6902432311283064 0 -1.6902432311283064 -19.624823263716053 0 0 0 0 -4.5616174893930292 -0.29519886121374839 0 -0.29519886121374839 -3.0587661206742069 0 0 0 0 -0.43717373831790596 0.40420386499377159 0 0.40420386499377159 -0.2539721265192374 0 0 0 0 -85.781957835387402 -79.967283575655188 0 -79.967283575655188 -32.44259756794122 0 0 0 0 -58.875878544831721 -27.899377960191146 0 -27.899377960191146 -23.483658392553025 0 0 0 0 -4.5916481657077384 -2.1251897346384965 0 -2.1251897346384965 -2.7484867759074945 0 0 0 0 -1.4373681757478636 0.58556953121505373 0 0.58556953121505373 -1.4995337948090872 0 0 0 0 -5.8150853910777087 -2.7806156815824057 0 -2.7806156815824057 -2.7149467058544303 0 0 0 0 -13.00548965399048 10.000250948164535 0 10.000250948164535 -7.0827667164685835 0 0 0 0 -13.796542671433084 -0.5897692474264149 0 -0.5897692474264149 0.047595040831165725 0 0 0 0 -17.799386516448976 -92.787124551325746 0 -92.787124551325746 178.01655155844492 0 0 0 0 -25.209001528923181 15.957905172838537 0 15.957905172838537 37.532840500308211 0 0 0 0 -18.40437272399236 -0.51596239172488856 0 -0.51596239172488856 0.20495983295441922 0 0 0 0 -12.019920000888987 5.2549467319881558 0 5.2549467319881558 5.0287162809104302 0 0 0 0 -24.316315950507487 36.66369080354815 0 36.66369080354815 24.065567792670095 0 0 0 0 -48.544945671379537 -12.532632712999543 0 -12.532632712999543 133.14115721674034 0 0 0 0 -4.18096937629889 3.5413834921516809 0 3.5413834921516809 -19.753085799259793 0 0 0 0 -17.807420956830128 -62.853525305017357 0 -62.853525305017357 -54.48213311263271 0 0 0 0 -1.7019404104416935 -57.983811591609125 0 -57.983811591609125 -13.00128878751002 0 0 0 0 -2.962276610041954 -19.431328946875738 0 -19.431328946875738 0.39340250706341351 0 0 0 0 -13.131127310102784 -29.197204734240927 0 -29.197204734240927 65.957421711004827 0 0 0 0 -10.22405165339751 -24.766084791403955 0 -24.766084791403955 -0.67948167475469745 0 0 0 0 -8.5010835323938601 -0.47080124646682675 0 -0.47080124646682675 -0.066364853663416712 0 0 0 0 -12.502070512002774 10.843912387083378 0 10.843912387083378 -27.809456883557232 0 0 0 0 -11.286114737287789 9.9243652099690394 0 9.9243652099690394 -8.1029509303104987 0 0 0 0 -10.946925464122614 7.7977538266382567 0 7.7977538266382567 -21.972999906075302 0 0 0 0 -15.94028861237598 17.236795105940914 0 17.236795105940914 -25.99970643462666 0 0 0 0 -15.83933643837554 15.896664712382062 0 15.896664712382062 -13.189994433057194 0 0 0 0 -11.072289279539291 12.451437518555025 0 12.451437518555025 -10.851853499083632 0 0 0 0 -10.936827950609768 12.314614887273024 0 12.314614887273024 -19.407012098550013 0 0 0 0 -7.328954262775369 15.937640290379136 0 15.937640290379136 -16.095788333062387 0 0 0 0 -14.26106339943999 26.19643281273062 0 26.19643281273062 -5.1862271135982212 0 0 0 0 -16.456302394471095 17.760554780925304 0 17.760554780925304 3.0346643128814321 0 0 0 0 -8.4162664400573703 7.9160751211238392 0 7.9160751211238392 -21.82063719011677 0 0 0 0 -7.3124884177235572 15.490611153495824 0 15.490611153495824 -26.132075506663114 0 0 0 0 -12.553802965687964 -8.3755042361061314 0 -8.3755042361061314 -15.876158486363124 0 0 0 0 -12.069464401333335 13.860737068971332 0 13.860737068971332 -27.035473436034067 0 0 0 0 -9.8229394319878338 8.5569148817323253 0 8.5569148817323253 -11.946106784733615 0 0 0 0 -12.835209164237313 4.6822768115622324 0 4.6822768115622324 -14.024561560053641 0 0 0 0 -0.27335817653584371 -0.016884101010603558 0 -0.016884101010603558 0.31821701969029748 0 0 0 0 -15.53493946605613 2.6028348336826355 0 2.6028348336826355 -0.44078896349233787 0 0 0 0 -13.372068314656644 4.8943296276693999 0 4.8943296276693999 -0.12368198473227388 0 0 0 0 -6.3734394047179421 1.4223109300363497 0 1.4223109300363497 0.90337731149254807 0 0 0 0 -15.41792644646489 1.2963686066761575 0 1.2963686066761575 3.3724971038427185 0 0 0 0 -15.05432585433482 0.6116124102197773 0 0.6116124102197773 3.3336473118428369 0 0 0 0 -14.045609008037445 0.26292364310678806 0 0.26292364310678806 0.76826814799039767 0 0 0 0 -12.377058682208371 2.2954159298696482 0 2.2954159298696482 1.0676555806268411 0 0 0 0 -6.4574645588054409 -1.3859323944894868 0 -1.3859323944894868 0.16650453712156832 0 0 0 0 -15.390553795074993 0.098895967443411337 0 0.098895967443411337 4.0717924011787829 0 0 0 0 -15.559474713583768 3.2482785537283405 0 3.2482785537283405 -1.4333047727687926 0 0 0 0 -17.074324548627374 1.9167938016470885 0 1.9167938016470885 6.6853086077690875 0 0 0 0 -14.11333870191902 -4.5980241344117383 0 -4.5980241344117383 12.327596655896979 0 0 0 0 -12.727825622670935 -0.61435143546789561 0 -0.61435143546789561 3.777826571563601 0 0 0 0 -14.333499780067541 1.6355179199446752 0 1.6355179199446752 2.7409549224797161 0 0 0 0 -14.127719110133057 5.9327566951749446 0 5.9327566951749446 -0.39939476313071509 0 0 0 0 -16.21763318788544 11.23618067980081 0 11.23618067980081 -11.119329720205513 0 0 0 0 -20.797003292240333 7.8083985206716164 0 7.8083985206716164 3.7021556222211416 0 0 0 0 -18.186395893646477 6.3298699645647218 0 6.3298699645647218 0.030164425416799645 0 0 0 0 -24.983660457103952 4.9311370864755091 0 4.9311370864755091 9.8009246488558688 0 0 0 0 -19.61310324158876 -6.5392073768392152 0 -6.5392073768392152 7.2770964272986021 0 0 0 0 -19.518545047154475 -6.9321856093487355 0 -6.9321856093487355 7.6969169910697701 0 0 0 0 -13.197893768670838 -0.41518867370808721 0 -0.41518867370808721 13.833688805929683 0 0 0 0 -15.868991668234685 -11.17043389776947 0 -11.17043389776947 23.808321686686895 0 0 0 0 -10.07232465170091 -4.1538592316873153 0 -4.1538592316873153 9.787237484555277 0 0 0 0 -16.111252703457922 1.7375444074703519 0 1.7375444074703519 9.5646449664589337 0 0 0 0 -14.923011158496138 8.279091485008621 0 8.279091485008621 -19.67292312263686 0 0 0 0 -11.587226111102058 -1.9787081955069707 0 -1.9787081955069707 2.2317517475590205 0 0 0 0 -13.471364774387212 6.4185970392870644 0 6.4185970392870644 -18.66233656327438 0 0 0 0 -11.976271473541207 -1.9323115181733765 0 -1.9323115181733765 2.2724818039763859 0 0 0 0 -18.773568732448894 14.370365774606455 0 14.370365774606455 -20.31799259052724 0 0 0 0 -8.3283194921550603 2.5884078981963512 0 2.5884078981963512 -18.557770118599137 0 0 0 0 -9.9498788195405723 2.6969844103742275 0 2.6969844103742275 -18.524410682535091 0 0 0 0 -13.988555531082056 3.419135478715134 0 3.419135478715134 -11.879665138944119 0 0 0 0 -12.983545925193994 4.5719096663475511 0 4.5719096663475511 -15.434812438377094 0 0 0 0 -13.865743914239374 4.2376748374841213 0 4.2376748374841213 -13.529846861668375 0 0 0 0 -12.638933433448983 2.9365471203564084 0 2.9365471203564084 -14.486486139312206 0 0 0 0 -11.222093114864947 0.31747357110748453 0 0.31747357110748453 -10.443477900244488 0 0 0 0 -13.542357300895674 3.6519072656748222 0 3.6519072656748222 -11.921387878939044 0 0 0 0 -14.197353816612576 2.8457225232506289 0 2.8457225232506289 -10.770757978687698 0 0 0 0 -11.699684812364712 -1.3418046535351333 0 -1.3418046535351333 1.8956419067388088 0 0 0 0 -3.8354894456563215 -22.550246935510813 0 -22.550246935510813 -2.327516781779309 0 0 0 0 -11.593833368253399 -9.0410893191236141 0 -9.0410893191236141 24.712426625551871 0 0 0 0 -0.19953959983097036 -1.0095028206530803 0 -1.0095028206530803 0.39995051891514255 0 0 0 0 -22.171967658510766 -21.875966099852462 0 -21.875966099852462 12.988908831243748 0 0 0 0 0.088899123984447215 -4.417969040167236 0 -4.417969040167236 5.9124209645898418 0 0 0 0 0.1159090649925929 -5.2685914658521353 0 -5.2685914658521353 -1.0922503831735639 0 0 0 0 3.9010522000862693 -10.256683744551594 0 -10.256683744551594 -11.467052933623563 0 0 0 0 -0.27254060570339789 -13.875027111968734 0 -13.875027111968734 1.6134813134577826 0 0 0 0 32.025493246414044 -7.2297499122897761 0 -7.2297499122897761 -11.576738157388149 0 0 0 0 11.210763860854058 1.1947741010860398 0 1.1947741010860398 -2.9638505582524886 0 0 0 0 10.300405894688993 -32.931650544903789 0 -32.931650544903789 -24.572139552523822 0 0 0 0 97.809118594952452 -24.966716158462987 0 -24.966716158462987 -24.001901307392671 0 0 0 0 -5.6949562841364241 -89.069998037236701 0 -89.069998037236701 1.9696612583900333 0 0 0 0 -80.454711778920682 -19.674147207996384 0 -19.674147207996384 13.333430741886843 0 0 0 0 -14.767150658028186 -20.497364439531907 0 -20.497364439531907 1.985851646358924 0 0 0 0 -1.5997004894229576 -15.919456867313556 0 -15.919456867313556 3.577061559107392 0 0 0 0 -24.961790254609696 -29.127243893763023 0 -29.127243893763023 7.0717111902590659 0 0 0 0 -30.518564579307167 9.6826356574228214 0 9.6826356574228214 -1.7585755704456005 0 0 0 0 -49.871156299239374 -1.8363378730600743 0 -1.8363378730600743 11.881829714183084 0 0 0 0 -35.674434388108239 15.982163899103625 0 15.982163899103625 -2.0369011223772873 0 0 0 0 -16.109666485090202 11.56731109341149 0 11.56731109341149 -22.493276043517881 0 0 0 0 -89.000062861299739 31.255756334238413 0 31.255756334238413 -6.1387897527717996 0 0 0 0 -60.712010458167697 -8.6707743992856194 0 -8.6707743992856194 1.7193786841553447 0 0 0 0 -216.05938015870015 35.233419249733629 0 35.233419249733629 -0.65253205980808104 0 0 0 0 -2.9007080322735206 -0.2330359550759562 0 -0.2330359550759562 -0.14006176472185417 0 0 0 0 -73.966831148410165 79.338930426179218 0 79.338930426179218 -107.55820025093635 0 0 0 0 -15.570502268505152 26.334484531918292 0 26.334484531918292 -60.905382780720629 0 0 0 0 -22.141456468604702 -22.271186946333046 0 -22.271186946333046 5.7494517254142465 0 0 0 0 -21.495358704750288 -15.329912172363038 0 -15.329912172363038 10.197964203734159 0 0 0 0 -68.438917492332621 -80.326837094967345 0 -80.326837094967345 -71.596564146012383 0 0 0 0 -149.82013048131012 42.682225346259202 0 42.682225346259202 85.060745037498407 0 0 0 0 125.88142376271389 86.224904387968763 0 86.224904387968763 -176.45917311253652 0 0 0 0 125.46916727596181 101.45125461140674 0 101.45125461140674 -46.149188344973936 0 0 0 0 -7.081292123766616 0.19273891958118838 0 0.19273891958118838 -4.3017731406364206 0 0 0 0 -4.5093087590459895 4.0252606619834044 0 4.0252606619834044 -1.9567254638332998 0 0 0 0 25.895530902007977 41.383435770826452 0 41.383435770826452 9.703493300079117 0 0 0 0 -1.3288492166468302 1.518893076063959 0 1.518893076063959 -0.42759652576144536 0 0 0 0 155.82541046985352 -69.9497171746508 0 -69.9497171746508 32.899288137185067 0 0 0 0 50.31389360414687 22.277542466927116 0 22.277542466927116 21.23762146032027 0 0 0 0 -88.854448158251216 -116.41023242248014 0 -116.41023242248014 -109.97357811101551 0 0 0 0 -7.3874289601353667 3.7067000746855605 0 3.7067000746855605 -4.507906229107741 0 0 0 0 -4.7409911985050712 2.7777141872827755 0 2.7777141872827755 -4.7287419021837831 0 0 0 0 -3.1863277659467713 3.4304133035278976 0 3.4304133035278976 -5.1586771156275155 0 0 0 0 -4.5863249255762639 3.3135833416656908 0 3.3135833416656908 -5.0508907912710761 0 0 0 0 -2.0568766415164816 -0.23404598791776365 0 -0.23404598791776365 -1.3420411518671049 0 0 0 0 -6.6886276397265192 2.1227665090446983 0 2.1227665090446983 -5.9455396630520454 0 0 0 0 -0.6788287178499921 -0.68967004260713338 0 -0.68967004260713338 -0.48296816891498046 0 0 0 0 -7.1992897260206519 4.9524321964214835 0 4.9524321964214835 -6.351739974133686 0 0 0 0 -7.3129498574180616 4.5928758579273392 0 4.5928758579273392 -6.2510428604417001 0 0 0 0 -8.3589174012540752 6.8759899632131631 0 6.8759899632131631 -9.7502782981854779 0 0 0 0 -16.786657956688941 9.0643661325796216 0 9.0643661325796216 -4.0752198546916816 0 0 0 0 -10.965044783890335 4.9905152228727836 0 4.9905152228727836 -2.4037489052607945 0 0 0 0 -17.17008601973248 2.0565330659159118 0 2.0565330659159118 4.0463618520621196 0 0 0 0 -13.630999683302434 4.9552223848089287 0 4.9552223848089287 -1.777299414756115 0 0 0 0 -10.762329906310697 4.459978441760267 0 4.459978441760267 -2.7660220887037994 0 0 0 0 -10.791623782830357 3.1573767554623173 0 3.1573767554623173 -0.63982960308974768 0 0 0 0 -10.186243797304996 3.8199267592354791 0 3.8199267592354791 -2.8998567040885277 0 0 0 0 -8.252489399179467 2.5897692238310634 0 2.5897692238310634 -2.514625413481804 0 0 0 0 -7.2026343815196725 -0.97772104550187855 0 -0.97772104550187855 1.4215066158704799 0 0 0 0 -9.6706936056434643 1.6378918287593471 0 1.6378918287593471 -1.3714001790344312 0 0 0 0 -9.2824861888657324 2.5707189717570396 0 2.5707189717570396 -2.4438600890210509 0 0 0 0 -4.7507972426701599 -0.84409120948370742 0 -0.84409120948370742 -0.8722780332332718 0 0 0 0 -10.492183915402165 -0.95123150736567563 0 -0.95123150736567563 2.8927864445536002 0 0 0 0 -2.7125995285005886 0.5276189180628208 0 0.5276189180628208 -0.062374989887560968 0 0 0 0 -12.990980391488847 2.0830932552989196 0 2.0830932552989196 -1.1645613234433334 0 0 0 0 -2.045850584593766 0.23439542871668984 0 0.23439542871668984 -1.9096365735186969 0 0 0 0 -3.4968505126612399 -0.60355161977791028 0 -0.60355161977791028 -3.8755000334562624 0 0 0 0 -4.1287723700488641 0.29501337820390461 0 0.29501337820390461 -1.600987045820375 0 0 0 0 -8.9060945874362005 2.207473793961185 0 2.207473793961185 -3.9363409795337816 0 0 0 0 -8.8342072744198958 0.95779479233931397 0 0.95779479233931397 -2.365474826478362 0 0 0 0 -10.426913912391569 2.219442561713997 0 2.219442561713997 -3.3643164235787708 0 0 0 0 -7.3348824307595351 2.1672653839009941 0 2.1672653839009941 -3.2953943582338514 0 0 0 0 -7.075700027092374 -1.049905538003804 0 -1.049905538003804 1.4725597932162302 0 0 0 0 -4.5146101506416016 1.5076573171200121 0 1.5076573171200121 -3.2583584968557844 0 0 0 0 -7.1141832190994592 2.8484139745922867 0 2.8484139745922867 -2.9612235744286473 0 0 0 0 -2.5898895353401912 2.9108558883444005 0 2.9108558883444005 -3.6657645075916832 0 0 0 0 8.422833350039582 9.2792199822068824 0 9.2792199822068824 -4.1383480602390108 0 0 0 0 -1.5812845012842445 2.2603825177433237 0 2.2603825177433237 -2.9886556788820826 0 0 0 0 -2.8701953757595646 2.3841303930357824 0 2.3841303930357824 -2.8730100706376183 0 0 0 0 -2.5239860693764058 -0.55150491898740484 0 -0.55150491898740484 -1.4110715489457561 0 0 0 0 4.8837945176901485 -5.409216883168142 0 -5.409216883168142 -1.63649169274413 0 0 0 0 -7.2780638965796243 1.396564737354538 0 1.396564737354538 2.2391400733368414 0 0 0 0 -8.4633632288064007 1.0643995625024671 0 1.0643995625024671 0.36422404521307594 0 0 0 0 -4.6650970479506384 -0.22532486284277553 0 -0.22532486284277553 -0.50304866534844606 0 0 0 0 -4.399328232001178 0.037891219685581845 0 0.037891219685581845 0.15121464942979035 0 0 0 0 -10.048453474155394 0.96775836725726094 0 0.96775836725726094 2.7811259340722927 0 0 0 0 -8.3282749592615346 -0.45690183362513892 0 -0.45690183362513892 0.4728754710274643 0 0 0 0 -7.6713152290149083 4.0038635518645265 0 4.0038635518645265 -1.9970350478781711 0 0 0 0 -8.1630554241583013 0.19580378163885825 0 0.19580378163885825 -2.1172109625731537 0 0 0 0 -6.4979214186359968 -0.57502692413157774 0 -0.57502692413157774 -10.751591025638959 0 0 0 0 -11.725186886893425 -0.96480711091521698 0 -0.96480711091521698 -4.9402826146200596 0 0 0 0 -8.1196752123419174 -2.155884656643309 0 -2.155884656643309 -16.579381624321627 0 0 0 0 -10.708196852163383 -8.8831545733740995 0 -8.8831545733740995 -19.182867451927336 0 0 0 0 -8.2838068807386662 -3.3484180402610946 0 -3.3484180402610946 -9.7185809889545851 0 0 0 0 -2.2565887466453205 -5.8001038720364875 0 -5.8001038720364875 -20.400977647429869 0 0 0 0 1.247363650846637 -0.95056432315121242 0 -0.95056432315121242 -21.628856922285038 0 0 0 0 -7.0217369783413233 0.67221640613590239 0 0.67221640613590239 -19.115333243751365 0 0 0 0 -12.959988292222988 7.3220396362903557 0 7.3220396362903557 -26.100825498107724 0 0 0 0 0.076925384530889707 -0.42988397392189093 0 -0.42988397392189093 -0.32484944611415423 0 0 0 0 -6.5591179185403234 -15.621830273044282 0 -15.621830273044282 -42.784074606858042 0 0 0 0 -26.104074207024496 -17.431914734690167 0 -17.431914734690167 -15.200186513943066 0 0 0 0 -14.617179954285348 -2.3106876735136979 0 -2.3106876735136979 -0.36474739174593651 0 0 0 0 -6.5423126155192222 1.764451070826226 0 1.764451070826226 -5.4482304303127194 0 0 0 0 -18.789441600124519 -0.68365672866366367 0 -0.68365672866366367 2.3179621150907224 0 0 0 0 -9.4384139065414274 3.042657704691635 0 3.042657704691635 3.5729024516740537 0 0 0 0 -8.1263820820458932 0.81477317741610022 0 0.81477317741610022 -0.66110786348212969 0 0 0 0 -5.5016869843028928 2.2931654053305346 0 2.2931654053305346 -1.1899784415303212 0 0 0 0 -10.888513951398636 1.7583690969333929 0 1.7583690969333929 2.6129204711241982 0 0 0 0 -1.4208334743291364 0.018192354633661978 0 0.018192354633661978 -1.0187354104779183 0 0 0 0 -6.612512542125387 2.2429637866447933 0 2.2429637866447933 -2.8440876402928552 0 0 0 0 -6.0543293789254449 0.5210617465250158 0 0.5210617465250158 -0.80732172749016173 0 0 0 0 -9.1180747757898644 3.2811453559279471 0 3.2811453559279471 2.6335285939860569 0 0 0 0 -9.9168787350515686 1.7587379002258103 0 1.7587379002258103 -2.3571943316401303 0 0 0 0 -6.7201851492757747 2.1724258236337359 0 2.1724258236337359 -0.6101425400477718 0 0 0 0 -0.53302879668045122 -1.2036964955414025 0 -1.2036964955414025 0.63066350488342282 0 0 0 0 -8.729389741470186 1.7363348958077154 0 1.7363348958077154 -1.6082438018313496 0 0 0 0 -9.5923730348094978 1.9519853126556654 0 1.9519853126556654 1.2648920253520828 0 0 0 0 -9.6705422772229213 2.4119900259440783 0 2.4119900259440783 -1.4263405483995655 0 0 0 0 -9.733310418518613 -0.21134183862784539 0 -0.21134183862784539 -0.24578068319078739 0 0 0 0 -4.8361399681743933 2.6155862275919421 0 2.6155862275919421 -4.2581361514291416 0 0 0 0 -5.1348409771853767 3.3217596675391405 0 3.3217596675391405 -2.9447649898917092 0 0 0 0 -1.4479641134504888 0.40018133923075538 0 0.40018133923075538 -1.948168447417941 0 0 0 0 -5.0462254499743722 0.31726456434324746 0 0.31726456434324746 -7.7808891380802834 0 0 0 0 -7.1106437111848209 4.9857755882090515 0 4.9857755882090515 -5.1743630650302634 0 0 0 0 -4.6501535809093184 2.0329908305642448 0 2.0329908305642448 -2.5306383802108741 0 0 0 0 -8.7168750460368756 8.0645709744630096 0 8.0645709744630096 -12.805610619729691 0 0 0 0 -0.11185366904172334 -0.10078303606578309 0 -0.10078303606578309 -0.1350719901825177 0 0 0 0 -8.3668943888069407 1.6603572107051292 0 1.6603572107051292 -1.0677255003905657 0 0 0 0 -3.6803185665018461 1.1225545503186309 0 1.1225545503186309 -0.72029273914338265 0 0 0 0 25.749080253479406 12.275088997865693 0 12.275088997865693 -23.42940220904768 0 0 0 0 -1.4079704274749734 0.47022267128288142 0 0.47022267128288142 -0.56724706847583517 0 0 0 0 -5.3856916749537049 1.6306458724803434 0 1.6306458724803434 -1.449621925267337 0 0 0 0 -4.7957330843653594 2.0611348248407522 0 2.0611348248407522 -0.9606039047031244 0 0 0 0 -5.4883823661557471 3.9105332222686684 0 3.9105332222686684 -1.6443131042738628 0 0 0 0 -7.2545268336489244 2.8547042060378516 0 2.8547042060378516 -0.30849715831487856 0 0 0 0 -5.6868852630168476 2.6434110556698442 0 2.6434110556698442 0.66449541725978634 0 0 0 0 1.3881851619044028 6.1430428313978496 0 6.1430428313978496 -1.7246909387671963 0 0 0 0 -0.8949142955404108 0.030159884610402088 0 0.030159884610402088 -1.8282810498001432 0 0 0 0 -43.39237173883339 37.274305263679139 0 37.274305263679139 5.739534745064077 0 0 0 0 -9.8269735068888622 1.5418691377715668 0 1.5418691377715668 -70.528268783262831 0 0 0 0 -96.586749112497273 56.192386849593568 0 56.192386849593568 13.754368498069653 0 0 0 0 -74.902911582297065 63.64825206582978 0 63.64825206582978 -83.827844760860344 0 0 0 0 6.0489642965731036 -14.18290274398845 0 -14.18290274398845 -29.745262201640386 0 0 0 0 -0.035370188118700518 -0.18802457183579691 0 -0.18802457183579691 -0.69849837712539931 0 0 0 0 -111.76261268509143 95.184678971304919 0 95.184678971304919 -85.757288677678417 0 0 0 0 -13.762326738477213 10.681668998119804 0 10.681668998119804 5.7656486360842791 0 0 0 0 -294.07300315545854 86.580433304038678 0 86.580433304038678 -12.308753388008167 0 0 0 0 -243.68534540157725 13.974244269895097 0 13.974244269895097 -71.448155931787113 0 0 0 0 -98.914317396763181 120.887941300828 0 120.887941300828 -126.01266468747497 0 0 0 0 -43.992550490347639 6.9654254681486236 0 6.9654254681486236 -67.528562900864046 0 0 0 0 -194.36976417767528 244.81254733707391 0 244.81254733707391 -209.14109690232181 0 0 0 0 -517.54479837883264 87.070055403384629 0 87.070055403384629 -6.9891013910428423 0 0 0 0 -500.05423298815094 108.96519177166138 0 108.96519177166138 -189.58932582934801 0 0 0 0 -527.8167085587047 159.15940700149093 0 159.15940700149093 -22.511788533208001 0 0 0 0 -466.24928922142681 55.361210506924785 0 55.361210506924785 33.086112348678974 0 0 0 0 7.4862651995736087 0.92184052425151819 0 0.92184052425151819 -106.1805294247373 0 0 0 0 -268.6179362021694 -102.75413503442206 0 -102.75413503442206 21.157141779415845 0 0 0 0 3.6101360419052071 21.022639021261231 0 21.022639021261231 8.4752395555494466 0 0 0 0 -1.663852653619724 0.51085881088472807 0 0.51085881088472807 -0.21064134235941384 0 0 0 0 -16.565567665425988 -38.607825027253725 0 -38.607825027253725 -6.6442082327519074 0 0 0 0 -26.190309353922203 -24.330740485029267 0 -24.330740485029267 -7.349423894131121 0 0 0 0 -74.390115361957214 -55.600540292225887 0 -55.600540292225887 -14.517807301015068 0 0 0 0 -500.28388114080099 121.48526757381498 0 121.48526757381498 -91.75574296517226 0 0 0 0 43.983878040844502 40.110848418256779 0 40.110848418256779 -21.325920798383208 0 0 0 0 -0.93475427430938041 0.79041675517522414 0 0.79041675517522414 -0.38928980026674609 0 0 0 0 -147.97342155301067 102.54465185894264 0 102.54465185894264 -28.306554240920285 0 0 0 0 -640.13449997207772 -110.43219651822002 0 -110.43219651822002 -46.05974918000625 0 0 0 0 -467.85938330882345 -145.45647771665298 0 -145.45647771665298 -48.834860401382045 0 0 0 0 -1.8555090769007929 2.3103676230025112 0 2.3103676230025112 -0.89711651824462291 0 0 0 0 -446.47275349755091 -106.80831745083877 0 -106.80831745083877 -24.534629414882549 0 0 0 0 -474.00242507667281 -103.65049214724235 0 -103.65049214724235 -2.6822413693098692 0 0 0 0 -499.91440591595619 -123.62301712280653 0 -123.62301712280653 -10.015467972255824 0 0 0 0 4.699727910450747 18.484083807741314 0 18.484083807741314 7.0352387915702366 0 0 0 0 -10.163674820470078 1.7965868065795547 0 1.7965868065795547 2.7822480069698372 0 0 0 0 -18.744734032302404 4.8294864160309317 0 4.8294864160309317 -3.7354543805312801 0 0 0 0 -24.404349314945648 8.9750381161340442 0 8.9750381161340442 28.61052966998426 0 0 0 0 -24.390313456768126 -15.966334643017589 0 -15.966334643017589 11.771434392366814 0 0 0 0 -19.254055982895807 -21.631087759296413 0 -21.631087759296413 -13.536957857161099 0 0 0 0 -18.012995712681004 -13.634626059732085 0 -13.634626059732085 -11.913051675844343 0 0 0 0 -30.147905918203833 -3.3725282818215163 0 -3.3725282818215163 8.4858900320463704 0 0 0 0 -6.9875680513068801 -4.2846938492578772 0 -4.2846938492578772 -24.10483674432831 0 0 0 0 -4.3450340828208027 1.3198025874250874 0 1.3198025874250874 -6.4538860847250703 0 0 0 0 -5.8460355671713842 0.72082114269250397 0 0.72082114269250397 -7.8337671148522077 0 0 0 0 -5.9268427256811265 -3.5644435002166688 0 -3.5644435002166688 -10.776302931691959 0 0 0 0 -5.8757286540785572 -2.8069406988467733 0 -2.8069406988467733 -2.8772909035222085 0 0 0 0 -7.1624386175290056 -3.4344420661269908 0 -3.4344420661269908 -0.33218919312466255 0 0 0 0 -7.2008196431837952 -1.6999958616088513 0 -1.6999958616088513 0.43386701773269054 0 0 0 0 -8.3124849187443033 -5.5321409473409346 0 -5.5321409473409346 1.1815377509084684 0 0 0 0 -14.08983431800516 -7.0944819941055357 0 -7.0944819941055357 -1.4540356465715831 0 0 0 0 -13.939471841363229 0.37308843771283762 0 0.37308843771283762 3.1935875927472921 0 0 0 0 -11.343378145033057 2.9715571214394458 0 2.9715571214394458 3.7749078802345792 0 0 0 0 -7.2649315035350774 -1.5738069079561523 0 -1.5738069079561523 0.55810230369213121 0 0 0 0 -10.862247739008126 1.0269414290581835 0 1.0269414290581835 2.7938377523672528 0 0 0 0 -17.440371018768587 -1.2903454050810776 0 -1.2903454050810776 -7.6019908935376037 0 0 0 0 -8.6086992910040863 5.8169594323001519 0 5.8169594323001519 -2.4029311476064521 0 0 0 0 -11.754022597035828 -10.709045869604637 0 -10.709045869604637 2.1325201009012034 0 0 0 0 -111.62125642493629 -40.88719179343866 0 -40.88719179343866 -17.168750417328056 0 0 0 0 -277.24870751878916 -45.865421416675929 0 -45.865421416675929 50.511939997121075 0 0 0 0 -0.65719615407462584 0.46787480260914371 0 0.46787480260914371 0.3144889475706612 0 0 0 0 -358.16182226286037 -32.826919137520179 0 -32.826919137520179 65.076750358269692 0 0 0 0 -219.43093735729053 -35.387311715066659 0 -35.387311715066659 -59.443586966071649 0 0 0 0 -311.22471704553436 28.902451441357371 0 28.902451441357371 65.077144210631985 0 0 0 0 -407.9813681775413 30.411710090002448 0 30.411710090002448 67.84060949621923 0 0 0 0 -371.29647950711114 -56.278602860636752 0 -56.278602860636752 23.779153634626041 0 0 0 0 -345.91589244733404 -35.435508530423618 0 -35.435508530423618 6.4370627006135379 0 0 0 0 -500.17811409880323 -34.480178044612401 0 -34.480178044612401 71.042015767749049 0 0 0 0 -398.15604927571803 -79.109468223417991 0 -79.109468223417991 -1.2719306970233413 0 0 0 0 -346.80414016267241 -47.383425281306245 0 -47.383425281306245 6.848468363843466 0 0 0 0 -9.9321992394570771 2.3389686026131358 0 2.3389686026131358 2.5609116014096998 0 0 0 0 -2.9266535680713837 3.3322801710484597 0 3.3322801710484597 -1.2872962838645063 0 0 0 0 -13.68146423952021 -30.15404569882233 0 -30.15404569882233 52.124435278020144 0 0 0 0 -17.103350480138943 11.692866082394175 0 11.692866082394175 16.179127331079542 0 0 0 0 -3.2484761591156364 -2.6795701464322441 0 -2.6795701464322441 -1.0425998855597252 0 0 0 0 -172.07501545694595 94.567815291555021 0 94.567815291555021 -58.24994824646955 0 0 0 0 0.035580567550374198 -1.8238050570163222 0 -1.8238050570163222 0.012391976973710953 0 0 0 0 -499.87462245978213 243.20937738747224 0 243.20937738747224 -79.68079090094858 0 0 0 0 -268.16028212145375 90.122192641904221 0 90.122192641904221 7.5147444529196212 0 0 0 0 -254.02699850718091 47.511156066777801 0 47.511156066777801 13.493719533084892 0 0 0 0 -498.76806573456133 18.75406261126815 0 18.75406261126815 92.881731029448687 0 0 0 0 -308.73145224926748 -72.995500938838532 0 -72.995500938838532 4.407503860737175 0 0 0 0 -92.023053712339333 -5.937780522293223 0 -5.937780522293223 -49.754045515538536 0 0 0 0 -309.5958110378424 61.404805722857859 0 61.404805722857859 17.138319077492788 0 0 0 0 -319.37370179630307 105.42124408196412 0 105.42124408196412 9.5090245066329615 0 0 0 0 -74.025266674673276 72.963432740429326 0 72.963432740429326 -34.353395083009048 0 0 0 0 -64.930339339140573 22.751172046033989 0 22.751172046033989 -16.837066610593112 0 0 0 0 -1.1887291332259338 -5.0763361799179734 0 -5.0763361799179734 3.088080597981377 0 0 0 0 -3.8260153835612147 -1.1990716363950771 0 -1.1990716363950771 1.4293680756165887 0 0 0 0 -1.1991622040522998 -0.70480753469783508 0 -0.70480753469783508 2.3160503119938198 0 0 0 0 -2.7319937567410761 -2.7192999580735702 0 -2.7192999580735702 -0.18307210345125213 0 0 0 0 118.65216863394016 -64.572060631742488 0 -64.572060631742488 35.997623021852633 0 0 0 0 189.65779675075009 -11.055601916059288 0 -11.055601916059288 -19.311383904272589 0 0 0 0 51.687379473860346 -80.598208252762049 0 -80.598208252762049 54.311425152586821 0 0 0 0 -11.09951621698383 1.0953808683948409 0 1.0953808683948409 10.54417229288714 0 0 0 0 -0.46767094020185951 0.1375603452117371 0 0.1375603452117371 0.32539039227490596 0 0 0 0 -6.7516733404017941 3.1947528478322056 0 3.1947528478322056 11.398534428012795 0 0 0 0 -1.1680757764084539 0.76557620918208791 0 0.76557620918208791 3.5208951398665951 0 0 0 0 -4.218142787488091 -1.5648511283308477 0 -1.5648511283308477 0.91336347395505335 0 0 0 0 -5.9809728624823038 -3.9304507991616902 0 -3.9304507991616902 1.9764395939204462 0 0 0 0 -1.8442367241100328 -2.4718943522706152 0 -2.4718943522706152 -0.28921098771587372 0 0 0 0 -12.690101775437142 3.1201256497915324 0 3.1201256497915324 28.659706441432633 0 0 0 0 4.1782976358972519 2.425707676721828 0 2.425707676721828 5.7919297806456029 0 0 0 0 4.0617492525975649 2.6553310171189324 0 2.6553310171189324 10.062859559371532 0 0 0 0 -6.3303503125316638 7.7521533027030074 0 7.7521533027030074 7.928592130420796 0 0 0 0 11.362984755822254 19.971514991260022 0 19.971514991260022 15.177013609482884 0 0 0 0 -20.102180312095243 9.1118855613364111 0 9.1118855613364111 22.598140767033243 0 0 0 0 -16.417922006288791 -4.7489664748082348 0 -4.7489664748082348 27.602272528608307 0 0 0 0 0.33116799841078937 0.36984921797856352 0 0.36984921797856352 1.0135160309175466 0 0 0 0 68.368999082027585 -193.14673263202206 0 -193.14673263202206 146.71837134588304 0 0 0 0 15.316776918370124 24.030557635500273 0 24.030557635500273 17.949115822601698 0 0 0 0 0.15210554109944496 -80.889723634741699 0 -80.889723634741699 87.532358118395706 0 0 0 0 11.154978528414475 2.6120044934278672 0 2.6120044934278672 -4.7567849128786293 0 0 0 0 -22.522413174521716 -55.744424295681341 0 -55.744424295681341 89.972911463912112 0 0 0 0 -51.631078191887354 -74.158563692104536 0 -74.158563692104536 135.89187299904899 0 0 0 0 131.56620426217523 -137.34662077875805 0 -137.34662077875805 102.94555601300672 0 0 0 0 -27.907155923189521 -75.846324450571117 0 -75.846324450571117 13.490694352408724 0 0 0 0 -28.843126993546321 -77.723344084595553 0 -77.723344084595553 131.39524765319871 0 0 0 0 -7.1016423340720394 30.693072254574567 0 30.693072254574567 96.171931681826919 0 0 0 0 -180.85859767774127 -129.64370991634229 0 -129.64370991634229 20.34716529010813 0 0 0 0 -144.00441760003787 -39.87814377954016 0 -39.87814377954016 77.477820801246452 0 0 0 0 -156.20610972939085 -74.317832982246671 0 -74.317832982246671 38.843205012892057 0 0 0 0 -43.093520079444261 -53.133191625383667 0 -53.133191625383667 -90.600455130766903 0 0 0 0 -53.13720050007214 -9.4100710052195211 0 -9.4100710052195211 21.96074084281156 0 0 0 0 -4.9847475775138719 4.6510659532477092 0 4.6510659532477092 0.33229034689503578 0 0 0 0 -1.4263076053858548 -0.73934307767891827 0 -0.73934307767891827 -0.83159380435695052 0 0 0 0 -41.017084669220822 8.6348746630276381 0 8.6348746630276381 18.106830741133656 0 0 0 0 26.188937942653865 -127.99492026879808 0 -127.99492026879808 -198.05537616276359 0 0 0 0 -228.45155026636257 -274.80403203131289 0 -274.80403203131289 -129.48514943527735 0 0 0 0 -499.12998818447988 -194.89100137324814 0 -194.89100137324814 86.068271665739147 0 0 0 0 -262.85793506868004 -65.882024985971199 0 -65.882024985971199 130.44539312557004 0 0 0 0 -500.16677097070669 -45.393960185556018 0 -45.393960185556018 150.47041707614386 0 0 0 0 -116.78749655830558 -92.784913148499484 0 -92.784913148499484 94.840496576011788 0 0 0 0 -148.51374724316565 54.963507894092174 0 54.963507894092174 68.580076665092008 0 0 0 0 -499.03722550735438 165.28578972562059 0 165.28578972562059 34.420640646773897 0 0 0 0 -178.51456949941894 -148.69363762820879 0 -148.69363762820879 15.79971505402262 0 0 0 0 -1.8462524447432855 -0.4821679343233356 0 -0.4821679343233356 -0.010402631135343156 0 0 0 0 -38.554494501924637 41.29098345787687 0 41.29098345787687 -68.097446394183606 0 0 0 0 -498.9846926666205 -13.828745296283955 0 -13.828745296283955 47.134769511885544 0 0 0 0 -67.771572882166765 84.450547503180175 0 84.450547503180175 -129.86965512081503 0 0 0 0 -69.944788659522601 74.398276378514041 0 74.398276378514041 -88.853955487568513 0 0 0 0 -72.332122611888053 95.847844353034247 0 95.847844353034247 -38.090216928576339 0 0 0 0 -125.26351242927103 65.731707818980851 0 65.731707818980851 -34.70110236736862 0 0 0 0 -110.35240783864083 56.74502181662546 0 56.74502181662546 -35.709979041850268 0 0 0 0 -109.71128017212595 72.107586019489986 0 72.107586019489986 -76.361382975366951 0 0 0 0 -76.481324095477248 73.822831095789809 0 73.822831095789809 -38.435364197997941 0 0 0 0 -68.920881478689807 10.544290382840188 0 10.544290382840188 22.813934131932278 0 0 0 0 -2.8797350899112644 -1.0918954465917921 0 -1.0918954465917921 0.018030893273281973 0 0 0 0 -1.3761514828911459 -36.610773567411243 0 -36.610773567411243 45.648027643388161 0 0 0 0 76.594576676065117 -97.622974750125309 0 -97.622974750125309 33.813881107957826 0 0 0 0 92.172473356743467 -46.148671390584582 0 -46.148671390584582 57.049806414582662 0 0 0 0 -126.41437907441923 90.358935498436963 0 90.358935498436963 -43.270471971303294 0 0 0 0 -1.2553048640552795 -0.44791629634036756 0 -0.44791629634036756 -0.0087906689919363679 0 0 0 0 -139.76111849326389 59.898740857652399 0 59.898740857652399 -19.692154941053872 0 0 0 0 -102.58828027241725 51.07663897162324 0 51.07663897162324 -56.707317739550831 0 0 0 0 -88.669443916946875 73.302946873095578 0 73.302946873095578 -26.146698971047158 0 0 0 0 -91.751510128043265 34.823004482980068 0 34.823004482980068 -12.214272297884511 0 0 0 0 -1.4063794176545343 -4.4138067717512683 0 -4.4138067717512683 4.8321064718366529 0 0 0 0 -0.60157365161237841 -0.033031382246340613 0 -0.033031382246340613 0.84041147423611506 0 0 0 0 -100.63741046735413 65.430637821090897 0 65.430637821090897 -29.725788751973568 0 0 0 0 -106.99002982240563 59.62435584022893 0 59.62435584022893 -38.405963345526231 0 0 0 0 -111.6186961022658 69.018925293909533 0 69.018925293909533 -30.547335286360457 0 0 0 0 1.8371247212799684 -15.861034837011308 0 -15.861034837011308 -23.579826794543067 0 0 0 0 -0.43066724990048222 -0.060251950738042126 0 -0.060251950738042126 0.37472600836462527 0 0 0 0 -7.3320252130970403 3.2524062009888723 0 3.2524062009888723 7.6334924974931511 0 0 0 0 1.7465491723505693 11.933844411979607 0 11.933844411979607 -15.200584250518062 0 0 0 0 -2.2731036760533243 6.7828817811199826 0 6.7828817811199826 -39.547337443053436 0 0 0 0 -24.466546619263681 3.5719315574293091 0 3.5719315574293091 -17.489815312246321 0 0 0 0 -20.418492546851667 -14.82407891486082 0 -14.82407891486082 -47.330675185060784 0 0 0 0 -7.2532765626665423 15.6773940874494 0 15.6773940874494 -95.361912413252014 0 0 0 0 -27.270133420551872 -26.036920886644012 0 -26.036920886644012 -27.025598746674689 0 0 0 0 -1.4023314196404044 -5.4126829075435126 0 -5.4126829075435126 -24.434047359202623 0 0 0 0 -0.22518007447706623 3.140591497858118 0 3.140591497858118 -20.94212827697535 0 0 0 0 -3.0070168311185625 0.77408892792575124 0 0.77408892792575124 -14.324562182999991 0 0 0 0 -5.243210248183459 8.3280448802430413 0 8.3280448802430413 -8.8870716095545816 0 0 0 0 -0.77095569366383643 -1.2349650075374967 0 -1.2349650075374967 -8.7178183458699721 0 0 0 0 -0.43253722418597818 1.2548777281972106 0 1.2548777281972106 0.22811608933928085 0 0 0 0 -0.10034209668037875 1.7783481418719873 0 1.7783481418719873 1.3586475277476211 0 0 0 0 -3.3750485776536152 4.693322310392773 0 4.693322310392773 0.036570669965698244 0 0 0 0 -4.9554173723306576 1.2064856167348559 0 1.2064856167348559 1.3744679459075826 0 0 0 0 -3.2061197504081065 2.2521378608308424 0 2.2521378608308424 1.9569314712080406 0 0 0 0 -2.3378677843520563 1.4476568751036325 0 1.4476568751036325 2.1331004293830915 0 0 0 0 -0.6903801090234829 0.43596580356781089 0 0.43596580356781089 1.3124799195798038 0 0 0 0 -47.488665288055017 -10.213257816607662 0 -10.213257816607662 -0.47358481448077328 0 0 0 0 -2.2477572639609207 1.4687391000813932 0 1.4687391000813932 1.0801430498103173 0 0 0 0 -1.5256326673402327 2.2080695573346532 0 2.2080695573346532 1.4182665554550908 0 0 0 0 -1.1767932050022409 1.7493967409263291 0 1.7493967409263291 0.52583708978897903 0 0 0 0 -3.3314310638946836 1.5822058486701636 0 1.5822058486701636 0.89783690106537506 0 0 0 0 -4.6078848318211385 0.68092206550318224 0 0.68092206550318224 1.3843759011565453 0 0 0 0 -1.5624568212115264 0.96009074645198211 0 0.96009074645198211 -0.2653960970189928 0 0 0 0 -1.5496778755730247 2.0204200977975688 0 2.0204200977975688 0.61200151182174523 0 0 0 0 -0.56502282662674119 0.34589079377209941 0 0.34589079377209941 1.140964528985738 0 0 0 0 -2.5607475717076795 -0.64261666740122791 0 -0.64261666740122791 2.0275766765785193 0 0 0 0 -1.4043287754808667 0.72902095211904494 0 0.72902095211904494 0.59927187012770866 0 0 0 0 -0.0049408895075799819 0.0016039078402770857 0 0.0016039078402770857 0.18623125250768763 0 0 0 0 -6.2787230443791486 1.012589968278462 0 1.012589968278462 2.26731640750927 0 0 0 0 -38.237636311161623 15.681812526269368 0 15.681812526269368 1.337258578394497 0 0 0 0 -48.006025436882737 35.694553545157795 0 35.694553545157795 0.85839892735254053 0 0 0 0 -2.718800542150575 -0.6608782351300988 0 -0.6608782351300988 -3.3483343278180655 0 0 0 0 -89.122145609351264 31.856509570522888 0 31.856509570522888 27.453349060888627 0 0 0 0 -0.65821669622596346 0.24512097741206584 0 0.24512097741206584 0.4467707402001927 0 0 0 0 -69.49388096978646 89.367942542938238 0 89.367942542938238 -93.221951354119227 0 0 0 0 -51.191648590817294 52.195175412090116 0 52.195175412090116 -39.986859461780455 0 0 0 0 -115.00236066466459 74.923135836688829 0 74.923135836688829 -18.879185831547375 0 0 0 0 -99.181115066025086 17.228227496347245 0 17.228227496347245 21.512969641100767 0 0 0 0 -68.32669663042816 43.443701865554317 0 43.443701865554317 -55.702921180373977 0 0 0 0 -132.65655264543648 33.171743215150059 0 33.171743215150059 80.44776578417634 0 0 0 0 -22.6260692867545 -56.484226931399746 0 -56.484226931399746 87.638989229312273 0 0 0 0 -70.424999871276668 -30.471905213665309 0 -30.471905213665309 84.323202708792792 0 0 0 0 17.977140000215513 -38.501644377756747 0 -38.501644377756747 54.829897254705202 0 0 0 0 -52.077419363681656 36.960088352393427 0 36.960088352393427 24.667017096931602 0 0 0 0 -57.134245156147017 15.593946615757297 0 15.593946615757297 17.424936352891564 0 0 0 0 -70.610688564035627 -0.73988327503019491 0 -0.73988327503019491 62.469391411032007 0 0 0 0 -43.572337109896353 37.718212038089575 0 37.718212038089575 73.327112640191103 0 0 0 0 -5.1493018952241982 -11.292873246650686 0 -11.292873246650686 46.254861109655906 0 0 0 0 -0.50002712757057921 -0.19262134812249854 0 -0.19262134812249854 0.5652683918274557 0 0 0 0 -32.077925761955157 -33.330097958551931 0 -33.330097958551931 74.404624298835984 0 0 0 0 21.959507897741787 -18.123236359536236 0 -18.123236359536236 66.090363681995882 0 0 0 0 -4.7966445164519662 -1.4089516490259191 0 -1.4089516490259191 5.270010154180623 0 0 0 0 -22.174393060980947 8.3692436908769992 0 8.3692436908769992 -3.2409235570177195 0 0 0 0 -1.1632511407341841 -0.10575750569002995 0 -0.10575750569002995 0.22486220113874134 0 0 0 0 -2.344748907237002 -1.3151498417557814 0 -1.3151498417557814 2.5912847033099009 0 0 0 0 2.7751189054424685 -0.73177450313926329 0 -0.73177450313926329 2.693667071017579 0 0 0 0 -25.12531149069946 8.150829403320131 0 8.150829403320131 5.538491683630582 0 0 0 0 -4.2460791066635011 -0.33444851940508613 0 -0.33444851940508613 3.6466586634326177 0 0 0 0 1.4383141520252138 4.0850001088696217 0 4.0850001088696217 -11.464628309064437 0 0 0 0 -41.329545007461547 -33.147443927361337 0 -33.147443927361337 -12.680760203937666 0 0 0 0 -99.409938249442348 -7.1384348477553203 0 -7.1384348477553203 7.9272050973891055 0 0 0 0 -0.056848788221072866 0.24592285549523751 0 0.24592285549523751 -0.25574972933292273 0 0 0 0 -102.1303846158371 -33.01053748150332 0 -33.01053748150332 -0.15551058667767848 0 0 0 0 -31.381461663485197 -9.6774682502723977 0 -9.6774682502723977 3.0599892451793949 0 0 0 0 -77.868832116505473 15.973534792435032 0 15.973534792435032 62.094852637829149 0 0 0 0 -81.112969223170694 -1.8096941186652771 0 -1.8096941186652771 9.6130305518753403 0 0 0 0 -0.28931724079512122 0.27806361965216242 0 0.27806361965216242 0.01345692897761841 0 0 0 0 -2.047657947096468 -0.42219779873602192 0 -0.42219779873602192 -0.11061291199416701 0 0 0 0 -1.1366467351560701 0.80930138034557064 0 0.80930138034557064 -0.26383988986262175 0 0 0 0 15.318901975771496 42.054652468846484 0 42.054652468846484 58.7433529221112 0 0 0 0 38.158922232617897 40.220207329636168 0 40.220207329636168 39.413898052285845 0 0 0 0 -0.70415294555635199 0.1492839579144114 0 0.1492839579144114 1.1340873303847694 0 0 0 0 -24.099506837761282 5.0061736897516624 0 5.0061736897516624 2.6377501973195194 0 0 0 0 -0.32594885905928095 3.9406217970199577 0 3.9406217970199577 2.5045776697170368 0 0 0 0 -28.068666735927877 -5.0316184453435255 0 -5.0316184453435255 -3.7471306407783231 0 0 0 0 -3.2347103843510467 1.1091126901985149 0 1.1091126901985149 1.6519890999034033 0 0 0 0 6.1221950162239409 32.799238260945231 0 32.799238260945231 94.419549098353173 0 0 0 0 4.7968295895252595 20.744686908425592 0 20.744686908425592 54.201749137496222 0 0 0 0 -0.61040116247158238 0.058563533970204418 0 0.058563533970204418 0.38397064919816648 0 0 0 0 -0.56006928139167123 0.34841193808537074 0 0.34841193808537074 -0.079937667808636093 0 0 0 0 8.7814301595881261 33.929706396221036 0 33.929706396221036 62.179502614802004 0 0 0 0 44.742615452099926 33.537383837894595 0 33.537383837894595 40.385538182062646 0 0 0 0 23.11743414051125 32.212028769635936 0 32.212028769635936 41.86665548404244 0 0 0 0 16.215172292815623 11.104115921285484 0 11.104115921285484 44.836442382624568 0 0 0 0 17.869211022192758 20.717986621608475 0 20.717986621608475 16.528431012129431 0 0 0 0 31.327930462705353 12.129144208412072 0 12.129144208412072 42.333827063239823 0 0 0 0 -0.88231902329005152 25.114049021802458 0 25.114049021802458 8.0128251783030464 0 0 0 0 2.8782036426873674 12.840078288001678 0 12.840078288001678 36.063735566475202 0 0 0 0 -1.4330259451235179 21.339074835102792 0 21.339074835102792 -15.990973069212487 0 0 0 0 -63.370171925344494 28.965892178600029 0 28.965892178600029 33.247395101857023 0 0 0 0 -1.3879116389980481 22.44699290372013 0 22.44699290372013 33.34163496559006 0 0 0 0 21.162513551813845 34.310522780219515 0 34.310522780219515 25.518673583534451 0 0 0 0 -6.6491253413721552 29.877636794269591 0 29.877636794269591 57.982393637979328 0 0 0 0 -1.4886352134917615 1.3477887146508465 0 1.3477887146508465 2.629222550491022 0 0 0 0 0.17517513639722893 0.22291399138634915 0 0.22291399138634915 2.9445300260733802 0 0 0 0 -1.0998313506138313 0.54031032084842856 0 0.54031032084842856 -0.17353102522360686 0 0 0 0 -1.1273103942239686 0.80450070185054301 0 0.80450070185054301 3.4433786378726836 0 0 0 0 -1.2376665280989982 0.35088089092391783 0 0.35088089092391783 2.6381343068578964 0 0 0 0 -0.62399697541513888 -0.12147970419539433 0 -0.12147970419539433 2.9940660631339142 0 0 0 0 4.5517969701140828 -1.4670300470304483 0 -1.4670300470304483 3.574477493874511 0 0 0 0 3.0124228678291729 3.9445778044840836 0 3.9445778044840836 -4.7876320518776083 0 0 0 0 -5.7024498768005287 0.82167267871730587 0 0.82167267871730587 5.0389994948783396 0 0 0 0 -3.3303638404540834 -0.73770670329895438 0 -0.73770670329895438 -2.2635307886972669 0 0 0 0 -0.14741560495913042 0.27346799732795196 0 0.27346799732795196 0.11201455566611512 0 0 0 0 -0.17482359432688099 -0.020511957010739934 0 -0.020511957010739934 2.9824256507961024 0 0 0 0 -0.67433031080524763 0.83460191853627075 0 0.83460191853627075 0.016877893206363188 0 0 0 0 -0.56849160759156803 -0.38298235917284273 0 -0.38298235917284273 2.6487911597998846 0 0 0 0 -0.39206079840641905 0.8847415102013656 0 0.8847415102013656 0.90284032153002158 0 0 0 0 0.684801687271829 2.3163055563644832 0 2.3163055563644832 -3.6822965430702084 0 0 0 0 -0.36449650010141532 0.39038007602325719 0 0.39038007602325719 -0.019574848387935939 0 0 0 0 -1.7815192644829949 -1.3861022556361604 0 -1.3861022556361604 3.9342750288645565 0 0 0 0 -0.81929960416444914 0.76188462881634833 0 0.76188462881634833 0.065493769713443034 0 0 0 0 -0.93433321979318862 0.30187728581176998 0 0.30187728581176998 1.8338053846532603 0 0 0 0 -1.4698944604915596 0.7878484194613975 0 0.7878484194613975 1.8275801632971707 0 0 0 0 -1.0235826614953112 0.79988982547342857 0 0.79988982547342857 -0.14235276186490253 0 0 0 0 -1.2494112792228407 0.89759363649523038 0 0.89759363649523038 1.8653947290368933 0 0 0 0 -1.5749163786604186 1.2298796460365793 0 1.2298796460365793 1.6343850797392179 0 0 0 0 -0.50162669648307201 1.8713373553327983 0 1.8713373553327983 1.8013139771107944 0 0 0 0 -2.3235689422863288 1.2655811390137046 0 1.2655811390137046 1.8888496035883691 0 0 0 0 -1.1387677279308264 1.6335578857207338 0 1.6335578857207338 1.0911493567969046 0 0 0 0 -0.18729822993858947 -0.18567063820174212 0 -0.18567063820174212 -0.0068241872548764348 0 0 0 0 1.2035777549272098 2.6364826629537674 0 2.6364826629537674 1.1401006513720802 0 0 0 0 -0.99183506968256552 2.3536418934650101 0 2.3536418934650101 2.1161101798710433 0 0 0 0 0.047529025157018623 1.2902710534682171 0 1.2902710534682171 1.2367800654166672 0 0 0 0 0.50420693279693296 1.5047922231657367 0 1.5047922231657367 1.0656504934605096 0 0 0 0 -2.4979824879028456 0.21956388665728355 0 0.21956388665728355 -0.13668128838276061 0 0 0 0 -1.2684242570236925 0.83825115874174738 0 0.83825115874174738 0.17002915711754632 0 0 0 0 0.45083620911645994 2.0803846301912472 0 2.0803846301912472 0.26968560696738564 0 0 0 0 -0.31626501242206295 -0.14206036609980366 0 -0.14206036609980366 -0.11196520893443473 0 0 0 0 0.097358829559198057 -0.47701545102253817 0 -0.47701545102253817 1.0842748228183723 0 0 0 0 0.18408715989153279 -2.2032042203789501 0 -2.2032042203789501 -2.2685459107153747 0 0 0 0 -1.4159022417175038 -2.7350153475921388 0 -2.7350153475921388 1.0684751478777059 0 0 0 0 -0.20560071002910263 2.1421706326926966 0 2.1421706326926966 -4.0781684496099793 0 0 0 0 0.081719318240060401 -0.33921299010887118 0 -0.33921299010887118 -0.218033854388895 0 0 0 0 6.6415472153958035 3.5309278269205766 0 3.5309278269205766 -3.3597869463876791 0 0 0 0 -5.6694375049737573 6.8808625557374086 0 6.8808625557374086 -14.034656499220773 0 0 0 0 -9.1689834849848921 2.1935676153895827 0 2.1935676153895827 0.40727454063323876 0 0 0 0 -8.6289852145500845 8.1610994471538021 0 8.1610994471538021 -18.466816704403939 0 0 0 0 -8.4726517898149041 4.5229769425026563 0 4.5229769425026563 -25.456455061095085 0 0 0 0 0.048330334893188276 -0.28421496935680324 0 -0.28421496935680324 -0.13969023619405097 0 0 0 0 8.8014129197972579 -4.3267086733235942 0 -4.3267086733235942 -21.156742212519475 0 0 0 0 -10.780527604161762 12.253302030985338 0 12.253302030985338 -12.631452067319117 0 0 0 0 -3.5406467096217966 4.6154317561438774 0 4.6154317561438774 -24.646104845704372 0 0 0 0 -14.355597155805754 9.7149680476270248 0 9.7149680476270248 -18.579397435129152 0 0 0 0 -10.931616473428221 6.2500449010066887 0 6.2500449010066887 -14.059502078775552 0 0 0 0 -12.988012410804686 11.838660751913423 0 11.838660751913423 -15.602065818258836 0 0 0 0 -8.6035971109904494 9.6212833734964054 0 9.6212833734964054 -9.7342602699383391 0 0 0 0 -13.701451634288333 13.258955365853094 0 13.258955365853094 -12.372920475141285 0 0 0 0 -7.3777006215668735 8.6357897869151543 0 8.6357897869151543 -14.7853838705578 0 0 0 0 -5.2857504711730599 10.282164695320578 0 10.282164695320578 -13.382796027619946 0 0 0 0 -9.8333706465259638 8.8923297485436805 0 8.8923297485436805 -7.8313266868672784 0 0 0 0 -6.1610180110819783 3.1578042360155791 0 3.1578042360155791 -3.6958643145922849 0 0 0 0 -2.2799197527535284 3.6815244267501193 0 3.6815244267501193 -3.8130795792625349 0 0 0 0 -2.8763062533175798 -1.296654580460995 0 -1.296654580460995 5.5435086934435107 0 0 0 0 -0.37384095646655169 7.2446145026516113 0 7.2446145026516113 -9.1794612988762765 0 0 0 0 3.6660170020040823 10.405979217450408 0 10.405979217450408 -21.132870934350365 0 0 0 0 -7.4817276811509146 1.806188741482913 0 1.806188741482913 4.1722570077502041 0 0 0 0 -24.446531803523158 15.809298876278064 0 15.809298876278064 -13.789607842304193 0 0 0 0 -23.008385235183539 25.737418060209109 0 25.737418060209109 -14.761056469747928 0 0 0 0 -7.1218304043850367 14.557891777011108 0 14.557891777011108 -20.093400823868997 0 0 0 0 -21.959410636318353 20.113155545622888 0 20.113155545622888 -14.628547788759121 0 0 0 0 -12.252151075589381 14.48039456736489 0 14.48039456736489 -13.894659240785671 0 0 0 0 -25.010122405903985 16.565188514258416 0 16.565188514258416 -12.096589352954297 0 0 0 0 -24.430468861804911 17.178225062345192 0 17.178225062345192 -11.717627094326545 0 0 0 0 -12.193373847205976 -2.0266774005359265 0 -2.0266774005359265 2.2642253815972522 0 0 0 0 -21.974792239094313 16.045488089452938 0 16.045488089452938 -11.371792959553375 0 0 0 0 -22.693187172339321 14.321411703542928 0 14.321411703542928 -13.59603394624142 0 0 0 0 -13.609545893414179 2.3546578911206097 0 2.3546578911206097 -0.89209497031558271 0 0 0 0 -3.7545395134273978 0.32222252802534435 0 0.32222252802534435 0.74769744284883588 0 0 0 0 -14.293447917676303 -0.093232747909503644 0 -0.093232747909503644 0.74079171028864721 0 0 0 0 -12.547492478248056 -2.0276091956680435 0 -2.0276091956680435 2.3068150824570743 0 0 0 0 -27.661855349870109 -2.3616458875954018 0 -2.3616458875954018 2.1479942977437929 0 0 0 0 -54.463628161500765 6.9965610312888344 0 6.9965610312888344 -0.49852508979669352 0 0 0 0 -18.649801717453101 -15.23279914301882 0 -15.23279914301882 -12.852476087647744 0 0 0 0 -2.8863664761371739 -0.4158554244035888 0 -0.4158554244035888 0.28925921825851753 0 0 0 0 -20.296607376436441 14.21342810999414 0 14.21342810999414 -25.924971649978971 0 0 0 0 -18.641096917344839 -3.8802897449401428 0 -3.8802897449401428 30.848996643340115 0 0 0 0 -31.455054304869236 24.104006717717624 0 24.104006717717624 -20.181022323740336 0 0 0 0 -60.025265927022701 5.0090756405921297 0 5.0090756405921297 -20.578060442246766 0 0 0 0 -75.338394584966409 15.535293081676286 0 15.535293081676286 3.0113786078471776 0 0 0 0 -70.992760864517436 23.869429610430636 0 23.869429610430636 3.9734865420905408 0 0 0 0 -65.286185508711242 37.680833261124178 0 37.680833261124178 -17.661645869887252 0 0 0 0 -24.980139406312901 17.782845317700662 0 17.782845317700662 -1.5244795730959027 0 0 0 0 -9.532721158900813 45.301574417299506 0 45.301574417299506 16.401615615470121 0 0 0 0 -0.90421034441334314 13.239139074079276 0 13.239139074079276 0.25689488275975236 0 0 0 0 -7.8203790405967766 32.308359725408494 0 32.308359725408494 -27.695806183872605 0 0 0 0 -20.618288234662941 9.4314898116068662 0 9.4314898116068662 24.120508636929003 0 0 0 0 -25.236704108974436 18.000306696551803 0 18.000306696551803 22.121688786272898 0 0 0 0 -52.382764606050863 0.084853772500843583 0 0.084853772500843583 37.271365921648567 0 0 0 0 -52.987740470261087 43.257459608179147 0 43.257459608179147 2.0305514081506999 0 0 0 0 -15.981438305038864 25.987589009632416 0 25.987589009632416 -44.968383930693392 0 0 0 0 -13.810453157642769 -1.6002814577946083 0 -1.6002814577946083 13.524081474739713 0 0 0 0 -0.71756455429198596 0.45680554980377042 0 0.45680554980377042 0.12661746497088844 0 0 0 0 0.16816305895882877 0.040456914614004802 0 0.040456914614004802 -0.049860705011841366 0 0 0 0 -0.39022540886601575 0.94215106599943343 0 0.94215106599943343 0.085889737406586758 0 0 0 0 -0.95831024007773813 0.20995513059086957 0 0.20995513059086957 0.18382983587228807 0 0 0 0 -3.9222223640799712 5.4846942083275962 0 5.4846942083275962 0.034284740937096103 0 0 0 0 -23.991429464620524 8.6409675477617043 0 8.6409675477617043 52.714912561101869 0 0 0 0 4.5880168851813323 -3.5436654849671072 0 -3.5436654849671072 41.689868859868966 0 0 0 0 10.434388207162101 9.7196007006835998 0 9.7196007006835998 16.926659390685131 0 0 0 0 -27.056454734335148 14.494267666335816 0 14.494267666335816 42.925318690667496 0 0 0 0 -2.1363202606585219 -22.504308728833394 0 -22.504308728833394 40.333870912108836 0 0 0 0 0.019327246751955407 -0.050234860076404431 0 -0.050234860076404431 0.42035419465655366 0 0 0 0 -1.6331989692869229 -1.5505929253347688 0 -1.5505929253347688 21.772322836498233 0 0 0 0 -48.739425199696598 -43.591455684411358 0 -43.591455684411358 -3.927716201265639 0 0 0 0 -5.0657828481575962 -5.0953248068470884 0 -5.0953248068470884 20.879530944365541 0 0 0 0 -1.2898275169334239 0.33147164419771524 0 0.33147164419771524 1.189933459464207 0 0 0 0 26.215235689144947 -28.456316578421479 0 -28.456316578421479 -40.462839559937947 0 0 0 0 -11.8437821142752 -3.3847726325493568 0 -3.3847726325493568 6.4391529476417873 0 0 0 0 -17.379277038558939 -0.55587888763216142 0 -0.55587888763216142 13.773963409127418 0 0 0 0 -18.861416672870291 2.3387936962227514 0 2.3387936962227514 10.021784397842566 0 0 0 0 -16.310173456143275 4.2943840132378455 0 4.2943840132378455 10.995509612862634 0 0 0 0 -18.075943852223418 1.9284813867554362 0 1.9284813867554362 5.2995927170140931 0 0 0 0 -18.719615199986947 4.260288840068597 0 4.260288840068597 6.434039130842848 0 0 0 0 -20.72624186887208 2.8493199687073911 0 2.8493199687073911 15.118890353091729 0 0 0 0 -21.942157550962293 0.32653309637328221 0 0.32653309637328221 14.022132828793701 0 0 0 0 -17.660211779006204 1.5012787016681841 0 1.5012787016681841 0.40976849447633867 0 0 0 0 -4.1058048798491287 -2.6388919331297487 0 -2.6388919331297487 0.6799877743682412 0 0 0 0 -8.077802565854908 0.93668969068815677 0 0.93668969068815677 0.66816185140699957 0 0 0 0 -0.8774728097826614 -0.531920163829529 0 -0.531920163829529 -0.25099588071364476 0 0 0 0 -6.3401046334579405 -10.455011507933307 0 -10.455011507933307 -9.5992177945399817 0 0 0 0 -7.2770663977912591 -0.94440001651628336 0 -0.94440001651628336 0.31122583520254921 0 0 0 0 -10.378590340960082 -1.3852510339415913 0 -1.3852510339415913 -0.31003336376872515 0 0 0 0 -1.8434112985723621 -0.089762691334828837 0 -0.089762691334828837 0.28825116050040211 0 0 0 0 -8.4710610355982681 6.4784138233358135 0 6.4784138233358135 -13.349355986353657 0 0 0 0 -2.6215058774316731 -2.4566087997641262 0 -2.4566087997641262 -4.4479136212917183 0 0 0 0 -18.044661544284054 5.7153919979854209 0 5.7153919979854209 7.2647265689265623 0 0 0 0 -14.883923685537411 2.097412178124614 0 2.097412178124614 5.229795752614109 0 0 0 0 -16.341686790336098 5.8245545070844855 0 5.8245545070844855 -2.1901241962468703 0 0 0 0 -14.396829845600223 1.6882472638066019 0 1.6882472638066019 -0.32795894542414317 0 0 0 0 -17.296337140508513 0.87735326708730099 0 0.87735326708730099 -0.55042983722069039 0 0 0 0 -17.101111694060705 2.0277564824570788 0 2.0277564824570788 -0.15005786579513369 0 0 0 0 -15.146277618944623 2.7469179163515491 0 2.7469179163515491 0.11425188983366752 0 0 0 0 -4.6385077160236055 2.822410839767274 0 2.822410839767274 1.3785546193424034 0 0 0 0 5.3859167395871737 24.508304318089017 0 24.508304318089017 16.764194347313719 0 0 0 0 4.919205592137132 30.548060578521813 0 30.548060578521813 -61.131982988184575 0 0 0 0 -56.422165655723347 4.2743538390575395 0 4.2743538390575395 32.686472524542751 0 0 0 0 -75.695249920445349 -30.833595628542554 0 -30.833595628542554 13.183231554678741 0 0 0 0 -9.6667140491752264 -1.2140830707193118 0 -1.2140830707193118 -0.62883200796500205 0 0 0 0 -28.014734931490295 -19.542794361692017 0 -19.542794361692017 11.228207419588898 0 0 0 0 -9.1268494484445455 1.3923307090911976 0 1.3923307090911976 0.18437609001659894 0 0 0 0 -3.066722032110647 24.537148060632887 0 24.537148060632887 12.621090653509327 0 0 0 0 -7.0228774914425909 2.5016587498652592 0 2.5016587498652592 0.66485061877565332 0 0 0 0 -7.5721312093596937 1.4408658418513092 0 1.4408658418513092 0.36383392540874726 0 0 0 0 -9.9648810424146177 -0.40440479038238664 0 -0.40440479038238664 -0.044107604283908586 0 0 0 0 -9.0295197289592579 -22.521251142890833 0 -22.521251142890833 7.7746999206507326 0 0 0 0 -7.8097343597746658 29.701759716680499 0 29.701759716680499 37.968087400170134 0 0 0 0 -1.1096981259382952 -0.59999972443510308 0 -0.59999972443510308 0.093643366396583883 0 0 0 0 -18.308175542448225 24.797551845502767 0 24.797551845502767 38.613871638058299 0 0 0 0 -9.5605387732398412 25.363527274300168 0 25.363527274300168 35.689477422234177 0 0 0 0 5.2897314497752177 18.769763689131764 0 18.769763689131764 26.813964813931307 0 0 0 0 -22.970814775363579 8.0582055018885512 0 8.0582055018885512 28.502325208050763 0 0 0 0 -10.273747569867282 18.761772014407029 0 18.761772014407029 37.155829975773486 0 0 0 0 -19.545074573926058 1.082637563700132 0 1.082637563700132 42.68142941276983 0 0 0 0 -16.608054561887002 -6.3083077709095505 0 -6.3083077709095505 39.703657883452763 0 0 0 0 -32.209312315285388 -11.939905057190572 0 -11.939905057190572 38.54908651727834 0 0 0 0 -14.667474194544639 -7.2493458883889161 0 -7.2493458883889161 32.167144755935624 0 0 0 0 -10.481361220173312 4.6746108731279037 0 4.6746108731279037 33.834897397834993 0 0 0 0 -29.771554562473284 2.89400589686079 0 2.89400589686079 51.375693874850413 0 0 0 0 -8.5249546538621175 0.89593363560408812 0 0.89593363560408812 0.84415456448517823 0 0 0 0 -12.70584791868896 0.11619852119656571 0 0.11619852119656571 -0.57897666342842058 0 0 0 0 -1.1946861244372844 -0.52720004305640422 0 -0.52720004305640422 0.19980247326978073 0 0 0 0 -8.28696529556737 15.337999227077489 0 15.337999227077489 41.858075921229556 0 0 0 0 -14.474780883698713 1.8242074614552166 0 1.8242074614552166 33.31342593217596 0 0 0 0 5.6113050980698063 6.9039417161338861 0 6.9039417161338861 19.383517014045538 0 0 0 0 8.5703554953606726 -12.213038391841565 0 -12.213038391841565 -8.6902904512007808 0 0 0 0 -7.4947610840307561 -1.1567154127594677 0 -1.1567154127594677 0.37753737388595709 0 0 0 0 -1.2331272453388307 -0.25378299998259246 0 -0.25378299998259246 0.33345191123919715 0 0 0 0 -7.8544126299874648 -1.7529366015263437 0 -1.7529366015263437 -0.5987553583194023 0 0 0 0 -11.078222562303012 -5.8865022070344821 0 -5.8865022070344821 -5.0945083640099256 0 0 0 0 -8.8103181135037403 -6.3303900327819633 0 -6.3303900327819633 9.4542502483984663 0 0 0 0 -2.7496581634243045 -0.4970207008634735 0 -0.4970207008634735 -0.19075625514068673 0 0 0 0 -7.0920144921534369 1.2494915617107303 0 1.2494915617107303 1.041926073134567 0 0 0 0 -12.473698250598318 -0.34399160315979316 0 -0.34399160315979316 -0.31987298375861428 0 0 0 0 -14.261279362820915 1.1081004235020373 0 1.1081004235020373 21.860230683250848 0 0 0 0 -14.121538934362661 -14.704647534446735 0 -14.704647534446735 28.589473504373586 0 0 0 0 -13.222982215086631 -7.1515478712831282 0 -7.1515478712831282 20.856461795710857 0 0 0 0 17.047536739274847 -53.012376652089529 0 -53.012376652089529 35.752934660115443 0 0 0 0 -19.285345066905279 -16.684477257416972 0 -16.684477257416972 39.335247698412104 0 0 0 0 -49.017635543078086 -17.129623896537623 0 -17.129623896537623 41.90268109379133 0 0 0 0 -68.782803294729774 0.6753519964138377 0 0.6753519964138377 30.405767294335419 0 0 0 0 -67.060615896109084 -14.37876471052823 0 -14.37876471052823 8.4357990882342619 0 0 0 0 -22.11964708906487 -40.598022281786143 0 -40.598022281786143 -4.3317125509806829 0 0 0 0 -10.513232464559621 -16.106683379879371 0 -16.106683379879371 37.074194011196369 0 0 0 0 -47.416551502304515 -46.887296886848617 0 -46.887296886848617 -70.293435468248276 0 0 0 0 -106.1214995796779 -65.0632588923811 0 -65.0632588923811 -10.488798022797653 0 0 0 0 -196.6607331829 -44.862039894534689 0 -44.862039894534689 -16.843245803238005 0 0 0 0 -94.699870821830388 -0.72001769026111617 0 -0.72001769026111617 1.7852641765998669 0 0 0 0 -92.357400929221171 -96.663614905732231 0 -96.663614905732231 -119.28736883261786 0 0 0 0 -77.045002766861671 -10.127801901250336 0 -10.127801901250336 -147.61815879930228 0 0 0 0 -7.1527118773392431 -5.0541189972102529 0 -5.0541189972102529 -14.724299694996944 0 0 0 0 -6.5878360904077908 -8.854471934776484 0 -8.854471934776484 -30.542962934420075 0 0 0 0 -0.2550285478580463 11.626076626805229 0 11.626076626805229 -53.083728605547662 0 0 0 0 -115.59711372521565 63.872615377416651 0 63.872615377416651 -41.628331003676294 0 0 0 0 -21.048110831327676 24.900903419584893 0 24.900903419584893 -89.348539661215 0 0 0 0 -40.118434334512131 16.895018074300197 0 16.895018074300197 -18.525640725266612 0 0 0 0 -26.551232017018265 36.373111570882713 0 36.373111570882713 -22.020984070019722 0 0 0 0 -5.0279444871357555 20.421615770438052 0 20.421615770438052 -10.430579261612252 0 0 0 0 -24.607560067633813 18.451614332061752 0 18.451614332061752 12.485207736667235 0 0 0 0 -11.937439758880146 36.652324022197718 0 36.652324022197718 5.0626481194044572 0 0 0 0 -39.925919537896334 37.597782107571561 0 37.597782107571561 -11.406072213122343 0 0 0 0 -82.977997298192577 22.466391847619889 0 22.466391847619889 22.380110716798526 0 0 0 0 -36.164438598716742 14.459223388674332 0 14.459223388674332 23.593451462018834 0 0 0 0 -52.075075983457069 16.169918514992183 0 16.169918514992183 39.5837142649832 0 0 0 0 -26.103475767701184 10.796841575606777 0 10.796841575606777 40.300450950650657 0 0 0 0 -31.584205145995838 15.579363380860059 0 15.579363380860059 37.208344017934031 0 0 0 0 -37.529623828433614 6.8330852590163431 0 6.8330852590163431 41.113118472033534 0 0 0 0 -8.7926422923619612 21.263709313257323 0 21.263709313257323 31.280837240734854 0 0 0 0 -33.310421213280506 33.511984991716531 0 33.511984991716531 26.766884478158886 0 0 0 0 -19.509138429016957 28.068664073182617 0 28.068664073182617 36.63469090213448 0 0 0 0 35.009319345260565 28.924477984514169 0 28.924477984514169 16.152697043756689 0 0 0 0 37.060904818554036 63.201454607437086 0 63.201454607437086 24.400433172730118 0 0 0 0 -8.298909430420764 18.058460905967237 0 18.058460905967237 41.93148640592517 0 0 0 0 -65.080815770104891 -30.421038247455954 0 -30.421038247455954 -3.5157754742798488 0 0 0 0 -0.1815571056972658 25.146471527743074 0 25.146471527743074 -10.036569797827497 0 0 0 0 -3.7583272405429025 0.36977892475491581 0 0.36977892475491581 -0.66481466632272745 0 0 0 0 -0.10334783155027338 0.32632527831049307 0 0.32632527831049307 -0.091677575374626841 0 0 0 0 -10.600630712619022 -11.756995378731972 0 -11.756995378731972 -18.351390936112239 0 0 0 0 -72.834397848837426 34.464787274110449 0 34.464787274110449 32.868240287165008 0 0 0 0 41.276636594885531 -7.257486189353699 0 -7.257486189353699 -6.9477435792048254 0 0 0 0 -23.742265433246757 19.353227914508011 0 19.353227914508011 11.747362908085279 0 0 0 0 0.25433477821252382 43.63815974809404 0 43.63815974809404 24.83102067088684 0 0 0 0 -5.803021923815777 27.221029723989432 0 27.221029723989432 19.2878631460934 0 0 0 0 15.450963654229326 34.629315633025385 0 34.629315633025385 0.49097644158337062 0 0 0 0 4.1945881373196698 20.373601045137207 0 20.373601045137207 -15.59823108307728 0 0 0 0 -1.9119027460457687 31.352186162437619 0 31.352186162437619 3.5121439717549947 0 0 0 0 18.928126366826973 21.318922779912327 0 21.318922779912327 2.0758710852139757 0 0 0 0 4.1263283505941217 21.004552537339578 0 21.004552537339578 14.136631050316964 0 0 0 0 26.545155406530057 28.05661047713545 0 28.05661047713545 11.54373063700541 0 0 0 0 19.869998071730151 20.11971804030577 0 20.11971804030577 9.9178993483330942 0 0 0 0 22.71272068672306 13.76877592001324 0 13.76877592001324 17.022034760447241 0 0 0 0 8.3564404572136937 4.6494396791629242 0 4.6494396791629242 1.2110958258583651 0 0 0 0 25.857671223304351 10.360085778347752 0 10.360085778347752 -6.2265575668118815 0 0 0 0 -1.3077288857088547 14.63904937861551 0 14.63904937861551 -8.6244234691710062 0 0 0 0 6.7716879411923401 8.4073725632006244 0 8.4073725632006244 -7.4996235820188417 0 0 0 0 1.4407618370892123 -1.031934422783138 0 -1.031934422783138 -23.228592406652638 0 0 0 0 -118.99292088560105 51.43875062678876 0 51.43875062678876 52.34934259371903 0 0 0 0 -0.38600576474198189 0.45266678506124158 0 0.45266678506124158 -0.30697252662574837 0 0 0 0 -51.70108321812674 -6.1047591470006211 0 -6.1047591470006211 -1.2178719101375464 0 0 0 0 -52.010365713053943 0.54230832146834018 0 0.54230832146834018 -1.2289996773238272 0 0 0 0 -124.05589659468774 -17.250053537536928 0 -17.250053537536928 29.081812155793841 0 0 0 0 64.235298289462435 36.846119908644738 0 36.846119908644738 -9.3199078937502691 0 0 0 0 35.956906608764712 13.139385773861704 0 13.139385773861704 -6.9165834807579358 0 0 0 0 25.136097118154339 19.488556887903883 0 19.488556887903883 1.7520715097825814 0 0 0 0 51.694698886214155 3.8502618533223085 0 3.8502618533223085 7.3245258868366818 0 0 0 0 -31.750839676354644 -2.6236711412869909 0 -2.6236711412869909 -24.047120915783125 0 0 0 0 22.903609785200842 15.341780885629305 0 15.341780885629305 29.821829675870731 0 0 0 0 26.144627826010037 27.414520064000044 0 27.414520064000044 23.322459830478238 0 0 0 0 -48.727941925541472 -21.710548256976836 0 -21.710548256976836 -16.717593693554022 0 0 0 0 -80.851967335989571 -0.89479056846238336 0 -0.89479056846238336 -5.8109583063551327 0 0 0 0 -77.634553005464113 -15.760980431747157 0 -15.760980431747157 -9.4552866726371576 0 0 0 0 -13.466584145747106 11.996516715822906 0 11.996516715822906 -0.65798467188733412 0 0 0 0 -77.189957834277735 -4.7699913029177594 0 -4.7699913029177594 15.265686673523305 0 0 0 0 -28.752178640877673 -29.100866952864635 0 -29.100866952864635 -9.7323234071263869 0 0 0 0 -0.59306511674207041 0.32125755783951648 0 0.32125755783951648 -0.30279528552112467 0 0 0 0 -81.560899225516096 5.9666667015692383 0 5.9666667015692383 -11.752328455331735 0 0 0 0 -0.045799662854864698 0.56183016171738509 0 0.56183016171738509 -1.0321893943051013 0 0 0 0 -72.610910561085802 -2.6493904078963624 0 -2.6493904078963624 -10.66416756093426 0 0 0 0 -99.784377628139282 0.036905346122011906 0 0.036905346122011906 12.602895000445642 0 0 0 0 -3.2568343383760521 10.940423915912106 0 10.940423915912106 -8.317606562632136 0 0 0 0 -63.337030358214179 8.5296010714261001 0 8.5296010714261001 3.7738551908760201 0 0 0 0 -67.919627727266743 -9.3797088408500713 0 -9.3797088408500713 -6.9379613786879304 0 0 0 0 -89.71832196718151 -4.4229391235044204 0 -4.4229391235044204 4.3062216742364399 0 0 0 0 58.283407059027923 24.95885703258125 0 24.95885703258125 -5.4298856938141853 0 0 0 0 -30.809875468105815 13.393893912289798 0 13.393893912289798 -12.007898675732577 0 0 0 0 -0.28691487104276092 1.1475094397151928 0 1.1475094397151928 -0.79503937413093517 0 0 0 0 -48.517757580470743 3.539796435901053 0 3.539796435901053 10.248811785048701 0 0 0 0 -48.092997338924306 7.9468736788473961 0 7.9468736788473961 -4.4581949023283869 0 0 0 0 -1.8558206781427202 -14.77159024847964 0 -14.77159024847964 5.1045450001588506 0 0 0 0 6.1483376346716341 -10.211242535538986 0 -10.211242535538986 -20.247221514400053 0 0 0 0 -10.334470326279188 44.686963752085148 0 44.686963752085148 -30.629447256525737 0 0 0 0 0.88196427170475999 -10.279392325529841 0 -10.279392325529841 -1.6543062125992947 0 0 0 0 36.301756606336426 15.577687975207937 0 15.577687975207937 -2.484031585701814 0 0 0 0 -97.424249864946432 25.366593616885439 0 25.366593616885439 9.2263506977649286 0 0 0 0 -61.707582599658053 16.85454109897023 0 16.85454109897023 5.0573247092343081 0 0 0 0 33.282258672963053 -31.794837751020168 0 -31.794837751020168 -6.1475120406130372 0 0 0 0 81.057823434047805 -26.753919937307273 0 -26.753919937307273 -21.62774039507849 0 0 0 0 1.4422064636836023 2.8103272407740221 0 2.8103272407740221 -1.5920121965389349 0 0 0 0 -14.50982510450558 10.128493103213259 0 10.128493103213259 21.554713157472179 0 0 0 0 -9.0188923650039499 11.065243154838157 0 11.065243154838157 -1.9908182011818099 0 0 0 0 -12.759296158924972 1.9133735438104083 0 1.9133735438104083 -0.069958113717468295 0 0 0 0 -11.607422982571734 3.1575954187565003 0 3.1575954187565003 9.0518078925815644 0 0 0 0 -6.697248859698675 10.874438108307203 0 10.874438108307203 -2.4812313733559677 0 0 0 0 -5.4194491844425654 2.8838438455615405 0 2.8838438455615405 -2.8648282530737657 0 0 0 0 -162.70852238524049 32.194590437185298 0 32.194590437185298 56.745603695843556 0 0 0 0 4.2025469629834333 9.4032041734560607 0 9.4032041734560607 -1.8823767880694504 0 0 0 0 -3.7861976409269573 8.2900428780133666 0 8.2900428780133666 -1.2818165482290169 0 0 0 0 -1.4254240659288371 4.1452930029105346 0 4.1452930029105346 0.64453526117677029 0 0 0 0 -14.276803118506663 0.27751681100028147 0 0.27751681100028147 0.75323003774458419 0 0 0 0 -18.623850516906714 1.6285200033873934 0 1.6285200033873934 -2.6899429287518615 0 0 0 0 -20.476994218233813 -0.025057734724896363 0 -0.025057734724896363 2.2549016236528132 0 0 0 0 -14.955307574901781 -5.8978816610352851 0 -5.8978816610352851 -6.9322552103692487 0 0 0 0 -11.436323092256771 -14.644449477085345 0 -14.644449477085345 -7.0438457199607001 0 0 0 0 -4.8726426807842032 -0.72816957168509777 0 -0.72816957168509777 0.19618453650069689 0 0 0 0 -12.032088115484839 3.0702756061440368 0 3.0702756061440368 -5.0018228490212095 0 0 0 0 1.9388410752334551 48.789789016948689 0 48.789789016948689 4.5002395800138402 0 0 0 0 -15.631147312662289 0.94180014957087232 0 0.94180014957087232 0.80965969269935067 0 0 0 0 -22.082859101502436 -0.28040919668342212 0 -0.28040919668342212 13.111556188364489 0 0 0 0 -3.7623890972046956 -0.28455662595760134 0 -0.28455662595760134 -0.15986020143911084 0 0 0 0 -25.040832809328549 -9.0468137479579127 0 -9.0468137479579127 14.351204563085503 0 0 0 0 -24.978299348943438 -2.1579978950478562 0 -2.1579978950478562 4.9545527021155067 0 0 0 0 -8.7809746681544993 28.342116498206678 0 28.342116498206678 43.289635557655401 0 0 0 0 -34.703510470385936 -2.7762115667241005 0 -2.7762115667241005 2.0477526462416336 0 0 0 0 -34.131819039901529 -9.0934523582474753 0 -9.0934523582474753 11.427704625524711 0 0 0 0 -2.155886705586779 2.0176266256764679 0 2.0176266256764679 -1.6777092364447896 0 0 0 0 -20.509293096806005 -21.80868240239937 0 -21.80868240239937 -21.336781863477654 0 0 0 0 -28.842083667055704 -19.530324920381759 0 -19.530324920381759 -1.5894622457105498 0 0 0 0 2.3004161891749391 -2.9566968721944704 0 -2.9566968721944704 -2.7228789127270829 0 0 0 0 8.3764037142418601 0.030322493360472436 0 0.030322493360472436 -3.8514668186812742 0 0 0 0 -23.905844104694552 -17.911617916967032 0 -17.911617916967032 -35.874835251104059 0 0 0 0 -59.377586551880768 -58.330511918591213 0 -58.330511918591213 -28.473695544935481 0 0 0 0 -4.1474556990519886 -1.9669722468073587 0 -1.9669722468073587 -12.81384681926238 0 0 0 0 -0.77724685503286572 0.54054105063420632 0 0.54054105063420632 -0.5452983615999476 0 0 0 0 7.4708597298244968 9.3271621968834779 0 9.3271621968834779 5.5982347849235339 0 0 0 0 -4.895218915897658 -1.3430516399023418 0 -1.3430516399023418 7.3079472545480257 0 0 0 0 9.31104458752543 2.8092095039670539 0 2.8092095039670539 14.862308107903345 0 0 0 0 21.478048374161062 9.8470594741089599 0 9.8470594741089599 6.6499673013295251 0 0 0 0 16.843364679620208 15.240425092430996 0 15.240425092430996 24.326968788246404 0 0 0 0 19.221793633286552 20.720974547436128 0 20.720974547436128 18.889452809115937 0 0 0 0 15.236287094230647 23.489653476364481 0 23.489653476364481 17.419987997252065 0 0 0 0 11.044024723055372 18.810415906632898 0 18.810415906632898 22.440298831253813 0 0 0 0 11.941448420768211 14.850892410119741 0 14.850892410119741 3.1645616657001483 0 0 0 0 0.36456715249778426 15.513312031647729 0 15.513312031647729 13.412834527042151 0 0 0 0 -1.9573318111802429 20.023740352049636 0 20.023740352049636 5.1400124044771474 0 0 0 0 -1.8946219182214215 9.0241750485489653 0 9.0241750485489653 0.92092924747157667 0 0 0 0 12.132336814787323 7.3816409467584663 0 7.3816409467584663 -0.73524167612094971 0 0 0 0 7.7981212452214095 8.9304707927312847 0 8.9304707927312847 8.9074173754462436 0 0 0 0 -38.116098221105858 4.6395746649010903 0 4.6395746649010903 8.5195034070286511 0 0 0 0 -36.448253458951967 10.163471964182861 0 10.163471964182861 23.778652788509362 0 0 0 0 -9.5187742752877966 34.689849045615347 0 34.689849045615347 21.09682702444502 0 0 0 0 -39.663136950961871 16.190954405964419 0 16.190954405964419 13.932417284177063 0 0 0 0 2.9130619178813504 16.473991140804969 0 16.473991140804969 6.4171152039613162 0 0 0 0 -52.57403266559777 28.758834367138206 0 28.758834367138206 34.412591028010524 0 0 0 0 13.700392763600121 52.80582487107776 0 52.80582487107776 42.917338758557207 0 0 0 0 -35.535962106453553 -8.4431574395460984 0 -8.4431574395460984 -3.3973102180067372 0 0 0 0 -67.560597741425227 -5.1804776679769589 0 -5.1804776679769589 18.22335534756985 0 0 0 0 -12.990756124658219 -8.9859847372180184 0 -8.9859847372180184 4.3823972497694967 0 0 0 0 -1.7269829982746518 -1.1984734693547647 0 -1.1984734693547647 3.0839314795215667 0 0 0 0 -36.222479600371571 -10.90711339876853 0 -10.90711339876853 6.6011134790385313 0 0 0 0 -23.345170245593181 9.6875500048488732 0 9.6875500048488732 -12.733819945936148 0 0 0 0 0.13178879727729509 -1.6999992324218738 0 -1.6999992324218738 0.27242782855529413 0 0 0 0 -0.047001732959286002 -0.17874353295993473 0 -0.17874353295993473 0.15876774043039266 0 0 0 0 1.9822922287835354 -4.8752780454508979 0 -4.8752780454508979 5.7208321570368525 0 0 0 0 -24.100263610416732 12.756338242292486 0 12.756338242292486 -1.7181473079367606 0 0 0 0 -1.6197980179207878 -1.0356404484453527 0 -1.0356404484453527 3.8510405294263874 0 0 0 0 -34.538500924139953 10.277247326042698 0 10.277247326042698 10.907926299008125 0 0 0 0 -20.116213717870323 -1.5700008219136805 0 -1.5700008219136805 9.782403403956323 0 0 0 0 -3.3597988134633852 5.0535841118597773 0 5.0535841118597773 1.515652934540185 0 0 0 0 -3.0259379276396174 -0.26513378385308428 0 -0.26513378385308428 2.4722997886900715 0 0 0 0 -3.5080238860089423 -3.2284271152655863 0 -3.2284271152655863 7.8573769611742819 0 0 0 0 -23.335121466888268 12.597280089296831 0 12.597280089296831 3.8852800697505678 0 0 0 0 -6.6650069061852264 -4.4177993808281855 0 -4.4177993808281855 -3.2005362489842355 0 0 0 0 -19.861535278670544 -1.2473607324210576 0 -1.2473607324210576 2.5887672466450482 0 0 0 0 -2.5593025861400278 -0.25343061575463821 0 -0.25343061575463821 3.4992591272741698 0 0 0 0 -6.2166352859612743 0.26274611569272111 0 0.26274611569272111 1.6265134123608149 0 0 0 0 -2.5547573865405253 0.22418280056342876 0 0.22418280056342876 3.7414288124605504 0 0 0 0 -18.221337025487628 21.073786253804428 0 21.073786253804428 -0.94776622876311478 0 0 0 0 -29.706878255282845 9.41308768067654 0 9.41308768067654 0.20353240337817624 0 0 0 0 -27.344366237844042 14.013071564330971 0 14.013071564330971 5.8907799592266201 0 0 0 0 -15.053881684481894 12.636763386420625 0 12.636763386420625 -4.4955446225059177 0 0 0 0 -15.921153586327819 13.887269917501499 0 13.887269917501499 3.3587848690306146 0 0 0 0 -17.866999773783391 20.179343183916899 0 20.179343183916899 9.7675960650864226 0 0 0 0 -12.009146297261395 16.985635101749835 0 16.985635101749835 1.251427520051493 0 0 0 0 -32.959789866195933 20.099727490196074 0 20.099727490196074 3.2642492482709713 0 0 0 0 -2.7131430177348541 0.51490962047378019 0 0.51490962047378019 -0.095186720671641467 0 0 0 0 -9.0839048104389803 10.147663423340106 0 10.147663423340106 -1.6903634607897402 0 0 0 0 -41.343722554802298 12.107426599213454 0 12.107426599213454 5.0953403581133898 0 0 0 0 -21.234594442466914 19.73449160217433 0 19.73449160217433 -5.098593601696308 0 0 0 0 -28.273688327863965 10.683032195629266 0 10.683032195629266 6.1709251109641627 0 0 0 0 -24.793136030282767 14.147745707930426 0 14.147745707930426 -0.82771418725701551 0 0 0 0 -11.740202416342072 3.9010034781285867 0 3.9010034781285867 5.0018241355064674 0 0 0 0 -13.718394590971002 9.6691423427782865 0 9.6691423427782865 3.8052022114607098 0 0 0 0 -34.441186852342071 11.914321403867689 0 11.914321403867689 10.977550328295365 0 0 0 0 -21.636953228193306 16.654976235127378 0 16.654976235127378 -10.623812169826124 0 0 0 0 -5.4463969483185792 5.6043294299597619 0 5.6043294299597619 2.4124855719601328 0 0 0 0 -14.369120496232323 7.7668619129991363 0 7.7668619129991363 -2.7994391793582629 0 0 0 0 -21.154831239393388 17.381268087894568 0 17.381268087894568 -6.0815235456648224 0 0 0 0 79.103748124939571 40.262098159121081 0 40.262098159121081 4.864736813377931 0 0 0 0 -4.6713865049022107 0.054560442065220371 0 0.054560442065220371 2.1402598776433086 0 0 0 0 -32.245899977750469 20.050676117600801 0 20.050676117600801 -1.0999299776594853 0 0 0 0 -29.743846187303461 -2.3144404091817705 0 -2.3144404091817705 -2.9699418725740543 0 0 0 0 -5.4520617470298598 4.7784880876570774 0 4.7784880876570774 -0.62787929748641602 0 0 0 0 -3.3938404166565306 1.9767736932153639 0 1.9767736932153639 1.2003711960296641 0 0 0 0 0.75762139162836206 18.223723098883653 0 18.223723098883653 -0.099369084099635074 0 0 0 0 -9.5124477379110477 4.3444830368452907 0 4.3444830368452907 0.24010520916068234 0 0 0 0 -16.312873127485677 9.2443979539763923 0 9.2443979539763923 0.0019556568171061883 0 0 0 0 11.846625619994711 24.399048667632997 0 24.399048667632997 14.024688432878975 0 0 0 0 0.94559857770491362 6.5298433986558848 0 6.5298433986558848 -4.4001136553715696 0 0 0 0 4.7985776635282491 22.258819498678804 0 22.258819498678804 -6.4479740869251145 0 0 0 0 0.36330862291697485 14.65954960404224 0 14.65954960404224 5.8299720351228643 0 0 0 0 -10.779780711514832 6.5584311822201471 0 6.5584311822201471 -4.3478791970637758 0 0 0 0 -8.6234260607889155 2.4406005748605821 0 2.4406005748605821 2.0328487625338312 0 0 0 0 -14.865817118068662 1.6193901870448002 0 1.6193901870448002 8.6563088229280538 0 0 0 0 -6.4415911655502853 -0.65839115986265151 0 -0.65839115986265151 5.111825684878502 0 0 0 0 -4.5339256867419344 2.3186698650331161 0 2.3186698650331161 4.070520137607966 0 0 0 0 -13.177064803838221 -0.64429704362345319 0 -0.64429704362345319 11.256778505652392 0 0 0 0 -4.2821249289252137 1.1824751149615054 0 1.1824751149615054 1.9666744549435862 0 0 0 0 -9.6512223707150042 -1.8866392710985735 0 -1.8866392710985735 5.9221824871374054 0 0 0 0 -3.5356504611697326 1.9077666801966831 0 1.9077666801966831 0.96736892050496603 0 0 0 0 -6.925162769665036 2.8319647980118532 0 2.8319647980118532 0.70432543807874026 0 0 0 0 -6.0305507273488956 -0.91342884165950977 0 -0.91342884165950977 0.34678238857503629 0 0 0 0 -3.7809177945085066 0.34158395864775626 0 0.34158395864775626 1.6257891196235845 0 0 0 0 -5.0555483668505277 -0.41218224516751145 0 -0.41218224516751145 1.1538767052259045 0 0 0 0 -7.396450260679444 0.057892232104904906 0 0.057892232104904906 2.6550177567728497 0 0 0 0 -4.3614780017087469 0.21565469927918457 0 0.21565469927918457 6.420019577485732 0 0 0 0 -2.2258058943771175 1.6338971730588128 0 1.6338971730588128 2.878860933172291 0 0 0 0 -3.0948579773964662 2.6156005597999812 0 2.6156005597999812 3.401607455714811 0 0 0 0 -10.269938083353871 1.9277972515315955 0 1.9277972515315955 2.3601250329096084 0 0 0 0 -5.4317182343675086 0.47404674351128051 0 0.47404674351128051 5.197381066833259 0 0 0 0 -4.0781015785927526 0.31503230227191681 0 0.31503230227191681 2.577059683589495 0 0 0 0 -5.5264868382037093 1.5074907223934133 0 1.5074907223934133 2.7083045430914581 0 0 0 0 5.9292473723835428 14.439631255497716 0 14.439631255497716 -19.554544195407288 0 0 0 0 0.074400758829163305 2.490596963081813 0 2.490596963081813 0.14753399837720177 0 0 0 0 -4.0553635854637378 9.6622927069670368 0 9.6622927069670368 0.78498697383838589 0 0 0 0 -1.7683995234856411 10.586296368825515 0 10.586296368825515 4.3066205341328896 0 0 0 0 -6.8506254022981921 1.2519499338141031 0 1.2519499338141031 0.548805375732627 0 0 0 0 -7.0792750297038083 5.0916136086848383 0 5.0916136086848383 0.32957938793104802 0 0 0 0 -4.8480450678794442 7.6999022149249168 0 7.6999022149249168 1.1922409008603152 0 0 0 0 -6.3282840829024281 4.611265999367788 0 4.611265999367788 3.3646044810193416 0 0 0 0 -5.705071330733734 5.0757064697100978 0 5.0757064697100978 4.6409472191378436 0 0 0 0 -7.6771594841522184 1.2505154168070982 0 1.2505154168070982 5.0512085466061327 0 0 0 0 -8.9931166818278143 1.7792374324253615 0 1.7792374324253615 5.0943076907424256 0 0 0 0 -10.355235344507491 3.3022104825213319 0 3.3022104825213319 5.4646637846635713 0 0 0 0 -8.7534264181140315 3.2803530866085566 0 3.2803530866085566 5.2287067359466164 0 0 0 0 -8.5834760793962879 2.8274018224951356 0 2.8274018224951356 2.7845224397904857 0 0 0 0 -7.7880014390430006 2.7286003788422022 0 2.7286003788422022 3.6974061887476637 0 0 0 0 -3.8019921579265685 2.535275280528186 0 2.535275280528186 3.8478428646698357 0 0 0 0 -1.8238312258064453 1.2785540577949517 0 1.2785540577949517 1.4912844027212149 0 0 0 0 -2.165681745751499 2.0089317444717381 0 2.0089317444717381 3.5807625180735272 0 0 0 0 -10.373217490505354 2.3498373991003003 0 2.3498373991003003 1.9351095540282373 0 0 0 0 -3.2917342006757528 2.1727100838469244 0 2.1727100838469244 0.51488493781860267 0 0 0 0 -4.6124333670249751 -0.29424787076647785 0 -0.29424787076647785 1.0232117182619844 0 0 0 0 -0.86903539853813605 2.7454176753553492 0 2.7454176753553492 1.1620678699502403 0 0 0 0 -6.1707269903473616 3.3648839671479891 0 3.3648839671479891 0.32440154909818375 0 0 0 0 -2.1495470263032841 0.57126535316280624 0 0.57126535316280624 1.1995962887943481 0 0 0 0 -9.487897334293848 2.0409746439341916 0 2.0409746439341916 0.80932580604348914 0 0 0 0 -1.0405741463887241 2.3559655802882382 0 2.3559655802882382 -0.026783648693301743 0 0 0 0 -5.7523002808190995 3.7316432781416324 0 3.7316432781416324 0.41408535861785367 0 0 0 0 -0.82536194089103243 1.2578087291607409 0 1.2578087291607409 0.76145828559360407 0 0 0 0 -3.8027994352051451 0.27685687930750191 0 0.27685687930750191 1.0781430393637379 0 0 0 0 -9.6608119343205985 2.8945291279379219 0 2.8945291279379219 2.1551480045973221 0 0 0 0 -4.0791799080072337 0.65466290739504984 0 0.65466290739504984 1.5679311810856404 0 0 0 0 -1.0194030485503989 0.40149675112669225 0 0.40149675112669225 0.37905492423794307 0 0 0 0 -5.771809988796349 1.9414466209799457 0 1.9414466209799457 0.24614655284904075 0 0 0 0 -9.7955408170722365 2.3322663940209623 0 2.3322663940209623 2.1402069868195213 0 0 0 0 -0.9413916429548026 2.1424640339118515 0 2.1424640339118515 0.28889527338847554 0 0 0 0 -7.288682587651806 2.0753603149784112 0 2.0753603149784112 0.67849968604457445 0 0 0 0 -1.2539685970262187 0.75394969401735845 0 0.75394969401735845 1.297343690056509 0 0 0 0 -3.5464901235448867 1.2986814535384417 0 1.2986814535384417 0.097055999116794522 0 0 0 0 -4.2203653441234792 0.28076334334406283 0 0.28076334334406283 -0.24690212931099609 0 0 0 0 -5.9862065074594852 4.016181029777675 0 4.016181029777675 0.75455505422374358 0 0 0 0 -4.7915731228021059 0.54513586228991784 0 0.54513586228991784 2.3383266356715069 0 0 0 0 -2.8467491964977967 2.9053126601131538 0 2.9053126601131538 2.2708991334288839 0 0 0 0 -2.7464524082726589 1.1017299261810345 0 1.1017299261810345 2.1968500584587449 0 0 0 0 -5.3099955797492839 -0.89793113863563079 0 -0.89793113863563079 1.0544015442451533 0 0 0 0 -3.337583931953946 -0.44552943636941528 0 -0.44552943636941528 1.1890263503869067 0 0 0 0 -3.9935652941449371 0.71564824584974751 0 0.71564824584974751 1.5671720600195205 0 0 0 0 -2.7650165012094021 0.84008930435413731 0 0.84008930435413731 -0.58198158000971034 0 0 0 0 -6.1738293379150946 0.17701015674046516 0 0.17701015674046516 1.0916287815978762 0 0 0 0 -4.8914336468025681 -0.23477286833819377 0 -0.23477286833819377 0.032133917015869429 0 0 0 0 -3.6735358042744348 0.19068950794682604 0 0.19068950794682604 -0.19541076745252162 0 0 0 0 -2.6401645923161778 0.74232411335137605 0 0.74232411335137605 0.58948988691669468 0 0 0 0 -4.9590619314249516 0.93326568188032533 0 0.93326568188032533 0.82793744997053409 0 0 0 0 -5.0057058171577253 -1.0570389619363292 0 -1.0570389619363292 0.94349668146776366 0 0 0 0 -3.7384014471775782 0.23028262298406171 0 0.23028262298406171 0.2043613190728166 0 0 0 0 -3.6420019269688835 0.55696316733594786 0 0.55696316733594786 1.0820013859346413 0 0 0 0 -5.9640366109599654 -0.69418564412160322 0 -0.69418564412160322 1.5650545224806081 0 0 0 0 -10.282359897289552 0.89227321917517344 0 0.89227321917517344 8.5666011964162863 0 0 0 0 -5.0805017969082655 8.9834610736061364 0 8.9834610736061364 2.3231328442817301 0 0 0 0 -6.5090336238208693 -4.937807554814583 0 -4.937807554814583 7.7087718411952437 0 0 0 0 -1.3251591795157003 -0.47664616660515513 0 -0.47664616660515513 0.13041695303527212 0 0 0 0 0.9051901281886785 12.234226161540747 0 12.234226161540747 14.237860165865072 0 0 0 0 -9.3130632420079564 11.318457198339765 0 11.318457198339765 6.5568903042972408 0 0 0 0 -9.4400288288043157 5.7352929189009103 0 5.7352929189009103 22.102692657298579 0 0 0 0 -24.286682703312636 -15.476321307456189 0 -15.476321307456189 17.664540505319337 0 0 0 0 -0.3845510566770578 -0.13715363717713558 0 -0.13715363717713558 -0.059497003631669071 0 0 0 0 -0.070303714874171419 -4.875343946744124 0 -4.875343946744124 -7.9211789570578333 0 0 0 0 -3.0757550165535577 -3.1247951003489618 0 -3.1247951003489618 10.089541108936523 0 0 0 0 -5.5559336162289128 -20.10104288658561 0 -20.10104288658561 -10.043259404017448 0 0 0 0 -6.2840882948803483 1.9431235573881942 0 1.9431235573881942 8.1509828301790748 0 0 0 0 -0.57170948172953739 -0.18756781402766798 0 -0.18756781402766798 0.17148903350676536 0 0 0 0 -7.4300048084146511 0.31040515694325066 0 0.31040515694325066 0.11698850874787003 0 0 0 0 -7.5171910129010415 0.035036549164749298 0 0.035036549164749298 0.4919115228999148 0 0 0 0 -9.3502723086385231 -0.44489972719281923 0 -0.44489972719281923 0.093358469757021112 0 0 0 0 -4.0003042713293704 -1.2004953038522608 0 -1.2004953038522608 0.58854057270227256 0 0 0 0 -10.511138129385984 1.3938076312818009 0 1.3938076312818009 -0.51823062888539084 0 0 0 0 -3.2595792499651539 -0.51847309974141509 0 -0.51847309974141509 0.38732392682244826 0 0 0 0 -18.511740735511921 -6.1991316486207211 0 -6.1991316486207211 26.683158080240474 0 0 0 0 -4.2359162802248651 -0.59176899982450604 0 -0.59176899982450604 0.073276326156390834 0 0 0 0 8.9447205851029139 -15.474780228348664 0 -15.474780228348664 2.1154593810879305 0 0 0 0 -1.5202150034085928 0.15993957287606708 0 0.15993957287606708 0.78348054134908984 0 0 0 0 -6.5046842798965372 -0.24126811792659986 0 -0.24126811792659986 0.45340627429309421 0 0 0 0 -6.6383224857249843 -0.68540803874558076 0 -0.68540803874558076 0.05057233416772533 0 0 0 0 -5.0467221080168656 0.84893339172398363 0 0.84893339172398363 0.43547373532046507 0 0 0 0 -7.4742583110191845 -0.20076549377107611 0 -0.20076549377107611 0.47922969773261315 0 0 0 0 -8.6481779055375227 -0.50169218674918348 0 -0.50169218674918348 0.59247439208068009 0 0 0 0 -1.8894643342139461 0.1683860127589285 0 0.1683860127589285 0.18683635465505433 0 0 0 0 -7.5244738166697687 -0.5741730205310126 0 -0.5741730205310126 -0.28711384197076839 0 0 0 0 -9.1559325659459887 0.62636097194548768 0 0.62636097194548768 0.11564752303387138 0 0 0 0 -5.2356945516406643 -1.3507674315781428 0 -1.3507674315781428 0.30240415673475984 0 0 0 0 -1.4818959386935981 -0.054563173366898754 0 -0.054563173366898754 0.00038113594636322856 0 0 0 0 -1.4555012878548053 0.10713858752844241 0 0.10713858752844241 -0.60099896490804761 0 0 0 0 -7.3168530300213206 0.20276486643707159 0 0.20276486643707159 -0.89852240278951889 0 0 0 0 -7.5278799740435716 -0.78614346121766943 0 -0.78614346121766943 -0.29746452536776991 0 0 0 0 -4.2486240759941083 0.69435755463019089 0 0.69435755463019089 -0.13865255246262137 0 0 0 0 -3.7501929006322996 -0.59473703122071275 0 -0.59473703122071275 -0.01850080141717006 0 0 0 0 -2.451020650169994 0.35330906681316065 0 0.35330906681316065 -0.11323594989985963 0 0 0 0 -2.7959666680969044 -0.50938708267597432 0 -0.50938708267597432 -0.47997139503323871 0 0 0 0 -7.5929266296311653 -0.31584492986188639 0 -0.31584492986188639 -0.11017065166777185 0 0 0 0 -3.8336186827316681 -0.3883342145772275 0 -0.3883342145772275 -0.10049054705405069 0 0 0 0 -3.4078217229283494 1.2322710242726338 0 1.2322710242726338 0.081464141092337294 0 0 0 0 -5.9241103886351993 -0.63048835870234132 0 -0.63048835870234132 -0.31534489195688309 0 0 0 0 -214.92773690111781 87.171701540806794 0 87.171701540806794 -8.2411272522343015 0 0 0 0 -3.7068132499537541 -1.1611326727418245 0 -1.1611326727418245 1.0137280787069036 0 0 0 0 -215.08860498116726 84.263310940092751 0 84.263310940092751 -28.773384795559423 0 0 0 0 -107.91995300821225 39.107695905374499 0 39.107695905374499 -37.565039471195263 0 0 0 0 -150.51767667068566 62.697001501455844 0 62.697001501455844 -22.092456776782342 0 0 0 0 -3.2371839334070094 -0.78025508450540149 0 -0.78025508450540149 0.14591015955217743 0 0 0 0 6.8650326347199098 9.0180221857565712 0 9.0180221857565712 8.4716814019019875 0 0 0 0 3.5856907406944174 -0.85688559791817731 0 -0.85688559791817731 -10.32129495034903 0 0 0 0 -1.6585357423413454 -0.71974989096229036 0 -0.71974989096229036 -0.067134051500698469 0 0 0 0 -59.424275031293746 -34.389406886497824 0 -34.389406886497824 27.364021181168191 0 0 0 0 -1.6657115246666381 -0.055462833801567246 0 -0.055462833801567246 0.094156247605444818 0 0 0 0 7.251844890108714 -0.09208770051673465 0 -0.09208770051673465 -19.716995542253677 0 0 0 0 -499.25411354024948 275.13733385769046 0 275.13733385769046 -113.05216295491452 0 0 0 0 -27.614871937123098 121.89399571095555 0 121.89399571095555 -45.841613236018411 0 0 0 0 -496.0464919950532 -19.859129324000051 0 -19.859129324000051 31.449753757144592 0 0 0 0 -2.4182253470706909 -0.78986767883103981 0 -0.78986767883103981 0.12213125474497143 0 0 0 0 -57.363973706467448 -50.94843788992106 0 -50.94843788992106 -32.141955614302297 0 0 0 0 -0.61825877856626921 -1.1763770642845106 0 -1.1763770642845106 -0.036225178658192581 0 0 0 0 -170.79909796708944 -345.38681272247499 0 -345.38681272247499 -223.3999960839233 0 0 0 0 -0.97709952248565646 -0.16325480980404694 0 -0.16325480980404694 -0.3306661309605114 0 0 0 0 -2.0694249954503903 -1.1279558900179723 0 -1.1279558900179723 0.67102897500362246 0 0 0 0 -7.296529441758679 -0.2349376039497173 0 -0.2349376039497173 0.0056825476147963627 0 0 0 0 -14.630889298531883 -2.8439868748583841 0 -2.8439868748583841 21.890977918066703 0 0 0 0 -4.2874636188139927 0.052694486344457392 0 0.052694486344457392 0.28269361161495488 0 0 0 0 -3.2255364921820728 -1.1875018166696236 0 -1.1875018166696236 0.43741655273714741 0 0 0 0 -4.0708908855352206 -0.93366799483201346 0 -0.93366799483201346 0.75257544929252163 0 0 0 0 -3.2759957201558754 -0.84879714682348295 0 -0.84879714682348295 -0.041558119908747679 0 0 0 0 -8.2255254885760678 -1.8920360400721137 0 -1.8920360400721137 8.6482900916816021 0 0 0 0 -2.4469478609090034 -2.7845516456746799 0 -2.7845516456746799 0.15172847719011806 0 0 0 0 -6.2216617074873284 -2.7880898427531733 0 -2.7880898427531733 -4.3992694044627143 0 0 0 0 -4.7837595714036532 -0.49265253063013081 0 -0.49265253063013081 0.79358518099045772 0 0 0 0 -196.58954705354336 -73.961157544450174 0 -73.961157544450174 -38.126542807380815 0 0 0 0 -499.35331811406968 -147.57756646998251 0 -147.57756646998251 44.395616759378782 0 0 0 0 -221.63431172337323 -25.707955490841258 0 -25.707955490841258 14.029479590599808 0 0 0 0 -287.61169323198794 31.284343844439675 0 31.284343844439675 45.191109322181063 0 0 0 0 -499.93483948647031 62.830100797152717 0 62.830100797152717 45.546452674403319 0 0 0 0 -1.71226416311052 -2.2606986140147396 0 -2.2606986140147396 0.016480775231868503 0 0 0 0 -417.31607556189556 103.25866362607579 0 103.25866362607579 -23.471792186958353 0 0 0 0 3.9681967796491335 -26.087222845772182 0 -26.087222845772182 21.371166847244087 0 0 0 0 -13.035639452661144 -14.320220923573997 0 -14.320220923573997 17.005887975727767 0 0 0 0 -10.314156158097376 1.144060603638497 0 1.144060603638497 14.914398890241287 0 0 0 0 6.9371112089933149 -8.766857787194855 0 -8.766857787194855 10.018644998199335 0 0 0 0 -20.063584832767901 0.94923871157514128 0 0.94923871157514128 16.60217564096148 0 0 0 0 -10.271517872502955 -8.0755255771797962 0 -8.0755255771797962 19.550515292447038 0 0 0 0 -15.973181328951341 0.19480393997428802 0 0.19480393997428802 2.1413687048789383 0 0 0 0 -5.6256535077550325 8.9458304248263012 0 8.9458304248263012 9.3349191613649509 0 0 0 0 -26.795390477574983 23.453211252806199 0 23.453211252806199 -4.7954038279096203 0 0 0 0 -3.2693921358999187 -0.74464405670337364 0 -0.74464405670337364 1.9316037554375005 0 0 0 0 -1.0009277289902911 -4.8290810522605412 0 -4.8290810522605412 4.9485690620850846 0 0 0 0 -20.578052604243908 14.937111014382902 0 14.937111014382902 -18.233486387369741 0 0 0 0 56.760835613423296 -93.405738920547165 0 -93.405738920547165 4.1138391267775578 0 0 0 0 -499.98142617418455 138.51609015474281 0 138.51609015474281 -37.241782627242593 0 0 0 0 -0.95402177832595569 -0.79608387498268574 0 -0.79608387498268574 -0.017457585676611691 0 0 0 0 -45.007697623702143 4.6290400014489306 0 4.6290400014489306 27.079703156215388 0 0 0 0 -19.732988046196169 70.810924459167268 0 70.810924459167268 -175.60688070844913 0 0 0 0 -0.86618930575460951 0.24454600952365446 0 0.24454600952365446 -1.1183576801956678 0 0 0 0 -47.262368073057132 69.791577341134825 0 69.791577341134825 -136.36947310762076 0 0 0 0 66.216624884740213 -49.656099282335845 0 -49.656099282335845 -93.11513385997074 0 0 0 0 7.7759662677221968 -149.42384370590889 0 -149.42384370590889 35.459249337333631 0 0 0 0 -62.295193445837626 -52.572273750239681 0 -52.572273750239681 36.201017556142688 0 0 0 0 -35.168154922555459 8.4087768816245898 0 8.4087768816245898 4.5317436287793953 0 0 0 0 -0.15446998140758605 0.35666393649458883 0 0.35666393649458883 0.73744592915095941 0 0 0 0 -141.13206381155078 85.625696271170341 0 85.625696271170341 37.331882857415394 0 0 0 0 -29.949790166162529 -39.986245215315371 0 -39.986245215315371 85.213982249950007 0 0 0 0 1.1262580147364005 1.5441078811857549 0 1.5441078811857549 1.8355350102700887 0 0 0 0 -34.430708521584165 69.089292014883398 0 69.089292014883398 -8.82667623406563 0 0 0 0 -53.707114798664861 45.96933668123512 0 45.96933668123512 -35.514899956825715 0 0 0 0 -53.711912793184183 63.553080324986695 0 63.553080324986695 -28.941508252441622 0 0 0 0 -1.679397640257843 -1.3984533684677709 0 -1.3984533684677709 -1.795551533509931 0 0 0 0 -3.3144516615602697 2.584674307845944 0 2.584674307845944 3.2891265405610284 0 0 0 0 -0.77907570344953658 -0.41355489838113879 0 -0.41355489838113879 0.39014552088914645 0 0 0 0 -0.63118527411825198 7.4480417565514472 0 7.4480417565514472 -14.140221887116695 0 0 0 0 -17.290964224375216 12.207585013356379 0 12.207585013356379 -7.5709152562476447 0 0 0 0 -21.164277301024413 71.390993735119309 0 71.390993735119309 -64.218621234860393 0 0 0 0 -2.00618580319661 -0.1868757895334443 0 -0.1868757895334443 -0.85635540869368221 0 0 0 0 -11.751419448940396 -15.969269521312754 0 -15.969269521312754 8.6871138286060159 0 0 0 0 -14.771231255854701 14.092818576222868 0 14.092818576222868 14.673227330261852 0 0 0 0 -30.266015296740306 -14.898048301313793 0 -14.898048301313793 -9.4605305831522628 0 0 0 0 -53.63766462204876 17.533789725443057 0 17.533789725443057 -7.4182430256723819 0 0 0 0 -6.2796440544418903 1.7631873183184137 0 1.7631873183184137 -1.2509903005646703 0 0 0 0 -10.443966084711008 9.8643172397184458 0 9.8643172397184458 -3.6896558560424637 0 0 0 0 -15.688669683763237 3.1520775749847871 0 3.1520775749847871 1.7080824665372347 0 0 0 0 -15.82042219838695 2.738488174946724 0 2.738488174946724 2.7732187202693694 0 0 0 0 34.588517041931482 -10.136343244533236 0 -10.136343244533236 -10.41833580786215 0 0 0 0 -8.8010975553690933 1.7993008009797995 0 1.7993008009797995 -0.081457841781232609 0 0 0 0 -0.61934163115027285 0.099158629555292421 0 0.099158629555292421 -0.15654502374113122 0 0 0 0 2.5039723322176997 -3.8566756355694451 0 -3.8566756355694451 -45.330386816568534 0 0 0 0 -8.4233994388376914 -30.48124490431826 0 -30.48124490431826 -89.838860290680259 0 0 0 0 -19.986797835374091 -36.842906765007911 0 -36.842906765007911 -80.688616973652643 0 0 0 0 -70.009473395312625 -110.39053124791985 0 -110.39053124791985 -139.5837460379301 0 0 0 0 17.683314520451404 -23.322152318883752 0 -23.322152318883752 -145.19814463973216 0 0 0 0 -15.966141287483197 12.856241529483896 0 12.856241529483896 -6.4488148846398872 0 0 0 0 -0.94278668752323291 -0.61206261460549527 0 -0.61206261460549527 -0.61903087698124715 0 0 0 0 -133.71521965387277 104.44337833333903 0 104.44337833333903 -62.809017889282359 0 0 0 0 -122.90747937526794 -7.4756993972133614 0 -7.4756993972133614 -3.4793853583092869 0 0 0 0 -3.1451704252782071 -1.2464391106966424 0 -1.2464391106966424 -1.3837182666336934 0 0 0 0 -12.102364950770664 -23.556217242919459 0 -23.556217242919459 11.855638444230863 0 0 0 0 -218.69634552810476 94.222859399351591 0 94.222859399351591 -33.573189052194493 0 0 0 0 -148.44875507598931 -76.551870775166662 0 -76.551870775166662 -111.17878445434326 0 0 0 0 -46.947684901078219 0.096122815477428958 0 0.096122815477428958 -195.39128622625094 0 0 0 0 -211.38802453708138 -47.987238720150003 0 -47.987238720150003 -65.626143647208664 0 0 0 0 -138.39044464670087 53.774770179929192 0 53.774770179929192 -126.06685908488998 0 0 0 0 -46.00674433504787 30.638125353809755 0 30.638125353809755 -96.048779116933716 0 0 0 0 -39.81514750481756 -26.045858701454335 0 -26.045858701454335 -101.30014212320819 0 0 0 0 -10.294969835464144 -21.579470796295823 0 -21.579470796295823 -73.458638101717384 0 0 0 0 -5.5718181306619954 -2.4668915025870319 0 -2.4668915025870319 -83.746745217466014 0 0 0 0 -25.210994395821444 -38.774709122493277 0 -38.774709122493277 -65.966416194794732 0 0 0 0 -8.5324669090423413 -15.665931847014122 0 -15.665931847014122 -60.333891662739688 0 0 0 0 -13.185859735047529 -11.523490863810139 0 -11.523490863810139 -101.31909102355644 0 0 0 0 -32.852633584927617 2.9347582939465156 0 2.9347582939465156 -57.99851865164726 0 0 0 0 -16.262899096623414 -63.594484652158712 0 -63.594484652158712 -82.327585412032334 0 0 0 0 -14.805174438632321 0.55626218894053636 0 0.55626218894053636 -35.242917900938295 0 0 0 0 -11.076622871362702 4.8977198049525441 0 4.8977198049525441 -38.052747506660126 0 0 0 0 -10.791012581812311 -12.972674185719939 0 -12.972674185719939 -63.137360684388227 0 0 0 0 -6.979601425079295 -5.0248007656284699 0 -5.0248007656284699 -47.39656042943875 0 0 0 0 -4.9653318474395292 3.9663678952344981 0 3.9663678952344981 -45.59554602787216 0 0 0 0 -25.993086075919109 -19.716535597843631 0 -19.716535597843631 -49.945148586407669 0 0 0 0 -22.649284798780627 -11.75647726189851 0 -11.75647726189851 -35.212594311734165 0 0 0 0 -32.135390706071576 -2.91917870028891 0 -2.91917870028891 -38.865281554277317 0 0 0 0 -46.177946371734265 -13.91882332219933 0 -13.91882332219933 -33.714497095617844 0 0 0 0 -38.068035505511148 -22.516692010486565 0 -22.516692010486565 -34.996668206121512 0 0 0 0 -21.833993466647485 -27.621788264141912 0 -27.621788264141912 -35.079915320672626 0 0 0 0 -37.07501328347098 -20.211860452105782 0 -20.211860452105782 -30.039435893493305 0 0 0 0 -50.648043096100992 -10.423197844646324 0 -10.423197844646324 -29.341130910760931 0 0 0 0 -36.841678036341818 -27.743666570261723 0 -27.743666570261723 -16.159864474635668 0 0 0 0 -25.878649995739011 -48.151253460619216 0 -48.151253460619216 -21.051531334192987 0 0 0 0 -35.957605872356567 -27.717829028272604 0 -27.717829028272604 -23.060233402921313 0 0 0 0 -46.941912645961452 -21.828111668539975 0 -21.828111668539975 -10.653606539284056 0 0 0 0 -28.498065921280386 -4.032150483269163 0 -4.032150483269163 1.2065289316759049 0 0 0 0 -38.030301784775475 -15.957583498526333 0 -15.957583498526333 -16.510968527514422 0 0 0 0 -34.964516908760174 -18.59212867051869 0 -18.59212867051869 -14.578733680134064 0 0 0 0 -32.175943430364896 -4.8065977382768779 0 -4.8065977382768779 -5.7114250491422354 0 0 0 0 -20.308191423822905 -8.2025383536536651 0 -8.2025383536536651 -9.8020964442889635 0 0 0 0 -16.177857788519418 3.7227660810164025 0 3.7227660810164025 -1.1739214350989187 0 0 0 0 -15.71391883446654 -5.9082102398937764 0 -5.9082102398937764 -7.9426644837307094 0 0 0 0 -65.927400144400977 -12.426132721452547 0 -12.426132721452547 -16.77944583466433 0 0 0 0 -39.943341129725923 -20.530363150354106 0 -20.530363150354106 -20.99869843767874 0 0 0 0 -37.885068079905977 -17.176751024035127 0 -17.176751024035127 -15.377923791027001 0 0 0 0 -51.286962080917192 -10.522540022783915 0 -10.522540022783915 -14.816839702110229 0 0 0 0 -52.472362298569351 -15.503874738931984 0 -15.503874738931984 -19.713055494133869 0 0 0 0 -73.381230764698557 -11.024782974860727 0 -11.024782974860727 -10.436506456379391 0 0 0 0 -48.225028030053636 -19.114159521893214 0 -19.114159521893214 -17.480314717379315 0 0 0 0 -28.352272313129561 -11.013470230180701 0 -11.013470230180701 -9.9198347369583644 0 0 0 0 -41.900235974151315 -4.0224954774240871 0 -4.0224954774240871 -9.8394788594093825 0 0 0 0 -35.458434140166446 -12.912042062051171 0 -12.912042062051171 -11.837475672744972 0 0 0 0 -23.020684891502015 5.0072196107819309 0 5.0072196107819309 -9.2651218193046816 0 0 0 0 -53.48021592368562 -5.1399336304473451 0 -5.1399336304473451 -8.4630661103732336 0 0 0 0 -4.2468303282050783 0.16267118907410349 0 0.16267118907410349 -4.3848339199904558 0 0 0 0 -24.942972885148265 1.7030834786438618 0 1.7030834786438618 -2.2252899836354345 0 0 0 0 -23.661496172528587 2.8457950749519796 0 2.8457950749519796 5.1436159005610307 0 0 0 0 -8.8077480858437411 0.66688960007127207 0 0.66688960007127207 -7.9795626217293147 0 0 0 0 7.0321492843465876 9.5227949286506828 0 9.5227949286506828 3.5927980000464004 0 0 0 0 -9.9193217672796976 10.570328603585896 0 10.570328603585896 9.1124973747569129 0 0 0 0 9.9734439642563757 23.80123966953704 0 23.80123966953704 19.606031402450981 0 0 0 0 -8.4876413608141572 3.0071598316552999 0 3.0071598316552999 5.7241025541671666 0 0 0 0 12.134686873221654 20.933270643571845 0 20.933270643571845 13.238770984137773 0 0 0 0 7.7803091128375854 6.5346450293062048 0 6.5346450293062048 6.0683839526757311 0 0 0 0 9.141589184295384 8.8815357973451796 0 8.8815357973451796 3.3734675346737504 0 0 0 0 -1.5300407565164278 11.786593466337763 0 11.786593466337763 6.6616753722623798 0 0 0 0 1.2306934997036478 1.4733410424777276 0 1.4733410424777276 -4.5044295488146417 0 0 0 0 3.7295575625947777 9.1662988750491223 0 9.1662988750491223 4.3910406785264513 0 0 0 0 0.14967554299045105 -1.5485318322143797 0 -1.5485318322143797 0.76614304763234031 0 0 0 0 3.6205930638238897 3.526361085796907 0 3.526361085796907 -2.1121567171395554 0 0 0 0 -10.188357161693432 7.186768226729157 0 7.186768226729157 -3.0800326044604844 0 0 0 0 0.31094303260124434 -1.9293437543395271 0 -1.9293437543395271 -8.7340118528292123 0 0 0 0 -5.9643265693503054 64.717728768019981 0 64.717728768019981 -64.057697982635659 0 0 0 0 -85.631262589474261 54.428766977994357 0 54.428766977994357 0.60386310267551835 0 0 0 0 2.354524205997599 4.2566025764489348 0 4.2566025764489348 3.9661207655598387 0 0 0 0 -38.802233731890738 15.944519260230379 0 15.944519260230379 22.249485602818282 0 0 0 0 5.8514852378901878 9.5693753581542467 0 9.5693753581542467 7.1024836180404236 0 0 0 0 -7.6388914449462391 2.6864716066496115 0 2.6864716066496115 6.2707900394704668 0 0 0 0 9.0813447514124164 12.834872436032867 0 12.834872436032867 6.2690276696353919 0 0 0 0 -21.173353606006458 -27.826331982841481 0 -27.826331982841481 -31.598505859067473 0 0 0 0 -174.75438218418276 50.583345248099647 0 50.583345248099647 0.9540069822542705 0 0 0 0 -0.01356751714901705 0.4767311625971562 0 0.4767311625971562 0.28709958266893676 0 0 0 0 0.92429104188727251 13.658890500797298 0 13.658890500797298 -10.70292852378725 0 0 0 0 -34.983875315310996 -23.889364119878493 0 -23.889364119878493 -15.932687389989724 0 0 0 0 -20.190826043992274 -21.525724179633812 0 -21.525724179633812 -7.7729179330502305 0 0 0 0 -6.7853231838698775 -5.5077833233997922 0 -5.5077833233997922 -11.026473955078245 0 0 0 0 -21.565131578240653 -11.155014581313026 0 -11.155014581313026 -7.2945527040499201 0 0 0 0 -47.751527457859083 -13.842774495823278 0 -13.842774495823278 0.82519016019386981 0 0 0 0 -35.000721638180949 -13.309149236658186 0 -13.309149236658186 -9.5331587568553005 0 0 0 0 -24.923692141587935 -22.293191143399866 0 -22.293191143399866 -10.672129207904618 0 0 0 0 -78.222218687723398 -30.995185946683591 0 -30.995185946683591 -2.7811449986349999 0 0 0 0 -75.348205544683879 17.023643280998499 0 17.023643280998499 29.134746508641456 0 0 0 0 -190.00332707835969 -7.9091036385088955 0 -7.9091036385088955 24.975706328077933 0 0 0 0 -96.950782768802128 -62.088836213825971 0 -62.088836213825971 -26.728265720648778 0 0 0 0 -94.59810823935004 172.50366796421648 0 172.50366796421648 -18.179131535364832 0 0 0 0 -19.394136266274472 10.244277136564847 0 10.244277136564847 -18.142859575610487 0 0 0 0 55.57555140514296 16.887434301377198 0 16.887434301377198 -23.925568753780226 0 0 0 0 -2.1065964668318262 -3.4178257339721005 0 -3.4178257339721005 -5.5971614248107802 0 0 0 0 -40.068856584573027 25.119897999594233 0 25.119897999594233 -10.438808393678755 0 0 0 0 -15.308681763956884 12.912294263359968 0 12.912294263359968 -18.638471315033598 0 0 0 0 -14.572047132961188 17.110150135546036 0 17.110150135546036 -7.7127157523134429 0 0 0 0 -13.653633531645823 12.084757470717093 0 12.084757470717093 -12.553744513710626 0 0 0 0 -12.223610060917053 7.2196750796881588 0 7.2196750796881588 -6.1846252222889291 0 0 0 0 -19.434575737338037 15.727988873398942 0 15.727988873398942 -11.958911635094182 0 0 0 0 -19.415789806294015 15.719989317668023 0 15.719989317668023 -14.57907794386233 0 0 0 0 -19.420130185446396 10.650527247302762 0 10.650527247302762 -9.1609784907834637 0 0 0 0 -22.918991804865982 8.0111728384231355 0 8.0111728384231355 -5.3918253579670363 0 0 0 0 -16.437623637400975 10.58672163696815 0 10.58672163696815 -10.339512811362283 0 0 0 0 -18.174252173728746 5.1045454079201136 0 5.1045454079201136 -1.3990458937085464 0 0 0 0 -16.396795215896418 7.3589376360293954 0 7.3589376360293954 -7.0107354540607503 0 0 0 0 -21.035876003865269 8.6558168045753519 0 8.6558168045753519 -6.2404984252530085 0 0 0 0 -16.488401730937312 11.480933219018027 0 11.480933219018027 -4.0171969678094683 0 0 0 0 -9.3860861242819738 -0.61878263225696628 0 -0.61878263225696628 -3.4757189646977622 0 0 0 0 -8.5333219943486256 -4.2814819935780406 0 -4.2814819935780406 1.1338216799274505 0 0 0 0 -3.9073432750083832 0.4421693904669759 0 0.4421693904669759 0.2825636764513586 0 0 0 0 -12.887685950190416 3.1863646103277574 0 3.1863646103277574 3.1111913023480611 0 0 0 0 -12.243638580926699 4.0437399097231435 0 4.0437399097231435 -4.739759799786043 0 0 0 0 -15.77132475129838 3.9043301994802277 0 3.9043301994802277 -7.920615927911058 0 0 0 0 -13.894406935061852 0.11641773246105913 0 0.11641773246105913 -0.20412181301435339 0 0 0 0 -15.485457680068066 4.300238872723412 0 4.300238872723412 -7.3813709539504089 0 0 0 0 -12.621780777446475 -2.0200989544459844 0 -2.0200989544459844 -4.0441459385149301 0 0 0 0 -17.063389769871719 0.5375506608629621 0 0.5375506608629621 -10.704676371692699 0 0 0 0 -21.362316721456864 4.1057721414175603 0 4.1057721414175603 -10.72364498661409 0 0 0 0 -23.250527028265424 10.090176695396849 0 10.090176695396849 -8.7631191255645717 0 0 0 0 -18.610456990592866 8.4331122417286224 0 8.4331122417286224 -14.260197890912195 0 0 0 0 -26.009044884069226 19.943814332160514 0 19.943814332160514 -28.691788270981306 0 0 0 0 -22.716080553800566 11.37565974898007 0 11.37565974898007 -9.5995409711517823 0 0 0 0 -22.62011396919479 -1.0541029250784959 0 -1.0541029250784959 -26.47849704146779 0 0 0 0 -2.4588029444760462 -2.9259601929831645 0 -2.9259601929831645 -3.4085953899021639 0 0 0 0 -73.620186663411346 -10.67016620581526 0 -10.67016620581526 -14.414930525144996 0 0 0 0 0.62104787665975891 -10.787416397114612 0 -10.787416397114612 -19.045295504630303 0 0 0 0 -0.34188043428260251 -0.043061342679352244 0 -0.043061342679352244 -0.2171164210213159 0 0 0 0 -43.572967620269083 24.662672871538916 0 24.662672871538916 2.7523477029512833 0 0 0 0 -84.694215764578075 125.46375279058353 0 125.46375279058353 -43.724981837458273 0 0 0 0 -3.2807617433690801 -0.94345615832058272 0 -0.94345615832058272 0.64522785535420901 0 0 0 0 -136.29197079800724 -165.28202710628454 0 -165.28202710628454 -30.226116054213072 0 0 0 0 -2.5540659865919357 -3.794859334295392 0 -3.794859334295392 -5.5419979145789453 0 0 0 0 -27.717079896166979 7.1741540699152893 0 7.1741540699152893 -2.9104949658394617 0 0 0 0 -27.622759524326284 6.3122101368355743 0 6.3122101368355743 -9.1566294503957124 0 0 0 0 -22.128763150028362 10.094125055390748 0 10.094125055390748 -6.5702915631436554 0 0 0 0 -25.206696125138478 9.8889379622983142 0 9.8889379622983142 -6.3087748788993849 0 0 0 0 -20.723292058072275 9.0780821553971123 0 9.0780821553971123 -8.6815575457312661 0 0 0 0 -34.981625946704298 10.222216353843351 0 10.222216353843351 2.2571030265960985 0 0 0 0 -27.084415581377471 13.245111246746774 0 13.245111246746774 -8.3535238347467384 0 0 0 0 -11.463650404275915 -1.2357267531666709 0 -1.2357267531666709 2.4539787482866036 0 0 0 0 0.15441644072780036 -4.4456058176423312 0 -4.4456058176423312 5.0251776641572867 0 0 0 0 2.9123457153991694 -16.821525162409557 0 -16.821525162409557 6.0847022980576639 0 0 0 0 8.7873843460456555 -8.3392600286614424 0 -8.3392600286614424 -3.7446756200909022 0 0 0 0 1.3250468394940071 -0.23770416008092354 0 -0.23770416008092354 -8.695853341291695 0 0 0 0 -3.1101585172709747 5.9894958579858439 0 5.9894958579858439 -2.6783598433057136 0 0 0 0 -4.1278520888663479 -1.8554457154826878 0 -1.8554457154826878 -5.962247865025347 0 0 0 0 -8.6354547833052493 3.9706440695304082 0 3.9706440695304082 6.0399875231264133 0 0 0 0 -8.6716809138824829 4.0810412965445551 0 4.0810412965445551 -13.698604361767138 0 0 0 0 -7.2555354056057695 -11.594615909012987 0 -11.594615909012987 -15.519354140404658 0 0 0 0 -6.448171971613192 -8.0532412389594583 0 -8.0532412389594583 -0.75657462396054598 0 0 0 0 -32.680074008084375 5.5738991826522692 0 5.5738991826522692 -2.7887319842579927 0 0 0 0 -92.638470043597863 31.821852075767282 0 31.821852075767282 1.1291025543637261 0 0 0 0 -0.4570097837626097 -0.22184376579004628 0 -0.22184376579004628 0.35048742745237327 0 0 0 0 -65.97242078715044 -23.6645336706801 0 -23.6645336706801 -2.2402159256591858 0 0 0 0 -40.077111619897096 -71.746093900178607 0 -71.746093900178607 26.4020428239983 0 0 0 0 -18.673034281253649 -21.431239443363722 0 -21.431239443363722 -26.494246994462401 0 0 0 0 -0.56621027744450991 -0.24208882818783195 0 -0.24208882818783195 0.024692351689214354 0 0 0 0 -9.2826093881494671 -18.529391124396398 0 -18.529391124396398 -9.3279908154245277 0 0 0 0 4.1207391099987944 -2.8087350648894756 0 -2.8087350648894756 -16.002819962911303 0 0 0 0 -98.314212165898425 43.396940349370084 0 43.396940349370084 -18.337681151173165 0 0 0 0 -34.583778366310071 -3.0033231355117778 0 -3.0033231355117778 -28.551913046907089 0 0 0 0 -27.941947159827578 -12.893312603119284 0 -12.893312603119284 -34.516239655219465 0 0 0 0 -94.63410034487822 -11.924259114844066 0 -11.924259114844066 -17.927723983809983 0 0 0 0 -15.794473905070845 17.421448658898271 0 17.421448658898271 -21.378800456120842 0 0 0 0 2.0099937626355313 9.6433596003911362 0 9.6433596003911362 -17.571634622611214 0 0 0 0 -14.449934839585694 20.765308053522062 0 20.765308053522062 3.9479337208489369 0 0 0 0 -0.39281012150400052 -0.47190170086174721 0 -0.47190170086174721 0.52227472227410576 0 0 0 0 -17.330498245485614 7.2331529510612427 0 7.2331529510612427 13.569659036908888 0 0 0 0 -0.14887163703406259 -3.6043730267105047 0 -3.6043730267105047 3.0182263452082907 0 0 0 0 -51.25590583787141 30.432014092371872 0 30.432014092371872 6.1778572681528203 0 0 0 0 -37.105834728750324 5.8593497745304148 0 5.8593497745304148 12.353992317018765 0 0 0 0 1.5017356048101647 7.8816871624608211 0 7.8816871624608211 -24.313211628243835 0 0 0 0 -25.445046246690254 -39.448606716331142 0 -39.448606716331142 51.303280163216129 0 0 0 0 -13.23169449868967 -2.5816237867263871 0 -2.5816237867263871 2.0900748388978174 0 0 0 0 -24.789878458424937 -20.356289232830363 0 -20.356289232830363 26.95571746347423 0 0 0 0 -17.689202347352875 13.75388658342797 0 13.75388658342797 -16.975616041865521 0 0 0 0 -44.856788735100054 4.5819223166352714 0 4.5819223166352714 23.139843757603785 0 0 0 0 -55.522500093250983 5.6522388553359324 0 5.6522388553359324 22.802653106964925 0 0 0 0 -11.099250105544343 -25.388823882419501 0 -25.388823882419501 -0.24272725112959392 0 0 0 0 -17.54042359613095 -23.970070556036887 0 -23.970070556036887 32.092198802167786 0 0 0 0 -12.380956383211114 -2.1478007689095069 0 -2.1478007689095069 2.3134192542328798 0 0 0 0 -4.1395724543306756 13.301082380968666 0 13.301082380968666 12.020883807841074 0 0 0 0 -62.198874891521655 -8.5309003523547631 0 -8.5309003523547631 9.8340504307871015 0 0 0 0 66.893687033177912 3.4936970829395193 0 3.4936970829395193 -15.478354692756966 0 0 0 0 -0.13747702402714124 0.068180003056702354 0 0.068180003056702354 0.73727476567598726 0 0 0 0 -90.441469479476154 31.375041141911368 0 31.375041141911368 26.935812462529327 0 0 0 0 43.656786247864147 -7.4078262557567278 0 -7.4078262557567278 -18.484133844928706 0 0 0 0 -32.99293019031893 29.930503968409635 0 29.930503968409635 15.949567110479876 0 0 0 0 -8.3485396506514462 12.709827554609483 0 12.709827554609483 -23.543207731076517 0 0 0 0 2.1569808157955777 15.93969556487491 0 15.93969556487491 2.7783915992638413 0 0 0 0 -11.11485090231281 27.754651165646095 0 27.754651165646095 -7.2618486410487435 0 0 0 0 -47.977582517968585 32.862715361434198 0 32.862715361434198 -13.874179977231108 0 0 0 0 0.37804047095910587 0.78227314493386757 0 0.78227314493386757 1.2751027883678083 0 0 0 0 6.3209680814152307 4.6391183041132535 0 4.6391183041132535 0.062052774562971535 0 0 0 0 -111.34150135142625 38.648779103248899 0 38.648779103248899 7.5014608694364142 0 0 0 0 -62.581487803956861 26.128013035001118 0 26.128013035001118 -22.027461544086325 0 0 0 0 -53.471245353731774 13.241930895472706 0 13.241930895472706 -5.8880678989935404 0 0 0 0 -27.984020478380216 5.2612259447148517 0 5.2612259447148517 -0.4066290905113874 0 0 0 0 -76.07616908447153 7.7321473522918609 0 7.7321473522918609 13.75607554107728 0 0 0 0 -49.899305121030913 -14.167191979471351 0 -14.167191979471351 28.423946293004519 0 0 0 0 -23.283317347881166 4.26107132103607 0 4.26107132103607 38.959428225329077 0 0 0 0 -1.5877023817599252 -45.76062971371897 0 -45.76062971371897 47.888449538168516 0 0 0 0 13.969427304143551 -26.781303389514278 0 -26.781303389514278 15.362016059133111 0 0 0 0 -12.89171420932715 -2.8325709913188981 0 -2.8325709913188981 1.9512664697482549 0 0 0 0 -18.541701543588943 -8.4474649933704313 0 -8.4474649933704313 6.8719003084074757 0 0 0 0 -38.326708922077387 -21.499271752928735 0 -21.499271752928735 30.622227890346039 0 0 0 0 -55.699616458274932 -17.148724931155357 0 -17.148724931155357 17.538857173790348 0 0 0 0 -13.634402433255403 -37.641274609995676 0 -37.641274609995676 25.263230870800271 0 0 0 0 -38.863286593270004 -1.9889068439943003 0 -1.9889068439943003 -1.697769313632989 0 0 0 0 -44.772085793767218 -20.502244457931454 0 -20.502244457931454 21.082264697576647 0 0 0 0 -78.654172316056886 -8.0455770596505829 0 -8.0455770596505829 5.2249773696744342 0 0 0 0 -58.868180309170555 -14.051954520626428 0 -14.051954520626428 8.7397917264711396 0 0 0 0 -58.185873419158156 13.046758706931541 0 13.046758706931541 -11.442576799978042 0 0 0 0 -117.0877872283927 39.61779022236442 0 39.61779022236442 -8.035056483664448 0 0 0 0 -116.10017072342703 23.361785647349734 0 23.361785647349734 0.70388768959060144 0 0 0 0 -77.039615420094606 1.9795904351410627 0 1.9795904351410627 -13.704822658160992 0 0 0 0 -105.10109897988332 28.646134096315564 0 28.646134096315564 -44.346694257014406 0 0 0 0 -1.3318138371464272 -9.2280259600080399 0 -9.2280259600080399 5.7571384544880857 0 0 0 0 -165.03142405892686 60.391503639981011 0 60.391503639981011 -5.514646577253643 0 0 0 0 -145.71111173292047 68.984003603444535 0 68.984003603444535 -36.465830684075172 0 0 0 0 -1.7203938614174492 -1.731316596000088 0 -1.731316596000088 -1.9700645004172284 0 0 0 0 -191.96845213184588 41.250582163882427 0 41.250582163882427 -18.802090393410253 0 0 0 0 -0.13940619629038098 -0.048474687926119753 0 -0.048474687926119753 -0.091188798370963831 0 0 0 0 -111.77454374251101 64.391571434516663 0 64.391571434516663 -36.814607607622747 0 0 0 0 -136.0707094872439 53.029015416883112 0 53.029015416883112 -4.2648288536042855 0 0 0 0 -110.87390787259096 15.309591190929723 0 15.309591190929723 -25.587824885486043 0 0 0 0 -115.80648600105951 14.498470405945682 0 14.498470405945682 -3.9813426142427488 0 0 0 0 -110.53128838718885 32.860158307242045 0 32.860158307242045 -14.963352269619463 0 0 0 0 -96.877203319224236 10.263782651525844 0 10.263782651525844 5.4809300835070189 0 0 0 0 -74.341155186354968 20.052283349754532 0 20.052283349754532 -9.4965131000517431 0 0 0 0 -93.059717166036307 53.82353867510119 0 53.82353867510119 -21.216626826240265 0 0 0 0 -5.2217188280984601 3.1282958867732304 0 3.1282958867732304 3.0017730238150762 0 0 0 0 -5.3707135267754893 3.4477785591704446 0 3.4477785591704446 3.3066206164955929 0 0 0 0 -0.24169333989073261 1.1585534153116612 0 1.1585534153116612 1.7086155233395717 0 0 0 0 -1.9289130770291649 4.2777044599744158 0 4.2777044599744158 3.2908952739795563 0 0 0 0 -5.3803454193133309 1.3082552327730479 0 1.3082552327730479 2.0522263616571221 0 0 0 0 1.801574446581526 -0.91222409921442704 0 -0.91222409921442704 2.5850238023488146 0 0 0 0 -8.7330514488699009 2.2829639018527814 0 2.2829639018527814 3.453052337619738 0 0 0 0 -22.212142762569329 -1.1871240902551108 0 -1.1871240902551108 9.079941056963662 0 0 0 0 -8.4553544948939816 0.074413969194210949 0 0.074413969194210949 7.9901264125547868 0 0 0 0 -16.536921514976598 3.408552860033808 0 3.408552860033808 7.6517012715264627 0 0 0 0 -7.748818255372953 5.7178465862580197 0 5.7178465862580197 0.51874887873486841 0 0 0 0 -7.7602618572209394 6.0356969013157595 0 6.0356969013157595 8.3752342302104807 0 0 0 0 -20.318666561212524 12.430568632341107 0 12.430568632341107 5.2423189457169883 0 0 0 0 -20.17466723724192 -0.19476690783767481 0 -0.19476690783767481 5.0035329887120952 0 0 0 0 -12.486310474018865 -6.9032863706540866 0 -6.9032863706540866 5.225217763802334 0 0 0 0 -24.962030882936972 -26.336783561365962 0 -26.336783561365962 21.219540773885456 0 0 0 0 -12.347773013048208 -2.600649950579168 0 -2.600649950579168 1.7012558171427514 0 0 0 0 -22.626527708840513 5.7425797578646325 0 5.7425797578646325 0.72428210225007206 0 0 0 0 -16.543792375177873 3.9685150072600663 0 3.9685150072600663 -0.59783455247327311 0 0 0 0 -14.818207914452273 6.3813848698098354 0 6.3813848698098354 -8.537159159850944 0 0 0 0 -32.208098755882382 -1.350940897109048 0 -1.350940897109048 -9.5734531904618052 0 0 0 0 -32.051949191853055 15.453078038104422 0 15.453078038104422 -10.573569569555048 0 0 0 0 -28.980879074474615 3.0042444169005194 0 3.0042444169005194 -3.6995000988781612 0 0 0 0 -18.106635320182704 -2.8645227985693396 0 -2.8645227985693396 0.031041683018884214 0 0 0 0 -21.976727407347425 3.3570611250697766 0 3.3570611250697766 -4.0945194228827404 0 0 0 0 -18.233826163813774 -3.4310322062341925 0 -3.4310322062341925 -1.1795207185973595 0 0 0 0 -16.545625620570718 1.2029138640368728 0 1.2029138640368728 -4.9677299134659734 0 0 0 0 -21.166884712079082 -2.8403977447395619 0 -2.8403977447395619 -8.2035536761318326 0 0 0 0 -12.718346916276985 -2.8905519161319093 0 -2.8905519161319093 1.6780439301746646 0 0 0 0 -16.16140697303581 2.463826981219654 0 2.463826981219654 -6.6745026201715518 0 0 0 0 -8.652735936472709 -9.1855673413658678 0 -9.1855673413658678 3.2598697561728898 0 0 0 0 -11.15907896898716 -3.2383619914489827 0 -3.2383619914489827 -5.1698058664873088 0 0 0 0 -13.403656359478191 -4.4210289294014729 0 -4.4210289294014729 3.7276620675872891 0 0 0 0 -12.120241705424178 -0.2774092977657574 0 -0.2774092977657574 -0.18111950574552793 0 0 0 0 -9.7978477103624755 -0.15701490997344081 0 -0.15701490997344081 0.041108136709453902 0 0 0 0 20.417095396803802 -21.044843746821357 0 -21.044843746821357 23.480795501529656 0 0 0 0 -4.1939107821237354 0.73188581170561084 0 0.73188581170561084 0.39149933305071549 0 0 0 0 34.766100535300012 -51.490627285447971 0 -51.490627285447971 28.338428720237971 0 0 0 0 25.508123138521341 -23.559421731833481 0 -23.559421731833481 33.225625578739653 0 0 0 0 12.801190432099986 -38.632768445673378 0 -38.632768445673378 15.491362164100337 0 0 0 0 -7.8150331107601687 -17.774558597954638 0 -17.774558597954638 12.647023018870414 0 0 0 0 -38.580516405090066 5.8260406265280835 0 5.8260406265280835 15.380792523869559 0 0 0 0 3.3699086292540414 12.158482382707234 0 12.158482382707234 -27.337510845211455 0 0 0 0 -64.300291354132014 30.417740772135403 0 30.417740772135403 4.6570125880546129 0 0 0 0 -0.031835030823461952 -0.20950654996979978 0 -0.20950654996979978 0.18517306451209148 0 0 0 0 79.655277707621778 -54.480903502122885 0 -54.480903502122885 -0.772035352732928 0 0 0 0 62.189773369324996 -19.46959878761254 0 -19.46959878761254 8.9856059987778281 0 0 0 0 42.768552102411149 -48.536571991924347 0 -48.536571991924347 11.387294349821332 0 0 0 0 -7.7814426094442979 -32.017747999633684 0 -32.017747999633684 4.1200601098448715 0 0 0 0 5.7871208623055281 -19.004730589903374 0 -19.004730589903374 13.167691537807912 0 0 0 0 30.001572868747644 -39.759954455187881 0 -39.759954455187881 4.1162418100525429 0 0 0 0 29.083811820528354 -20.365087755517152 0 -20.365087755517152 -3.8484958380062153 0 0 0 0 22.789884586284302 -31.645524325339693 0 -31.645524325339693 -7.5312199528959809 0 0 0 0 -66.560644198467116 -1.2074771351008167 0 -1.2074771351008167 26.930185552872217 0 0 0 0 -6.0916564722981548 -39.051676041572136 0 -39.051676041572136 -2.0407769566882052 0 0 0 0 15.145901579661484 -14.672957744551013 0 -14.672957744551013 -27.174494680070438 0 0 0 0 0.74753195170161102 -0.15808078897566924 0 -0.15808078897566924 0.077102219378429648 0 0 0 0 22.626893246403256 -30.259567624462306 0 -30.259567624462306 2.7242306280614912 0 0 0 0 1.5146048776853149 -27.258612028185098 0 -27.258612028185098 -4.1801993155141872 0 0 0 0 -15.595987481631823 12.756842256906566 0 12.756842256906566 59.013955590939304 0 0 0 0 -54.360262326694084 -15.305440780324915 0 -15.305440780324915 7.1702623362939448 0 0 0 0 -11.18789219847821 -6.7791183010901932 0 -6.7791183010901932 -3.5333477854030662 0 0 0 0 -19.350628846268819 5.7691066086829323 0 5.7691066086829323 17.263501930304301 0 0 0 0 -15.327687812414297 -0.026070992274071614 0 -0.026070992274071614 2.3022532688635238 0 0 0 0 -10.627766469353771 -13.191449041991085 0 -13.191449041991085 -0.43744527962553548 0 0 0 0 -12.048138382856271 -1.7169284408158776 0 -1.7169284408158776 1.7454839709221104 0 0 0 0 4.8639800965824236 -18.631324239999856 0 -18.631324239999856 -1.3323778727469744 0 0 0 0 1.0364724576283819 -1.8224689599529276 0 -1.8224689599529276 0.77745629711947561 0 0 0 0 -12.388361954445827 0.17144523087949892 0 0.17144523087949892 16.150168291736918 0 0 0 0 -5.452930397280781 -20.084598808764838 0 -20.084598808764838 -10.269771370387616 0 0 0 0 -12.372009007793622 -32.091003334202014 0 -32.091003334202014 -59.122421015259988 0 0 0 0 -12.24567008853262 -59.040655749878852 0 -59.040655749878852 -32.650710971407989 0 0 0 0 -45.087925540250936 16.39382883548268 0 16.39382883548268 -36.102114753415663 0 0 0 0 33.596924996547727 -46.697291091827196 0 -46.697291091827196 9.1141599684033281 0 0 0 0 29.996580754058186 24.751324170247926 0 24.751324170247926 -53.226832944636044 0 0 0 0 -41.799375957227461 15.307691319830365 0 15.307691319830365 -49.128384185871255 0 0 0 0 33.065868212309226 11.158809956956134 0 11.158809956956134 -78.259226113794284 0 0 0 0 29.362107392581947 20.037000281707037 0 20.037000281707037 -54.221818392901582 0 0 0 0 -0.62117600480500179 0.33276007125018614 0 0.33276007125018614 -0.15400742504962839 0 0 0 0 -52.096036868357828 -20.281126509193541 0 -20.281126509193541 -9.8862296707459336 0 0 0 0 -67.08260625170891 -29.419947308665712 0 -29.419947308665712 -13.334415270425325 0 0 0 0 -41.950500328091522 -13.664633034475287 0 -13.664633034475287 10.917453936319134 0 0 0 0 -1.3149932575207224 0.70925930316453911 0 0.70925930316453911 -0.2024252854454538 0 0 0 0 -26.875654477791521 -15.772580397936963 0 -15.772580397936963 -27.974343779808578 0 0 0 0 -26.737173509556605 -12.980297700157109 0 -12.980297700157109 -29.960857168463235 0 0 0 0 -19.371101933991724 -15.697817232247473 0 -15.697817232247473 -11.925966144027939 0 0 0 0 -28.188645351260561 -32.316952974904154 0 -32.316952974904154 -12.222497615490511 0 0 0 0 -41.771018867128817 -11.803743246965269 0 -11.803743246965269 -43.198428690510127 0 0 0 0 -1.157119099486863 1.2750198913333861 0 1.2750198913333861 -10.788509856594828 0 0 0 0 -16.808990709826844 0.76665504111156224 0 0.76665504111156224 4.8926963936365837 0 0 0 0 -8.1820596883902681 10.897726735864353 0 10.897726735864353 0.047020798173434741 0 0 0 0 -38.390975344800609 8.2425764669033015 0 8.2425764669033015 -13.437707014221814 0 0 0 0 -7.749222758742758 2.7243814267087147 0 2.7243814267087147 0.70764420524920357 0 0 0 0 -14.063136050483081 -3.3002131932666998 0 -3.3002131932666998 -13.045498329878228 0 0 0 0 -18.331096374418564 -0.9243449702360067 0 -0.9243449702360067 -4.6888052853614681 0 0 0 0 -35.316883171302834 19.365127783905336 0 19.365127783905336 -3.3806438945487116 0 0 0 0 -49.524796434261589 -14.195064811852944 0 -14.195064811852944 20.264748431666703 0 0 0 0 -3.1755647730938108 -13.326900846915805 0 -13.326900846915805 9.1421340876991053 0 0 0 0 -10.015396276913293 -6.9066235188124665 0 -6.9066235188124665 -0.0051761722161245416 0 0 0 0 -9.5533446576970853 1.0605588895532492 0 1.0605588895532492 6.8375172747564648 0 0 0 0 -16.319014067992953 0.64429106695570226 0 0.64429106695570226 7.5713921552398915 0 0 0 0 -10.643193530847398 -2.8583191576226454 0 -2.8583191576226454 -2.7344768074899548 0 0 0 0 -22.754679893262278 -5.5876136337451499 0 -5.5876136337451499 -2.3030184605140676 0 0 0 0 -19.78164229208852 -17.229553282034146 0 -17.229553282034146 -9.1934713387227021 0 0 0 0 -13.900941775049574 0.90176978955469167 0 0.90176978955469167 -12.114055770178311 0 0 0 0 -16.816695004676035 -13.417072811899516 0 -13.417072811899516 -18.7174423826674 0 0 0 0 -49.742723896426824 -61.673032047574452 0 -61.673032047574452 -52.772423083727546 0 0 0 0 1.046041898893975 -17.807293357063543 0 -17.807293357063543 -47.333307522285395 0 0 0 0 12.948670212449542 2.2946661540920559 0 2.2946661540920559 -24.88773401713388 0 0 0 0 -0.32153086057075414 -0.36710341386269874 0 -0.36710341386269874 -0.8995722242802815 0 0 0 0 -19.27327521291474 -6.5784357909053597 0 -6.5784357909053597 6.9279919515734036 0 0 0 0 -160.97943964515065 31.797577823703548 0 31.797577823703548 -2.0758745329248995 0 0 0 0 -217.68567265696993 72.698979066768629 0 72.698979066768629 -26.081511651408164 0 0 0 0 -59.848358866506032 -1.4884908582217804 0 -1.4884908582217804 -43.836113337704774 0 0 0 0 -186.5779276203798 -22.940037857070934 0 -22.940037857070934 -11.323714167951721 0 0 0 0 -41.771909925938772 -35.934441230192007 0 -35.934441230192007 -104.1768448657258 0 0 0 0 -81.504756759324835 43.88256735084633 0 43.88256735084633 -71.768514720764756 0 0 0 0 -44.68104682141918 -35.475600832435219 0 -35.475600832435219 2.4130965758431557 0 0 0 0 -26.377732505636516 42.208297619514497 0 42.208297619514497 20.327065579351796 0 0 0 0 -64.148553552451773 -37.739846099491388 0 -37.739846099491388 5.8602049343949147 0 0 0 0 -58.428918841955358 -29.722726004969104 0 -29.722726004969104 2.8757633697568963 0 0 0 0 -134.39912383704956 -50.418927338614594 0 -50.418927338614594 -2.3905250393822826 0 0 0 0 -41.499744038359523 -4.5720672250100165 0 -4.5720672250100165 3.655538325440375 0 0 0 0 -55.530772296189028 -37.355812282990314 0 -37.355812282990314 -16.345926848790668 0 0 0 0 -30.962195780141656 -0.305858275906985 0 -0.305858275906985 1.6126606183506738 0 0 0 0 -54.369153028240646 -9.6122654548505579 0 -9.6122654548505579 -1.3897069665686672 0 0 0 0 -15.145694902280525 -0.61020846499104664 0 -0.61020846499104664 -4.4493283295485071 0 0 0 0 -28.996472940468948 -12.457391442518656 0 -12.457391442518656 -6.7883726065624614 0 0 0 0 -0.21947118916419517 -0.31740339749497881 0 -0.31740339749497881 -0.40399563454409559 0 0 0 0 106.92807104901726 -96.014921323221756 0 -96.014921323221756 -59.372045010186866 0 0 0 0 -219.69988979152743 -33.65054728096834 0 -33.65054728096834 -11.291024399415392 0 0 0 0 -0.30815160849361745 -0.90157367693135426 0 -0.90157367693135426 -0.52156305355192423 0 0 0 0 -102.85011358637183 16.766292286221812 0 16.766292286221812 7.6311468044241337 0 0 0 0 -95.811241789551801 -68.472464168515501 0 -68.472464168515501 -32.115728621282869 0 0 0 0 -1.1226604397958959 0.19701714652110169 0 0.19701714652110169 0.16417338434225481 0 0 0 0 -29.416135676710041 -44.163502870887953 0 -44.163502870887953 -47.113549533960395 0 0 0 0 -171.03716469238077 -70.913207520190326 0 -70.913207520190326 -28.012496342348243 0 0 0 0 -126.78019981372086 -145.35897485102419 0 -145.35897485102419 -104.82566681815297 0 0 0 0 -33.062687157852011 -42.721989709422658 0 -42.721989709422658 -37.120261231134464 0 0 0 0 -30.430502296257202 -27.704699202961592 0 -27.704699202961592 -26.805859988060774 0 0 0 0 -1.3955762555802922 0.53194975319166815 0 0.53194975319166815 0.029259216890474171 0 0 0 0 -59.198221553099941 -30.115715043546288 0 -30.115715043546288 11.869959356664481 0 0 0 0 -59.392256612041251 -28.717509621977342 0 -28.717509621977342 1.8831456430735329 0 0 0 0 -18.835900958325695 -31.024565568746368 0 -31.024565568746368 -38.294692955925029 0 0 0 0 -14.786931040650021 -28.961681594604499 0 -28.961681594604499 -19.172757831103922 0 0 0 0 -12.660026394858825 -23.080853796929432 0 -23.080853796929432 -36.031189792252462 0 0 0 0 -6.6768821826921201 -10.48319542133197 0 -10.48319542133197 -8.9437545214627789 0 0 0 0 -15.543011694761873 -19.954965873134199 0 -19.954965873134199 -14.202350978511731 0 0 0 0 -2.9761458108336001 -9.6471185133109429 0 -9.6471185133109429 -14.431364548667066 0 0 0 0 -6.3895483058945075 -9.8902278653693543 0 -9.8902278653693543 0.28706923352160629 0 0 0 0 -0.00031542348581581336 2.3788021420226073 0 2.3788021420226073 4.3334182430789951 0 0 0 0 3.157643834707045 1.1890924459107737 0 1.1890924459107737 4.5263202606992081 0 0 0 0 0.55793662878232908 3.0263805917757054 0 3.0263805917757054 6.6092823810213304 0 0 0 0 3.1932475676467789 8.0580255314200713 0 8.0580255314200713 8.7119776295465954 0 0 0 0 -1.5772849087140912 -3.2788442800132884 0 -3.2788442800132884 -6.1231819813383481 0 0 0 0 0.67678083739781414 4.7681575675617296 0 4.7681575675617296 3.5103223512057866 0 0 0 0 -5.35945803906327 -5.3612431087728964 0 -5.3612431087728964 -1.2776132312733353 0 0 0 0 -11.025741820079361 -12.242438187306334 0 -12.242438187306334 -8.9885440980256135 0 0 0 0 -1.9882932776681628 -4.9708268981980837 0 -4.9708268981980837 -9.9541504212165819 0 0 0 0 -8.1357173260995808 -16.785095227404042 0 -16.785095227404042 -22.556001478879807 0 0 0 0 -12.169445460191127 -12.09312560434546 0 -12.09312560434546 -13.964072866789365 0 0 0 0 -4.8241508579983474 -8.8511223032553517 0 -8.8511223032553517 -16.212921066366562 0 0 0 0 -4.039755367597877 -5.7567894356692477 0 -5.7567894356692477 -6.4896937406140296 0 0 0 0 -7.6246506225139683 -5.1993321652535087 0 -5.1993321652535087 -4.1128169493072164 0 0 0 0 -10.161836710989292 -12.195266798791522 0 -12.195266798791522 -13.278888537154216 0 0 0 0 -1.3333726249992424 3.9901282303067092 0 3.9901282303067092 1.9603450417309887 0 0 0 0 -13.761189830839044 -12.616799587104992 0 -12.616799587104992 -14.436024906878401 0 0 0 0 -5.7008308359618241 -9.7594093831951341 0 -9.7594093831951341 -19.191994509215078 0 0 0 0 -6.9608615884121718 -3.0862387786642103 0 -3.0862387786642103 -8.7523896076190795 0 0 0 0 -15.011133904788494 -15.559795591791385 0 -15.559795591791385 -18.227195009905245 0 0 0 0 -14.409128942945813 -16.969676699551997 0 -16.969676699551997 -28.085232851418368 0 0 0 0 -8.3546621052037153 -10.524817302666406 0 -10.524817302666406 -19.232637172228806 0 0 0 0 -15.005200843900184 -19.743349424772532 0 -19.743349424772532 -22.118315937669081 0 0 0 0 -19.422725114390175 -29.004590109670524 0 -29.004590109670524 -31.560548222706529 0 0 0 0 -18.264180069354893 -17.810526112769367 0 -17.810526112769367 -20.149143975571519 0 0 0 0 -9.799155083730227 -22.00543591214722 0 -22.00543591214722 -30.645140726333238 0 0 0 0 -25.516552348700543 -26.41662742594292 0 -26.41662742594292 -31.72808206348634 0 0 0 0 -30.454203632276858 -28.880492842446984 0 -28.880492842446984 -49.751623207224611 0 0 0 0 -50.849063108907785 -40.140004397783059 0 -40.140004397783059 -35.034608716133789 0 0 0 0 -40.707451938957888 -26.734685365612791 0 -26.734685365612791 -41.895585097073308 0 0 0 0 -26.802515765662065 -25.20452595499728 0 -25.20452595499728 -35.288998884590455 0 0 0 0 -35.190679461423088 -33.395892555963428 0 -33.395892555963428 -34.763895714488626 0 0 0 0 -25.248370460823935 -33.611997417372208 0 -33.611997417372208 -45.66579732858645 0 0 0 0 -24.258984224379219 -21.500387712782072 0 -21.500387712782072 -24.976865880644709 0 0 0 0 -22.3360930992867 -27.408537788274998 0 -27.408537788274998 -34.975645995844843 0 0 0 0 -12.822597289190526 -15.33207815345213 0 -15.33207815345213 -26.657478505621498 0 0 0 0 -22.957316172860828 -19.503812283711682 0 -19.503812283711682 -22.336995625346162 0 0 0 0 -9.822098661943528 -13.741370398094205 0 -13.741370398094205 -24.078945904182206 0 0 0 0 -21.313587171107883 -19.368926659102499 0 -19.368926659102499 -22.37454352127952 0 0 0 0 -22.849131405266235 -17.66124054699867 0 -17.66124054699867 -24.227438485453831 0 0 0 0 -28.70095788589731 -38.796977429279394 0 -38.796977429279394 -44.266448836941436 0 0 0 0 -17.806106908340325 -20.150108289598506 0 -20.150108289598506 -33.539704551088107 0 0 0 0 -32.938453252291993 -26.979552237640405 0 -26.979552237640405 -30.959525452828984 0 0 0 0 -29.160392889852119 -28.823970921887508 0 -28.823970921887508 -30.951726914003757 0 0 0 0 -19.125527330386603 -29.640302269373706 0 -29.640302269373706 -43.382077050838006 0 0 0 0 -32.727463796106804 -31.199297620995594 0 -31.199297620995594 -35.621678628804602 0 0 0 0 -25.191075179101063 -36.462296189385484 0 -36.462296189385484 -61.911085844626768 0 0 0 0 -39.928278243704881 -52.829756976201679 0 -52.829756976201679 -51.159033954622373 0 0 0 0 -55.884762009952532 -119.21280888400196 0 -119.21280888400196 -62.599202710056716 0 0 0 0 -53.099531484576801 -98.757917842368443 0 -98.757917842368443 -107.4347175105504 0 0 0 0 -0.6564785321230131 -0.023723225599815767 0 -0.023723225599815767 0.2117094617514339 0 0 0 0 -113.22734350927684 5.6692712189011445 0 5.6692712189011445 -9.8791291118511708 0 0 0 0 -82.870586590300547 83.275870088040165 0 83.275870088040165 -32.598349690703913 0 0 0 0 -0.6304384521290235 -0.27221725640461214 0 -0.27221725640461214 -0.16295057058336271 0 0 0 0 -1.5135681139682831 -39.232979684254452 0 -39.232979684254452 7.849044269615888 0 0 0 0 -10.898598962647043 -0.22077198602526948 0 -0.22077198602526948 28.439354252622252 0 0 0 0 -58.441968154336905 -35.746142616901324 0 -35.746142616901324 12.94526514052518 0 0 0 0 -72.006406779810277 -10.968285788481353 0 -10.968285788481353 -14.241745001543677 0 0 0 0 -48.502853365747612 4.2542888685907769 0 4.2542888685907769 -41.909425067835173 0 0 0 0 -12.6485651603479 -19.896799534761271 0 -19.896799534761271 -37.744090643968207 0 0 0 0 -2.4087093044215315 -13.253989385917635 0 -13.253989385917635 -26.924310965338066 0 0 0 0 -23.578623713082379 -21.117565403841411 0 -21.117565403841411 -29.835457168802122 0 0 0 0 -14.737859357055129 -16.287486620979962 0 -16.287486620979962 -52.44420215064406 0 0 0 0 -8.0485849049124045 -35.137543221855992 0 -35.137543221855992 -0.086916417523980272 0 0 0 0 -19.374556802002999 -15.224771802464659 0 -15.224771802464659 22.650351696178859 0 0 0 0 13.266844981595582 13.827376083384536 0 13.827376083384536 -10.260269217721316 0 0 0 0 3.5482539674313784 6.5359420614279315 0 6.5359420614279315 13.874430103920361 0 0 0 0 -1.379614414553231 -10.207901636368774 0 -10.207901636368774 -10.25091323457616 0 0 0 0 -6.7965815720694494 -3.9144162788444419 0 -3.9144162788444419 12.701518184792803 0 0 0 0 7.6859401385416817 3.0395324532910308 0 3.0395324532910308 7.4754030869256667 0 0 0 0 5.7248118425210848 6.9827038901118783 0 6.9827038901118783 29.04182936058487 0 0 0 0 10.364093240314929 20.413279419103674 0 20.413279419103674 33.458874523440329 0 0 0 0 7.0350377499052286 10.273153770643034 0 10.273153770643034 18.805233274506463 0 0 0 0 4.1495284618304638 11.384595928595786 0 11.384595928595786 19.49959995988479 0 0 0 0 0.12661270550226611 4.2778841944489727 0 4.2778841944489727 12.325192537497969 0 0 0 0 17.762193519955417 41.117175171828649 0 41.117175171828649 71.652216645876706 0 0 0 0 10.054438637141374 2.3516185253768072 0 2.3516185253768072 14.005012699810891 0 0 0 0 -8.7356394060772118 -7.7875261185822637 0 -7.7875261185822637 1.0549659501691622 0 0 0 0 0.050484536810494529 -0.14256148618548625 0 -0.14256148618548625 0.42870480780720932 0 0 0 0 -0.77214715238490716 0.21432767396316144 0 0.21432767396316144 -0.079911674346170303 0 0 0 0 -3.417888507422731 7.6723254503878024 0 7.6723254503878024 2.6470477318230223 0 0 0 0 -72.961166944085448 62.691172638744661 0 62.691172638744661 27.511433042058343 0 0 0 0 -99.384876857453946 40.770945471651544 0 40.770945471651544 39.505421834484366 0 0 0 0 -57.756889467197198 38.721540822486986 0 38.721540822486986 -10.921721583705335 0 0 0 0 -31.180349062551471 -7.1597719277834244 0 -7.1597719277834244 3.7761768680591103 0 0 0 0 -37.784920126262875 4.2700444636504926 0 4.2700444636504926 3.7155132167708871 0 0 0 0 -97.329456328229782 -22.193899236483233 0 -22.193899236483233 -3.3923472557989953 0 0 0 0 -55.111630789218879 27.902100895081617 0 27.902100895081617 -40.929474226204661 0 0 0 0 -37.640908200540025 -5.6725294198454321 0 -5.6725294198454321 3.54586635957412 0 0 0 0 0.6470685685581401 -21.02113021161523 0 -21.02113021161523 5.6057224126366236 0 0 0 0 6.0368833282241212 -11.533998855991285 0 -11.533998855991285 -21.881035577455293 0 0 0 0 10.602672128819336 2.2435230180144572 0 2.2435230180144572 -20.553822484261559 0 0 0 0 11.100936695887185 0.074152924090299166 0 0.074152924090299166 -13.488824055861187 0 0 0 0 26.499785874089639 7.4043891890119085 0 7.4043891890119085 -17.858125048130432 0 0 0 0 1.0666452039230876 4.0299882353738212 0 4.0299882353738212 2.0605260043018916 0 0 0 0 1.2964519010556259 3.1550257514307418 0 3.1550257514307418 2.857962334051706 0 0 0 0 0.48441913488741295 0.33926726041290745 0 0.33926726041290745 0.13073505363681948 0 0 0 0 -0.47503049112877871 0.74315396243547038 0 0.74315396243547038 -0.34600349672403485 0 0 0 0 21.552264414352976 11.99010109154051 0 11.99010109154051 -4.4081571816514042 0 0 0 0 5.1805126850734524 -2.6051062255176021 0 -2.6051062255176021 -5.6696557174325335 0 0 0 0 15.919833804274674 5.1471539498630818 0 5.1471539498630818 4.7611290350168929 0 0 0 0 18.591894624311294 6.063792267125109 0 6.063792267125109 -9.2810312886017527 0 0 0 0 12.046940582520051 -5.6732530458723431 0 -5.6732530458723431 -5.3103942170611163 0 0 0 0 8.231376505848516 -5.9092943911343809 0 -5.9092943911343809 5.8009247409456748 0 0 0 0 14.227075403863182 -0.35544370496859301 0 -0.35544370496859301 7.4340391681089386 0 0 0 0 -2.282512105252021 0.17298042445656003 0 0.17298042445656003 0.11062408119816358 0 0 0 0 -1.9084957390609247 1.1115700561958874 0 1.1115700561958874 0.80535767111916812 0 0 0 0 -0.90622055062226359 0.32679479702958436 0 0.32679479702958436 0.080028993757712108 0 0 0 0 -0.74646006023340306 -2.7026800321527844 0 -2.7026800321527844 2.8876907802305141 0 0 0 0 -33.067890690512371 -6.2137567496374686 0 -6.2137567496374686 12.551522118714502 0 0 0 0 -1.7363769936947102 -0.67128899917836438 0 -0.67128899917836438 -0.1876652224591524 0 0 0 0 -0.26139560598985057 -0.32285342788735427 0 -0.32285342788735427 0.16363418722338574 0 0 0 0 -42.040163914845621 -10.9136281993529 0 -10.9136281993529 4.347568436191068 0 0 0 0 -3.3030199560607798 5.5608612773567074 0 5.5608612773567074 9.8294450795303874 0 0 0 0 10.899721763148875 -3.4785406226490068 0 -3.4785406226490068 -9.3414788260574824 0 0 0 0 -0.23660716756819511 -22.377499314052329 0 -22.377499314052329 26.939206251712676 0 0 0 0 21.943096416600611 -15.855903287160345 0 -15.855903287160345 -7.23437453993688 0 0 0 0 -11.770089050192382 6.7732376223414121 0 6.7732376223414121 -4.5809702957919214 0 0 0 0 3.9285055213115356 7.5656301699154369 0 7.5656301699154369 6.0238857143981477 0 0 0 0 -5.8611670222836096 -6.1844680625071646 0 -6.1844680625071646 1.4817446451124852 0 0 0 0 -6.7766484393105202 -2.4513889059986695 0 -2.4513889059986695 -6.1088016236051317 0 0 0 0 6.7294937566994122 3.9476128490016436 0 3.9476128490016436 -6.268511841201132 0 0 0 0 -4.3317938709642476 3.7504036402547172 0 3.7504036402547172 -4.6804322250570749 0 0 0 0 0.45590948989457569 0.081020378950718008 0 0.081020378950718008 -0.042909536880676669 0 0 0 0 6.1956676762538336 2.3992424886650952 0 2.3992424886650952 -6.1570084529635096 0 0 0 0 3.5420528733615702 2.0144003903555578 0 2.0144003903555578 -0.22431461375203909 0 0 0 0 2.9129807790261566 0.66510522328439947 0 0.66510522328439947 4.0278524852083137 0 0 0 0 2.424177081829697 4.8486483869551193 0 4.8486483869551193 0.36304653854483604 0 0 0 0 1.5285009327090613 -1.0284691808018849 0 -1.0284691808018849 -2.2514739098598966 0 0 0 0 1.2968582874376557 2.3804291270691125 0 2.3804291270691125 0.24098832581870688 0 0 0 0 4.2464473396486824 1.886386826064296 0 1.886386826064296 -0.1624589054883927 0 0 0 0 1.9145470906699984 5.3990977019149113 0 5.3990977019149113 2.5493942309535669 0 0 0 0 -1.7008827427396227 0.8518294489181244 0 0.8518294489181244 0.41260863288289329 0 0 0 0 -2.1029508079414163 1.3200328891382596 0 1.3200328891382596 0.29571053577585671 0 0 0 0 14.744075072744408 16.401081129836484 0 16.401081129836484 1.7813234758521617 0 0 0 0 -0.85242373016265738 1.5423932114632581 0 1.5423932114632581 -0.65339055797128731 0 0 0 0 22.502784291541502 -27.447959983439262 0 -27.447959983439262 -27.392221594629518 0 0 0 0 29.003525719989511 3.7128412514537104 0 3.7128412514537104 -13.125935248708629 0 0 0 0 -3.3293096171180423 10.651236381869381 0 10.651236381869381 17.479129558170143 0 0 0 0 0.84624367235642239 15.547865879456253 0 15.547865879456253 1.4879445047786106 0 0 0 0 6.3827606279064639 18.21402244724402 0 18.21402244724402 22.39564325575293 0 0 0 0 -3.478273642680084 0.78906578549769946 0 0.78906578549769946 0.24802057144424339 0 0 0 0 -2.7402601515383753 1.2889806177420873 0 1.2889806177420873 -0.24726628350776214 0 0 0 0 -2.1450297105069467 2.1271698986538468 0 2.1271698986538468 1.9808382328346852 0 0 0 0 -3.8713640750754621 14.397739977493586 0 14.397739977493586 34.683864728991466 0 0 0 0 -3.4419915471332843 14.037564239729818 0 14.037564239729818 34.129811802447648 0 0 0 0 -23.778421893509176 -2.4230829059682719 0 -2.4230829059682719 27.932564983920088 0 0 0 0 -16.247388288335003 14.516786083752436 0 14.516786083752436 61.33647299930476 0 0 0 0 4.1764137540862976 12.763481696170402 0 12.763481696170402 22.962960769366873 0 0 0 0 -0.69600871362604266 27.466295872590763 0 27.466295872590763 30.730896798148933 0 0 0 0 -2.779742722487299 34.662937788093132 0 34.662937788093132 5.9233116354261028 0 0 0 0 5.3258373974667848 33.19376306887807 0 33.19376306887807 -28.855468043104338 0 0 0 0 -7.3505803701955301 9.7271921981291598 0 9.7271921981291598 18.907504079384125 0 0 0 0 -0.41936384059977172 -2.5004947986511183 0 -2.5004947986511183 27.392666798512209 0 0 0 0 -8.0776375514708434 -10.598561952954697 0 -10.598561952954697 35.477101986378329 0 0 0 0 -13.674692278479597 -0.16904990075158821 0 -0.16904990075158821 27.16037350556644 0 0 0 0 -9.9050764941292755 1.8225756194409541 0 1.8225756194409541 27.110936749602956 0 0 0 0 -6.0402781897325895 5.7198731133260026 0 5.7198731133260026 30.421988138758593 0 0 0 0 -21.310726539763436 -5.4276525949404686 0 -5.4276525949404686 22.93311654686579 0 0 0 0 -7.5647136164928952 2.3302701135012285 0 2.3302701135012285 18.392516194985774 0 0 0 0 -7.0820529699609551 -3.9927892686429232 0 -3.9927892686429232 12.656628865712491 0 0 0 0 -23.022081777661697 -21.228654339304853 0 -21.228654339304853 7.0141688440994301 0 0 0 0 -19.882771912999146 -39.171569114882686 0 -39.171569114882686 -36.503120314415128 0 0 0 0 -21.822421470877316 -30.763243013689248 0 -30.763243013689248 -3.081929410437624 0 0 0 0 -33.474410087137471 -33.132391929168762 0 -33.132391929168762 9.6724951311575751 0 0 0 0 -16.357319242981134 -5.840635009892253 0 -5.840635009892253 15.516209883255442 0 0 0 0 -4.8524819680312703 -11.071836103972373 0 -11.071836103972373 34.437367106839929 0 0 0 0 7.5599861263438015 34.313652001072626 0 34.313652001072626 90.910291988011068 0 0 0 0 -5.1159251049489285 -7.0201614045706719 0 -7.0201614045706719 45.656404934209149 0 0 0 0 -27.49525195260901 4.8939964684682309 0 4.8939964684682309 39.685387733222797 0 0 0 0 -14.427183173510343 -16.348800646746952 0 -16.348800646746952 10.7415780598119 0 0 0 0 -34.404443656432932 -14.828490713933434 0 -14.828490713933434 40.866184725733433 0 0 0 0 -23.675960823774062 -29.393276994371604 0 -29.393276994371604 -0.14963189308150504 0 0 0 0 -49.360415626077611 -37.606256952914464 0 -37.606256952914464 6.2119961414716727 0 0 0 0 -37.461131257207626 -24.62368193808021 0 -24.62368193808021 -15.137502003336976 0 0 0 0 -57.696784565351663 -42.753109044041139 0 -42.753109044041139 -27.653654194977435 0 0 0 0 -27.999603749442713 -10.890292460379669 0 -10.890292460379669 -8.6379515652324699 0 0 0 0 -54.432634234102352 -24.195760671084372 0 -24.195760671084372 10.221216519103521 0 0 0 0 -74.245327279743776 -6.7233375721867787 0 -6.7233375721867787 -8.9231001481202838 0 0 0 0 -46.488241067433819 -2.7188372884247656 0 -2.7188372884247656 -36.951530309721647 0 0 0 0 -82.810047782399693 -51.001981048156154 0 -51.001981048156154 -65.576650812520711 0 0 0 0 -108.35252991265196 16.353261967536412 0 16.353261967536412 -42.611425422912816 0 0 0 0 -64.73882419876395 -27.853605097767058 0 -27.853605097767058 -37.517446588395842 0 0 0 0 -41.733890671598601 -60.79557212545069 0 -60.79557212545069 -92.039300542662204 0 0 0 0 -32.674027310132601 -37.436783744172374 0 -37.436783744172374 -40.254769721000685 0 0 0 0 -26.445394755448206 -49.660529808529759 0 -49.660529808529759 -34.85786323603179 0 0 0 0 -12.107651612345308 -44.653192061657592 0 -44.653192061657592 -46.315269944090346 0 0 0 0 -12.363869691695164 -44.288488825125619 0 -44.288488825125619 -33.530447772373009 0 0 0 0 -29.818336606236869 -48.434807967141296 0 -48.434807967141296 -34.037919609853816 0 0 0 0 1.2296097265713115 17.189000537897982 0 17.189000537897982 -15.019434997857616 0 0 0 0 -12.108671967269345 21.878438804138455 0 21.878438804138455 10.627616336560095 0 0 0 0 -6.2306899066534243 19.992264294762435 0 19.992264294762435 9.7064801922601873 0 0 0 0 4.1910130253860416 21.553081349099955 0 21.553081349099955 -11.981304249206914 0 0 0 0 -7.718151053730935 14.432074062727395 0 14.432074062727395 -17.977532987525592 0 0 0 0 4.7940671923973923 12.356043087249873 0 12.356043087249873 -18.129998113035526 0 0 0 0 0.78170658272165383 11.36777736774593 0 11.36777736774593 -38.492740553262195 0 0 0 0 -4.4966467154107477 5.4982848724008591 0 5.4982848724008591 -28.021767560869193 0 0 0 0 -0.84929174389731088 7.1779715345643353 0 7.1779715345643353 -48.041829202844838 0 0 0 0 -11.230483387460481 15.812810248811502 0 15.812810248811502 -14.077263966287205 0 0 0 0 -6.3276462199603429 18.939044349894175 0 18.939044349894175 -31.33939508704816 0 0 0 0 -18.142714259732884 17.22824961360709 0 17.22824961360709 -49.99497423791604 0 0 0 0 -9.1197914336550525 7.4627185086253576 0 7.4627185086253576 -40.271976413152515 0 0 0 0 -22.378275952909206 1.701199527582844 0 1.701199527582844 -61.37206414575121 0 0 0 0 -59.569596826166162 -1.3967846516567306 0 -1.3967846516567306 -87.487705355476692 0 0 0 0 -28.909248197092666 28.586914658132173 0 28.586914658132173 -45.00400762606796 0 0 0 0 -56.986261667629492 8.5049731291095441 0 8.5049731291095441 -12.877172647115458 0 0 0 0 -30.961436551673614 17.490436095522909 0 17.490436095522909 14.876840873020683 0 0 0 0 -20.050875210731192 12.531775129825292 0 12.531775129825292 -12.588555552611069 0 0 0 0 -42.220145211097474 2.2771627856558325 0 2.2771627856558325 12.286366826820995 0 0 0 0 -15.585990113361731 25.858541761002243 0 25.858541761002243 -20.821694576811751 0 0 0 0 -22.507633875453394 12.065248483856976 0 12.065248483856976 -13.169937722858322 0 0 0 0 -11.382328718779263 18.162695870436437 0 18.162695870436437 -12.627465763618943 0 0 0 0 -10.081397392059614 14.570248091051639 0 14.570248091051639 -11.941509397762729 0 0 0 0 -15.043449747692648 27.702884881687396 0 27.702884881687396 10.278916002021788 0 0 0 0 -10.053351504684315 16.909528843941189 0 16.909528843941189 17.196967923377088 0 0 0 0 -18.885244043053433 16.971094265137936 0 16.971094265137936 45.794630378728016 0 0 0 0 -12.872272113527004 29.755932663640294 0 29.755932663640294 33.388675641302598 0 0 0 0 -7.8839147410474197 19.119920195127406 0 19.119920195127406 39.856272707028893 0 0 0 0 -10.233838926576937 4.1394133122439598 0 4.1394133122439598 12.030452184261947 0 0 0 0 -6.7299511332835209 21.815779189750856 0 21.815779189750856 14.833522170848951 0 0 0 0 -23.593430465611164 9.6967904282760173 0 9.6967904282760173 37.968342794677937 0 0 0 0 -16.807471008355151 23.533159013073146 0 23.533159013073146 80.438810690601031 0 0 0 0 11.448379942602514 0.45261931017398638 0 0.45261931017398638 78.19372827745886 0 0 0 0 -26.75293665057643 -4.4954467921963897 0 -4.4954467921963897 161.18894733120669 0 0 0 0 6.9777946501840233 22.718536564500482 0 22.718536564500482 41.507679522417902 0 0 0 0 1.7652273177759525 17.343627607917369 0 17.343627607917369 64.168838426524133 0 0 0 0 -14.992423279232526 24.706251741119104 0 24.706251741119104 65.122310252576654 0 0 0 0 -6.6869506950740742 28.088131892289312 0 28.088131892289312 53.402796211139048 0 0 0 0 -4.0431241894921186 14.665109564936756 0 14.665109564936756 45.809768167609853 0 0 0 0 -9.2703577195281923 23.295580950260955 0 23.295580950260955 66.243578758136834 0 0 0 0 -6.9958428765338567 26.636937100798889 0 26.636937100798889 42.514275420584454 0 0 0 0 -5.7660717321191441 19.846553459855841 0 19.846553459855841 61.076209782495425 0 0 0 0 -12.787762402570479 19.839983257246331 0 19.839983257246331 56.242760602843191 0 0 0 0 -7.057869276741485 16.610478358139289 0 16.610478358139289 36.826772379095473 0 0 0 0 -5.7106487194077999 27.799227566675199 0 27.799227566675199 11.080518959696292 0 0 0 0 -1.1819081869375623 24.796243626083879 0 24.796243626083879 31.080122771974402 0 0 0 0 -2.8352240568124216 28.016330887565459 0 28.016330887565459 29.451345604647486 0 0 0 0 2.2039640863501972 16.155344558998195 0 16.155344558998195 10.971393719601451 0 0 0 0 3.8837517809624842 19.368400346422732 0 19.368400346422732 37.596548304495627 0 0 0 0 -1.9404915490770236 29.887639721878941 0 29.887639721878941 49.215542176496911 0 0 0 0 1.8889575734852997 22.087672135880325 0 22.087672135880325 32.439615301881076 0 0 0 0 15.506586211406102 31.345547831250997 0 31.345547831250997 46.591998504095272 0 0 0 0 -1.2252667289226338 15.427041208584569 0 15.427041208584569 64.309860010868761 0 0 0 0 12.116824676333636 17.287142092990962 0 17.287142092990962 54.458432875183917 0 0 0 0 0.26929205735768846 27.688519007088871 0 27.688519007088871 45.478524511605883 0 0 0 0 2.5660801478120874 3.2129950632053443 0 3.2129950632053443 -0.90995548759860867 0 0 0 0 15.749228060431165 -10.039319133766185 0 -10.039319133766185 -20.090087196451464 0 0 0 0 -1.4585341561266305 0.71426206222138933 0 0.71426206222138933 -0.31134299475270444 0 0 0 0 0.1969957293053759 0.15061912780897613 0 0.15061912780897613 -0.27071912249298158 0 0 0 0 -3.6240172589921258 -8.5909789185006957 0 -8.5909789185006957 3.0439343994688102 0 0 0 0 -5.7079591120879805 1.9931861967967528 0 1.9931861967967528 -0.45556810366438549 0 0 0 0 -0.88076729592278014 12.467213971938548 0 12.467213971938548 3.2251383446337059 0 0 0 0 -1.8175122868773541 1.4150966180729374 0 1.4150966180729374 -0.20804695563461362 0 0 0 0 -3.5559594439753255 6.9331289298892216 0 6.9331289298892216 16.940561788984951 0 0 0 0 -3.1450008159683875 -3.1413075854949284 0 -3.1413075854949284 12.880753373071059 0 0 0 0 -0.90146726013846212 0.42552526986888117 0 0.42552526986888117 0.050560493863268885 0 0 0 0 24.120005866202291 4.6548690673953388 0 4.6548690673953388 -2.0705021783493862 0 0 0 0 2.0125821024913648 1.7299628070645667 0 1.7299628070645667 6.6400927976642379 0 0 0 0 -8.7184452272906583 -2.3551922801283354 0 -2.3551922801283354 8.2235870369943314 0 0 0 0 -3.5396185915872138 -0.79093884709186568 0 -0.79093884709186568 14.557937433215898 0 0 0 0 0.29674342361810524 -0.071154853536552043 0 -0.071154853536552043 0.028219193515968577 0 0 0 0 18.869607263940907 22.090275391361729 0 22.090275391361729 -52.014641411850789 0 0 0 0 -12.156685871828131 19.020950958686541 0 19.020950958686541 34.15689704717397 0 0 0 0 -7.7865852628174252 3.0047534461766645 0 3.0047534461766645 21.136654742515475 0 0 0 0 0.37113927270911518 -10.052233862168805 0 -10.052233862168805 -17.905299423678116 0 0 0 0 -10.96064689327045 7.7204667272944789 0 7.7204667272944789 83.378845867261816 0 0 0 0 -15.51758000276368 15.53705175364621 0 15.53705175364621 32.222530901443406 0 0 0 0 -4.3431416305093791 21.791081932330364 0 21.791081932330364 1.946623638547635 0 0 0 0 -8.1096130236128143 2.0400006897100873 0 2.0400006897100873 -0.0039808116748951683 0 0 0 0 0.019269271684463796 1.77113419633974 0 1.77113419633974 0.045696878501251481 0 0 0 0 -0.50225835043501466 0.12746018627122602 0 0.12746018627122602 0.0029917513247612604 0 0 0 0 -147.50523011995938 -28.652429993708211 0 -28.652429993708211 27.463283561391734 0 0 0 0 -58.736059447338448 1.69944149764126 0 1.69944149764126 8.717309053043266 0 0 0 0 23.470886973208536 -7.8823624620987438 0 -7.8823624620987438 -24.626107941887767 0 0 0 0 41.326487144405064 -4.2124235542675024 0 -4.2124235542675024 -32.699512520245889 0 0 0 0 -8.7139221452118818 22.554875824489045 0 22.554875824489045 34.140193438346159 0 0 0 0 -7.5385739907623375 1.9825829919967808 0 1.9825829919967808 -0.08249044778979342 0 0 0 0 -0.7315386762725189 0.31886407295529462 0 0.31886407295529462 -0.24710060575612758 0 0 0 0 -56.590783605925935 -0.58332157829863718 0 -0.58332157829863718 11.022830926951201 0 0 0 0 -56.279404552241715 10.663319162148056 0 10.663319162148056 11.193935874528961 0 0 0 0 -48.769282094363234 -32.807668496217957 0 -32.807668496217957 1.9556585418413306 0 0 0 0 -19.019510984152475 -5.8755962988325336 0 -5.8755962988325336 2.1058264870239327 0 0 0 0 -1.5094290071415344 -43.806357955765861 0 -43.806357955765861 -21.045841430140172 0 0 0 0 -32.234202423177521 20.320209647462548 0 20.320209647462548 7.0393451509244187 0 0 0 0 -17.36832923425527 19.978093675908895 0 19.978093675908895 1.3104879241892604 0 0 0 0 -8.6249356216903834 20.893666327602205 0 20.893666327602205 7.0168890092850233 0 0 0 0 12.163666599990393 7.1838107967678297 0 7.1838107967678297 -1.0870079095893743 0 0 0 0 -11.291663868376531 7.270845278201989 0 7.270845278201989 -0.49312817471650305 0 0 0 0 -8.2570800180988044 9.6515823234288973 0 9.6515823234288973 -1.3381504935675821 0 0 0 0 -15.19205531756279 9.9859818950579893 0 9.9859818950579893 -1.3445791683105881 0 0 0 0 -15.270067978910902 5.9290084868309236 0 5.9290084868309236 0.46402621296027746 0 0 0 0 -28.029464430245298 7.2590759397226066 0 7.2590759397226066 7.7017488104494305 0 0 0 0 -19.671091357307432 4.770775769333568 0 4.770775769333568 2.7794526783094398 0 0 0 0 -17.526722085487563 -0.77869506428089608 0 -0.77869506428089608 1.1704861150049055 0 0 0 0 -2.4815260745076557 -5.2036602972452783 0 -5.2036602972452783 -4.2492733729767451 0 0 0 0 -14.599048527660898 -10.563477419607352 0 -10.563477419607352 -2.0560289591671506 0 0 0 0 -13.700340493907106 -3.5814331308731653 0 -3.5814331308731653 0.42401457963870826 0 0 0 0 -1.7652853704349809 0.49659443392738467 0 0.49659443392738467 0.19386470882113827 0 0 0 0 -5.1538571730940248 4.8347112075584278 0 4.8347112075584278 -3.650130561247579 0 0 0 0 -13.937779151849327 1.2692732426481825 0 1.2692732426481825 -5.0212282011827369 0 0 0 0 -9.1308765372881453 -8.4973464277312871 0 -8.4973464277312871 -8.3440445441692646 0 0 0 0 -17.986031385498563 -9.9165595924818604 0 -9.9165595924818604 -5.1096612853609145 0 0 0 0 -29.944820507451539 -16.569536351915161 0 -16.569536351915161 -8.5243647944809027 0 0 0 0 -23.634574015204407 -8.6105458216154034 0 -8.6105458216154034 -5.013632318723694 0 0 0 0 -29.744376301626687 1.0318249093720624 0 1.0318249093720624 -2.0350959195436644 0 0 0 0 -52.068939386698844 -14.884382492695295 0 -14.884382492695295 -5.0660688296689091 0 0 0 0 -39.574190205537775 5.977041061329885 0 5.977041061329885 -4.4245467152054232 0 0 0 0 -12.958006456734267 3.3082457914116929 0 3.3082457914116929 0.70792648193105379 0 0 0 0 -15.955417318596346 8.2119902364201778 0 8.2119902364201778 -4.5835414565974588 0 0 0 0 -12.709099006280894 3.3037608509572465 0 3.3037608509572465 -2.9115969131561883 0 0 0 0 -16.803586075562976 7.7692805829451572 0 7.7692805829451572 -6.0784547224639027 0 0 0 0 -12.444536349126025 -0.68125384205146844 0 -0.68125384205146844 -2.1792265307387879 0 0 0 0 -2.7114071482402267 -1.7199460438048142 0 -1.7199460438048142 -0.9724721254446278 0 0 0 0 -10.363267190325857 6.0826791050127724 0 6.0826791050127724 -12.163628931628068 0 0 0 0 16.389050718694762 -0.66942268710698727 0 -0.66942268710698727 -107.31755457330962 0 0 0 0 -0.9484628106033437 -0.61639804457277547 0 -0.61639804457277547 -0.44762574607407801 0 0 0 0 7.9873357602440365 -6.8823050283528175 0 -6.8823050283528175 -47.534251621676617 0 0 0 0 -6.3156558970924834 -21.398184576268307 0 -21.398184576268307 -9.531287752011167 0 0 0 0 -37.454226382526599 -25.538497911497245 0 -25.538497911497245 -13.208364769245804 0 0 0 0 -58.434611832822952 -27.846739305488995 0 -27.846739305488995 -13.082666291522401 0 0 0 0 -85.994164927128622 8.9816157321544097 0 8.9816157321544097 -3.3549056063129683 0 0 0 0 -74.536867227666718 -52.416501146108224 0 -52.416501146108224 -45.680184563203966 0 0 0 0 -41.431682627997134 -20.270545030418702 0 -20.270545030418702 -84.947208400170098 0 0 0 0 -74.308253783421605 18.6715758024759 0 18.6715758024759 -59.855834326150841 0 0 0 0 -54.58186826130526 -11.891738500129676 0 -11.891738500129676 -28.146338878340089 0 0 0 0 -82.46672845388224 21.031124061440728 0 21.031124061440728 34.304940842922065 0 0 0 0 -85.156010461663058 -48.304361458989867 0 -48.304361458989867 14.823576562265572 0 0 0 0 -0.7773140807490968 -0.33650083306962741 0 -0.33650083306962741 0.15866273778466927 0 0 0 0 -21.384319631803919 -43.246514986990888 0 -43.246514986990888 -71.502326426295923 0 0 0 0 -107.99865062108233 28.421191896106066 0 28.421191896106066 49.562571839090282 0 0 0 0 -1.1640378849322133 -51.826091473735218 0 -51.826091473735218 -74.449345138202077 0 0 0 0 -4.5431301007965885 -41.995268174359822 0 -41.995268174359822 -6.2257326741669203 0 0 0 0 18.624433042915371 -31.870656449786338 0 -31.870656449786338 -55.088877588971854 0 0 0 0 5.2029946023885714 -31.178628871856915 0 -31.178628871856915 -31.714633397488228 0 0 0 0 21.272754560712428 -12.127399237044216 0 -12.127399237044216 -38.178669265310759 0 0 0 0 -1.6370653347490389 -0.49685792353588276 0 -0.49685792353588276 0.30015556147320172 0 0 0 0 -3.3118947207909741 -7.4631858260492692 0 -7.4631858260492692 27.813050480135132 0 0 0 0 -1.7855660743516637 -21.820843371511842 0 -21.820843371511842 -2.6885031571792126 0 0 0 0 -17.085820821712559 -18.808900516021637 0 -18.808900516021637 9.0824398307310901 0 0 0 0 -9.2943488559351977 -20.178902187200226 0 -20.178902187200226 8.6214605705073666 0 0 0 0 -10.2738204736429 -20.117419798155574 0 -20.117419798155574 25.020249850149064 0 0 0 0 -25.167970537689598 -26.959724749192418 0 -26.959724749192418 19.816184341394873 0 0 0 0 35.681746138345943 -38.074716357836017 0 -38.074716357836017 18.912647962238708 0 0 0 0 -0.84778095011324694 -15.579574812281422 0 -15.579574812281422 56.13208179018801 0 0 0 0 4.9698513500525223 -11.460946849335482 0 -11.460946849335482 5.4438374694490186 0 0 0 0 5.4740585113158886 -26.105200087551253 0 -26.105200087551253 21.620998457991519 0 0 0 0 4.7907104668320244 -10.686115581876948 0 -10.686115581876948 8.7236147118716758 0 0 0 0 16.325461361930365 -14.680369335128077 0 -14.680369335128077 9.8847246426687434 0 0 0 0 -9.4820970049034941 -15.070674749024253 0 -15.070674749024253 28.824135824105952 0 0 0 0 -13.110398081140602 -6.3626659742728293 0 -6.3626659742728293 18.29944905458774 0 0 0 0 -7.3996860131678659 -19.273981209579517 0 -19.273981209579517 18.980488666384531 0 0 0 0 -9.6050289825345772 5.6411175720607503 0 5.6411175720607503 38.85360146078682 0 0 0 0 -9.1903179110120661 0.2780834786117703 0 0.2780834786117703 1.0969924289589281 0 0 0 0 -25.072685049953861 6.7637034903881954 0 6.7637034903881954 70.09194803386788 0 0 0 0 -4.4027606345880486 -8.0371376781315575 0 -8.0371376781315575 -13.117060593375982 0 0 0 0 -7.1338565871909356 -0.33121859361720851 0 -0.33121859361720851 -2.3249975968125733 0 0 0 0 32.038716003895274 41.184899447935877 0 41.184899447935877 52.511846798757105 0 0 0 0 32.816384700144027 27.342722524268424 0 27.342722524268424 51.99580676237025 0 0 0 0 6.6386456829662563 43.889659322694101 0 43.889659322694101 62.212533474016311 0 0 0 0 8.1317778584711959 14.01889935826987 0 14.01889935826987 44.814952589213078 0 0 0 0 3.3407293158115863 -1.9274110879200776 0 -1.9274110879200776 51.157575870183095 0 0 0 0 -38.912787524823671 -12.388114888940123 0 -12.388114888940123 53.445793439365488 0 0 0 0 -12.205359729257225 30.075739319300766 0 30.075739319300766 43.9932519160119 0 0 0 0 -31.846433095078282 21.460538460260949 0 21.460538460260949 53.325631290931625 0 0 0 0 -23.803297465488868 10.365900956130133 0 10.365900956130133 33.880389585475143 0 0 0 0 -24.359853187604131 -11.041685020006312 0 -11.041685020006312 22.351245814369918 0 0 0 0 -38.658525955589994 -11.245516866253908 0 -11.245516866253908 45.271352178597766 0 0 0 0 -58.780168440367788 8.2496516192186924 0 8.2496516192186924 -12.167607200321164 0 0 0 0 -23.77540683719144 -39.737836947850383 0 -39.737836947850383 -24.111423434156883 0 0 0 0 -66.378196932816081 -30.470320406276386 0 -30.470320406276386 4.6601681849363104 0 0 0 0 -27.887919679772949 -11.008020625091888 0 -11.008020625091888 9.9394051913595263 0 0 0 0 -52.415505367480705 5.7596103802308143 0 5.7596103802308143 33.743839880182492 0 0 0 0 -19.228995107527226 8.2824639060517313 0 8.2824639060517313 7.7550999406691687 0 0 0 0 -18.292830619057895 3.3122016368697302 0 3.3122016368697302 5.839489914794747 0 0 0 0 -21.774619840815831 4.9032419865113255 0 4.9032419865113255 18.446974273375332 0 0 0 0 -8.8603517881238076 8.1890555639464822 0 8.1890555639464822 -19.36842814859051 0 0 0 0 2.340207053575341 -12.34322811173476 0 -12.34322811173476 -29.624988762492478 0 0 0 0 -86.827566982530243 36.407241259663209 0 36.407241259663209 12.962236621270563 0 0 0 0 -20.752822370641752 6.9274204489213673 0 6.9274204489213673 6.8586401180251642 0 0 0 0 0.29486441353571813 0.41772930177526657 0 0.41772930177526657 0.19945934362594042 0 0 0 0 -14.741599509561638 -6.880038388755338 0 -6.880038388755338 -38.918609369717217 0 0 0 0 -21.861666961111041 5.6586691593523142 0 5.6586691593523142 38.005323963079661 0 0 0 0 0.18103390788944651 0.1768663682570395 0 0.1768663682570395 -0.2137783140645006 0 0 0 0 -79.765633144301773 -1.6575011979230396 0 -1.6575011979230396 76.53877069161814 0 0 0 0 -15.375833730086924 -26.634608647910412 0 -26.634608647910412 34.846884508635696 0 0 0 0 -0.95523540029458509 -0.46722175696919521 0 -0.46722175696919521 0.22355552846308824 0 0 0 0 -36.605247927857818 -63.708732616313227 0 -63.708732616313227 -68.091954407148478 0 0 0 0 -24.374834988952898 24.688838143666572 0 24.688838143666572 46.327785961897852 0 0 0 0 11.825864945589274 -0.1235230847634341 0 -0.1235230847634341 19.17595431704315 0 0 0 0 19.541185748998032 -8.7916594576049079 0 -8.7916594576049079 -40.872878891257926 0 0 0 0 -101.62818339570458 -35.759542550780225 0 -35.759542550780225 -41.314541865070304 0 0 0 0 -3.2101619934669543 -49.453521548979495 0 -49.453521548979495 -59.540375050651392 0 0 0 0 -22.736514611242001 13.757121262215435 0 13.757121262215435 -58.072721353003544 0 0 0 0 -1.7733040171509327 -0.53278403121153217 0 -0.53278403121153217 0.34384094555531691 0 0 0 0 -43.627497059824236 11.940297570955238 0 11.940297570955238 4.8099772002110228 0 0 0 0 3.8548337987440391 -23.570726224787904 0 -23.570726224787904 -20.303267670265654 0 0 0 0 -57.750571970625515 -44.756376852464598 0 -44.756376852464598 -26.217446335373893 0 0 0 0 8.2257243667322655 -33.675648202985187 0 -33.675648202985187 -70.317950758027905 0 0 0 0 -49.771525267917696 20.227283298542318 0 20.227283298542318 -9.2685937819542801 0 0 0 0 -16.669703871998991 -66.506315870118783 0 -66.506315870118783 -73.307822766329537 0 0 0 0 0.045455302634435313 -0.79184913479965591 0 -0.79184913479965591 -0.72879797547012892 0 0 0 0 -10.136775076861795 7.4414893796342767 0 7.4414893796342767 -0.11966307556542688 0 0 0 0 -21.543794702952255 -3.7370728175776549 0 -3.7370728175776549 31.983034185020756 0 0 0 0 -2.8050161754790039 1.0270329886601832 0 1.0270329886601832 0.19803639256023775 0 0 0 0 -42.773199988635497 22.723519266111111 0 22.723519266111111 16.769536978398833 0 0 0 0 -83.124184522934911 -35.45364180557425 0 -35.45364180557425 2.4114707066385108 0 0 0 0 -50.793481722024808 -61.327145072842598 0 -61.327145072842598 -62.038537867581795 0 0 0 0 -7.144688426713401 22.620989870659002 0 22.620989870659002 -20.71819126793423 0 0 0 0 -0.36491354855064806 0.68920359527358244 0 0.68920359527358244 -0.25207890082958073 0 0 0 0 -67.504675074024817 -24.991033284768946 0 -24.991033284768946 -15.076235215692748 0 0 0 0 -2.4901122570738092 -0.075101512659793812 0 -0.075101512659793812 0.80162686455273313 0 0 0 0 20.995029632104888 -0.75070134470586325 0 -0.75070134470586325 -23.201346951359689 0 0 0 0 -8.9436124967949695 9.3798652107177247 0 9.3798652107177247 -0.49638752897965333 0 0 0 0 -7.9769494007015957 4.8911048903249341 0 4.8911048903249341 0.98654726230262346 0 0 0 0 -2.6869927097477557 8.0048616035979876 0 8.0048616035979876 -6.4763435031038625 0 0 0 0 -6.4897754015898883 10.200918687427844 0 10.200918687427844 11.251843217691771 0 0 0 0 -12.272940788540385 5.0022133346811302 0 5.0022133346811302 27.061798178147114 0 0 0 0 -12.110092684424046 18.169946913048079 0 18.169946913048079 -5.1877493246607855 0 0 0 0 -2.1768413651637899 1.1125911739126173 0 1.1125911739126173 0.4292529509910683 0 0 0 0 0.69038341175860296 9.395780552888084 0 9.395780552888084 -3.1724870186485532 0 0 0 0 -5.7211549960452368 4.9202274211011137 0 4.9202274211011137 1.6660607741017508 0 0 0 0 -11.226353288693645 5.8336167544650834 0 5.8336167544650834 6.1506864919899726 0 0 0 0 17.030335235834769 12.070073067562248 0 12.070073067562248 3.2732806663852898 0 0 0 0 -5.4586833744349459 4.3199302074998256 0 4.3199302074998256 2.1379785718351672 0 0 0 0 -5.9753081200078668 6.6397524544481712 0 6.6397524544481712 6.0100194430567626 0 0 0 0 11.641099116478884 23.31448693687085 0 23.31448693687085 2.2783850110185995 0 0 0 0 -3.8115894038134854 12.187027434541847 0 12.187027434541847 11.00534981834366 0 0 0 0 -19.570520906510097 10.874650403662002 0 10.874650403662002 6.4063822969857256 0 0 0 0 -24.421025873038666 16.048601129778604 0 16.048601129778604 18.724927927580495 0 0 0 0 -8.0936849151090442 17.314171676105815 0 17.314171676105815 5.3999027440499958 0 0 0 0 0.12551481229047567 -13.898802464317441 0 -13.898802464317441 -14.212455356554869 0 0 0 0 -30.831447490021901 1.9121095212468049 0 1.9121095212468049 14.515924892912608 0 0 0 0 -8.7887787844592822 2.454011535793029 0 2.454011535793029 -7.3225986314362217 0 0 0 0 -14.952159337015473 12.230453746197327 0 12.230453746197327 -4.6842279236338129 0 0 0 0 -3.2553560157027732 -0.32463056895818454 0 -0.32463056895818454 -1.3287916674720464 0 0 0 0 -15.781666618607233 -5.1339322915868024 0 -5.1339322915868024 17.38441957848363 0 0 0 0 -5.0078596843105867 -1.729864538451849 0 -1.729864538451849 -0.71806492856989945 0 0 0 0 -3.6304954644808731 -1.6028952901876323 0 -1.6028952901876323 -5.3703442944279232 0 0 0 0 -3.3235788357291085 0.63364535766743302 0 0.63364535766743302 -0.61820313778889613 0 0 0 0 -3.9114545902523332 2.3761847705552555 0 2.3761847705552555 -5.4172952617033827 0 0 0 0 -3.6097364610797271 1.8389289271901543 0 1.8389289271901543 0.0021484615673106333 0 0 0 0 10.14746462562897 12.472646029631392 0 12.472646029631392 1.0267580841214112 0 0 0 0 -1.9220888418390132 1.0715278013410625 0 1.0715278013410625 -2.0286383529771967 0 0 0 0 -1.5159613608315645 2.3661096280633926 0 2.3661096280633926 0.023367566734507683 0 0 0 0 8.5962666024830128 5.7730968125986237 0 5.7730968125986237 -1.8667278714431177 0 0 0 0 10.943674871151416 10.41167286024222 0 10.41167286024222 3.2799050049890184 0 0 0 0 8.7478621231777254 2.2167924084908464 0 2.2167924084908464 -3.1082462250901699 0 0 0 0 7.0387886801250872 2.1163267415400639 0 2.1163267415400639 -0.68182487829017191 0 0 0 0 -0.24200703740815221 0.19400303374337247 0 0.19400303374337247 0.058778190023306198 0 0 0 0 -0.36352439100073752 1.7837553580464771 0 1.7837553580464771 -0.87721281561437081 0 0 0 0 -3.5530424054641117 -0.89824311544066404 0 -0.89824311544066404 1.921953345374277 0 0 0 0 -51.034452727504458 34.156005040723812 0 34.156005040723812 -8.5964021059494371 0 0 0 0 0.58021770431497544 4.1157982395238832 0 4.1157982395238832 -9.0027225196849088 0 0 0 0 -7.0480743148319789 10.740743494995058 0 10.740743494995058 -14.248641028884322 0 0 0 0 -3.9486572625834242 12.408349919500012 0 12.408349919500012 -36.743874192599378 0 0 0 0 -0.86971846050633417 17.568247282185894 0 17.568247282185894 15.13857733008831 0 0 0 0 -2.6016245148355068 23.950991954919459 0 23.950991954919459 -7.9724586829443069 0 0 0 0 15.083521618449709 23.497328968163856 0 23.497328968163856 19.024707518596983 0 0 0 0 21.462087112115334 6.4112780843765051 0 6.4112780843765051 -5.2606021474273348 0 0 0 0 -2.1553231008376024 2.1948750891812709 0 2.1948750891812709 1.5944417020098181 0 0 0 0 8.0814508133471179 7.2824217427756821 0 7.2824217427756821 -3.7143634091734157 0 0 0 0 8.6971893807462095 7.5139945710966458 0 7.5139945710966458 -13.848734582658835 0 0 0 0 1.0952242864491666 -1.1308256139300283 0 -1.1308256139300283 -7.2602330479911643 0 0 0 0 3.3471891862685084 2.0888617261114177 0 2.0888617261114177 -9.7198955985167004 0 0 0 0 8.0689512865115454 1.9302277945466599 0 1.9302277945466599 -12.103296520504955 0 0 0 0 12.478159577756941 4.9400367503423013 0 4.9400367503423013 -9.0207831274258297 0 0 0 0 7.9849039770579813 3.5589573535484504 0 3.5589573535484504 -5.0149261408544135 0 0 0 0 7.296108924907486 -1.3789482140900873 0 -1.3789482140900873 -6.1065898615347294 0 0 0 0 5.8552558125253427 -0.098515996628066205 0 -0.098515996628066205 -7.1001579545750246 0 0 0 0 -2.4864161813711121 -10.91336010865038 0 -10.91336010865038 -4.8569664083934185 0 0 0 0 -0.37635104307665163 0.2165501695350327 0 0.2165501695350327 -0.16247216885183047 0 0 0 0 -3.8829619812540876 -4.6444335844000193 0 -4.6444335844000193 -27.809492026293356 0 0 0 0 -78.03264525718663 21.887745598382082 0 21.887745598382082 1.8095813011806712 0 0 0 0 -1.8820488966839406 -6.6711640161427681 0 -6.6711640161427681 -17.284828836280667 0 0 0 0 3.0712847905026663 4.3336521879437555 0 4.3336521879437555 -22.362974193907803 0 0 0 0 -119.76267999881398 16.977563583504377 0 16.977563583504377 8.62773194092415 0 0 0 0 -73.908109416691985 11.071478344769005 0 11.071478344769005 -3.9400140989828287 0 0 0 0 -58.536183222746168 -24.547572217501852 0 -24.547572217501852 7.2992074955780026 0 0 0 0 -48.449739426836473 -15.472131781787255 0 -15.472131781787255 -18.723231074908085 0 0 0 0 -48.478237625474719 -15.406363200000744 0 -15.406363200000744 5.2075658091582682 0 0 0 0 -28.022551100766123 -20.165119746601931 0 -20.165119746601931 -8.2380920717324386 0 0 0 0 -5.352881702118566 -4.6895004018206805 0 -4.6895004018206805 -14.674956186852 0 0 0 0 -69.401952869434268 -37.72434150809903 0 -37.72434150809903 -13.221359079861713 0 0 0 0 -1.8932013671065531 0.7843340602892499 0 0.7843340602892499 -0.0090961530656274991 0 0 0 0 -12.303711625811047 4.8713920685030416 0 4.8713920685030416 6.6079330375705467 0 0 0 0 -6.8436663141285408 2.0939480922835401 0 2.0939480922835401 8.0043949862669592 0 0 0 0 -0.34966447022879737 -0.57062210438469974 0 -0.57062210438469974 1.338125753432577 0 0 0 0 -4.8332631813319722 -3.6751156039151738 0 -3.6751156039151738 4.7413611484772389 0 0 0 0 -13.498818510882757 6.6406339964441941 0 6.6406339964441941 4.1315828428346322 0 0 0 0 5.0934024052413349 13.826996926671654 0 13.826996926671654 22.125040619951051 0 0 0 0 8.1933733390227594 14.430716705577652 0 14.430716705577652 17.576470105717362 0 0 0 0 3.5768748392221097 12.330943889188347 0 12.330943889188347 20.853486788660121 0 0 0 0 8.2975269753669672 13.472814496103297 0 13.472814496103297 22.528079479136977 0 0 0 0 21.480009544541076 25.904699629481684 0 25.904699629481684 24.456911774496234 0 0 0 0 18.694354091262195 15.147422054069239 0 15.147422054069239 18.911314352447334 0 0 0 0 12.378045287183809 19.163539168430816 0 19.163539168430816 23.614137862338453 0 0 0 0 -1.4353152478429365 -0.33125738503395041 0 -0.33125738503395041 0.36100828121288941 0 0 0 0 -1.1819129481326167 -0.20172056115892678 0 -0.20172056115892678 1.2285313066358301 0 0 0 0 12.621259819762571 11.796938459956664 0 11.796938459956664 17.132184471632399 0 0 0 0 4.3579804195848055 18.238658520334639 0 18.238658520334639 32.392112991581541 0 0 0 0 7.1165288526497648 16.864681886171866 0 16.864681886171866 23.971737228014376 0 0 0 0 12.613175621394539 12.086605460553054 0 12.086605460553054 27.460196800214135 0 0 0 0 8.3059790337667181 15.048869056205092 0 15.048869056205092 21.760858620562885 0 0 0 0 -0.28301682466462641 -0.037578715879524549 0 -0.037578715879524549 0.51522687038070014 0 0 0 0 -0.81885921595171851 0.070103037656920719 0 0.070103037656920719 0.66698452904881833 0 0 0 0 -0.85266148965934518 0.087938571759051176 0 0.087938571759051176 0.40133598091499367 0 0 0 0 -1.1996956219324733 0.33228065914688981 0 0.33228065914688981 0.60684869909249306 0 0 0 0 8.6981395820479293 8.0419788975902975 0 8.0419788975902975 3.1144020812300823 0 0 0 0 -8.4543305698142603 -1.7586215568190937 0 -1.7586215568190937 3.6942220062306497 0 0 0 0 -0.70797149499937739 0.36774872105056167 0 0.36774872105056167 0.85651946101035348 0 0 0 0 -7.2286701490692167 1.1000934772773689 0 1.1000934772773689 -4.6870254325772294 0 0 0 0 -21.616548410493294 -1.6043341200302166 0 -1.6043341200302166 2.1170593223221204 0 0 0 0 -7.9091193783152676 -4.7520499182541585 0 -4.7520499182541585 -3.7677588462173617 0 0 0 0 -37.228686888547543 1.0622657330392826 0 1.0622657330392826 -0.80737209257631548 0 0 0 0 -16.781011371130493 -6.3487651547957604 0 -6.3487651547957604 -16.43512255341011 0 0 0 0 -2.9869517437383593 -0.5062091217354947 0 -0.5062091217354947 0.51745020447492607 0 0 0 0 9.2508544549041858 6.4361074313513882 0 6.4361074313513882 -4.0627891401680927 0 0 0 0 -15.96306106091032 -0.58731008976116073 0 -0.58731008976116073 4.6678296739052598 0 0 0 0 8.8603413751066853 0.63996839491360902 0 0.63996839491360902 -6.0133671136591147 0 0 0 0 -0.068496515958723858 -0.42977241203252281 0 -0.42977241203252281 0.087737835247616136 0 0 0 0 -0.35400995439140537 -0.090828724032287145 0 -0.090828724032287145 0.92063596971901496 0 0 0 0 -1.9517925314432887 -0.73999886424759609 0 -0.73999886424759609 1.1835308852246271 0 0 0 0 -22.465484302933305 -5.0285939770052437 0 -5.0285939770052437 4.966633866178654 0 0 0 0 -27.75536584804729 -19.338018308601477 0 -19.338018308601477 -7.3542819070136147 0 0 0 0 -42.620565234815615 -24.757885246709975 0 -24.757885246709975 -8.0648500974325543 0 0 0 0 -58.45734309553427 -18.320985769812012 0 -18.320985769812012 3.1560483887272994 0 0 0 0 -47.009655608122159 35.62775539553644 0 35.62775539553644 -27.83750101217322 0 0 0 0 -0.044168891592800241 -0.38667783601024586 0 -0.38667783601024586 -0.27483515185941176 0 0 0 0 -10.990104905593064 -27.825593568597931 0 -27.825593568597931 20.740336683891201 0 0 0 0 -54.745682510830591 -12.799426185406958 0 -12.799426185406958 15.954577737661054 0 0 0 0 -49.417959161795608 -16.31207105296329 0 -16.31207105296329 4.8210401688616855 0 0 0 0 -21.365342216501404 20.079282891707123 0 20.079282891707123 -1.8724300881976603 0 0 0 0 -6.9170613968809249 -3.059182608997685 0 -3.059182608997685 24.603673971547494 0 0 0 0 -8.2788536606947218 27.095014256932942 0 27.095014256932942 35.956201543306918 0 0 0 0 -43.494969174567132 -24.611650703317991 0 -24.611650703317991 -41.541862987388981 0 0 0 0 -5.2170916470357707 -11.481696126282408 0 -11.481696126282408 -53.412844677483463 0 0 0 0 -30.268925232803326 -34.218625936884408 0 -34.218625936884408 -39.085647835568921 0 0 0 0 -21.831563469768298 -14.213879348760088 0 -14.213879348760088 -33.252566971461192 0 0 0 0 -5.4247022796466986 9.3537533536209256 0 9.3537533536209256 -15.014996563558498 0 0 0 0 -15.599067320609947 -18.987452176643046 0 -18.987452176643046 -30.127459258466843 0 0 0 0 -9.2858449650536272 -1.4264073244743258 0 -1.4264073244743258 -10.325442246450621 0 0 0 0 -8.6851266612663949 -11.478865569297795 0 -11.478865569297795 -23.917423425699624 0 0 0 0 -1.672405573130618 3.1670955434659618 0 3.1670955434659618 -12.497087023250401 0 0 0 0 -8.1930832320355194 5.0565594626291954 0 5.0565594626291954 11.702283657396265 0 0 0 0 -4.0723784504466494 6.4934874807044594 0 6.4934874807044594 11.528359034404161 0 0 0 0 1.0158645828026351 17.047296062844481 0 17.047296062844481 10.596573594680422 0 0 0 0 -7.5364526481919256 12.107244949411438 0 12.107244949411438 5.1289805467441738 0 0 0 0 -7.6665303809768375 2.2625517490393463 0 2.2625517490393463 3.0036361216625664 0 0 0 0 -0.43038217320984984 22.248885588699363 0 22.248885588699363 22.489850242391867 0 0 0 0 -1.8453038553482202 12.391226424546431 0 12.391226424546431 3.6463664300705645 0 0 0 0 5.3717413141196175 26.325271423121706 0 26.325271423121706 29.283267357924188 0 0 0 0 2.8505206576217006 11.589581793802239 0 11.589581793802239 36.01125995508653 0 0 0 0 -1.501252562141417 25.40311367359692 0 25.40311367359692 39.940563308923856 0 0 0 0 -0.19542921286476256 -0.058269202643259244 0 -0.058269202643259244 0.22577113762768924 0 0 0 0 -1.511123573262239 23.053069981384624 0 23.053069981384624 38.0212034124703 0 0 0 0 -0.36906917284068186 18.853239150261516 0 18.853239150261516 24.014464898282426 0 0 0 0 -1.9931381907865671 16.070216101302094 0 16.070216101302094 44.454775793443787 0 0 0 0 3.7251452653077877 9.2616655108685109 0 9.2616655108685109 13.838535613811359 0 0 0 0 -1.8315080288152785 12.787865932975194 0 12.787865932975194 34.619130551998524 0 0 0 0 9.1354004012923724 5.1734029119091929 0 5.1734029119091929 44.38812947209658 0 0 0 0 3.9843865246759833 9.0692048150314122 0 9.0692048150314122 41.614030763007577 0 0 0 0 2.2415597482547582 14.218225171147594 0 14.218225171147594 27.591518385590234 0 0 0 0 2.1656467654054268 8.0971490576763472 0 8.0971490576763472 28.308424851140558 0 0 0 0 -3.5622815653007365 14.056974907014592 0 14.056974907014592 26.727958829186434 0 0 0 0 -2.1020444722994398 18.598978173330352 0 18.598978173330352 25.081746933627073 0 0 0 0 -3.015414987704844 7.0353671137799552 0 7.0353671137799552 16.356124267668065 0 0 0 0 1.160064289857587 7.6978218489039705 0 7.6978218489039705 0.791743468740151 0 0 0 0 -3.9625452743607923 0.85909265572146865 0 0.85909265572146865 -12.176138442255706 0 0 0 0 -7.1408300949776731 -2.6568093232223191 0 -2.6568093232223191 2.1599438724698814 0 0 0 0 -0.440558827900702 5.714470166997387 0 5.714470166997387 -1.0498632065155107 0 0 0 0 -0.53780536022952674 1.8126000391706611 0 1.8126000391706611 6.5693272491037078 0 0 0 0 2.7783282837729644 9.2930075006593142 0 9.2930075006593142 8.1181268167720191 0 0 0 0 5.6506991108219609 9.2315880894782367 0 9.2315880894782367 7.1550942998430287 0 0 0 0 3.9063784113949396 6.9371882659080484 0 6.9371882659080484 15.899331406952115 0 0 0 0 9.4366991774217013 11.612322207270154 0 11.612322207270154 17.165990348383275 0 0 0 0 9.550912965306793 9.9524427762293044 0 9.9524427762293044 18.144761447801557 0 0 0 0 10.743458235508911 18.546451725174506 0 18.546451725174506 20.257391244732617 0 0 0 0 5.0806256930928839 11.783538503102932 0 11.783538503102932 16.53856235172816 0 0 0 0 3.4550709405243651 7.1617558107477635 0 7.1617558107477635 11.513757560173758 0 0 0 0 6.5798796771487673 13.06267548985204 0 13.06267548985204 14.891096015618132 0 0 0 0 6.7115945727224187 12.949200067874813 0 12.949200067874813 12.068612512091022 0 0 0 0 0.57998764197145647 6.9737199683644917 0 6.9737199683644917 10.863122042534542 0 0 0 0 3.4853798897250954 3.5325036372539671 0 3.5325036372539671 1.3391721882192087 0 0 0 0 2.2115302286069038 6.9150723747656571 0 6.9150723747656571 13.010215083997537 0 0 0 0 4.9725710341496381 10.677501386475797 0 10.677501386475797 9.6984767088074477 0 0 0 0 3.0880262473119444 9.4539268726595083 0 9.4539268726595083 15.398118739538177 0 0 0 0 5.9864105378852059 14.161514760759474 0 14.161514760759474 17.458263136944424 0 0 0 0 5.9369478398174351 15.398410396956479 0 15.398410396956479 21.974666480620272 0 0 0 0 5.0220074777616333 17.449271137123787 0 17.449271137123787 28.230874022625585 0 0 0 0 7.0288200397166065 16.599568475090109 0 16.599568475090109 19.25701658351079 0 0 0 0 9.2517251354753398 19.984370410329575 0 19.984370410329575 23.330666528498057 0 0 0 0 7.655256430096415 17.416959793250697 0 17.416959793250697 25.311060741805704 0 0 0 0 6.8489398109830972 21.205385148764663 0 21.205385148764663 26.760041979980429 0 0 0 0 -1.4134354831681435 0.61866321651714884 0 0.61866321651714884 0.60709729147381708 0 0 0 0 -1.0436435460110658 0.12050050730479733 0 0.12050050730479733 0.66593753436537528 0 0 0 0 8.3833969899825433 24.015677536062185 0 24.015677536062185 29.231010060420942 0 0 0 0 15.411552388814926 23.640271486562597 0 23.640271486562597 26.752879618451061 0 0 0 0 12.278434307091231 15.770892649552934 0 15.770892649552934 27.639395521604001 0 0 0 0 18.377064228862992 10.93824238835623 0 10.93824238835623 24.327550297148719 0 0 0 0 7.0175100565448929 14.087512557673392 0 14.087512557673392 23.72351888090725 0 0 0 0 28.581471868220433 12.313109829825066 0 12.313109829825066 28.075389843774019 0 0 0 0 10.500121724660403 13.999882848435618 0 13.999882848435618 29.715153977901082 0 0 0 0 23.073310579386316 4.6144096986839713 0 4.6144096986839713 36.588309686833327 0 0 0 0 8.6547193469530157 16.325240815405095 0 16.325240815405095 49.834813556810332 0 0 0 0 21.051522842348049 22.017628633130244 0 22.017628633130244 27.062163089670094 0 0 0 0 0.01952459068879886 0.22059359114170285 0 0.22059359114170285 0.19609446389243268 0 0 0 0 -1.0060689223807913 1.0106961384106512 0 1.0106961384106512 0.47438083450873592 0 0 0 0 -1.0016304219854533 0.98351829965359272 0 0.98351829965359272 0.54120491501936385 0 0 0 0 -2.1075143036021018 0.060323263378927905 0 0.060323263378927905 1.2229435020883628 0 0 0 0 -0.60775277997323751 0.85249030783619795 0 0.85249030783619795 0.67699445223320587 0 0 0 0 -2.3984650914353551 0.44768532288378182 0 0.44768532288378182 0.71459606009438659 0 0 0 0 -1.1433627519978873 0.10738901826813441 0 0.10738901826813441 1.1627848751198262 0 0 0 0 -1.6520794004839843 -0.42506417079209413 0 -0.42506417079209413 1.1268388071763411 0 0 0 0 -1.6462507978919803 -0.49652835995931355 0 -0.49652835995931355 0.27060399001248925 0 0 0 0 -1.9460607600201456 -0.67248582875095053 0 -0.67248582875095053 1.5523558890270124 0 0 0 0 -2.750514014148862 -0.65129979217178191 0 -0.65129979217178191 1.2015705705105739 0 0 0 0 -7.1487356478091897 -2.8886343663464231 0 -2.8886343663464231 6.0965336909611034 0 0 0 0 -21.656092709939003 0.45860231526266659 0 0.45860231526266659 6.3867724582679806 0 0 0 0 -0.37857832070494624 5.9894311729652401 0 5.9894311729652401 -2.356445201705057 0 0 0 0 -0.64864451901994791 0.96015299608844518 0 0.96015299608844518 0.43008691571466479 0 0 0 0 -3.7204692495633935 0.26057191042076511 0 0.26057191042076511 0.67048346846837603 0 0 0 0 -3.9761664325753019 0.32150159779389709 0 0.32150159779389709 1.8775076979836056 0 0 0 0 -0.74559953413518087 5.6325050215433947 0 5.6325050215433947 -2.2123215121784057 0 0 0 0 -2.158040264731123 1.6116734083406692 0 1.6116734083406692 0.68949757194499439 0 0 0 0 -2.6587110833174279 0.61578396674301317 0 0.61578396674301317 0.93572221996464577 0 0 0 0 -2.6859846852788314 1.1685262960426037 0 1.1685262960426037 1.0613656989593041 0 0 0 0 -2.4437376695910524 1.109134610048276 0 1.109134610048276 1.494244917867273 0 0 0 0 -4.215688045973593 13.690301158151641 0 13.690301158151641 -0.23723751450964414 0 0 0 0 -5.4354051863548065 -0.70341913490108787 0 -0.70341913490108787 3.2456494663988735 0 0 0 0 -2.7271601311059412 0.029954818323063237 0 0.029954818323063237 0.53565419629111077 0 0 0 0 -2.3015887680401192 0.35840588025826037 0 0.35840588025826037 1.5300575646050163 0 0 0 0 -0.53892385523977282 0.7459511676014472 0 0.7459511676014472 1.0218157020169656 0 0 0 0 -1.8614991607269076 0.10021526623205546 0 0.10021526623205546 0.10384503381658305 0 0 0 0 -0.11476081671671179 0.20071476447709086 0 0.20071476447709086 0.14603335063918038 0 0 0 0 1.5773147961994596 0.31919896711728057 0 0.31919896711728057 -5.6497660015976123 0 0 0 0 -1.6108487292400469 4.1329119132037135 0 4.1329119132037135 10.006611119766127 0 0 0 0 -1.633597665376044 0.32046551909233045 0 0.32046551909233045 2.4046316933263086 0 0 0 0 3.8537758413333449 10.805365930415178 0 10.805365930415178 -0.61470984124036931 0 0 0 0 5.6924483291502384 8.8666599890053135 0 8.8666599890053135 -3.690966138792902 0 0 0 0 0.27432105851645217 -0.19131470116773042 0 -0.19131470116773042 -0.20587903038936395 0 0 0 0 7.4409673794307309 -5.9159611015650739 0 -5.9159611015650739 1.6986570175420184 0 0 0 0 -11.548518191601147 -3.0944527249768328 0 -3.0944527249768328 59.105333668054016 0 0 0 0 7.9737967798146201 36.235639434748137 0 36.235639434748137 -10.026912700269833 0 0 0 0 3.6222328800477044 -7.1469105952868901 0 -7.1469105952868901 19.068006664197014 0 0 0 0 -1.5109175244437258 -0.37721516634969532 0 -0.37721516634969532 0.013359054898701039 0 0 0 0 -1.9848392009771487 0.26338282651121858 0 0.26338282651121858 -0.083349416906628448 0 0 0 0 -22.080235739736736 12.782318014304451 0 12.782318014304451 -3.1211018103997503 0 0 0 0 -13.531083825832383 -15.248590134858036 0 -15.248590134858036 11.990050810893194 0 0 0 0 -0.9827396134472659 -0.14031314752058721 0 -0.14031314752058721 -0.10900739834692152 0 0 0 0 -6.5358242821971544 31.466914862987295 0 31.466914862987295 -40.697303419918107 0 0 0 0 -16.343668732770311 13.457688617480841 0 13.457688617480841 -29.22300981673709 0 0 0 0 -11.075198297132829 18.53849861196062 0 18.53849861196062 -5.7692873892679017 0 0 0 0 -15.30914687791028 26.710763495475817 0 26.710763495475817 -7.043070250235246 0 0 0 0 -2.0906646111786902 -0.48165317886909598 0 -0.48165317886909598 -0.088010139985178065 0 0 0 0 -0.46933149723167844 -12.448376636727609 0 -12.448376636727609 63.323647935571529 0 0 0 0 -0.46006425875022083 0.18506168247997135 0 0.18506168247997135 0.03679217987475869 0 0 0 0 -6.1368953770219719 -0.161774289461313 0 -0.161774289461313 26.190992623358113 0 0 0 0 -8.3432581567448096 -20.675451524753271 0 -20.675451524753271 27.261911882637605 0 0 0 0 -1.4803414456628161 -25.811730355748523 0 -25.811730355748523 23.174452398793392 0 0 0 0 -0.84878142020875202 -9.3905336802112913 0 -9.3905336802112913 6.9191704432175811 0 0 0 0 -10.545812267974185 -3.4725331243403588 0 -3.4725331243403588 -10.233545824386056 0 0 0 0 -29.618273679381673 -10.834328986427977 0 -10.834328986427977 9.7932220693519412 0 0 0 0 -11.61944759519173 -8.5030657422993556 0 -8.5030657422993556 28.139260684926739 0 0 0 0 1.2499121497639862 -2.8630666231508712 0 -2.8630666231508712 15.188003287049639 0 0 0 0 -11.085644771395891 13.358552005877982 0 13.358552005877982 1.2270249450473329 0 0 0 0 -14.990637562006214 13.160277631111171 0 13.160277631111171 17.476755622278233 0 0 0 0 -24.062676228582632 22.148668611032406 0 22.148668611032406 3.7386490442910372 0 0 0 0 -25.967925310972532 22.385995823474445 0 22.385995823474445 -3.381793091461077 0 0 0 0 -26.536954001749564 18.410921714337064 0 18.410921714337064 -1.3161794687581505 0 0 0 0 -15.603354933525452 -5.4338065080814317 0 -5.4338065080814317 -1.179451222705552 0 0 0 0 -0.25520705725083648 -0.010574222897263397 0 -0.010574222897263397 0.074009827917438667 0 0 0 0 -35.836983974358645 17.507714596079836 0 17.507714596079836 2.6616755145640809 0 0 0 0 -14.28437732430757 17.112607430236721 0 17.112607430236721 -19.449195126923428 0 0 0 0 -33.134025972665597 20.147014131308467 0 20.147014131308467 -0.4089901576783177 0 0 0 0 -14.756392797828994 3.2066893622414909 0 3.2066893622414909 8.1184895547485212 0 0 0 0 -1.4893354506424838 3.8969245692590389 0 3.8969245692590389 0.5193063826579527 0 0 0 0 -6.7522867207101172 6.4122741163479304 0 6.4122741163479304 0.12360815788814961 0 0 0 0 -4.9793628037677991 12.340026084561941 0 12.340026084561941 -7.5246177265474898 0 0 0 0 -3.0129505079965546 1.6494684713025771 0 1.6494684713025771 0.71859545845126283 0 0 0 0 -2.950126187508431 1.8530703010594607 0 1.8530703010594607 0.66347488825113032 0 0 0 0 1.7838343928478935 -0.18068146854102451 0 -0.18068146854102451 0.74809381829726362 0 0 0 0 -1.7306998456297507 2.5992790148493321 0 2.5992790148493321 0.37402345297283857 0 0 0 0 -0.036801299894318351 0.15541544491439296 0 0.15541544491439296 0.16893341590413735 0 0 0 0 2.4782858374337593 3.6540861021271667 0 3.6540861021271667 -0.084228051346372013 0 0 0 0 1.1668878756618142 0.59979133591923528 0 0.59979133591923528 3.5157260409632727 0 0 0 0 -1.8430027675578367 0.51472860320194158 0 0.51472860320194158 1.1596837605210752 0 0 0 0 -3.9082690652321617 3.3560754678719604 0 3.3560754678719604 -1.6529622277930685 0 0 0 0 -1.30071691183855 1.0452265321051164 0 1.0452265321051164 0.45769070355392083 0 0 0 0 -2.3154309304670733 1.1619796373052509 0 1.1619796373052509 0.92469791886034614 0 0 0 0 -3.0250828741473015 0.80804526103042917 0 0.80804526103042917 0.59332808896874667 0 0 0 0 -0.85343310108510195 1.0036452168064898 0 1.0036452168064898 0.50944955290117377 0 0 0 0 0.1443234449270383 1.3700844598363795 0 1.3700844598363795 0.16277846054826217 0 0 0 0 -1.9780662285759458 1.6185977988351166 0 1.6185977988351166 -0.099381854240473633 0 0 0 0 -0.73190302860737333 0.62435076382336607 0 0.62435076382336607 0.37644762811426569 0 0 0 0 -0.7469917776431334 0.25740439499268131 0 0.25740439499268131 0.36043457939791979 0 0 0 0 -2.3429518452649063 1.5933827715223856 0 1.5933827715223856 0.011702896188708678 0 0 0 0 -1.3826731181025025 1.146492854989674 0 1.146492854989674 0.64605371340530837 0 0 0 0 -1.9926280011230268 1.4623527565338357 0 1.4623527565338357 1.0353623984080644 0 0 0 0 -10.042259367005499 -0.45084719762918724 0 -0.45084719762918724 3.4402256905138415 0 0 0 0 -5.0082350310480024 0.20426650344359842 0 0.20426650344359842 1.3994226036357986 0 0 0 0 -8.0501128948353653 4.4434283238176704 0 4.4434283238176704 -0.051622181925438326 0 0 0 0 -8.0591855202458191 0.74950435635844315 0 0.74950435635844315 3.7456197903495649 0 0 0 0 -3.1705633444755659 -1.500650161173734 0 -1.500650161173734 2.6510864587302918 0 0 0 0 -6.9471458404655095 -2.1002777040455953 0 -2.1002777040455953 0.22646170219972106 0 0 0 0 -5.7416028889241479 1.2077147297087114 0 1.2077147297087114 1.0697548646210451 0 0 0 0 -8.7052117108705716 2.2072028654626186 0 2.2072028654626186 1.6967653730064836 0 0 0 0 -5.7502562317831689 1.5861355525154011 0 1.5861355525154011 1.8237847053115956 0 0 0 0 -4.1517238978439615 0.60975243835961024 0 0.60975243835961024 2.1849857758006732 0 0 0 0 -4.3763627557956131 3.8299215087724434 0 3.8299215087724434 1.9819282918583558 0 0 0 0 -1.9364908086333479 0.55389727233156005 0 0.55389727233156005 0.36876496976102047 0 0 0 0 -16.581022838479839 8.7795564457846922 0 8.7795564457846922 0.28144882657898052 0 0 0 0 -1.5515139055911664 3.7640076401914939 0 3.7640076401914939 0.71965287259776312 0 0 0 0 -6.37212516741738 3.9061347604787926 0 3.9061347604787926 1.6106484731146509 0 0 0 0 -9.3952510237490969 3.0550971434273038 0 3.0550971434273038 4.0670756618438304 0 0 0 0 -4.8223571833346259 1.330332486224977 0 1.330332486224977 1.8435959951986822 0 0 0 0 -4.2630268676950838 1.8755009118481869 0 1.8755009118481869 0.091766143435552561 0 0 0 0 -2.3920803561503683 3.4943677229583887 0 3.4943677229583887 1.9048896851126529 0 0 0 0 -6.2371993598344488 3.9127659444396272 0 3.9127659444396272 1.4983177070544116 0 0 0 0 -8.5176496094131835 3.1844050503470953 0 3.1844050503470953 1.5090146161438724 0 0 0 0 -10.371910088328889 -1.5148658194173379 0 -1.5148658194173379 5.878263143739332 0 0 0 0 -16.989973172756436 7.9996803683237658 0 7.9996803683237658 7.3335371466262131 0 0 0 0 -13.846937688094386 -2.9104288326555547 0 -2.9104288326555547 15.540351400628424 0 0 0 0 -12.437373060532536 6.4845459571055244 0 6.4845459571055244 12.339224315056299 0 0 0 0 -1.250492508500713 -1.5271790605452438 0 -1.5271790605452438 -3.1314857690218787 0 0 0 0 -7.2223443204138675 13.19632615127432 0 13.19632615127432 5.4536149935217395 0 0 0 0 -7.7204162137395542 -1.071272765880849 0 -1.071272765880849 -1.0492377164678715 0 0 0 0 -1.9983801981447797 0.013488630301034199 0 0.013488630301034199 -0.25179039956624427 0 0 0 0 -5.1964377111454025 -1.5541748835285452 0 -1.5541748835285452 -0.24319346614658333 0 0 0 0 0.24596375389916147 13.023985379400614 0 13.023985379400614 -6.0159248837492214 0 0 0 0 -16.696608298849242 6.5052147529219155 0 6.5052147529219155 -4.9648641114783914 0 0 0 0 -18.922080628542972 9.5267551263569885 0 9.5267551263569885 -0.63955177146885944 0 0 0 0 -0.87433663340544854 -12.964948574240374 0 -12.964948574240374 -11.881625297733535 0 0 0 0 -3.9229833838403652 -1.8421928169627115 0 -1.8421928169627115 -0.54622323198909228 0 0 0 0 -0.65548054670879985 -0.60339354597902073 0 -0.60339354597902073 -0.33473134432693374 0 0 0 0 -17.465165202882417 1.4499960512723646 0 1.4499960512723646 -7.3481853232576668 0 0 0 0 10.504617195318133 -17.260153389243328 0 -17.260153389243328 8.9051201504643416 0 0 0 0 -17.719431225973494 0.66306474937562854 0 0.66306474937562854 10.660984446360345 0 0 0 0 -16.55621942649298 -0.83902275558866157 0 -0.83902275558866157 -0.087435985792111481 0 0 0 0 -14.939926451665883 -7.3078401198800229 0 -7.3078401198800229 4.5321985515046492 0 0 0 0 -14.877658874658165 0.2599596871684523 0 0.2599596871684523 0.35927726876485422 0 0 0 0 -14.042374442496111 -5.4185690551700603 0 -5.4185690551700603 7.8189403617841986 0 0 0 0 -15.08184146256977 6.4810147333515999 0 6.4810147333515999 -5.5723171323632528 0 0 0 0 -19.835555310225061 10.531736762961657 0 10.531736762961657 24.727966836153215 0 0 0 0 -12.035087457590123 22.141976832968425 0 22.141976832968425 0.59272385682851336 0 0 0 0 -36.755058183767943 -7.6570521378074261 0 -7.6570521378074261 48.375983323138314 0 0 0 0 -23.892083041710862 19.412815895801032 0 19.412815895801032 -4.6177264979949797 0 0 0 0 -44.141116751914012 -12.13850184283109 0 -12.13850184283109 4.0798330629676229 0 0 0 0 -12.275189005664629 -43.254743395547109 0 -43.254743395547109 1.4873724475883989 0 0 0 0 -20.553060800577214 -23.082997353517158 0 -23.082997353517158 36.081961249083918 0 0 0 0 -3.8863682206159069 -3.2124467224591058 0 -3.2124467224591058 6.822888258463081 0 0 0 0 2.8582975042195358 -8.7518848683977808 0 -8.7518848683977808 -26.199438510181494 0 0 0 0 -17.718581952547638 -0.4785593596990404 0 -0.4785593596990404 0.9923360411748996 0 0 0 0 -21.79438412410309 4.5429253025477152 0 4.5429253025477152 11.558837871154696 0 0 0 0 -18.842430242769979 3.8646713687023713 0 3.8646713687023713 5.043271849739881 0 0 0 0 -15.747117260384584 1.7127871158207313 0 1.7127871158207313 7.4102931270815873 0 0 0 0 -22.008107498842946 -3.3055502452605054 0 -3.3055502452605054 18.823285855453818 0 0 0 0 -25.047863419567875 4.7517371596572957 0 4.7517371596572957 6.939207911833023 0 0 0 0 -21.607840599261181 2.8869587745906742 0 2.8869587745906742 4.6698154440851738 0 0 0 0 -21.283282882779986 6.0638985233032656 0 6.0638985233032656 4.582420108250119 0 0 0 0 -24.6560668645443 11.206070409698697 0 11.206070409698697 0.83380745212306806 0 0 0 0 -28.106667310251396 7.874213815658095 0 7.874213815658095 4.3232991354136061 0 0 0 0 -22.745134252418211 4.8417897806199335 0 4.8417897806199335 1.037344047062561 0 0 0 0 -18.528710317614696 11.783671722688069 0 11.783671722688069 -0.31730045435938337 0 0 0 0 -32.690698058208909 5.0027529097086472 0 5.0027529097086472 1.3347265334663803 0 0 0 0 -26.970585489892073 0.96083083980568063 0 0.96083083980568063 4.1336445616500725 0 0 0 0 -36.682179955944775 -8.364246186190087 0 -8.364246186190087 4.0928381144472468 0 0 0 0 -22.280105561707842 -14.569307177249328 0 -14.569307177249328 -3.6743686963309301 0 0 0 0 -19.479691308964902 -5.4924448730038904 0 -5.4924448730038904 4.4917075842376448 0 0 0 0 -25.9196107227217 -4.6742454883583733 0 -4.6742454883583733 8.2012239467054826 0 0 0 0 -23.737978672521422 -10.022166977214816 0 -10.022166977214816 4.3677201797113554 0 0 0 0 -5.2471380504248373 -13.000640004214624 0 -13.000640004214624 -5.2980552616711094 0 0 0 0 -25.671889801809812 -22.225473108845677 0 -22.225473108845677 -9.4307113492267263 0 0 0 0 -21.105329423842704 -21.090402651021748 0 -21.090402651021748 -11.398905627993486 0 0 0 0 -32.138325384114523 -31.309614198212614 0 -31.309614198212614 -13.862320615732756 0 0 0 0 1.3569505445202594 -18.043158072718256 0 -18.043158072718256 -20.141184492992636 0 0 0 0 0.75579291640851665 -0.30434294881676838 0 -0.30434294881676838 -1.032867717919586 0 0 0 0 -58.597153254703244 -15.335364201196256 0 -15.335364201196256 -2.9874689758498789 0 0 0 0 -49.882535272602809 8.8370983116220287 0 8.8370983116220287 -11.319108365409875 0 0 0 0 -32.415178075171752 -1.2111435504196493 0 -1.2111435504196493 -5.7081011173747243 0 0 0 0 -33.837321863257557 8.0488614372374769 0 8.0488614372374769 2.0784581939012696 0 0 0 0 -22.754816773634957 6.0372298984552799 0 6.0372298984552799 1.3748957394004719 0 0 0 0 -24.474598985717421 9.4185265399021318 0 9.4185265399021318 -4.8839081902781345 0 0 0 0 -27.176693262137633 -1.2182192722284526 0 -1.2182192722284526 -6.5836728626834145 0 0 0 0 -32.734757978614653 0.7810252589964648 0 0.7810252589964648 -6.860273236027524 0 0 0 0 -39.711697504875701 -16.158258886619365 0 -16.158258886619365 -20.707315547993176 0 0 0 0 -50.791427713369558 -25.877111544773129 0 -25.877111544773129 -24.546943049936885 0 0 0 0 -35.548302888936632 -9.7211904700134255 0 -9.7211904700134255 -35.310813525934122 0 0 0 0 -43.298943927900382 -16.456053167985033 0 -16.456053167985033 -14.313998026398622 0 0 0 0 -40.93412552026075 -0.27899256741341105 0 -0.27899256741341105 -4.5742237593275377 0 0 0 0 -26.466984468289411 -9.3455640589561426 0 -9.3455640589561426 0.78488052551540477 0 0 0 0 -40.936133302834151 7.6244675872803214 0 7.6244675872803214 28.254840562982963 0 0 0 0 -19.460110154899212 7.9005989449450453 0 7.9005989449450453 -6.2425674961069717 0 0 0 0 -26.099854981438504 0.53565217296520107 0 0.53565217296520107 2.5895717768240911 0 0 0 0 -26.812050943645545 18.484493830345372 0 18.484493830345372 11.26921384827665 0 0 0 0 -31.396931041572316 -1.052156382374335 0 -1.052156382374335 6.1413932478157847 0 0 0 0 -4.2208171080496033 0.49963096415589359 0 0.49963096415589359 0.38497821923771092 0 0 0 0 -72.399402528926089 20.954313434248974 0 20.954313434248974 -8.5910680554470673 0 0 0 0 -15.854753862617144 4.1112133501154062 0 4.1112133501154062 -1.3163643933619369 0 0 0 0 -19.045765648157271 13.107118913191044 0 13.107118913191044 -7.9805089797521305 0 0 0 0 -20.631698377635075 6.141156537444374 0 6.141156537444374 -5.3658602506185389 0 0 0 0 -9.1738181157506915 10.896386459957739 0 10.896386459957739 -6.6047226681511972 0 0 0 0 -8.5062739955919682 2.5903930655051042 0 2.5903930655051042 0.71186880572963673 0 0 0 0 -5.3465734528404028 9.3083309595586456 0 9.3083309595586456 -1.8809340231699707 0 0 0 0 1.7929076668369817 7.9090559440497259 0 7.9090559440497259 -6.4383772938043649 0 0 0 0 -4.1452832377358391 2.8802418964378376 0 2.8802418964378376 -4.4800854280043723 0 0 0 0 -2.8793389625345496 5.2530617230662617 0 5.2530617230662617 0.30544150773773859 0 0 0 0 -20.181721332433881 -1.0267486651240461 0 -1.0267486651240461 0.90136915237752646 0 0 0 0 -7.333980031390638 3.100568400864347 0 3.100568400864347 0.070037880661267593 0 0 0 0 -8.1071432158204288 2.522684554853555 0 2.522684554853555 0.26200608606814058 0 0 0 0 -6.8995935739861149 -0.96819195252777579 0 -0.96819195252777579 1.0661855214363587 0 0 0 0 -2.5741415333969995 2.1913775652070697 0 2.1913775652070697 -0.6774074742575209 0 0 0 0 4.802259598166529 8.4659212286001093 0 8.4659212286001093 -6.907365150801752 0 0 0 0 -0.62094091674589436 7.2259842064906934 0 7.2259842064906934 9.6366417305639516 0 0 0 0 -1.5103570902167895 0.8534729174546456 0 0.8534729174546456 0.7480348443613074 0 0 0 0 7.759109356738918 7.1507870797399846 0 7.1507870797399846 -0.0080699889679181069 0 0 0 0 -20.002660419525455 10.266044354234907 0 10.266044354234907 6.7311421238136973 0 0 0 0 -24.315038560744824 9.9984081581086741 0 9.9984081581086741 -1.3460347037698739 0 0 0 0 -2.41948296029841 2.2811457368743504 0 2.2811457368743504 0.22780683870644225 0 0 0 0 -2.760177391814068 11.41517201103261 0 11.41517201103261 -6.5398364121210761 0 0 0 0 -0.66263798574665245 -0.11384396259994212 0 -0.11384396259994212 -0.42398037020768564 0 0 0 0 -30.19420031503023 3.5755034985666043 0 3.5755034985666043 -5.3162351431876687 0 0 0 0 -0.048001307790130454 0.041707113496436854 0 0.041707113496436854 -0.64387192850844999 0 0 0 0 -30.107872528874395 -20.173401623226653 0 -20.173401623226653 -6.5894143079386822 0 0 0 0 -1.900387311531631 -2.060555261601678 0 -2.060555261601678 -14.541633381113229 0 0 0 0 -18.293402108732153 -12.688806782589154 0 -12.688806782589154 -1.9322796792473582 0 0 0 0 0.56631916377705327 0.1579090216164829 0 0.1579090216164829 -1.6791595046380756 0 0 0 0 -21.358993768188157 -2.4560742659305106 0 -2.4560742659305106 0.90648129918849918 0 0 0 0 -23.966081920565557 -5.548734660679429 0 -5.548734660679429 3.7869005763384394 0 0 0 0 -14.733437248746441 0.52550790915829282 0 0.52550790915829282 -4.0573476752122133 0 0 0 0 -26.583754922578919 0.62090449784551538 0 0.62090449784551538 0.57071372893767602 0 0 0 0 -26.312138928798504 11.777562056029296 0 11.777562056029296 4.6788703396271671 0 0 0 0 -8.5460998791055545 9.5416595198973084 0 9.5416595198973084 -1.2565334686380538 0 0 0 0 -29.85616805755626 -3.5833449089723501 0 -3.5833449089723501 3.5976007574670348 0 0 0 0 -1.7529842791885377 5.5908374004151469 0 5.5908374004151469 0.30733609479408885 0 0 0 0 -9.2017333473736471 2.2326013296493556 0 2.2326013296493556 0.79995249198100282 0 0 0 0 -19.381216859824917 0.96724212966330469 0 0.96724212966330469 1.1893364909536785 0 0 0 0 -0.15697363678110321 0.12905892053274481 0 0.12905892053274481 0.058590894953713946 0 0 0 0 -33.118966187743354 -0.72947116707354098 0 -0.72947116707354098 5.414112438095799 0 0 0 0 -7.4890869283813117 6.500664565526904 0 6.500664565526904 0.33521333279827559 0 0 0 0 -27.686491524424127 3.2887219641081629 0 3.2887219641081629 -12.410971939526462 0 0 0 0 -16.808577701098784 1.9576436026172814 0 1.9576436026172814 3.9632699424458906 0 0 0 0 -3.4861257557997067 5.1793192734317239 0 5.1793192734317239 0.19573945810604965 0 0 0 0 -27.146466170390795 7.2679700615056504 0 7.2679700615056504 -2.7163553138911993 0 0 0 0 -29.526126735639991 3.0411331093919216 0 3.0411331093919216 -3.6042111322258279 0 0 0 0 -39.607531392463443 -8.8763891167585598 0 -8.8763891167585598 3.8237422534700727 0 0 0 0 -4.0440912502211326 -0.90257505628167145 0 -0.90257505628167145 -0.30415852482197536 0 0 0 0 1.0294195691601153 0.73850556382507904 0 0.73850556382507904 -1.0617127873486933 0 0 0 0 -20.196809523033153 -11.468301853077492 0 -11.468301853077492 -10.188223478909322 0 0 0 0 -28.716049769977303 -8.6413857714061066 0 -8.6413857714061066 -1.0071478700592706 0 0 0 0 -4.9851830045231758 -0.94790105488664622 0 -0.94790105488664622 -3.0102830440324038 0 0 0 0 -25.497498253469075 9.0156383823813826 0 9.0156383823813826 -18.451776315869211 0 0 0 0 -42.770240235932761 -5.2185632267128312 0 -5.2185632267128312 6.9216046491919769 0 0 0 0 -27.029905448768659 -9.4201232428462163 0 -9.4201232428462163 -3.1552275059683552 0 0 0 0 -22.320451727551426 0.24282012291798871 0 0.24282012291798871 3.176131801292172 0 0 0 0 -19.629728492698632 9.0878933469855472 0 9.0878933469855472 10.201616738859897 0 0 0 0 -17.802338970315759 6.8779372302748349 0 6.8779372302748349 8.9570743876732628 0 0 0 0 -21.418557869634242 10.541559278151256 0 10.541559278151256 5.279459377140725 0 0 0 0 -16.848224974372897 12.19723855717023 0 12.19723855717023 1.5235588677933833 0 0 0 0 -21.28703753388254 8.0663781838263588 0 8.0663781838263588 4.3891073806968137 0 0 0 0 -13.31406087938467 6.3032748920084813 0 6.3032748920084813 4.9305444287262077 0 0 0 0 -14.793362337468352 6.9180771569456745 0 6.9180771569456745 4.6764855155510077 0 0 0 0 -4.9061021126191324 -0.56372237381155088 0 -0.56372237381155088 0.51090609660291264 0 0 0 0 -23.045184000060544 -6.0806471413500844 0 -6.0806471413500844 -2.089691103596067 0 0 0 0 -36.365269920883748 -5.2646455807694288 0 -5.2646455807694288 0.4443645290947984 0 0 0 0 -19.428077833004672 2.2765829760188101 0 2.2765829760188101 1.79445361324686 0 0 0 0 -18.986266331220577 -7.9350149014657063 0 -7.9350149014657063 -0.036646299064159393 0 0 0 0 -8.4205501203623925 -2.1166518568858006 0 -2.1166518568858006 -1.7000111334225787 0 0 0 0 -11.414017231568206 0.81956261495789207 0 0.81956261495789207 0.48221974512690502 0 0 0 0 -6.8042108003225827 2.7659401927645995 0 2.7659401927645995 1.6186461996550299 0 0 0 0 -29.358870222318728 1.1256444772267145 0 1.1256444772267145 0.017870837656914773 0 0 0 0 -3.7336359946572992 -2.7690928105254144 0 -2.7690928105254144 -0.90681681943621673 0 0 0 0 -24.320897627545037 -1.7393598958620089 0 -1.7393598958620089 3.8891335682328645 0 0 0 0 -13.855797117841846 1.3972552077499811 0 1.3972552077499811 0.65952557431090497 0 0 0 0 -11.75942337617704 2.7395141081059489 0 2.7395141081059489 1.0863701605686054 0 0 0 0 -11.677484941686316 1.9575999369287729 0 1.9575999369287729 0.99973662691354548 0 0 0 0 -11.838453104101063 1.9356457718904494 0 1.9356457718904494 1.0007111994079594 0 0 0 0 -34.010363765504735 -5.0213223145104209 0 -5.0213223145104209 10.429760862040801 0 0 0 0 -33.30227460235028 -7.3761817155371823 0 -7.3761817155371823 9.1000016263809016 0 0 0 0 -32.017524907772895 -5.5489033177162455 0 -5.5489033177162455 9.9269785312895493 0 0 0 0 -28.658815230449363 -6.4677796134286751 0 -6.4677796134286751 1.731738050839283 0 0 0 0 -24.508929587246826 1.3248287164668735 0 1.3248287164668735 3.0679531166670326 0 0 0 0 -26.1468674348489 -0.10831332278775108 0 -0.10831332278775108 10.630593621976171 0 0 0 0 -28.857314565313573 1.183222849298069 0 1.183222849298069 14.83121455804303 0 0 0 0 -23.655858112625182 0.67686593161050634 0 0.67686593161050634 3.320395619710089 0 0 0 0 -31.039157752018696 -2.4256330202162815 0 -2.4256330202162815 14.846927591122494 0 0 0 0 -26.661203520650815 7.6355734079951958 0 7.6355734079951958 17.900615203704113 0 0 0 0 -20.287769974831349 4.6308237963764896 0 4.6308237963764896 10.386075642462782 0 0 0 0 -24.180243528251594 0.016418160729973152 0 0.016418160729973152 10.658002217734044 0 0 0 0 -28.917429701225046 1.4712420022558383 0 1.4712420022558383 11.613607789361033 0 0 0 0 -28.069872591229796 5.4677404341709845 0 5.4677404341709845 10.300880825383979 0 0 0 0 -33.835777369265998 4.7779788498585987 0 4.7779788498585987 5.2290185137411314 0 0 0 0 -27.895133992528827 13.123652713380988 0 13.123652713380988 2.3111625011637784 0 0 0 0 -31.219723387022896 8.6886666829834525 0 8.6886666829834525 7.5003166824568979 0 0 0 0 -36.251783800831618 -1.3218369793852309 0 -1.3218369793852309 9.144889179242945 0 0 0 0 -44.888045107698417 -12.206905059610392 0 -12.206905059610392 4.9971994974142149 0 0 0 0 -46.983594907713268 1.4175807099685613 0 1.4175807099685613 8.4996603233121846 0 0 0 0 -36.967141179430541 -8.4110176073265581 0 -8.4110176073265581 9.0078686108145156 0 0 0 0 -37.947094965398719 -0.2867866555637022 0 -0.2867866555637022 11.711854662366967 0 0 0 0 -32.562841048191331 -5.9594014652935012 0 -5.9594014652935012 10.226169278372375 0 0 0 0 -35.008161314840663 -12.671104659213386 0 -12.671104659213386 5.1276749072028167 0 0 0 0 -35.822032399370073 -7.560895518182889 0 -7.560895518182889 7.2934060827790859 0 0 0 0 -19.540050823123238 -11.811382969771923 0 -11.811382969771923 -1.2587602856274476 0 0 0 0 -12.645289620912081 -6.1232477658063544 0 -6.1232477658063544 0.43722198228698517 0 0 0 0 -20.264480808857115 -10.220166320523505 0 -10.220166320523505 -1.1815949904615337 0 0 0 0 -16.848468964934909 -3.7106066935913464 0 -3.7106066935913464 5.452810137952028 0 0 0 0 -20.173636629391694 -9.3402620929806517 0 -9.3402620929806517 1.8199582127902048 0 0 0 0 -25.236884898944481 -6.59237137662668 0 -6.59237137662668 5.6814580826855803 0 0 0 0 -27.12723355102753 -9.6981167747611465 0 -9.6981167747611465 6.2423504981814233 0 0 0 0 -22.407218496351561 -6.2465687194674615 0 -6.2465687194674615 5.4410419139874762 0 0 0 0 -29.050994692330278 -4.56635614393835 0 -4.56635614393835 5.177342555822861 0 0 0 0 -17.099400325183524 -6.2711582501750698 0 -6.2711582501750698 4.0801250147595312 0 0 0 0 -21.296795578686215 -4.2772068123041365 0 -4.2772068123041365 3.7300214459070276 0 0 0 0 -16.569502025020483 3.8892843728341404 0 3.8892843728341404 -7.2638647567681875 0 0 0 0 -25.616208767485659 -4.54639700355267 0 -4.54639700355267 4.0650479228694678 0 0 0 0 -10.278219434258062 -10.261044974841298 0 -10.261044974841298 2.684103765707448 0 0 0 0 -20.285827448631608 -7.1696067215214256 0 -7.1696067215214256 4.6346081454542514 0 0 0 0 -6.5829920079431758 -14.604231404755865 0 -14.604231404755865 -8.6977652669196459 0 0 0 0 -13.774569157067162 -3.8831793704738828 0 -3.8831793704738828 2.96996323832645 0 0 0 0 -34.101429891508815 8.8444690656939997 0 8.8444690656939997 13.594753423076895 0 0 0 0 -1.8789980283852472 0.69242736291553086 0 0.69242736291553086 0.14293451214954978 0 0 0 0 -12.979917016745325 -3.9259361156132875 0 -3.9259361156132875 -0.80520956143416911 0 0 0 0 -4.0946961379195272 6.4112455807812694 0 6.4112455807812694 -2.5800173662547081 0 0 0 0 -32.912759429738799 15.423074999656819 0 15.423074999656819 -2.6079284178604212 0 0 0 0 -29.595358448532352 -4.0597034306415196 0 -4.0597034306415196 7.0357166379957903 0 0 0 0 -53.96185412180057 -6.8460416069685266 0 -6.8460416069685266 7.5847863304244711 0 0 0 0 -32.65891191369883 -4.6445523533357687 0 -4.6445523533357687 7.2687100344636839 0 0 0 0 -18.314712057855104 -1.2202661916412154 0 -1.2202661916412154 4.6358223086424459 0 0 0 0 -32.257831708509912 1.4077855334496974 0 1.4077855334496974 4.4624908362685005 0 0 0 0 -21.373671476060736 -2.5300349509744251 0 -2.5300349509744251 1.9254083415419245 0 0 0 0 -4.5093569056674241 -2.7621673444586303 0 -2.7621673444586303 0.43582126910175356 0 0 0 0 -4.4896448068000518 -0.21058550681108912 0 -0.21058550681108912 1.878124972188238 0 0 0 0 -13.707531357360615 -3.3377775665923881 0 -3.3377775665923881 0.42675507865851947 0 0 0 0 -14.508940419357469 -2.3768131159941746 0 -2.3768131159941746 0.88728707493671921 0 0 0 0 -18.771285073964464 -1.8068273960666303 0 -1.8068273960666303 1.2913717680095544 0 0 0 0 -12.347201020433204 -17.33245487479131 0 -17.33245487479131 12.436760561760764 0 0 0 0 -3.3192069892111338 0.0084477577359223233 0 0.0084477577359223233 4.0623969681366265 0 0 0 0 -12.382653422013391 -2.8558670815872134 0 -2.8558670815872134 1.1055672364126536 0 0 0 0 -22.244380581591031 -3.6463762891175122 0 -3.6463762891175122 13.783134305820113 0 0 0 0 -14.308963497995137 -3.7641176561156442 0 -3.7641176561156442 5.1501055030083478 0 0 0 0 -4.698051355345342 -15.257775178594727 0 -15.257775178594727 8.2829459552906428 0 0 0 0 -18.95690116339938 -2.2675182008682668 0 -2.2675182008682668 0.72209064331798345 0 0 0 0 -35.64766500602309 4.6343929373340416 0 4.6343929373340416 8.6740139215183945 0 0 0 0 -41.779998516086835 -20.543798929595724 0 -20.543798929595724 26.386481821408324 0 0 0 0 -7.9783666402800009 -10.132530261638863 0 -10.132530261638863 -22.08691060239255 0 0 0 0 -0.51273259030491758 0.61083289885510794 0 0.61083289885510794 3.9144011308536419 0 0 0 0 -7.2773570953086164 8.5291783046585579 0 8.5291783046585579 -0.087489584519857999 0 0 0 0 -10.423299984700861 -2.5031249287923885 0 -2.5031249287923885 0.93556130777297142 0 0 0 0 -0.41525421301633259 0.39651298972525417 0 0.39651298972525417 0.84899439733444693 0 0 0 0 -46.688865676688238 -18.834211934299205 0 -18.834211934299205 -8.0064807568988954 0 0 0 0 -31.089260596350755 -15.511528640309347 0 -15.511528640309347 -10.18025784812346 0 0 0 0 -51.855099781800163 -3.9218232934632624 0 -3.9218232934632624 -14.491206354908059 0 0 0 0 -0.11670140480050151 -0.0688563592354825 0 -0.0688563592354825 0.74565096705774669 0 0 0 0 -31.252310379950359 -19.130279313698281 0 -19.130279313698281 -19.119323733118108 0 0 0 0 -15.173746506185125 -23.311726658731686 0 -23.311726658731686 -18.119985117982196 0 0 0 0 -5.5594107407268893 1.8440037692009241 0 1.8440037692009241 10.03196601613547 0 0 0 0 -8.1441491617333668 -3.1059002636188779 0 -3.1059002636188779 1.0070630862215353 0 0 0 0 -2.9761308493537015 -1.1320856111540731 0 -1.1320856111540731 1.3697125281568048 0 0 0 0 -28.027217166861192 -15.579044477864898 0 -15.579044477864898 2.0659272706989213 0 0 0 0 -25.609470697511824 -19.554897101936149 0 -19.554897101936149 -2.646500494058273 0 0 0 0 -13.817508955360609 -2.0242096053682417 0 -2.0242096053682417 1.9431658704927486 0 0 0 0 -20.359084272793552 -10.664758917070003 0 -10.664758917070003 0.11500879428683675 0 0 0 0 -25.656553708260617 -6.7207582688461116 0 -6.7207582688461116 9.6532619511849589 0 0 0 0 -14.981263486494754 -29.191350313654198 0 -29.191350313654198 -0.98352638258393199 0 0 0 0 -27.260482632853382 -14.104370951722785 0 -14.104370951722785 0.16032233881787761 0 0 0 0 -27.300287939619011 -18.858089027543201 0 -18.858089027543201 17.39052578715939 0 0 0 0 -11.229276560698054 -5.2326535439256077 0 -5.2326535439256077 3.970619667776873 0 0 0 0 -10.578449301814089 -0.71602797701348209 0 -0.71602797701348209 0.78686723131590952 0 0 0 0 -8.6196599168033572 -2.8888475235291935 0 -2.8888475235291935 6.5141457950740005 0 0 0 0 -8.9542644294788261 -3.6472248107442056 0 -3.6472248107442056 4.987510241099244 0 0 0 0 -7.3108958500888548 -2.96661320094654 0 -2.96661320094654 3.1108368339314438 0 0 0 0 -10.970019226399017 -5.6025123659085239 0 -5.6025123659085239 6.8546330481381119 0 0 0 0 -3.1722566915641099 -4.1091229102165414 0 -4.1091229102165414 1.8923313244859887 0 0 0 0 -13.985309788249651 -2.4784721506928236 0 -2.4784721506928236 5.0800413035676684 0 0 0 0 -12.958189147666417 -4.8265219774870047 0 -4.8265219774870047 5.7809558206472502 0 0 0 0 -7.7539106966978579 -4.0249261234880578 0 -4.0249261234880578 2.8030763053016017 0 0 0 0 -10.988328166626161 -3.70465693675078 0 -3.70465693675078 6.3275166963658194 0 0 0 0 -8.192970020834764 -3.396744994086248 0 -3.396744994086248 5.046089899735307 0 0 0 0 -9.2117160666038167 -3.3262679528768473 0 -3.3262679528768473 -0.45369241436810026 0 0 0 0 -2.905878383392519 -14.888019672017094 0 -14.888019672017094 8.4634817405017202 0 0 0 0 -5.4305627269513934 -2.9198202841903367 0 -2.9198202841903367 -5.3304655501416391 0 0 0 0 -5.0144489996728225 -2.4974131681728977 0 -2.4974131681728977 -5.4074529897247885 0 0 0 0 13.187842538949553 -15.645459600725417 0 -15.645459600725417 -7.986841594215548 0 0 0 0 0.33240286535249197 6.9403183163925135 0 6.9403183163925135 -14.537822947363566 0 0 0 0 1.0789178379920372 -8.84155500077906 0 -8.84155500077906 -1.9966868514989073 0 0 0 0 20.672099095749218 -0.58628321062508348 0 -0.58628321062508348 -20.464516135778467 0 0 0 0 -2.5554361484664696 -8.7959513392753479 0 -8.7959513392753479 -0.63021355205682994 0 0 0 0 -5.1064737005572702 -0.84035349583101882 0 -0.84035349583101882 1.4779098542249216 0 0 0 0 -9.9646348829410272 -0.60729833527102528 0 -0.60729833527102528 6.3252826506593465 0 0 0 0 -6.4011717504909029 -2.9007810971640993 0 -2.9007810971640993 0.49346444323373362 0 0 0 0 -10.916255977168476 -3.4289774754183782 0 -3.4289774754183782 2.4978072321146101 0 0 0 0 -9.7740364319770592 -3.8471994443015536 0 -3.8471994443015536 2.1703686025724647 0 0 0 0 -5.8241192500803827 -1.1125259374201288 0 -1.1125259374201288 1.4304270820440164 0 0 0 0 -17.561393583846439 -9.0496946230033473 0 -9.0496946230033473 -3.3787526560381878 0 0 0 0 -18.601647289533503 -6.8537464598769873 0 -6.8537464598769873 -5.6660127320521951 0 0 0 0 -10.095164455346838 -2.5110663170000369 0 -2.5110663170000369 0.8409909198829385 0 0 0 0 -7.2938576356488909 -4.8750166200731266 0 -4.8750166200731266 -0.36749658751694181 0 0 0 0 -16.448984258867313 -5.3632221405154468 0 -5.3632221405154468 -2.8006840211204462 0 0 0 0 -14.77827517980586 -7.1035633790798443 0 -7.1035633790798443 -6.6473014887071713 0 0 0 0 -14.607837100512825 -6.806774910750363 0 -6.806774910750363 -6.165713951437283 0 0 0 0 -15.330285105399525 -8.2945616508214783 0 -8.2945616508214783 -5.1547837677226767 0 0 0 0 -15.099720288843855 -8.0679118506165537 0 -8.0679118506165537 -7.6667485673106057 0 0 0 0 -1.3980113575077961 -1.0050844897416011 0 -1.0050844897416011 -0.72050030412107691 0 0 0 0 -10.99979864431225 -13.027887192340131 0 -13.027887192340131 -3.6426147797900512 0 0 0 0 -15.810592183643166 -5.9166727073569518 0 -5.9166727073569518 -13.535236816216639 0 0 0 0 -14.389759207993848 -6.5264361755987466 0 -6.5264361755987466 -10.491443161442817 0 0 0 0 -14.318278680912044 -6.954802672708297 0 -6.954802672708297 -9.4334210102811085 0 0 0 0 -14.7576247038063 6.4107424704404021 0 6.4107424704404021 3.6601907723725731 0 0 0 0 -32.378502194368139 -0.99987595045479338 0 -0.99987595045479338 8.0166413881693188 0 0 0 0 -3.8575942910378611 0.032491846834687976 0 0.032491846834687976 0.37199953638065342 0 0 0 0 -23.334125760695315 1.7631436412375479 0 1.7631436412375479 2.5755751576061812 0 0 0 0 -16.765347424798154 -3.7348023855951267 0 -3.7348023855951267 -0.052594639307523394 0 0 0 0 -13.875711346147 -7.0981678254461258 0 -7.0981678254461258 2.0414461013742766 0 0 0 0 -24.322375260795525 -8.0204845983201949 0 -8.0204845983201949 1.9749959591063089 0 0 0 0 -20.386976343272181 -11.655821369242744 0 -11.655821369242744 3.6739558451058656 0 0 0 0 -13.146200517820944 -4.2295204294976543 0 -4.2295204294976543 -1.0686104898333895 0 0 0 0 -18.060640604468063 -8.1488755159425637 0 -8.1488755159425637 0.49896184746285144 0 0 0 0 -21.932296647408293 -11.921364059052962 0 -11.921364059052962 2.0467539379374102 0 0 0 0 -16.150222052394383 -11.262195401392546 0 -11.262195401392546 -6.3106814203338217 0 0 0 0 -11.153362585436298 -1.1555185391616192 0 -1.1555185391616192 2.9437813709027978 0 0 0 0 -12.074402139706979 -5.3225854165788924 0 -5.3225854165788924 0.5434683645231484 0 0 0 0 -9.1028916789209244 -6.1190071675150115 0 -6.1190071675150115 -0.80459985587258043 0 0 0 0 -2.0067981362954015 -4.107952615790964 0 -4.107952615790964 2.4008657875965582 0 0 0 0 -9.882617150387297 -6.8323801090566043 0 -6.8323801090566043 -0.076268914221776285 0 0 0 0 -7.5966770069078393 -5.5152177763474146 0 -5.5152177763474146 0.76217054355234559 0 0 0 0 -13.829047218954699 -4.9494277293291624 0 -4.9494277293291624 -1.0924782336640204 0 0 0 0 -15.07199353631313 -2.3675609446507906 0 -2.3675609446507906 -1.8964083284187154 0 0 0 0 -6.3874215949190063 -5.5308343997369889 0 -5.5308343997369889 -2.0992599486316053 0 0 0 0 -19.324683273247047 -6.8581308222331359 0 -6.8581308222331359 -3.3301111819168057 0 0 0 0 -16.808368518024508 -5.7987867649625855 0 -5.7987867649625855 -1.1358730216506956 0 0 0 0 -22.025140776607259 -3.4750099157206193 0 -3.4750099157206193 -0.063337474702450436 0 0 0 0 -18.194879931975265 -2.0614051067120442 0 -2.0614051067120442 -0.0062225591656215329 0 0 0 0 -13.134014717455102 -3.1826597934569349 0 -3.1826597934569349 -4.0796026480667251 0 0 0 0 -17.605927443906694 -2.441186343012447 0 -2.441186343012447 -1.8953673657226169 0 0 0 0 -2.6145559863328893 -5.156868879636523 0 -5.156868879636523 -1.2162113531157661 0 0 0 0 -13.509700242920644 -3.4235540734741932 0 -3.4235540734741932 -1.8032926996173444 0 0 0 0 -13.583604591372932 -1.7676499329035096 0 -1.7676499329035096 0.19044277935444143 0 0 0 0 -12.7015895761715 -1.6004695851968336 0 -1.6004695851968336 0.074589077958897576 0 0 0 0 -9.5991202808063463 -5.8159157213116686 0 -5.8159157213116686 -1.5931947834129119 0 0 0 0 -13.787729606819994 -2.3431093680873687 0 -2.3431093680873687 1.8273844817802001 0 0 0 0 -17.882752913572176 0.093508997355211676 0 0.093508997355211676 0.78340091051489935 0 0 0 0 -17.795402289985759 -1.326910758809575 0 -1.326910758809575 -0.71459372497546525 0 0 0 0 -4.5175557063399499 -4.6488079502898323 0 -4.6488079502898323 0.080564187203019499 0 0 0 0 -10.722785884296172 -5.8436944448328916 0 -5.8436944448328916 -5.335878185235515 0 0 0 0 -14.18643008455183 -4.4278182833849655 0 -4.4278182833849655 -2.9582313269272618 0 0 0 0 -14.531292096397408 -4.3789030496449097 0 -4.3789030496449097 -5.113487306055049 0 0 0 0 -14.47156858955168 -5.2026510078440538 0 -5.2026510078440538 -4.2115889620238818 0 0 0 0 -14.689405844739781 -7.0191032419834762 0 -7.0191032419834762 -5.6645691106634786 0 0 0 0 -10.184857958529392 -6.4046095293457199 0 -6.4046095293457199 -8.8335996843397879 0 0 0 0 -18.589298907799048 -16.398554643346891 0 -16.398554643346891 -9.2395725793638803 0 0 0 0 -15.255968197953734 -9.6008770196696389 0 -9.6008770196696389 -10.704541074284862 0 0 0 0 -21.487107665969233 -4.7498938307531375 0 -4.7498938307531375 -6.2200317099700442 0 0 0 0 -18.18546018933921 -5.9483097496888035 0 -5.9483097496888035 -5.7865466084806485 0 0 0 0 -15.274213669996243 -3.1652807548136366 0 -3.1652807548136366 -8.3149106556404035 0 0 0 0 -19.157243329970697 -1.6623639800931187 0 -1.6623639800931187 -8.8965621030583861 0 0 0 0 -14.983641649690981 -3.6851825223853893 0 -3.6851825223853893 -12.060673933168289 0 0 0 0 -14.090433736275372 -4.4059775038125508 0 -4.4059775038125508 -8.6355871097249519 0 0 0 0 -14.810384044010789 -4.7371526775438895 0 -4.7371526775438895 -7.8418780440929368 0 0 0 0 -15.891019493958083 -2.6544683986435302 0 -2.6544683986435302 -6.2359983072224736 0 0 0 0 -14.370597660012663 -3.738623640192074 0 -3.738623640192074 -5.6018673923862252 0 0 0 0 -15.108209852471191 -2.4085799968131596 0 -2.4085799968131596 -3.3634798433700439 0 0 0 0 -14.685072323540226 -3.2940987666405022 0 -3.2940987666405022 -2.3301409988617365 0 0 0 0 -14.113983864011971 -1.5739984381777958 0 -1.5739984381777958 -2.4503544918781159 0 0 0 0 -15.008380148284232 -2.8370804984675857 0 -2.8370804984675857 -2.7986986518452568 0 0 0 0 -14.092451303476023 -3.5138987557316703 0 -3.5138987557316703 -6.28498403151616 0 0 0 0 -14.130135125587913 -3.8603516714622685 0 -3.8603516714622685 -5.7765594229592807 0 0 0 0 -14.327848458326116 -2.6426498581878946 0 -2.6426498581878946 -2.1766269630714987 0 0 0 0 -13.828291335027416 -2.8731630914277559 0 -2.8731630914277559 -2.073371726548487 0 0 0 0 -13.984787738083469 -1.7725540694266044 0 -1.7725540694266044 0.17937723770921821 0 0 0 0 -13.939547572701485 -1.094449403141823 0 -1.094449403141823 -0.32019331105357196 0 0 0 0 -14.288554391229809 -1.0713239856931835 0 -1.0713239856931835 3.0277138624044824 0 0 0 0 -13.803355550782271 -1.1186129746573954 0 -1.1186129746573954 1.3124043837916588 0 0 0 0 -13.661478195941527 -1.1118694098102395 0 -1.1118694098102395 0.23106952809519044 0 0 0 0 -14.533389931203146 -1.8602809412762014 0 -1.8602809412762014 0.33596783150005649 0 0 0 0 -13.726726792777299 -2.1390284380548508 0 -2.1390284380548508 -1.9576545189813714 0 0 0 0 -12.627833744310919 -2.3092958238257211 0 -2.3092958238257211 -1.9923937905312243 0 0 0 0 -14.225872595363398 -2.1112714953762293 0 -2.1112714953762293 -0.22477186692066198 0 0 0 0 -11.782719163198635 -1.4868047931325918 0 -1.4868047931325918 -0.26851122494129953 0 0 0 0 -10.024320486223587 -3.0990268333689812 0 -3.0990268333689812 -1.1040956003618589 0 0 0 0 -12.061295787904328 -2.7508778792287742 0 -2.7508778792287742 0.12052452934551638 0 0 0 0 -13.24482629018712 -3.6189755405058293 0 -3.6189755405058293 -1.128815090244359 0 0 0 0 -10.500653263719869 -4.1091002154955163 0 -4.1091002154955163 -2.9638514579027051 0 0 0 0 -7.7905539948392288 -1.3183199952881992 0 -1.3183199952881992 -0.043144139505386647 0 0 0 0 -9.1087116666731163 -2.2566226699566982 0 -2.2566226699566982 0.15391613983754482 0 0 0 0 -6.7649558835498738 -3.6701963547218526 0 -3.6701963547218526 -0.27691582934573944 0 0 0 0 -9.8629143160392232 -3.4686851876550691 0 -3.4686851876550691 0.15210230782031431 0 0 0 0 -10.558956503040463 0.19774102358033474 0 0.19774102358033474 1.6198006016056397 0 0 0 0 -10.997127116895172 -1.5588496584432789 0 -1.5588496584432789 0.47704402770693832 0 0 0 0 -6.9150902830915584 2.0096286881514231 0 2.0096286881514231 0.42807884299369903 0 0 0 0 -7.8033966401944781 -1.1950014913934695 0 -1.1950014913934695 -0.22427007214361083 0 0 0 0 -6.5087023227160898 4.3366274100821585 0 4.3366274100821585 -3.3219778442336292 0 0 0 0 -9.0783179157679115 10.17687127018408 0 10.17687127018408 -10.379441632291787 0 0 0 0 -13.409706515884977 2.6007283746558301 0 2.6007283746558301 6.3985489186295581 0 0 0 0 -13.470679663756528 1.865255568506285 0 1.865255568506285 0.93202868550883977 0 0 0 0 -16.132260349839271 -0.71945176258770971 0 -0.71945176258770971 2.9621958538088791 0 0 0 0 -15.488308587597203 -2.9724010718793181 0 -2.9724010718793181 10.15063653782488 0 0 0 0 -23.239002500121387 0.46637163708109597 0 0.46637163708109597 10.373236043629504 0 0 0 0 -11.91922402360251 15.984294448895412 0 15.984294448895412 9.4543172706381355 0 0 0 0 -13.139797862537307 28.482710546953172 0 28.482710546953172 -21.212635144104411 0 0 0 0 -19.48856476266883 4.9212531933198136 0 4.9212531933198136 7.7837107711703197 0 0 0 0 -0.58300117806995289 0.2178078158977037 0 0.2178078158977037 -0.043057911984235531 0 0 0 0 -2.2233101110314237 9.1757388597744978 0 9.1757388597744978 -24.649316047725108 0 0 0 0 -23.740445743298551 1.2192584732230216 0 1.2192584732230216 -16.012653385692829 0 0 0 0 36.05124331566185 -33.98183264830385 0 -33.98183264830385 -20.794095857421656 0 0 0 0 -0.77041888767644195 -2.2988719049343942 0 -2.2988719049343942 -4.4155025247713411 0 0 0 0 -2.3209111184041831 2.2257519050669998 0 2.2257519050669998 -8.1329107200444923 0 0 0 0 -5.9102296433188712 -2.0491229571841671 0 -2.0491229571841671 1.775359489534992 0 0 0 0 -6.0370216136898307 -2.3947287021428565 0 -2.3947287021428565 2.8103654997028542 0 0 0 0 -2.3594781389339499 -0.13530616383414573 0 -0.13530616383414573 -0.78352502128056889 0 0 0 0 -4.549549142971955 -3.8082330831129525 0 -3.8082330831129525 1.9651442464154627 0 0 0 0 -5.0412794310395839 -2.4162160918940572 0 -2.4162160918940572 -0.63814857825451554 0 0 0 0 -14.643356456300316 1.0344595179471563 0 1.0344595179471563 1.9084688918352561 0 0 0 0 -27.221694935491541 -0.4561757285243857 0 -0.4561757285243857 5.0170818903821726 0 0 0 0 -29.710451313190788 2.7364891693616471 0 2.7364891693616471 -9.7746188432926147 0 0 0 0 -12.761277949199211 8.8818189572529036 0 8.8818189572529036 0.13018126967449462 0 0 0 0 -3.857535832722367 3.4420447817428323 0 3.4420447817428323 3.7359058745014719 0 0 0 0 21.862960263812511 -7.5812251588828659 0 -7.5812251588828659 9.2010703231835009 0 0 0 0 0.32197906707989254 0.32374714261026138 0 0.32374714261026138 -0.22510602293435589 0 0 0 0 -25.921302163522796 -4.5995106072578551 0 -4.5995106072578551 3.8552045275168894 0 0 0 0 0.028893122129375115 -32.400031934315336 0 -32.400031934315336 -5.0971401648083372 0 0 0 0 -0.15751865384476815 -0.64946082281503781 0 -0.64946082281503781 0.16892020828837112 0 0 0 0 -15.185892098535078 -11.461408762971814 0 -11.461408762971814 -5.5265836275080034 0 0 0 0 -20.207794963262131 -8.3073115407935063 0 -8.3073115407935063 9.4489422430498848 0 0 0 0 -15.208395894474961 -4.0869205940476263 0 -4.0869205940476263 1.2004486367644347 0 0 0 0 -75.930316151907391 -43.291770123095034 0 -43.291770123095034 47.238222259892808 0 0 0 0 -22.858935512697826 -5.0084512166255877 0 -5.0084512166255877 34.029251651000209 0 0 0 0 -28.031531337595879 49.892631176619091 0 49.892631176619091 25.549262559339809 0 0 0 0 -20.956058138046501 -0.82892566257044109 0 -0.82892566257044109 56.718337426188327 0 0 0 0 -8.3664571375991752 0.29450443717143848 0 0.29450443717143848 2.1704472338482703 0 0 0 0 -60.426645102346811 11.615308759876939 0 11.615308759876939 -16.414776958292862 0 0 0 0 -3.7946959793418955 -7.568024093240183 0 -7.568024093240183 15.677216961696956 0 0 0 0 -5.3241357354772845 -5.3586604754494829 0 -5.3586604754494829 12.761329738005941 0 0 0 0 -1.1500037346060625 -0.19765315292830454 0 -0.19765315292830454 -0.48710244900939426 0 0 0 0 -59.982589476502426 8.843683888402154 0 8.843683888402154 20.387325717159001 0 0 0 0 -32.817669004345589 -4.1715175745238184 0 -4.1715175745238184 -20.842088183345084 0 0 0 0 -17.106853705701724 -2.8675296739320402 0 -2.8675296739320402 14.311555578445166 0 0 0 0 -36.432947994669348 6.7700325873902898 0 6.7700325873902898 17.844435403801754 0 0 0 0 -44.629472135085052 -12.059605053269593 0 -12.059605053269593 -8.1597039809947773 0 0 0 0 -19.985660748811597 0.38491919998196522 0 0.38491919998196522 -1.6023260317483619 0 0 0 0 -32.329878971858307 -2.474449331820523 0 -2.474449331820523 -0.26533006783665769 0 0 0 0 -2.0667768941477673 0.26797480006214691 0 0.26797480006214691 1.0288790471647693 0 0 0 0 -21.453394918833283 2.163133194486818 0 2.163133194486818 2.3217189560841689 0 0 0 0 -2.4260072014949863 -0.090626238633257472 0 -0.090626238633257472 0.16897610127894547 0 0 0 0 -19.985520440429696 3.6515896864039235 0 3.6515896864039235 3.2722142582715605 0 0 0 0 -18.445531478495468 0.65451292341924727 0 0.65451292341924727 5.4736707917109015 0 0 0 0 -12.307309272648126 3.4810057284369122 0 3.4810057284369122 1.9588937897076448 0 0 0 0 -12.642168036483781 -4.3542730470305742 0 -4.3542730470305742 -2.3856363931754458 0 0 0 0 -20.016724285330383 -0.018950303005567548 0 -0.018950303005567548 3.8722706440366892 0 0 0 0 -18.494036012801189 2.3311288466804854 0 2.3311288466804854 3.2788970887675077 0 0 0 0 -19.368333419223859 0.85808579711682853 0 0.85808579711682853 1.838083384661104 0 0 0 0 -18.696413434930946 2.0078303369847958 0 2.0078303369847958 -0.045292132609802138 0 0 0 0 -19.013966238720968 2.1635992249958917 0 2.1635992249958917 1.4821891294558043 0 0 0 0 -18.46156406521186 5.5216518468596405 0 5.5216518468596405 5.0126753819917553 0 0 0 0 -17.973653915224531 3.7856917173846227 0 3.7856917173846227 -2.6662066607696033 0 0 0 0 -20.750707856868303 2.1167959664977616 0 2.1167959664977616 -0.050686000390214758 0 0 0 0 -22.86741851313127 -0.57481013427923244 0 -0.57481013427923244 2.519890521967227 0 0 0 0 -33.473985691189682 -2.0577731094161607 0 -2.0577731094161607 4.3129081042820872 0 0 0 0 -26.027209825642785 6.5411067887815761 0 6.5411067887815761 7.3200479494620083 0 0 0 0 -26.25783441012004 -13.269813007869999 0 -13.269813007869999 -0.31608673749701666 0 0 0 0 -18.231370881043858 -5.0747686589591012 0 -5.0747686589591012 -3.6605295623418215 0 0 0 0 -14.495415467470366 1.0706184505234546 0 1.0706184505234546 5.5552598656811369 0 0 0 0 -20.767006923790632 -1.1678740532973393 0 -1.1678740532973393 4.3854085665961975 0 0 0 0 -18.377631322974594 0.15168192224041377 0 0.15168192224041377 2.3417618792258281 0 0 0 0 -16.9703496426024 -2.5169749607294136 0 -2.5169749607294136 4.8499215495262433 0 0 0 0 -18.544951388020763 -3.4549103901948683 0 -3.4549103901948683 4.2989471790061771 0 0 0 0 -17.838869441507541 -5.340086848349415 0 -5.340086848349415 8.3967426344931368 0 0 0 0 -15.995174189874888 -4.7055117835788351 0 -4.7055117835788351 4.6939111415045573 0 0 0 0 -24.397162812627357 -39.461667115833961 0 -39.461667115833961 -4.2905765500121333 0 0 0 0 1.0586966150299659 -1.9434283917989656 0 -1.9434283917989656 -0.58426231526680072 0 0 0 0 -17.463859939856462 -2.9557364709235454 0 -2.9557364709235454 1.5194457047937293 0 0 0 0 -25.235143270605477 6.5940036834356874 0 6.5940036834356874 -23.228189783131256 0 0 0 0 -15.122332116432361 -1.4469181116471672 0 -1.4469181116471672 2.8748506040804322 0 0 0 0 -15.249295471929145 -1.3883200697499234 0 -1.3883200697499234 6.2042400034801943 0 0 0 0 -14.674178398334334 -1.1031729744037726 0 -1.1031729744037726 1.4564094767137874 0 0 0 0 -13.647432702352489 -4.4834042503673572 0 -4.4834042503673572 0.55909732702322401 0 0 0 0 -22.995051243257876 -4.9062606081847946 0 -4.9062606081847946 2.1501917901442198 0 0 0 0 -16.438659001815722 -3.5967386661312943 0 -3.5967386661312943 -0.86619536997733348 0 0 0 0 -21.147196304879799 -1.9657314085488196 0 -1.9657314085488196 0.25120130665493434 0 0 0 0 -34.259627298003579 -2.8131025596527639 0 -2.8131025596527639 0.53841319229741647 0 0 0 0 -4.2469494775479033 -2.8431355474937714 0 -2.8431355474937714 0.77781056096320456 0 0 0 0 -34.268620724404173 -2.9864493992347416 0 -2.9864493992347416 -0.79371108528826539 0 0 0 0 -4.5050931287983573 0.050403327942687426 0 0.050403327942687426 -0.5318786400830271 0 0 0 0 -11.813193857065016 -2.8480792653647313 0 -2.8480792653647313 0.47063336026894831 0 0 0 0 -10.866100172229434 -5.0843316647454628 0 -5.0843316647454628 -0.76042560655514535 0 0 0 0 -11.236464114853087 0.51993399442276456 0 0.51993399442276456 2.3532883406193328 0 0 0 0 -12.722101462270075 0.249317268366962 0 0.249317268366962 1.8918529944403206 0 0 0 0 -19.94871236711333 -2.7584501339692906 0 -2.7584501339692906 0.72839268559806669 0 0 0 0 -15.646669400632959 1.2012230671921031 0 1.2012230671921031 4.2107214400323301 0 0 0 0 -14.944399138810956 0.3071639325192459 0 0.3071639325192459 2.8840559766085203 0 0 0 0 -18.470294421851577 2.2621354383029484 0 2.2621354383029484 6.3260497789642613 0 0 0 0 -224.17167969900129 37.010510748379268 0 37.010510748379268 31.065572158625987 0 0 0 0 -3.4161570380057062 2.6043590758668005 0 2.6043590758668005 -1.3192635799535513 0 0 0 0 -168.44714367493589 34.945937787010294 0 34.945937787010294 27.501685462035503 0 0 0 0 -239.19512245183705 -32.390311601136844 0 -32.390311601136844 36.878356099266433 0 0 0 0 -185.10940790015684 -29.486954421735351 0 -29.486954421735351 35.31221018854847 0 0 0 0 -1.6362920251248525 1.0024748416772651 0 1.0024748416772651 -0.63630226243856525 0 0 0 0 -499.66070917018283 -176.10066189502484 0 -176.10066189502484 -2.9399884944752546 0 0 0 0 23.898930467423725 61.743227068987991 0 61.743227068987991 46.110095918750375 0 0 0 0 -50.510164519864247 32.889303030643546 0 32.889303030643546 42.599272787595488 0 0 0 0 -15.690523019658031 15.744724501679684 0 15.744724501679684 27.318352303912036 0 0 0 0 -22.423467159943812 2.8819600797535969 0 2.8819600797535969 32.719823845037979 0 0 0 0 -8.2832541585075887 10.80811888300579 0 10.80811888300579 36.206274872818952 0 0 0 0 -17.028293172834537 12.162191281840393 0 12.162191281840393 35.755648833416217 0 0 0 0 0.86367925212382701 1.4536086671300816 0 1.4536086671300816 -0.29624052505887316 0 0 0 0 -3.7101069733219845 3.0340901946633498 0 3.0340901946633498 -1.5151225251009635 0 0 0 0 -0.44686493217523093 18.995437993638234 0 18.995437993638234 37.784300562405207 0 0 0 0 13.368153480761521 6.7669637047839046 0 6.7669637047839046 -2.998363835514084 0 0 0 0 -2.9451417265316131 0.54434946446907084 0 0.54434946446907084 0.065362420414331546 0 0 0 0 -10.349835460723398 7.1564923023608884 0 7.1564923023608884 43.181444943212114 0 0 0 0 -25.057353795870767 -6.866006425997 0 -6.866006425997 10.265845206776177 0 0 0 0 -7.3562564695403125 20.873631253963708 0 20.873631253963708 -8.2558420029984347 0 0 0 0 -0.22868361569198647 0.41440485243940106 0 0.41440485243940106 -0.78220498576558917 0 0 0 0 2.2337482933075989 -17.275038942793998 0 -17.275038942793998 -13.952053664620848 0 0 0 0 3.5316403430683749 6.020344499283615 0 6.020344499283615 -10.068634474162955 0 0 0 0 5.4952993766755753 36.826750347631389 0 36.826750347631389 28.236507445847849 0 0 0 0 -9.8827700805418317 -0.64486203256325325 0 -0.64486203256325325 9.2428027385079758 0 0 0 0 -0.12076938251841263 0.81160638367936278 0 0.81160638367936278 0.047897839812699836 0 0 0 0 -82.641234627809808 -2.107291581547269 0 -2.107291581547269 -55.553863217422645 0 0 0 0 -4.6600137198548648 1.1572678616318133 0 1.1572678616318133 -0.48669975347046923 0 0 0 0 -2.2942448498288286 7.6484958155827982 0 7.6484958155827982 2.9931651345625028 0 0 0 0 -142.50470921898341 -1.3212679493120163 0 -1.3212679493120163 29.481713906463213 0 0 0 0 19.551055226570497 34.98217132334355 0 34.98217132334355 -52.294245754206514 0 0 0 0 -86.312375122009144 -20.219493566827357 0 -20.219493566827357 -22.443796668255114 0 0 0 0 -499.27022835785624 82.776385909376629 0 82.776385909376629 76.024636303000463 0 0 0 0 -262.40328987316616 200.29566801266293 0 200.29566801266293 -70.770753112564776 0 0 0 0 -0.91550238783215399 0.15710393028958869 0 0.15710393028958869 -0.39427552239445118 0 0 0 0 -495.18336978378829 1.7540569035460347 0 1.7540569035460347 -0.56965260534959383 0 0 0 0 -0.7254316358875208 0.29079874140593875 0 0.29079874140593875 -0.43115306483841498 0 0 0 0 56.652234202681029 90.06351370335716 0 90.06351370335716 -202.49483394899224 0 0 0 0 -89.165518435705962 -218.13414524782044 0 -218.13414524782044 -206.2053694813394 0 0 0 0 -278.42323774983902 78.855784231682165 0 78.855784231682165 104.25248460192957 0 0 0 0 -498.02056562434893 -76.779863363377785 0 -76.779863363377785 96.004017754484664 0 0 0 0 54.589065606562826 -17.558748787096988 0 -17.558748787096988 -74.091154230298116 0 0 0 0 -2.5343885358574259 -0.59253047236844736 0 -0.59253047236844736 0.070064434304252007 0 0 0 0 -22.690704967773911 35.114467545000608 0 35.114467545000608 9.8740588540818877 0 0 0 0 -498.98640907723478 -135.42528357083532 0 -135.42528357083532 75.683263049352163 0 0 0 0 -1.5229272200499633 -0.46916972188905565 0 -0.46916972188905565 0.0038889202773113776 0 0 0 0 -150.17047257859383 -214.32171138570999 0 -214.32171138570999 -81.115413762422975 0 0 0 0 -235.60809116796406 -43.771571952013666 0 -43.771571952013666 79.407681903965681 0 0 0 0 -235.56958198654922 -27.021186704247093 0 -27.021186704247093 -4.7082477609458806 0 0 0 0 -86.925959590506352 -42.919326150815536 0 -42.919326150815536 -33.530574588355186 0 0 0 0 -111.33390412114738 26.994150753036259 0 26.994150753036259 -8.2048583061765186 0 0 0 0 -277.99178539057897 33.253754437261129 0 33.253754437261129 25.76077079905626 0 0 0 0 -189.06195133524909 5.6253984049889993 0 5.6253984049889993 -10.826103113630094 0 0 0 0 -119.59201103768254 47.514433371647129 0 47.514433371647129 -9.8514765577509422 0 0 0 0 -167.53485533002612 15.374143774502024 0 15.374143774502024 -11.758514717801788 0 0 0 0 -206.01069731652865 70.058753452147982 0 70.058753452147982 -11.084866613607481 0 0 0 0 -500.1785453799011 9.7667650228544893 0 9.7667650228544893 82.043290494676512 0 0 0 0 -282.60296721923947 103.46228846978653 0 103.46228846978653 -0.71731592677917355 0 0 0 0 -3.4965970223011027 6.1381070082334759 0 6.1381070082334759 11.382960319229824 0 0 0 0 -8.7401180851654772 0.32578903195380349 0 0.32578903195380349 5.7198141266698173 0 0 0 0 -6.2187344983142339 -3.5678190681068145 0 -3.5678190681068145 18.1018544376698 0 0 0 0 -1.2671347780371889 8.0243768960508461 0 8.0243768960508461 5.1817154715478573 0 0 0 0 -0.6062451262941384 0.38544267005904276 0 0.38544267005904276 0.34199901880006151 0 0 0 0 2.7451293286683267 3.834078864326969 0 3.834078864326969 1.1457812890310493 0 0 0 0 -4.8950234106077914 -3.4286727137244952 0 -3.4286727137244952 0.62418432580238914 0 0 0 0 -4.0906883357733239 0.34173262459074882 0 0.34173262459074882 -0.13971805794086023 0 0 0 0 -0.55271356535265892 -0.21924159901047546 0 -0.21924159901047546 0.19413771881843839 0 0 0 0 -19.942291441105226 0.81202155688953326 0 0.81202155688953326 1.3968186873950685 0 0 0 0 -1.4601805552824152 -0.4415369845925281 0 -0.4415369845925281 0.17466442270450988 0 0 0 0 -9.9473947650500634 4.4801768318484232 0 4.4801768318484232 -18.61045240219029 0 0 0 0 -5.367868641923117 4.7130304777009444 0 4.7130304777009444 5.2796340235038599 0 0 0 0 -10.430911261982033 -0.57497646043269413 0 -0.57497646043269413 -0.44010057886643494 0 0 0 0 -15.570611387381632 3.6945582120588121 0 3.6945582120588121 -1.7620332550866777 0 0 0 0 -67.333556324207962 44.529686567164845 0 44.529686567164845 -31.775321493886025 0 0 0 0 -115.15897593205244 24.504605036365362 0 24.504605036365362 7.1928935676377819 0 0 0 0 -9.6079780087277413 10.81048296781583 0 10.81048296781583 1.6325611292951976 0 0 0 0 -15.231959565136151 4.2954223461295022 0 4.2954223461295022 -3.6482092116462468 0 0 0 0 -0.034877609530712228 -0.038052278996360989 0 -0.038052278996360989 -0.28336928153065244 0 0 0 0 -106.50075272192697 16.265380961949184 0 16.265380961949184 -51.235343388281002 0 0 0 0 -19.525211534403525 44.952296300289028 0 44.952296300289028 -44.468249836128734 0 0 0 0 -10.931423986030723 28.475692385636865 0 28.475692385636865 -44.161875412730467 0 0 0 0 -6.5524558144320508 1.4933333063898608 0 1.4933333063898608 -23.274219950155828 0 0 0 0 -8.6201529590503014 12.624749684597909 0 12.624749684597909 -3.0071481741543771 0 0 0 0 -6.4249903413276996 1.0107257920533499 0 1.0107257920533499 -2.8680449052554451 0 0 0 0 -8.2832597493970184 16.709076285168955 0 16.709076285168955 -2.0382323198248962 0 0 0 0 -15.735899672789174 11.126483957691011 0 11.126483957691011 -4.8140834292616148 0 0 0 0 -60.544880437545089 56.879774332869992 0 56.879774332869992 30.077927146647646 0 0 0 0 -31.293478145884933 52.419290888447001 0 52.419290888447001 27.276621023509776 0 0 0 0 -51.261901790728189 28.304600240790641 0 28.304600240790641 0.41993814957487618 0 0 0 0 -28.201036378208869 48.533652286888298 0 48.533652286888298 -24.601206053392499 0 0 0 0 -92.957995902186894 36.069473760546558 0 36.069473760546558 23.303061466741358 0 0 0 0 -74.972150169985525 -7.4112155263990118 0 -7.4112155263990118 129.86126591663393 0 0 0 0 -59.861945507301243 31.796130714696503 0 31.796130714696503 7.9059274872703007 0 0 0 0 32.598483462847412 33.302746156703549 0 33.302746156703549 5.3891348286438898 0 0 0 0 -8.6204037813479655 2.5442726812733567 0 2.5442726812733567 -0.67231488439738307 0 0 0 0 -31.820778041441258 -36.682052373080559 0 -36.682052373080559 58.462568735465752 0 0 0 0 -10.159288507474571 -39.935097434216466 0 -39.935097434216466 -17.28040875381965 0 0 0 0 91.557452110179156 -51.265088996098996 0 -51.265088996098996 -63.152008292042936 0 0 0 0 -1.0010291267843794 -0.22997321993142439 0 -0.22997321993142439 -0.016852468467735575 0 0 0 0 73.894644843807328 52.015355368152768 0 52.015355368152768 -106.45120170236896 0 0 0 0 -54.8674330141057 -82.128319573012902 0 -82.128319573012902 34.255563381730099 0 0 0 0 -11.31104518895018 3.1950096073715537 0 3.1950096073715537 -0.78789940860741736 0 0 0 0 -162.2463496405237 76.991297324691772 0 76.991297324691772 0.62379293938867875 0 0 0 0 -59.877423757074212 25.382513244394886 0 25.382513244394886 84.522110996685626 0 0 0 0 9.9863723877078883 16.134674091113823 0 16.134674091113823 6.0196876518623448 0 0 0 0 -14.770870212152658 -0.15412609451703929 0 -0.15412609451703929 0.25831762105804046 0 0 0 0 -11.549820329758859 -12.143576756385499 0 -12.143576756385499 21.38560558329948 0 0 0 0 -5.9720799812903351 8.6531046488487036 0 8.6531046488487036 5.2475501721377427 0 0 0 0 -11.403057380993094 3.6281517824297556 0 3.6281517824297556 -0.49973387870445285 0 0 0 0 11.784934173356646 16.98720127689635 0 16.98720127689635 8.2393875361508577 0 0 0 0 -37.533102964152704 -34.96684128207815 0 -34.96684128207815 16.99349455296263 0 0 0 0 -100.59236643450095 -2.6520615338632494 0 -2.6520615338632494 27.356680415489762 0 0 0 0 35.952382374423053 -13.977532832683298 0 -13.977532832683298 -3.5139421474230943 0 0 0 0 -11.8842328119174 -9.5377927568402914 0 -9.5377927568402914 -1.1518778796253981 0 0 0 0 -16.222014690536753 -0.36894344758978637 0 -0.36894344758978637 0.84710187230794176 0 0 0 0 -39.030949958625058 -5.7962162636495531 0 -5.7962162636495531 27.495143909509906 0 0 0 0 -13.565898406861237 -3.0193797943606402 0 -3.0193797943606402 1.6490126178796061 0 0 0 0 -3.5945087339044335 -6.1958446595076637 0 -6.1958446595076637 2.0757556836875324 0 0 0 0 -8.7992614167917509 -1.7257154774470997 0 -1.7257154774470997 -0.23695970403468358 0 0 0 0 -8.5596258052366707 -5.9587371646848935 0 -5.9587371646848935 -0.55884464273907408 0 0 0 0 7.0047727959477015 -4.9010800733024746 0 -4.9010800733024746 -1.9645219914939789 0 0 0 0 -4.6012000075752439 5.1740368750724279 0 5.1740368750724279 -0.21356776952801226 0 0 0 0 -2.0564340969617945 4.0740468958749707 0 4.0740468958749707 -1.3776407550174667 0 0 0 0 8.4993094718043878 8.9005988064518604 0 8.9005988064518604 0.77094888151565399 0 0 0 0 -2.8935855676136271 -2.408080508530908 0 -2.408080508530908 1.433508094898869 0 0 0 0 -3.3080984623030076 3.1249760401865743 0 3.1249760401865743 -2.1222810099393143 0 0 0 0 -3.8387406735484433 -0.049068462809373159 0 -0.049068462809373159 3.5178184111282746 0 0 0 0 -5.8111641561828833 4.6746805156084754 0 4.6746805156084754 -1.3346620067760284 0 0 0 0 -0.9518555563629536 0.80339503379789468 0 0.80339503379789468 2.2608021265506535 0 0 0 0 -1.0338905770739135 0.31123993028670793 0 0.31123993028670793 0.82125426915223843 0 0 0 0 -15.451050418635532 0.879223737257675 0 0.879223737257675 2.330922531916741 0 0 0 0 -8.3702226710493051 7.4488947350717609 0 7.4488947350717609 1.0211721962196236 0 0 0 0 -4.0183094259718928 3.2020759721267353 0 3.2020759721267353 1.0910456352226845 0 0 0 0 -9.4153711892602132 -0.58797604495333644 0 -0.58797604495333644 12.965882269967722 0 0 0 0 -9.6798379601420947 -3.1924966740003384 0 -3.1924966740003384 0.88039961950195789 0 0 0 0 -12.085518718586627 -0.80953981114302564 0 -0.80953981114302564 1.1953399628614392 0 0 0 0 -7.7238353819986969 0.92086523553641086 0 0.92086523553641086 4.4986191829984818 0 0 0 0 -1.8441499365048679 2.3098892416355872 0 2.3098892416355872 2.3666031036519 0 0 0 0 -6.6149003015639209 1.8410037428832311 0 1.8410037428832311 4.9277880516151527 0 0 0 0 -4.338506297038748 -0.44773108464619327 0 -0.44773108464619327 4.3804507869158442 0 0 0 0 -4.6544073085906348 1.7850485908264773 0 1.7850485908264773 0.091616210237987161 0 0 0 0 -1.4334996461190566 -0.14037109506103018 0 -0.14037109506103018 0.041285338700768115 0 0 0 0 -7.5259100180030316 1.035846523033797 0 1.035846523033797 2.7359174897326852 0 0 0 0 -4.6312274038624111 5.8270293709819541 0 5.8270293709819541 1.8755397403765315 0 0 0 0 -2.0458035582518201 0.24357197373076733 0 0.24357197373076733 2.286948590889998 0 0 0 0 -10.141718146759558 4.6921484310984098 0 4.6921484310984098 3.6678927239107537 0 0 0 0 -4.400384950320797 1.7145586189130428 0 1.7145586189130428 2.3699527781468568 0 0 0 0 -5.8727670128882892 3.0287296631345271 0 3.0287296631345271 3.9521007153167034 0 0 0 0 -8.0478761139449944 0.87689704416720815 0 0.87689704416720815 5.1351585778932076 0 0 0 0 -1.4531452862122229 1.8025365748108206 0 1.8025365748108206 0.41291025571675122 0 0 0 0 -4.0170079370936946 1.4704521224862077 0 1.4704521224862077 -0.30589819119860806 0 0 0 0 -5.0377214622061572 2.4376238472803751 0 2.4376238472803751 1.6931888112876927 0 0 0 0 -4.9928684087177153 1.4916476122293516 0 1.4916476122293516 1.0946246063175358 0 0 0 0 -6.3476814999980888 1.6381150290036857 0 1.6381150290036857 2.1049262474758734 0 0 0 0 -1.7145637357416965 -0.86031330083861679 0 -0.86031330083861679 1.7685711739601806 0 0 0 0 -6.050233472080663 0.52305109453153875 0 0.52305109453153875 2.9559235068502403 0 0 0 0 -3.0057977520015182 0.73126912226711571 0 0.73126912226711571 0.21294891309908348 0 0 0 0 -22.473237007652642 28.825446271885767 0 28.825446271885767 92.12812710240992 0 0 0 0 -3.8465825092937571 1.0752779603591658 0 1.0752779603591658 0.20892524818664382 0 0 0 0 -4.8776239953997447 3.438200360098369 0 3.438200360098369 1.7284431818133754 0 0 0 0 -53.019335399680131 24.571366733401589 0 24.571366733401589 91.646937413601904 0 0 0 0 19.519263159685579 30.88300268978162 0 30.88300268978162 13.709994865935755 0 0 0 0 -12.364338795468029 5.2922369414959007 0 5.2922369414959007 10.765688622549021 0 0 0 0 -71.171631009552499 38.17489519925342 0 38.17489519925342 -6.0061195626877861 0 0 0 0 11.525274069282659 9.5090590091460854 0 9.5090590091460854 -78.601201852155867 0 0 0 0 -6.132624249789842 -6.4492616950507227 0 -6.4492616950507227 -17.019204478942221 0 0 0 0 -1.9337460267370261 21.846721534031758 0 21.846721534031758 39.733286819393925 0 0 0 0 27.272674092262605 23.644809497210304 0 23.644809497210304 -26.435719512962237 0 0 0 0 4.2304875753507076 56.249505783212939 0 56.249505783212939 63.610841257466461 0 0 0 0 63.999176577639446 59.805472803445809 0 59.805472803445809 28.546266122898146 0 0 0 0 -12.118265190431885 48.963842546554872 0 48.963842546554872 21.831403692264644 0 0 0 0 15.749956060502882 25.152142085561422 0 25.152142085561422 41.215700307703514 0 0 0 0 -4.819210803475471 -27.040106367248711 0 -27.040106367248711 -21.982161369639044 0 0 0 0 -2.2560681778161324 3.1381672666889102 0 3.1381672666889102 -10.968217228052879 0 0 0 0 -0.53118088676153441 0.31739979738565571 0 0.31739979738565571 -0.10490712878245989 0 0 0 0 -0.34155866304972182 -0.1863175613334489 0 -0.1863175613334489 0.24602845291293041 0 0 0 0 -10.195273977045872 50.954571846558792 0 50.954571846558792 7.337319653816877 0 0 0 0 -43.926631848918078 27.062888659368639 0 27.062888659368639 -11.903987420883396 0 0 0 0 -7.8494282157180351 16.203287812364522 0 16.203287812364522 -49.720604770125647 0 0 0 0 -55.992666755653772 -12.374298822224034 0 -12.374298822224034 6.9813494244849323 0 0 0 0 -26.760297221076144 -19.789012386201733 0 -19.789012386201733 -22.799697856812855 0 0 0 0 -41.256367774641944 26.567329109078038 0 26.567329109078038 -11.503161692898004 0 0 0 0 10.180979624855354 47.502879102777342 0 47.502879102777342 -36.120913874574654 0 0 0 0 -2.1114716772115951 0.071740101640938247 0 0.071740101640938247 0.25180630205124854 0 0 0 0 60.056581026814456 26.61149298576936 0 26.61149298576936 -15.844932424684828 0 0 0 0 -6.9221988739309381 47.240906896764088 0 47.240906896764088 -19.153631514759692 0 0 0 0 -16.093566274513705 -11.377692981744531 0 -11.377692981744531 74.536579734572854 0 0 0 0 0.44718099146666646 12.141524387511282 0 12.141524387511282 26.267666545959294 0 0 0 0 -1.391770364342392 1.8966421071690434 0 1.8966421071690434 26.73077751047947 0 0 0 0 -21.377519329184452 12.147526030808393 0 12.147526030808393 2.5565532382431186 0 0 0 0 -14.415499902908778 -5.5412174469456659 0 -5.5412174469456659 23.524519665894957 0 0 0 0 -21.146758303742445 -22.729100493007472 0 -22.729100493007472 1.165762243457749 0 0 0 0 -30.998552199567257 -17.133582250863604 0 -17.133582250863604 19.306324335238159 0 0 0 0 -72.570450171141601 -48.020922303518937 0 -48.020922303518937 12.94076675943046 0 0 0 0 -82.067303556666957 -52.578247796520159 0 -52.578247796520159 24.85631920276824 0 0 0 0 -71.775631651804815 -49.646701608691956 0 -49.646701608691956 15.909143347389005 0 0 0 0 -171.28827204843401 -51.816168335188621 0 -51.816168335188621 32.203869462586411 0 0 0 0 -135.22548886219124 -0.95119594464760304 0 -0.95119594464760304 -64.147008609856215 0 0 0 0 21.59458668899606 -37.005594834784944 0 -37.005594834784944 5.333088166319115 0 0 0 0 -0.82757163041465986 0.036317362291590438 0 0.036317362291590438 0.054071532102178799 0 0 0 0 -50.68501943897445 -72.253350171396079 0 -72.253350171396079 21.258999712220316 0 0 0 0 -0.36200730704214656 -0.37170921797665502 0 -0.37170921797665502 -0.1697060984684795 0 0 0 0 11.643065311494865 -50.449523741785782 0 -50.449523741785782 -23.759919255110162 0 0 0 0 26.322187516672329 41.073441645069607 0 41.073441645069607 125.73822553705372 0 0 0 0 6.510927785993772 -5.6062153620981974 0 -5.6062153620981974 31.338564712610719 0 0 0 0 -133.88729972081404 -43.111202498569661 0 -43.111202498569661 -45.158136143272287 0 0 0 0 -113.13933851110414 12.490337501088504 0 12.490337501088504 -10.391236338408689 0 0 0 0 77.373322540371419 -51.788491798982818 0 -51.788491798982818 -150.92715821081276 0 0 0 0 -0.22770875809150315 -0.51491825300750715 0 -0.51491825300750715 -1.1009268235702065 0 0 0 0 -99.785479062574268 -32.086943802108564 0 -32.086943802108564 10.492163963692207 0 0 0 0 -52.780231033591463 -12.24026487607879 0 -12.24026487607879 -2.3559397478468114 0 0 0 0 11.718314137797279 -25.234784320946744 0 -25.234784320946744 30.41511023838757 0 0 0 0 -0.44155212409203326 -1.2923668026634889 0 -1.2923668026634889 -2.5168859421694441 0 0 0 0 -2.6144848478561471 -10.461144459996945 0 -10.461144459996945 37.032730327531453 0 0 0 0 -36.108815013662024 -36.086841475100357 0 -36.086841475100357 68.617711045076703 0 0 0 0 -2.1724996615503187 -18.061320735329502 0 -18.061320735329502 32.119347686495303 0 0 0 0 -1.0013905297326176 -0.53847748356678915 0 -0.53847748356678915 -0.1372822747207868 0 0 0 0 -10.61241085313668 -8.5251314039521162 0 -8.5251314039521162 21.176415032971306 0 0 0 0 14.686563165597477 -52.673077141242345 0 -52.673077141242345 -41.545583387291799 0 0 0 0 2.9609241176667638 -52.151417593931285 0 -52.151417593931285 -41.501569424774175 0 0 0 0 -29.969988085049636 -40.47228781219178 0 -40.47228781219178 -31.493152041782878 0 0 0 0 -59.986124726272237 -26.530544637602063 0 -26.530544637602063 -36.657077779163615 0 0 0 0 -18.76337735267407 -31.722858544972482 0 -31.722858544972482 -64.844477394242915 0 0 0 0 -25.830026715854046 -77.537364086163819 0 -77.537364086163819 -61.88791746588754 0 0 0 0 17.885330904280636 -72.213156040745332 0 -72.213156040745332 -59.135397843608246 0 0 0 0 -11.235125678233089 -75.992001554288009 0 -75.992001554288009 -52.455307996060185 0 0 0 0 -17.618033375906634 -54.414277426879096 0 -54.414277426879096 6.3112898182914989 0 0 0 0 64.369313055061411 -58.129169174653597 0 -58.129169174653597 -69.472194500042576 0 0 0 0 -1.5543407864611254 -97.049017645963119 0 -97.049017645963119 -85.15511338341696 0 0 0 0 -220.93793317611562 -87.779790446890814 0 -87.779790446890814 -34.014902943793857 0 0 0 0 -69.931109440964107 -49.161340610679403 0 -49.161340610679403 -122.2013280150295 0 0 0 0 -97.812541395035623 1.7294026639927438 0 1.7294026639927438 14.070557200331962 0 0 0 0 -87.054164595885595 -107.75475705146994 0 -107.75475705146994 -31.633320758409582 0 0 0 0 -11.6349001719027 -9.1044997011944133 0 -9.1044997011944133 14.95293756381372 0 0 0 0 4.5575919447719571 14.13588824423411 0 14.13588824423411 17.469231229873944 0 0 0 0 -2.0289254108301975 28.444769954338426 0 28.444769954338426 68.94748062368609 0 0 0 0 7.2468117492608144 -26.935005639580652 0 -26.935005639580652 123.32668534776099 0 0 0 0 -20.414664372781203 -60.257411935588323 0 -60.257411935588323 12.872284267718101 0 0 0 0 -0.95161570985984056 0.55360488912779005 0 0.55360488912779005 0.074793463027331475 0 0 0 0 -11.233786254761071 0.19469482127842586 0 0.19469482127842586 46.371364202170341 0 0 0 0 8.1872112241508148 -17.921989041509718 0 -17.921989041509718 -33.567399667060158 0 0 0 0 -7.8549169335628903 -39.765431359355105 0 -39.765431359355105 -2.8352284519390594 0 0 0 0 3.0584730367045267 2.3198502504290559 0 2.3198502504290559 -10.859379057509273 0 0 0 0 -3.3481189236563171 1.2767608709800058 0 1.2767608709800058 -0.22675113566321919 0 0 0 0 -11.257414818277539 10.966683878758147 0 10.966683878758147 -0.20279118662131168 0 0 0 0 -4.2407527200612094 9.0920352328035392 0 9.0920352328035392 3.8900407380855313 0 0 0 0 -5.9989109545826977 4.3440109665405089 0 4.3440109665405089 2.7570797910344709 0 0 0 0 -4.3140456476812687 1.9757822391072182 0 1.9757822391072182 -3.0809009277538735 0 0 0 0 1.4853338405882823 8.9104775475463498 0 8.9104775475463498 -3.3989916652336838 0 0 0 0 -6.5870570855247808 2.5894870788735211 0 2.5894870788735211 -0.54430897053842742 0 0 0 0 -9.0481093777947308 3.9326244954718277 0 3.9326244954718277 9.624617196146346 0 0 0 0 -15.457853396565497 0.93003688507610605 0 0.93003688507610605 8.4363687297112619 0 0 0 0 -6.971487652097494 8.4945280517358697 0 8.4945280517358697 12.328643570871009 0 0 0 0 -5.7503028036064876 2.2640885103689357 0 2.2640885103689357 -0.90985865681998712 0 0 0 0 -7.0247041712946157 19.989958653859674 0 19.989958653859674 20.140615233465155 0 0 0 0 0.71532559298591991 -0.69552210938906178 0 -0.69552210938906178 8.6161737063590635 0 0 0 0 3.9876772964746579 8.58423586567352 0 8.58423586567352 -9.9663333335081461 0 0 0 0 -7.5220526212883669 12.675355212462307 0 12.675355212462307 2.2600034571732976 0 0 0 0 16.591365772272184 21.782437235590123 0 21.782437235590123 -8.5342670829591043 0 0 0 0 -8.1211439982264437 23.135578841436484 0 23.135578841436484 -6.8685944621474846 0 0 0 0 18.662703700015527 9.5859206280168223 0 9.5859206280168223 -11.040360958884321 0 0 0 0 12.748754190798991 19.308129643051132 0 19.308129643051132 -5.5665896439204516 0 0 0 0 -8.1541976801586316 45.242726845070024 0 45.242726845070024 -0.5346481332589974 0 0 0 0 27.150162616049442 47.640735686863422 0 47.640735686863422 -0.97650349498917421 0 0 0 0 -53.377664782829925 0.96016075375837318 0 0.96016075375837318 -69.233497101235116 0 0 0 0 -4.0671151847759575 -1.4558485104290639 0 -1.4558485104290639 5.7097589833683742 0 0 0 0 -0.016911049014222801 0.01633464144479202 0 0.01633464144479202 0.053359456610892586 0 0 0 0 -5.9587754609378862 0.224610451524768 0 0.224610451524768 7.7821339533377341 0 0 0 0 -46.535332444289907 36.38482100733404 0 36.38482100733404 11.896540783866158 0 0 0 0 -8.9378533282879289 20.17729568673667 0 20.17729568673667 12.648174931715019 0 0 0 0 -3.1949276771841824 -7.3383871602223394 0 -7.3383871602223394 -16.863028050753883 0 0 0 0 -4.7420749020007484 1.598693847221881 0 1.598693847221881 -0.49789944189229918 0 0 0 0 -27.78377834872299 52.008989317600708 0 52.008989317600708 48.593298874429451 0 0 0 0 7.8615778848925402 11.103392916944586 0 11.103392916944586 -9.2530674964693844 0 0 0 0 -5.0746520830882673 -7.308558023917044 0 -7.308558023917044 -12.340548189000742 0 0 0 0 -1.6178687187665446 8.5161968451761538 0 8.5161968451761538 -4.2268022755024504 0 0 0 0 7.6452123312560616 2.4344271578074768 0 2.4344271578074768 -6.2550362227147476 0 0 0 0 26.656277293734547 16.888415597053097 0 16.888415597053097 -17.916924848099711 0 0 0 0 -21.331868148027297 -17.202170015635659 0 -17.202170015635659 19.302943705588262 0 0 0 0 -16.64709531905612 3.8376203983400217 0 3.8376203983400217 -94.978431992924158 0 0 0 0 -2.5091056072975917 0.67934054805346467 0 0.67934054805346467 -0.22357482307777291 0 0 0 0 5.0264297198799568 -10.175202835450222 0 -10.175202835450222 -25.432085811180059 0 0 0 0 -32.272310798122817 10.453731142253517 0 10.453731142253517 7.5622666016857067 0 0 0 0 5.9745120784527899 -23.440455658770986 0 -23.440455658770986 -47.289709511574813 0 0 0 0 -8.5835350663028294 -47.486891605454545 0 -47.486891605454545 -41.211981958277079 0 0 0 0 -54.428386590183663 -85.484897955401138 0 -85.484897955401138 -111.80293543059281 0 0 0 0 7.6898509638353971 -109.99239888252635 0 -109.99239888252635 12.076763918759013 0 0 0 0 -81.248392797378983 -126.5099168754235 0 -126.5099168754235 9.0408835532725575 0 0 0 0 -1.3844500367863066 -0.76923051442530088 0 -0.76923051442530088 -0.47523450710966419 0 0 0 0 -147.82432373850725 -61.069230716121808 0 -61.069230716121808 -78.678250584756597 0 0 0 0 -165.40069843556512 -93.68105486317782 0 -93.68105486317782 -3.7338007248266933 0 0 0 0 -134.22756031339298 -119.69502643790605 0 -119.69502643790605 -40.385040828545172 0 0 0 0 -175.44458082388928 -75.371446614457 0 -75.371446614457 -17.75688406793639 0 0 0 0 -1.1952247989419984 -0.018755392585190878 0 -0.018755392585190878 0.069967496366479753 0 0 0 0 8.9512097744707262 -10.187554987596144 0 -10.187554987596144 -76.660469947302431 0 0 0 0 5.1421683197572747 60.653867451591282 0 60.653867451591282 -42.836893856425917 0 0 0 0 -151.74894749703481 -59.411235557528926 0 -59.411235557528926 -10.294914873080671 0 0 0 0 -163.93269723997264 -103.26233203112338 0 -103.26233203112338 -26.015720291663911 0 0 0 0 -152.21464691412802 -57.41900874858888 0 -57.41900874858888 -68.303664036514988 0 0 0 0 -196.47006446175919 -96.204404805231178 0 -96.204404805231178 -9.9377065206201678 0 0 0 0 -178.93906191901397 -107.0314863178437 0 -107.0314863178437 -8.1935531215002584 0 0 0 0 -147.63872975083154 -119.52469721524938 0 -119.52469721524938 -18.110143014239043 0 0 0 0 -2.194302801101669 0.40532036698751284 0 0.40532036698751284 -0.1319136676970456 0 0 0 0 -89.139036681504649 2.3413853343741948 0 2.3413853343741948 -39.897914894886213 0 0 0 0 -43.108563351714409 -54.3388141230418 0 -54.3388141230418 -90.661091428885356 0 0 0 0 -86.396592256552367 -71.708287110541534 0 -71.708287110541534 -29.444216186166898 0 0 0 0 -211.45642717948567 -23.599563779442605 0 -23.599563779442605 -43.17322730804176 0 0 0 0 -156.98804161530552 -63.079740849072692 0 -63.079740849072692 7.5414447068985169 0 0 0 0 -22.921857310418318 -28.383953740789082 0 -28.383953740789082 -33.977657383199556 0 0 0 0 11.666479328734113 17.635180773718005 0 17.635180773718005 6.4667575125596812 0 0 0 0 -25.875970535376382 14.060668084622577 0 14.060668084622577 74.170659448385976 0 0 0 0 -54.659869754605552 -87.570173673627721 0 -87.570173673627721 4.9759117514860449 0 0 0 0 -0.70187176331178414 -0.45613960218698701 0 -0.45613960218698701 -0.24606187164932386 0 0 0 0 -117.8933566871829 47.631501227770201 0 47.631501227770201 -67.529785413566685 0 0 0 0 3.5678308602482502 12.919078920908703 0 12.919078920908703 -57.807552531275903 0 0 0 0 -67.935075411386919 27.306867450019229 0 27.306867450019229 -10.527887713515611 0 0 0 0 2.7067992680458701 25.046004168671629 0 25.046004168671629 -15.277934259623891 0 0 0 0 -13.573234222065366 27.720591143151864 0 27.720591143151864 36.994651847963269 0 0 0 0 16.884257276268727 -4.2669488844421721 0 -4.2669488844421721 1.0948746127715481 0 0 0 0 49.78120895074062 24.091217666031298 0 24.091217666031298 20.788730111677751 0 0 0 0 -18.893005196689046 34.220321797247891 0 34.220321797247891 -21.300606494285944 0 0 0 0 -20.635530221950376 10.227042239826716 0 10.227042239826716 -18.122591216777664 0 0 0 0 -11.69048482783046 12.388814840571868 0 12.388814840571868 24.313631746083047 0 0 0 0 -10.789384445990436 17.307211305952478 0 17.307211305952478 -10.45787110216628 0 0 0 0 -6.9404821126490788 25.457029649592073 0 25.457029649592073 -3.1437205481021238 0 0 0 0 -0.55767247963649424 6.6474424515097326 0 6.6474424515097326 12.877262845921564 0 0 0 0 -15.75078722806461 18.952215155098031 0 18.952215155098031 15.24055503704858 0 0 0 0 -4.5755317516013747 11.371664217515786 0 11.371664217515786 22.53242134731056 0 0 0 0 2.8938883502050885 -10.539829233691989 0 -10.539829233691989 43.449410200723833 0 0 0 0 -3.6244445737374917 -9.2771657787604909 0 -9.2771657787604909 49.170544089177668 0 0 0 0 11.485973935950824 -20.476197618001606 0 -20.476197618001606 39.994532502250877 0 0 0 0 17.256610309135795 -34.168765553198739 0 -34.168765553198739 55.964057983529528 0 0 0 0 -6.427644108191771 6.0038880867725197 0 6.0038880867725197 32.156071680021114 0 0 0 0 18.392917225003657 -15.06499188846783 0 -15.06499188846783 29.904798536204623 0 0 0 0 3.1061021178393275 -4.3472505441374096 0 -4.3472505441374096 27.4383906078275 0 0 0 0 32.026576706653032 -14.598598199740991 0 -14.598598199740991 27.810296172727675 0 0 0 0 0.50148888535113656 15.577221380246556 0 15.577221380246556 9.4035939833131579 0 0 0 0 0.32984722629817043 -1.5472129948851148 0 -1.5472129948851148 28.024106122771173 0 0 0 0 33.103940417750891 -39.050660935801488 0 -39.050660935801488 38.482167945735455 0 0 0 0 40.483775316711217 -29.312556567193951 0 -29.312556567193951 27.841237266963162 0 0 0 0 -60.110940114454934 42.886995894173651 0 42.886995894173651 -25.47474788910921 0 0 0 0 -0.38845292345172311 -0.17809370235470112 0 -0.17809370235470112 -0.14832685300028836 0 0 0 0 0.24493293468840882 -14.454392797077123 0 -14.454392797077123 -9.7692617510140281 0 0 0 0 -62.526341082770159 36.8334395063805 0 36.8334395063805 -14.928505126679738 0 0 0 0 -69.153673925078692 42.608638220938701 0 42.608638220938701 -17.903994691021467 0 0 0 0 -40.51276655050242 39.228631312999369 0 39.228631312999369 -29.612014851047547 0 0 0 0 -67.460468075370045 34.89380390541146 0 34.89380390541146 -28.828544012002567 0 0 0 0 -3.130199568471653 -36.378526964216462 0 -36.378526964216462 97.639584519738492 0 0 0 0 -27.78743540204232 -16.026730610221421 0 -16.026730610221421 -3.2785847173283855 0 0 0 0 -3.4157794673079582 -1.5974035580944421 0 -1.5974035580944421 -0.47712549414979688 0 0 0 0 10.981404677320825 -46.714210678643667 0 -46.714210678643667 67.643856276279621 0 0 0 0 -11.959842955051499 -12.329836042381658 0 -12.329836042381658 91.93327096870587 0 0 0 0 -1.2908275788563515 -17.950778137959617 0 -17.950778137959617 53.626594530962848 0 0 0 0 0.84825480617109861 5.1455507974010288 0 5.1455507974010288 35.454507853275345 0 0 0 0 -9.5516744855985962 1.0920675552237071 0 1.0920675552237071 67.757569939655923 0 0 0 0 -4.4863212174177534 8.7524484427606239 0 8.7524484427606239 126.43907168067153 0 0 0 0 32.134603205870008 39.60594059807454 0 39.60594059807454 91.826760369147905 0 0 0 0 -5.6754744273257529 -7.6483134209635182 0 -7.6483134209635182 69.850441777350397 0 0 0 0 8.1552459592371633 5.0200565156343941 0 5.0200565156343941 46.756620131654472 0 0 0 0 -3.3163276664454315 19.334694505224434 0 19.334694505224434 79.074186468944845 0 0 0 0 52.091849279260714 32.780362561309289 0 32.780362561309289 40.364316725763274 0 0 0 0 -135.72294427351972 109.45716926112777 0 109.45716926112777 -82.456708170559637 0 0 0 0 -35.787003844070568 62.661969134729134 0 62.661969134729134 -60.81629556316534 0 0 0 0 12.075540921126048 33.966491712739185 0 33.966491712739185 -97.875023555353437 0 0 0 0 -216.95970618421211 46.341776710656006 0 46.341776710656006 -21.81495742304287 0 0 0 0 -176.52715544238754 -82.144312490889718 0 -82.144312490889718 -43.252628805714039 0 0 0 0 -76.76454871993792 14.00675875654764 0 14.00675875654764 -14.459954065306817 0 0 0 0 -83.902756905218439 13.566717852783796 0 13.566717852783796 4.1579160038685359 0 0 0 0 -103.2502502620091 48.735674788869488 0 48.735674788869488 -7.6451157861520187 0 0 0 0 -66.286755573575647 28.325930741253615 0 28.325930741253615 -67.246594127241451 0 0 0 0 -66.814621482857547 44.277647809044765 0 44.277647809044765 -27.547802854011479 0 0 0 0 -71.393460300646439 62.205185883661329 0 62.205185883661329 -60.087907977266951 0 0 0 0 -72.386132899148834 36.409406105194648 0 36.409406105194648 -17.510760770085426 0 0 0 0 -75.972276581027472 44.107803127614943 0 44.107803127614943 -9.2447617552677457 0 0 0 0 -80.889049717437729 25.657770535750444 0 25.657770535750444 11.421194920723224 0 0 0 0 -9.7572450568209206 -24.481668031837955 0 -24.481668031837955 21.423568292063322 0 0 0 0 -40.946847841363251 35.551017879577785 0 35.551017879577785 10.804093631188096 0 0 0 0 -92.648490054335525 19.646091336355198 0 19.646091336355198 37.702722060345508 0 0 0 0 -70.484654662676348 36.837265237285294 0 36.837265237285294 30.89781237929833 0 0 0 0 -0.5554386595645493 -0.26485329651157341 0 -0.26485329651157341 -0.070823580789309615 0 0 0 0 -49.500160099431923 7.1771161701689152 0 7.1771161701689152 5.9028705544750437 0 0 0 0 -78.631991499603828 -3.3624765041157048 0 -3.3624765041157048 3.8318771776911404 0 0 0 0 -18.337955181985876 13.094098287358847 0 13.094098287358847 -8.3749741189806173 0 0 0 0 -23.371485604038753 3.5794921491309424 0 3.5794921491309424 -7.1592645164060258 0 0 0 0 -33.088380065638205 17.952659993080331 0 17.952659993080331 -8.9675921725588523 0 0 0 0 -46.046362431257876 18.993810066070864 0 18.993810066070864 -8.4060319448299197 0 0 0 0 -32.422305987482559 8.4792584047728106 0 8.4792584047728106 -7.2620852596048735 0 0 0 0 -11.669966872461146 3.9183992225438899 0 3.9183992225438899 -15.036103473604499 0 0 0 0 -13.340839455148739 24.342212099099299 0 24.342212099099299 -21.468334842935519 0 0 0 0 -62.292020624738143 34.867960244587834 0 34.867960244587834 -7.134477944104674 0 0 0 0 -45.631964309279283 27.275991406133812 0 27.275991406133812 -8.4438615653878912 0 0 0 0 -73.040186229375195 18.427492576116805 0 18.427492576116805 4.3256897184489844 0 0 0 0 -76.152171703546173 26.90316452668111 0 26.90316452668111 14.113199612184872 0 0 0 0 -75.232834112060118 39.361834679875585 0 39.361834679875585 4.4742402333251903 0 0 0 0 -57.260172754516134 16.392778792913418 0 16.392778792913418 -1.5321263559516751 0 0 0 0 -29.807981774325981 16.541205976401557 0 16.541205976401557 3.6313968332141258 0 0 0 0 -29.705716069382561 -1.7820677098445685 0 -1.7820677098445685 6.4532822320877585 0 0 0 0 -31.685379477126844 12.568185897431249 0 12.568185897431249 -2.1922444532769987 0 0 0 0 -34.281272945997614 0.46021778544874792 0 0.46021778544874792 -18.261284659429975 0 0 0 0 -21.605857357633795 -41.141857297417914 0 -41.141857297417914 7.6750875567661865 0 0 0 0 3.8681555147547897 -14.602663264673453 0 -14.602663264673453 -0.20291972259383328 0 0 0 0 -28.86663373657359 -18.261802600531382 0 -18.261802600531382 4.8451288204477123 0 0 0 0 -66.279904119772482 -23.03720118284707 0 -23.03720118284707 19.264536706309968 0 0 0 0 -30.562963411087821 -14.531695464379567 0 -14.531695464379567 10.877389763353335 0 0 0 0 -33.430732345525485 -12.31495701247502 0 -12.31495701247502 9.7523461609218884 0 0 0 0 -29.103932815289909 -6.2008768840855879 0 -6.2008768840855879 1.5220514311423585 0 0 0 0 -27.063069201450162 -11.687430496432441 0 -11.687430496432441 6.5403764603121317 0 0 0 0 -34.320493651384709 -8.1154008923720511 0 -8.1154008923720511 6.524392591191372 0 0 0 0 -16.470576994388466 -5.9877446373116072 0 -5.9877446373116072 4.7130541454539241 0 0 0 0 -7.1602507528850765 14.166335518223377 0 14.166335518223377 3.1326067368020745 0 0 0 0 -15.006267809189467 -1.6137123361278327 0 -1.6137123361278327 6.095285080503885 0 0 0 0 -7.1536692518679956 4.6317263504528228 0 4.6317263504528228 0.62786714949743327 0 0 0 0 -0.20893320710608965 0.19068940154168157 0 0.19068940154168157 0.020912628062061955 0 0 0 0 -33.590802994245223 -19.218301606623072 0 -19.218301606623072 -1.7029808113418312 0 0 0 0 -6.4881921151675215 -3.1076240146985583 0 -3.1076240146985583 -11.827501095555817 0 0 0 0 -0.14213731780698868 0.13245864442176636 0 0.13245864442176636 0.050209469792342531 0 0 0 0 -3.0380637104462949 -0.21478426765133918 0 -0.21478426765133918 2.6194514535740154 0 0 0 0 2.3259040871803336 6.1223488955453149 0 6.1223488955453149 3.6982923503303482 0 0 0 0 -12.57427117022462 3.6599613010719168 0 3.6599613010719168 4.2871668046635705 0 0 0 0 26.337707057778971 44.007436421738475 0 44.007436421738475 -0.59961816098623899 0 0 0 0 -12.682543510214089 2.2061740798922704 0 2.2061740798922704 1.0540179105663674 0 0 0 0 31.915961433493294 -6.2001365870239482 0 -6.2001365870239482 -5.0819307067877162 0 0 0 0 -11.668805628127302 5.701914438450558 0 5.701914438450558 3.6367149567299748 0 0 0 0 -12.997859626008125 1.6736458246217838 0 1.6736458246217838 0.83985851787452304 0 0 0 0 -17.710136113782937 6.7692696949167726 0 6.7692696949167726 13.643367977858077 0 0 0 0 -12.441933909527506 -2.278699744477251 0 -2.278699744477251 -1.3164464525236212 0 0 0 0 -31.041887582080903 -58.742704897012558 0 -58.742704897012558 -57.897664792921432 0 0 0 0 -62.975053062988081 41.940706114942259 0 41.940706114942259 78.835221250946688 0 0 0 0 -12.672873155965878 1.1036802999374613 0 1.1036802999374613 1.0270166938586081 0 0 0 0 -11.225407817959194 3.7815134999616475 0 3.7815134999616475 11.349361025309236 0 0 0 0 -10.111489095477737 10.205399657163071 0 10.205399657163071 7.6504943472368723 0 0 0 0 -63.136805967991222 63.736316040375755 0 63.736316040375755 18.414605150946954 0 0 0 0 -12.247302206249719 2.3395120594581513 0 2.3395120594581513 1.2626303548574844 0 0 0 0 -12.053716363443527 9.3297280873853197 0 9.3297280873853197 -10.172109907347703 0 0 0 0 -8.6797637029465022 -5.6071334922212657 0 -5.6071334922212657 -94.265288896105631 0 0 0 0 -24.514384936656825 22.746850316867494 0 22.746850316867494 -17.89727778393717 0 0 0 0 -0.86947566632784046 0.25760951394702136 0 0.25760951394702136 -0.048095064503836937 0 0 0 0 -94.38936068885414 -8.508257456117974 0 -8.508257456117974 2.0269180240725291 0 0 0 0 -22.670879982939368 -43.435505181564963 0 -43.435505181564963 -66.656335192450115 0 0 0 0 -24.469216495929686 -30.880044363852448 0 -30.880044363852448 -47.376726619208398 0 0 0 0 -39.123699070744351 -8.0681622345961159 0 -8.0681622345961159 5.7842654475506379 0 0 0 0 -32.331031349861746 -6.4874661904292452 0 -6.4874661904292452 0.24224423253849636 0 0 0 0 -37.038674361452195 2.8058743935034727 0 2.8058743935034727 -0.42466856432270106 0 0 0 0 -6.1305366380088344 0.23132297840504634 0 0.23132297840504634 -7.6187191043003395 0 0 0 0 -12.533066841253913 -0.77607452080155781 0 -0.77607452080155781 -1.86520836539421 0 0 0 0 -12.561482011777116 4.4330119413448301 0 4.4330119413448301 -14.708827480807486 0 0 0 0 -7.8332832924133982 -4.610958107909255 0 -4.610958107909255 -8.3975497370848871 0 0 0 0 -3.6947346220259281 -1.57510960315705 0 -1.57510960315705 -0.83608900623396609 0 0 0 0 -11.539276150876503 -4.5322661444821506 0 -4.5322661444821506 -0.20161258913549318 0 0 0 0 -10.395938510001997 -4.1635141387216663 0 -4.1635141387216663 -5.4884108705674635 0 0 0 0 -3.1655878448586185 -1.0131676498283495 0 -1.0131676498283495 -3.4612503928225387 0 0 0 0 -4.4454580303599869 8.279448110008687 0 8.279448110008687 -0.97487687857812944 0 0 0 0 -26.773223459980272 -13.10748326480757 0 -13.10748326480757 1.1280530927554082 0 0 0 0 -29.531234267318723 -24.766709271626951 0 -24.766709271626951 19.267990999222093 0 0 0 0 -25.061768038264745 -27.381483842040325 0 -27.381483842040325 -25.117641238909641 0 0 0 0 -33.189490643304453 -13.728234676637612 0 -13.728234676637612 30.344367671328826 0 0 0 0 -12.540952000076686 10.945249801042621 0 10.945249801042621 5.5764804802206811 0 0 0 0 -21.651925676060756 2.0011577561560463 0 2.0011577561560463 -0.58264291360680465 0 0 0 0 -15.865989825169891 14.708129481520487 0 14.708129481520487 1.7745435988201166 0 0 0 0 -17.758032020259748 8.2443152951052312 0 8.2443152951052312 3.0867920596996328 0 0 0 0 -7.762770313157489 12.082835738536346 0 12.082835738536346 -4.8552359808607548 0 0 0 0 -16.34807759854948 10.30557507921182 0 10.30557507921182 -3.3220677438420054 0 0 0 0 16.879560524764202 12.240995605680666 0 12.240995605680666 -15.079437164295143 0 0 0 0 -0.038552697775950051 -1.33696674084758 0 -1.33696674084758 -3.728115760158889 0 0 0 0 -16.550422894351186 8.3161806250423762 0 8.3161806250423762 -21.466461436533564 0 0 0 0 21.003627109088939 -4.8566209001104745 0 -4.8566209001104745 -27.442625929762883 0 0 0 0 -27.657255369540053 11.37821174226168 0 11.37821174226168 -8.7002847828494794 0 0 0 0 -46.519071151083153 -18.359470781214057 0 -18.359470781214057 -0.48445605310945794 0 0 0 0 -0.4424484565540987 -1.4236956557428071 0 -1.4236956557428071 -3.6726290616610053 0 0 0 0 -12.412902552592641 -2.4647839852145808 0 -2.4647839852145808 -2.8334354246641169 0 0 0 0 -16.760013253160196 0.83800910246390004 0 0.83800910246390004 -2.0295082429837521 0 0 0 0 -7.2893018257475433 -0.71910686360824627 0 -0.71910686360824627 -2.600250172991764 0 0 0 0 -16.359667719779281 -3.5751810983590531 0 -3.5751810983590531 0.52805497450879102 0 0 0 0 -7.6425445628506168 -10.817348298405363 0 -10.817348298405363 2.2954168139826265 0 0 0 0 3.4893490848676265 -6.9394368891690306 0 -6.9394368891690306 -1.6615078014472147 0 0 0 0 -5.7264335361583107 -3.2694767996313061 0 -3.2694767996313061 18.626999298417672 0 0 0 0 11.191374454844663 -18.563537213249958 0 -18.563537213249958 3.2887979381515606 0 0 0 0 -60.353667165640218 -21.053327151720737 0 -21.053327151720737 13.54525841499742 0 0 0 0 4.743257386899586 -26.202059118814564 0 -26.202059118814564 -17.509281327987559 0 0 0 0 -0.43199203750969284 -1.4435761357761026 0 -1.4435761357761026 -3.2195194790867556 0 0 0 0 -8.4943921677945582 0.45901819576658909 0 0.45901819576658909 3.2952055890772272 0 0 0 0 -70.769989439075289 -61.06474585494724 0 -61.06474585494724 -35.120320594121765 0 0 0 0 -69.632516029046428 -50.551074303322395 0 -50.551074303322395 -14.445987505267141 0 0 0 0 -84.909687755081904 -51.68615646326289 0 -51.68615646326289 15.635332194669928 0 0 0 0 -88.988971446274036 -65.848992587928208 0 -65.848992587928208 -9.9236406444786951 0 0 0 0 -15.944754635309209 49.64172314986682 0 49.64172314986682 8.8069994020235569 0 0 0 0 7.7799682475070995 3.0756582903778131 0 3.0756582903778131 -27.364787065471631 0 0 0 0 -117.06429719367839 -9.2606877311039266 0 -9.2606877311039266 13.438482322908271 0 0 0 0 -13.822091844419901 -1.5528917390427779 0 -1.5528917390427779 -11.663237594676939 0 0 0 0 -1.181750666751789 0.42026539658023321 0 0.42026539658023321 -0.1421535767097788 0 0 0 0 -143.28604225946265 -108.25184543944926 0 -108.25184543944926 -86.918553701863289 0 0 0 0 -73.659527364017322 -68.237957115421807 0 -68.237957115421807 -54.315616725987766 0 0 0 0 -61.171053782859872 -44.335208911297173 0 -44.335208911297173 -52.878918592266487 0 0 0 0 -42.257323712899506 -0.018847526634857559 0 -0.018847526634857559 -39.748696518372022 0 0 0 0 -140.54462823557 -17.28773593938012 0 -17.28773593938012 -20.637709055592673 0 0 0 0 -48.999605501863698 -6.5393649402751706 0 -6.5393649402751706 -55.08451975807592 0 0 0 0 -97.564114985329525 -33.897493813326221 0 -33.897493813326221 -23.794169144147872 0 0 0 0 -43.989275084908286 -2.6909268024699671 0 -2.6909268024699671 -7.4443917947616285 0 0 0 0 -33.377199283286018 -6.8601684902414561 0 -6.8601684902414561 -20.711949762600455 0 0 0 0 -42.536552855754053 -4.3499138720051107 0 -4.3499138720051107 -2.0030751132809996 0 0 0 0 -30.677859940117742 17.219002685334402 0 17.219002685334402 -3.1318318868239885 0 0 0 0 -15.370596848259083 8.5503101967364046 0 8.5503101967364046 -1.3683754727278732 0 0 0 0 -28.072186489604519 9.5306657794749015 0 9.5306657794749015 29.496850861308076 0 0 0 0 -20.630490558884397 3.4656387411228322 0 3.4656387411228322 -0.18730666506646776 0 0 0 0 -24.290824198000337 19.263364876788074 0 19.263364876788074 24.018035473669215 0 0 0 0 -14.338455756974327 -0.8860175141118134 0 -0.8860175141118134 -9.0203989169564238 0 0 0 0 -30.881135977348094 -0.13831372651904417 0 -0.13831372651904417 -4.2503362047639826 0 0 0 0 -28.820529134500703 -27.355703307214771 0 -27.355703307214771 -29.951547439995238 0 0 0 0 -40.401888512646337 -52.983244537603731 0 -52.983244537603731 -56.099649230416532 0 0 0 0 -55.477046279322167 -23.869824502952852 0 -23.869824502952852 -17.019513250560038 0 0 0 0 -62.687510668762116 -56.191530699120747 0 -56.191530699120747 -47.746398269878142 0 0 0 0 -4.1648415670458334 1.6549441819905031 0 1.6549441819905031 -0.25707524879866728 0 0 0 0 -57.38213986992389 -38.746440065666434 0 -38.746440065666434 -1.8999757345350474 0 0 0 0 -136.10176732116179 -110.58101995449373 0 -110.58101995449373 -21.315320185823424 0 0 0 0 -20.485720754821727 -55.968104835674303 0 -55.968104835674303 -121.41951141601015 0 0 0 0 -14.724799907348824 -25.715508827678235 0 -25.715508827678235 -39.134459575122946 0 0 0 0 -0.44659817365663912 15.279416713153921 0 15.279416713153921 -43.41369540603057 0 0 0 0 0.14308756601806616 -0.071019788780374071 0 -0.071019788780374071 -1.4134915796611798 0 0 0 0 -22.498756799448529 -14.430815152434604 0 -14.430815152434604 -1.9149684473121624 0 0 0 0 -19.111831466160766 5.3478653865541901 0 5.3478653865541901 -7.2466406318296208 0 0 0 0 -510.17749745609672 -3.6746423560901533 0 -3.6746423560901533 35.343082629194626 0 0 0 0 -288.59747918365611 -91.01954742294015 0 -91.01954742294015 24.949969149520484 0 0 0 0 -210.94297959484356 -50.44934499352096 0 -50.44934499352096 35.644696416748317 0 0 0 0 -237.0237232833606 2.1226059142441152 0 2.1226059142441152 -63.789214096628342 0 0 0 0 -133.69819994694899 -90.824417437975313 0 -90.824417437975313 -152.55439736679773 0 0 0 0 -56.152395879503274 96.018828037269088 0 96.018828037269088 -81.676608339045401 0 0 0 0 -120.09087888135218 -54.053847343695743 0 -54.053847343695743 -56.288160282519982 0 0 0 0 -157.15332156177078 -102.44321611889109 0 -102.44321611889109 -84.801947793100808 0 0 0 0 -285.30629523409107 82.415099204802047 0 82.415099204802047 -81.422155118916862 0 0 0 0 -500.31149843749023 -48.082926816392686 0 -48.082926816392686 -237.85804726249026 0 0 0 0 -588.63287401023251 -170.72640758150388 0 -170.72640758150388 -50.076266628291563 0 0 0 0 -499.8612619275591 -218.13204786357235 0 -218.13204786357235 -25.27943120658643 0 0 0 0 -2.2475136153816315 0.7421565990233594 0 0.7421565990233594 -0.26686057300190258 0 0 0 0 40.633493395371261 -62.406200010410338 0 -62.406200010410338 -180.08941124992549 0 0 0 0 -179.85999937605447 -2.0097028441684728 0 -2.0097028441684728 42.548287867894224 0 0 0 0 -205.44124850841308 -59.894622039623968 0 -59.894622039623968 51.969902080848108 0 0 0 0 -500.04748837357147 -71.151172069187538 0 -71.151172069187538 85.096810601498461 0 0 0 0 -265.01823092275117 56.841187334613558 0 56.841187334613558 67.289733531129556 0 0 0 0 -30.41877271142539 22.822324242435556 0 22.822324242435556 42.269687342674537 0 0 0 0 -182.58794296295491 -56.55979651412963 0 -56.55979651412963 21.785308325360958 0 0 0 0 -28.679818401143621 19.237748830184835 0 19.237748830184835 -27.461292677449013 0 0 0 0 -3.1437542842137454 1.2710291710153347 0 1.2710291710153347 -0.21790047144885799 0 0 0 0 -94.208180326353158 -3.1557933987722482 0 -3.1557933987722482 -1.1682161324624492 0 0 0 0 -35.037615875698521 -13.651947421537997 0 -13.651947421537997 7.3078662592377537 0 0 0 0 -15.790925750134591 9.1807091121894864 0 9.1807091121894864 -28.263007419508604 0 0 0 0 -32.838375199634356 19.56553857402152 0 19.56553857402152 -19.219229981861226 0 0 0 0 -49.615836070395744 283.54217271398323 0 283.54217271398323 -157.90275910049868 0 0 0 0 -498.93734021942998 198.0880015226829 0 198.0880015226829 78.143860990346226 0 0 0 0 -290.87416675064833 66.566376573366512 0 66.566376573366512 69.04043294228336 0 0 0 0 -141.82454945964969 116.68688844339323 0 116.68688844339323 -67.752262380306746 0 0 0 0 -327.6111450391827 178.20777821000007 0 178.20777821000007 -66.391178028474158 0 0 0 0 -427.16275022553418 155.82132506683561 0 155.82132506683561 -4.6352253478705476 0 0 0 0 -500.01057289365599 190.24254023326824 0 190.24254023326824 -10.741004567458209 0 0 0 0 -376.27761710154118 139.97011876223928 0 139.97011876223928 -4.3863334828248934 0 0 0 0 -499.86999939379712 98.065214502510457 0 98.065214502510457 33.882473024407602 0 0 0 0 -362.8756287677088 107.96408008296127 0 107.96408008296127 -34.060295374834361 0 0 0 0 -264.02913446797356 150.16452696320937 0 150.16452696320937 -58.957475089612913 0 0 0 0 -257.21951663844993 122.39291717450499 0 122.39291717450499 -68.706305333386297 0 0 0 0 -194.79564873142044 122.09182886957302 0 122.09182886957302 -80.58446515218165 0 0 0 0 -200.94494224252355 138.24224468036263 0 138.24224468036263 -87.441348219470228 0 0 0 0 -318.28151377410541 150.25257067855642 0 150.25257067855642 -56.078435134457521 0 0 0 0 -189.68164753330984 159.78498971972917 0 159.78498971972917 -95.965285951594481 0 0 0 0 -236.02637811767727 184.23588723974052 0 184.23588723974052 -95.649861115175099 0 0 0 0 -186.16290098490754 127.85350172228941 0 127.85350172228941 -83.814418151750829 0 0 0 0 -91.266466615438731 95.729333700052464 0 95.729333700052464 -100.31120554512384 0 0 0 0 -178.87744725336051 160.49635033015116 0 160.49635033015116 -128.40873743304911 0 0 0 0 -13.056201734088972 77.391471268991381 0 77.391471268991381 -134.88580711358355 0 0 0 0 -90.526489670051888 46.530074265454431 0 46.530074265454431 -33.982917440026313 0 0 0 0 -346.64602537732935 241.38820089334865 0 241.38820089334865 -105.78606788502364 0 0 0 0 -131.14722979097314 207.15030112172246 0 207.15030112172246 -189.38502925057566 0 0 0 0 -361.14495033182743 174.45780633687053 0 174.45780633687053 -84.625469305803179 0 0 0 0 -407.67124266727205 210.78842564732767 0 210.78842564732767 -72.500828983907212 0 0 0 0 -499.91799424683541 285.61516178542257 0 285.61516178542257 -168.57641394285656 0 0 0 0 -415.3442684329475 325.49612558148351 0 325.49612558148351 -150.30150454970635 0 0 0 0 -549.49001870081895 245.64931564376514 0 245.64931564376514 -50.604743550382437 0 0 0 0 -0.10110059265380178 0.64641979892399348 0 0.64641979892399348 -1.5260918645421777 0 0 0 0 -84.169481396216725 27.562195326156342 0 27.562195326156342 -83.677619173768733 0 0 0 0 -499.38779439892733 347.1560890990325 0 347.1560890990325 -98.828014025519735 0 0 0 0 -163.49220181074543 -262.16415167685778 0 -262.16415167685778 -215.34860827514791 0 0 0 0 -198.38277698822185 364.52204988616302 0 364.52204988616302 -425.52081154448535 0 0 0 0 -2.6185415800041589 0.56915968680122386 0 0.56915968680122386 -0.65383864662958835 0 0 0 0 -2.6839587102847191 1.6155996907113277 0 1.6155996907113277 -3.0150035662109564 0 0 0 0 -182.02140261278322 -34.80821168276649 0 -34.80821168276649 11.795514928709849 0 0 0 0 -77.140752485656776 49.014152128396631 0 49.014152128396631 -37.523921111654829 0 0 0 0 -6.1568734872303068 1.6395968826622527 0 1.6395968826622527 -1.6549694589348474 0 0 0 0 -48.438205273415406 -12.926101774640962 0 -12.926101774640962 -62.60976949047285 0 0 0 0 -499.09288460745006 -130.59728156369599 0 -130.59728156369599 30.508484159838307 0 0 0 0 -2.3191113774408887 0.14739519361749487 0 0.14739519361749487 -3.2661180330539161 0 0 0 0 -12.65038458197796 -5.2313043471504557 0 -5.2313043471504557 6.2063252337233052 0 0 0 0 54.152685415545307 54.167159913195071 0 54.167159913195071 24.263156898121224 0 0 0 0 -13.639714747518241 2.3830416146635107 0 2.3830416146635107 -0.78733941937257623 0 0 0 0 -17.63814864095184 50.992127933977599 0 50.992127933977599 55.234246595451339 0 0 0 0 5.2477170076267612 19.005926695923449 0 19.005926695923449 56.537969203854914 0 0 0 0 -35.560417680230785 13.22493675109776 0 13.22493675109776 3.4577045214622331 0 0 0 0 -34.682402093995734 76.590683239731362 0 76.590683239731362 21.725645326046049 0 0 0 0 165.00261338117934 47.516235123441909 0 47.516235123441909 -116.35128529558227 0 0 0 0 -53.855785491763527 46.294540550125248 0 46.294540550125248 -35.016211344904974 0 0 0 0 -81.984282902531049 32.585459627053808 0 32.585459627053808 -32.535993327387189 0 0 0 0 -49.921132719904563 5.0153929543464528 0 5.0153929543464528 -15.287423175586298 0 0 0 0 -76.333356343218838 2.6917385173847492 0 2.6917385173847492 -9.1535855233494203 0 0 0 0 -71.440602372456851 -1.4720053827859942 0 -1.4720053827859942 -20.588282455681053 0 0 0 0 -45.721680886134891 -10.956195548707797 0 -10.956195548707797 -5.064310090260733 0 0 0 0 -39.605723506885624 -8.9570988148306014 0 -8.9570988148306014 29.281238044874726 0 0 0 0 -60.355707670350967 -13.262938979760065 0 -13.262938979760065 6.7796593872543696 0 0 0 0 -28.664981945057662 -6.9892317951658924 0 -6.9892317951658924 5.9070974482706333 0 0 0 0 -16.899298936496052 8.6952758392992564 0 8.6952758392992564 7.7831009754609681 0 0 0 0 -63.691442768393244 12.362428995910761 0 12.362428995910761 8.0465148974371914 0 0 0 0 -47.326590237130404 41.996475589285069 0 41.996475589285069 46.851059372040595 0 0 0 0 -25.051494181408998 24.235460202026161 0 24.235460202026161 52.34868823120155 0 0 0 0 12.32386226088056 15.321718964260242 0 15.321718964260242 53.246377584701804 0 0 0 0 -17.08146490811701 2.8542241338753529 0 2.8542241338753529 -0.11895488134077148 0 0 0 0 -30.835573325385212 0.53263209036754233 0 0.53263209036754233 32.62206995331394 0 0 0 0 -32.080858238174187 50.140298800226901 0 50.140298800226901 109.31024394670646 0 0 0 0 -6.3969274761939232 -5.0814751431314562 0 -5.0814751431314562 7.3812392125630595 0 0 0 0 -45.434328904767426 -39.840465995846159 0 -39.840465995846159 26.346431220145405 0 0 0 0 -19.518416190374342 3.144757180300588 0 3.144757180300588 -0.19460622273238048 0 0 0 0 -28.073962900763036 42.174198547074013 0 42.174198547074013 74.334476450444754 0 0 0 0 -43.157299582324413 22.599779256976262 0 22.599779256976262 130.23393229408379 0 0 0 0 -19.969753361090625 -17.647560300623923 0 -17.647560300623923 17.070824679651082 0 0 0 0 -49.175296783338126 -7.1157408368582082 0 -7.1157408368582082 15.891048317959076 0 0 0 0 -41.295404235919705 -25.919013226257675 0 -25.919013226257675 -19.998363453362344 0 0 0 0 -153.37711213664443 -93.483901536437997 0 -93.483901536437997 -12.673075909450233 0 0 0 0 -98.39399187233721 -37.18336217626495 0 -37.18336217626495 28.105131920413442 0 0 0 0 -68.592335013287993 -70.250583044885332 0 -70.250583044885332 -24.63681420763578 0 0 0 0 -53.832864577447253 -50.989084143896434 0 -50.989084143896434 -29.693206227383598 0 0 0 0 -107.11214663425926 -0.91367958899638779 0 -0.91367958899638779 -33.725447087176235 0 0 0 0 -72.307434317426669 -53.3350364043431 0 -53.3350364043431 -13.729360691061743 0 0 0 0 -77.664369594172058 -39.237337615903584 0 -39.237337615903584 29.07661815145957 0 0 0 0 -74.39758096073092 -39.856624883504992 0 -39.856624883504992 26.44338629765025 0 0 0 0 -68.500436902606452 -31.196218080064455 0 -31.196218080064455 22.175765887222383 0 0 0 0 -54.964956834093755 -5.9876465614502195 0 -5.9876465614502195 140.2741713328096 0 0 0 0 -51.981755300272198 -46.0352368970116 0 -46.0352368970116 91.396739592844142 0 0 0 0 -46.005305519407557 -41.154522520979299 0 -41.154522520979299 26.741897607209012 0 0 0 0 -41.654081103166391 -30.309697188502923 0 -30.309697188502923 -2.8687438889131727 0 0 0 0 -85.487973944804253 -34.20156396928212 0 -34.20156396928212 2.9133931374071835 0 0 0 0 -60.178097178664757 -41.114999120635616 0 -41.114999120635616 -15.089422799240765 0 0 0 0 -57.998778044773189 -29.759858011117643 0 -29.759858011117643 7.4084462962246107 0 0 0 0 -55.554717752500437 -28.899385540833691 0 -28.899385540833691 7.6316025285674414 0 0 0 0 -68.54654956506235 -26.214009991492105 0 -26.214009991492105 28.290461832723395 0 0 0 0 -68.612782714044442 -23.303044934735453 0 -23.303044934735453 5.7415868777563901 0 0 0 0 -66.327746085551553 -17.191235399648463 0 -17.191235399648463 2.7744522887714993 0 0 0 0 -61.828715747362367 -9.7517538154413046 0 -9.7517538154413046 -9.7348670298924844 0 0 0 0 -72.651905963797617 -14.551846464733558 0 -14.551846464733558 10.013939266818397 0 0 0 0 -41.283750641012375 -24.730256512831261 0 -24.730256512831261 37.475771450979664 0 0 0 0 -37.392009330966175 -0.69416887980321462 0 -0.69416887980321462 33.620327540294511 0 0 0 0 -29.549770365003496 -1.5708248497828663 0 -1.5708248497828663 64.209202691869564 0 0 0 0 -63.560250519276451 -17.11938462507851 0 -17.11938462507851 57.914067368753649 0 0 0 0 -63.141056036191003 -8.4116114391750898 0 -8.4116114391750898 19.995516184871747 0 0 0 0 -47.886009539064617 -16.776280170978112 0 -16.776280170978112 10.12158614008024 0 0 0 0 -33.023271256246517 -7.7543972499625511 0 -7.7543972499625511 -9.3871616822070791 0 0 0 0 -58.011610145294981 -13.04198475395691 0 -13.04198475395691 -6.1196347843606418 0 0 0 0 -56.837271064225206 -6.9951984191478687 0 -6.9951984191478687 10.406746202779825 0 0 0 0 -58.035477070432535 -16.851834455714993 0 -16.851834455714993 -12.204732404977676 0 0 0 0 -69.809475897862285 -1.2121357279217477 0 -1.2121357279217477 -6.4088758056900588 0 0 0 0 -43.627316387163091 -8.8792654958869974 0 -8.8792654958869974 -23.859193395251282 0 0 0 0 -83.939084252626344 -15.643896305524606 0 -15.643896305524606 -19.49844830625571 0 0 0 0 -80.711716674961281 8.857381906171014 0 8.857381906171014 -34.555793744192698 0 0 0 0 -96.439116548937818 2.4251854686508523 0 2.4251854686508523 -17.252774829974271 0 0 0 0 -64.703300852659595 0.34963405673079251 0 0.34963405673079251 -23.318745309706912 0 0 0 0 -67.626778299578291 -3.5301899475870187 0 -3.5301899475870187 -0.92662390193720512 0 0 0 0 -88.785689977044967 6.5364719126728801 0 6.5364719126728801 -10.475816669497128 0 0 0 0 -73.628793811931246 -11.741027947674382 0 -11.741027947674382 -11.675890171346055 0 0 0 0 -71.173677091036552 12.236403565004593 0 12.236403565004593 -38.969243926013746 0 0 0 0 -112.62216444328442 29.778782750995845 0 29.778782750995845 -29.374211556347291 0 0 0 0 -121.872452895077 79.789156089553373 0 79.789156089553373 -75.470448943061427 0 0 0 0 -66.819125892500779 28.003727511994867 0 28.003727511994867 -55.662464976398383 0 0 0 0 -99.092871044945241 36.068554254744598 0 36.068554254744598 -46.695864035292061 0 0 0 0 -126.12739582970607 71.921659872114532 0 71.921659872114532 -74.791986401451069 0 0 0 0 -145.83210403771409 34.635536574237136 0 34.635536574237136 -23.539890332839491 0 0 0 0 -86.582027642697994 22.315142367417877 0 22.315142367417877 -42.315746954059591 0 0 0 0 -155.8352804182814 75.56848059176825 0 75.56848059176825 -56.580326068544338 0 0 0 0 -197.77437131721001 111.34121477029292 0 111.34121477029292 -73.949043483373345 0 0 0 0 -146.22440883644413 114.18500716369068 0 114.18500716369068 -89.445093733191811 0 0 0 0 -178.60486707932614 118.06916450230656 0 118.06916450230656 -86.31917562626127 0 0 0 0 -187.44307519530048 99.523514234024049 0 99.523514234024049 -66.507212821574868 0 0 0 0 -154.95136823004941 54.738672559577715 0 54.738672559577715 -46.08960909479876 0 0 0 0 -177.5946250843499 102.96917768768961 0 102.96917768768961 -89.464595791911137 0 0 0 0 -172.84236129599412 98.579075276335942 0 98.579075276335942 -72.484933678573071 0 0 0 0 -219.32726951224686 86.971688979242742 0 86.971688979242742 -46.160476766172835 0 0 0 0 -89.509113994415202 -47.612894801967833 0 -47.612894801967833 -26.949610772292601 0 0 0 0 -256.6106717718103 -12.630447493233049 0 -12.630447493233049 -18.286937277028194 0 0 0 0 -21.064943843866786 -8.9632060241817442 0 -8.9632060241817442 -42.810635290123813 0 0 0 0 -45.774224050479461 -31.558633220112057 0 -31.558633220112057 -40.577436125151223 0 0 0 0 -185.94442327513207 43.171880437479871 0 43.171880437479871 -32.49738045373428 0 0 0 0 -112.082287950303 5.8418507387251566 0 5.8418507387251566 -21.781884894568407 0 0 0 0 -9.9864814238317194 -21.686279160758147 0 -21.686279160758147 -31.422350885543381 0 0 0 0 -23.134750435689057 -5.687439526485619 0 -5.687439526485619 -22.320838877224645 0 0 0 0 -1.7939779414547701 0.91008244606464217 0 0.91008244606464217 -0.40319816311816448 0 0 0 0 0.033173419751619804 -5.904050804351499 0 -5.904050804351499 20.045002017176671 0 0 0 0 -1.5525043681191164 0.10553464268599555 0 0.10553464268599555 -0.78540840598219575 0 0 0 0 -4.3649693924708117 -1.6736038695005959 0 -1.6736038695005959 -1.047065198623983 0 0 0 0 -3.7397082872685132 -2.5821306221072433 0 -2.5821306221072433 0.030605973225590333 0 0 0 0 -0.52091395477396629 -1.3017226852285475 0 -1.3017226852285475 -0.74661973641611357 0 0 0 0 -4.2006497320271592 -1.816794891682008 0 -1.816794891682008 -0.21503810598110107 0 0 0 0 -0.23081612505615468 -1.2676581478399669 0 -1.2676581478399669 -0.37998528387160357 0 0 0 0 -2.9311838160447792 -2.3599797275113392 0 -2.3599797275113392 -1.8951173747045686 0 0 0 0 -4.8269493911848258 0.20433745775488887 0 0.20433745775488887 2.1492823803932595 0 0 0 0 -2.0180158010528828 0.78297358172133968 0 0.78297358172133968 -0.32614942968700467 0 0 0 0 -13.849816443622331 -16.618564888312278 0 -16.618564888312278 -19.250061972922254 0 0 0 0 -6.2038246506563155 -19.606234440756452 0 -19.606234440756452 -28.215115891221785 0 0 0 0 -39.512853864267527 -29.765169278699034 0 -29.765169278699034 -23.661378169179102 0 0 0 0 -11.081937700686353 -19.593336246145316 0 -19.593336246145316 -27.912632876960288 0 0 0 0 -0.28360076625578046 -0.1505894988248393 0 -0.1505894988248393 -0.17904846833258192 0 0 0 0 -1.856951980742906 -3.3957743418727322 0 -3.3957743418727322 -32.370817571377643 0 0 0 0 -5.3638443531581288 -2.022881421574823 0 -2.022881421574823 -0.97949607624536839 0 0 0 0 -0.48056559043008718 -0.042764124181633889 0 -0.042764124181633889 -0.13210680102850558 0 0 0 0 -14.93732465697758 -26.755095340749278 0 -26.755095340749278 -27.412472860582511 0 0 0 0 -30.760994267090609 -23.589415000289193 0 -23.589415000289193 -15.02718705517691 0 0 0 0 -16.876849806045357 -17.885329036238545 0 -17.885329036238545 -13.32314649817414 0 0 0 0 -5.7190159017482074 -22.511131154529608 0 -22.511131154529608 -26.83551613441756 0 0 0 0 -10.613054269073473 -25.827921339964348 0 -25.827921339964348 -43.980665378011622 0 0 0 0 -22.712265875192315 -6.7929319301085371 0 -6.7929319301085371 -29.641856941385413 0 0 0 0 -13.558465198038903 -20.124180643003626 0 -20.124180643003626 -14.256238050048637 0 0 0 0 -11.43799369498447 -11.466131823466753 0 -11.466131823466753 -18.075264666362898 0 0 0 0 -8.5239210953220663 -20.277246440264811 0 -20.277246440264811 -6.2976339900847051 0 0 0 0 -9.00674157081869 -13.541220534049099 0 -13.541220534049099 -2.0280767911920066 0 0 0 0 -7.9560301645706204 -12.940525906719472 0 -12.940525906719472 -9.8955686741312547 0 0 0 0 -6.4993170764973911 -21.930348415069886 0 -21.930348415069886 -17.076642523074042 0 0 0 0 -5.6179283235942421 -17.092281791002904 0 -17.092281791002904 -23.158855100139817 0 0 0 0 -6.3019550661824724 -18.96122130640984 0 -18.96122130640984 -31.964128054668549 0 0 0 0 -8.8634376138470543 -21.129180936578393 0 -21.129180936578393 -27.145452501851196 0 0 0 0 -20.804628651008898 -14.544509118188444 0 -14.544509118188444 -37.130038037740974 0 0 0 0 -19.869691423964468 -20.423760960094825 0 -20.423760960094825 -27.547658357864748 0 0 0 0 -9.5665741432662799 -15.289940967363318 0 -15.289940967363318 -29.211821175350565 0 0 0 0 -41.666368389555828 -22.34557417116018 0 -22.34557417116018 -21.098826056524786 0 0 0 0 -17.098803935259639 -12.046433695291739 0 -12.046433695291739 -17.3708700677862 0 0 0 0 -16.409560261432489 -23.143070327030898 0 -23.143070327030898 -20.691280151424849 0 0 0 0 -33.678879484189224 -19.122652128099489 0 -19.122652128099489 -3.6781476435822924 0 0 0 0 -25.78823181325788 -20.779901294206297 0 -20.779901294206297 18.556624277999731 0 0 0 0 -15.169784717883886 -5.2691944043523335 0 -5.2691944043523335 5.9512514019346554 0 0 0 0 -13.176168218182056 -21.499323741865624 0 -21.499323741865624 -0.22971413341974767 0 0 0 0 -18.5511040889578 -9.5241493926189378 0 -9.5241493926189378 39.149798358254429 0 0 0 0 -5.47964548863456 -12.548438826822121 0 -12.548438826822121 14.57213340017779 0 0 0 0 -5.5180309537317953 0.94065673038721798 0 0.94065673038721798 38.667009315250453 0 0 0 0 -17.187426575212157 -6.2340697312624798 0 -6.2340697312624798 41.364417522009205 0 0 0 0 -15.009411547847776 -0.46095371257814577 0 -0.46095371257814577 39.484634932093286 0 0 0 0 -35.763675373492333 -12.065738357262376 0 -12.065738357262376 78.551206021799771 0 0 0 0 -4.0642966476007132 -14.83906415214085 0 -14.83906415214085 -1.716876073326091 0 0 0 0 -9.4534547623534309 -15.699804875457744 0 -15.699804875457744 14.161527274215132 0 0 0 0 -11.302345300497109 -14.866544823948004 0 -14.866544823948004 16.751860620238403 0 0 0 0 -5.2544439003104344 -7.5301302767402376 0 -7.5301302767402376 11.820837303799408 0 0 0 0 0.056718171023021569 -10.551699778776765 0 -10.551699778776765 14.738462704085805 0 0 0 0 -7.3221384387106809 -7.4120763026439818 0 -7.4120763026439818 35.101610596513865 0 0 0 0 -8.825776722154842 -8.0704460189679139 0 -8.0704460189679139 30.754528450227099 0 0 0 0 -4.6658985472131462 -9.5288317136977412 0 -9.5288317136977412 13.905098931151997 0 0 0 0 -6.1695087686421175 -0.87223118398810584 0 -0.87223118398810584 41.501210406749124 0 0 0 0 3.6743236710462952 -6.6373935924386842 0 -6.6373935924386842 28.510643105193139 0 0 0 0 12.011342535406584 7.8507344913527959 0 7.8507344913527959 43.232563326911531 0 0 0 0 -4.5049558122263988 -1.1441097782383167 0 -1.1441097782383167 47.527450521985429 0 0 0 0 1.3806116376945283 -3.0374384374040346 0 -3.0374384374040346 31.831643929228335 0 0 0 0 9.3386409465238103 22.534175190364209 0 22.534175190364209 63.312501097722816 0 0 0 0 6.8254924366237901 8.5665616919037291 0 8.5665616919037291 50.603329042708992 0 0 0 0 34.466153223474976 41.813753486563542 0 41.813753486563542 57.594243762041287 0 0 0 0 47.852892774371867 21.406824635468524 0 21.406824635468524 39.400934011015579 0 0 0 0 15.647932552652492 19.702507725447049 0 19.702507725447049 56.741256445718136 0 0 0 0 24.02325714105973 7.6868988138171517 0 7.6868988138171517 43.821198822046199 0 0 0 0 21.926843367742549 7.3991369206383979 0 7.3991369206383979 43.288845973269417 0 0 0 0 3.5093098026554799 7.43811436174542 0 7.43811436174542 49.147636312761733 0 0 0 0 3.9919679002639441 -3.5019749775096116 0 -3.5019749775096116 40.41587268374451 0 0 0 0 6.795520147006755 5.4009469128435512 0 5.4009469128435512 42.114852213395352 0 0 0 0 8.1096018912357977 2.7133389324485506 0 2.7133389324485506 47.449944534324914 0 0 0 0 -4.5752432852768834 -0.38748018771025272 0 -0.38748018771025272 40.295969504074037 0 0 0 0 -4.0437185096307076 2.3444296601958285 0 2.3444296601958285 47.127702036148548 0 0 0 0 -29.275117320717982 41.679725384257608 0 41.679725384257608 127.9244340959163 0 0 0 0 -91.369099289484438 -36.031322689195321 0 -36.031322689195321 61.864163443754251 0 0 0 0 63.944312819665356 12.099221562541061 0 12.099221562541061 -77.690297838692914 0 0 0 0 0.24415953778681398 0.12292698729290485 0 0.12292698729290485 0.2475372638256732 0 0 0 0 -29.262524428002507 11.614651782219596 0 11.614651782219596 99.494510585388298 0 0 0 0 -30.041146629191644 5.6942177810251451 0 5.6942177810251451 78.656624532283786 0 0 0 0 -16.379300863329263 2.725101569776939 0 2.725101569776939 69.10803745921703 0 0 0 0 -7.8389318711560918 16.51156751396752 0 16.51156751396752 66.658200826527292 0 0 0 0 -7.1733492992116226 4.5152880361287089 0 4.5152880361287089 55.106086886046796 0 0 0 0 -1.0538414289985667 25.70428116171729 0 25.70428116171729 81.17490333144724 0 0 0 0 -7.6459369497242733 11.536155863451086 0 11.536155863451086 66.596865007966244 0 0 0 0 3.926645945495693 9.2957215823380466 0 9.2957215823380466 49.862438221991169 0 0 0 0 6.8886409248152631 51.397742976083919 0 51.397742976083919 90.928643229731932 0 0 0 0 -0.57822042866091294 0.20554215083358685 0 0.20554215083358685 0.017623255329278109 0 0 0 0 -45.785055856931649 -102.85771577171147 0 -102.85771577171147 -102.70623164627068 0 0 0 0 -4.5767615513977944 -42.765830567746661 0 -42.765830567746661 -115.93318566704556 0 0 0 0 -23.356071212387178 -58.711913788640231 0 -58.711913788640231 -98.090718335767633 0 0 0 0 -42.681009301188169 -9.423148334377629 0 -9.423148334377629 -4.7136771619872206 0 0 0 0 -17.41620028160105 -26.182480353224946 0 -26.182480353224946 -48.930603641330663 0 0 0 0 -13.640898012603429 -10.303452077190059 0 -10.303452077190059 -95.50069360663224 0 0 0 0 -24.840917220244592 -34.11705889580935 0 -34.11705889580935 -46.677321798706885 0 0 0 0 -2.2029700374580017 -0.85914471570787398 0 -0.85914471570787398 -0.43627413394605252 0 0 0 0 -64.970193446300527 -47.988442570737845 0 -47.988442570737845 23.60602706503812 0 0 0 0 -21.099391201510116 -23.069970739033408 0 -23.069970739033408 -19.748194166838971 0 0 0 0 26.374207395201665 1.7049443000983047 0 1.7049443000983047 40.551590501302599 0 0 0 0 32.934627265261952 2.023403047379702 0 2.023403047379702 37.983738918357631 0 0 0 0 11.473056316186558 1.5092760303284649 0 1.5092760303284649 41.175740413943572 0 0 0 0 -3.1746272861637408 4.090586695652064 0 4.090586695652064 43.144936708900786 0 0 0 0 -5.3154607136748382 6.1974307208759001 0 6.1974307208759001 43.548186719545356 0 0 0 0 6.7932472977845464 1.1762368320696623 0 1.1762368320696623 42.507262858377999 0 0 0 0 7.0253958031389629 2.6412337749206927 0 2.6412337749206927 43.902477591397655 0 0 0 0 -29.327513903368526 -9.2663430610222122 0 -9.2663430610222122 -41.531257429164043 0 0 0 0 -18.918158035177385 -25.859280404292036 0 -25.859280404292036 -19.871205789656415 0 0 0 0 -25.268304963828996 -18.186296091455034 0 -18.186296091455034 -3.1125686821831096 0 0 0 0 -27.547868578845737 -25.91069917999755 0 -25.91069917999755 4.1989891043052694 0 0 0 0 -38.182522749755663 15.396157334277291 0 15.396157334277291 78.861836534679355 0 0 0 0 -31.953239332055091 -36.762262626076449 0 -36.762262626076449 -14.329073669921854 0 0 0 0 -13.567956530855554 11.207501191907397 0 11.207501191907397 19.851291167255681 0 0 0 0 -26.067670971119696 -11.523466277437933 0 -11.523466277437933 -7.3719882977893576 0 0 0 0 -29.047775903469301 -3.8246469792270545 0 -3.8246469792270545 21.859586557923706 0 0 0 0 -9.6634156155123492 4.4802407715735626 0 4.4802407715735626 8.4108093603508678 0 0 0 0 -24.831480624440577 -0.78433042410264164 0 -0.78433042410264164 3.6953316555551181 0 0 0 0 -8.2459937150837703 -9.5865948557127361 0 -9.5865948557127361 -3.7174017693553996 0 0 0 0 -20.68119388858122 -11.067754545683783 0 -11.067754545683783 -1.7887464694082382 0 0 0 0 -3.6003052444611967 4.0702102416404387 0 4.0702102416404387 40.754061439146852 0 0 0 0 -3.4373368879030686 -1.7847371959448992 0 -1.7847371959448992 0.87729144804973203 0 0 0 0 -1.7688614336548198 14.516406150661908 0 14.516406150661908 15.417578904463426 0 0 0 0 -1.4656332746369074 -1.4788356207467235 0 -1.4788356207467235 -0.37024509375774184 0 0 0 0 -8.7990185640283016 4.1947021814749803 0 4.1947021814749803 40.90234076684942 0 0 0 0 -10.581426072327304 6.8891332096668521 0 6.8891332096668521 40.973930770198649 0 0 0 0 -8.0946210888905625 2.7995355571470668 0 2.7995355571470668 39.948596641379027 0 0 0 0 -6.5247170610782632 7.3384066907775605 0 7.3384066907775605 33.553546117007272 0 0 0 0 -13.804587662787526 -1.3583116704138547 0 -1.3583116704138547 31.043393542722868 0 0 0 0 -15.84993517593648 1.3991836097745249 0 1.3991836097745249 38.501930072431833 0 0 0 0 -11.728459289937746 18.212636211852782 0 18.212636211852782 27.68894738944573 0 0 0 0 -15.298030330037363 10.82909835690316 0 10.82909835690316 23.111495806147332 0 0 0 0 -16.594292588224562 5.367721638100079 0 5.367721638100079 28.072728846958398 0 0 0 0 -17.235854534113969 2.8898297679444624 0 2.8898297679444624 18.505907884963108 0 0 0 0 -16.51364159894365 -4.2201244328917937 0 -4.2201244328917937 17.214618718810243 0 0 0 0 -12.71675250474982 -0.059289548201149955 0 -0.059289548201149955 26.71824823142606 0 0 0 0 -16.577529359576147 -6.3999273600253446 0 -6.3999273600253446 23.103604351227602 0 0 0 0 -18.07489977127625 -10.037001826365554 0 -10.037001826365554 22.18600471604725 0 0 0 0 -13.166771974938456 -7.5404020305859376 0 -7.5404020305859376 19.796982715088575 0 0 0 0 -15.453416054235277 -9.4708608901703997 0 -9.4708608901703997 9.9319602326311269 0 0 0 0 -17.976345359105835 -13.624469648131935 0 -13.624469648131935 10.526794686247285 0 0 0 0 -5.9795209687872557 2.3113968849245339 0 2.3113968849245339 35.240109418571819 0 0 0 0 -11.285427145547146 -4.8708550662358903 0 -4.8708550662358903 37.739284224114016 0 0 0 0 -11.501835485065385 2.5479963196409017 0 2.5479963196409017 41.017210926119446 0 0 0 0 -14.333331122608797 -4.6623322897544313 0 -4.6623322897544313 31.975939612207497 0 0 0 0 -10.171545758230423 1.6795977258979065 0 1.6795977258979065 31.253716690938745 0 0 0 0 -14.702059152648872 -11.044537496324551 0 -11.044537496324551 24.476905230026148 0 0 0 0 -10.229588071870239 -6.0899137444437201 0 -6.0899137444437201 21.936442084470855 0 0 0 0 -4.7414225658340001 -5.7571792806933075 0 -5.7571792806933075 26.84796624477076 0 0 0 0 -11.26382112902138 -11.668208638272063 0 -11.668208638272063 27.976395705149372 0 0 0 0 -9.9233373796232627 -10.220624556494158 0 -10.220624556494158 10.50746223082956 0 0 0 0 -13.087729223081624 -12.094612571595974 0 -12.094612571595974 9.8663661249149754 0 0 0 0 -18.144539839486242 -10.205239964963994 0 -10.205239964963994 9.3579704133042014 0 0 0 0 -12.541763047152926 -18.142670291294138 0 -18.142670291294138 0.31971044024953699 0 0 0 0 -20.271211986168055 -11.188632699061714 0 -11.188632699061714 -4.8286251316282005 0 0 0 0 -15.553289421190129 -15.097447692539845 0 -15.097447692539845 10.285281617751728 0 0 0 0 -8.0899107473414915 -12.162329785408247 0 -12.162329785408247 -3.1479725025578773 0 0 0 0 -15.62302682139125 -11.674439439152593 0 -11.674439439152593 2.7221796477098223 0 0 0 0 -17.130941721632553 -17.329185739923105 0 -17.329185739923105 6.3115189650691832 0 0 0 0 -17.398154412643635 -13.779303109606076 0 -13.779303109606076 1.6120340518023113 0 0 0 0 -19.25207499126077 -22.061268539751822 0 -22.061268539751822 -4.2964998563531935 0 0 0 0 -15.606334494120802 -18.583437817983153 0 -18.583437817983153 -7.041291536105291 0 0 0 0 -18.516289737791794 -21.054806502160034 0 -21.054806502160034 -6.2260757459041542 0 0 0 0 -15.25269259365632 -9.3184312595699339 0 -9.3184312595699339 -11.540480255926923 0 0 0 0 -16.690908369375393 -14.298695200393922 0 -14.298695200393922 0.6056463026362735 0 0 0 0 -19.236706852507268 -9.2330984889955516 0 -9.2330984889955516 -9.8746221795854581 0 0 0 0 -18.528909362187733 -11.823076330150201 0 -11.823076330150201 -4.4308626448536188 0 0 0 0 -17.228841364452819 -7.3152954138543578 0 -7.3152954138543578 -3.4223141488213145 0 0 0 0 -20.271841186302481 -6.0719297548643851 0 -6.0719297548643851 4.5192630044068665 0 0 0 0 -16.259379669088958 -5.8764940047012715 0 -5.8764940047012715 5.7102324526932193 0 0 0 0 -19.126373477238303 -8.4659510492089396 0 -8.4659510492089396 7.2960253541010616 0 0 0 0 -18.342312127059813 -7.6181806120139299 0 -7.6181806120139299 13.075140438957533 0 0 0 0 -15.534202472965262 2.0107336782609764 0 2.0107336782609764 17.911063825712574 0 0 0 0 -17.330556757884551 -1.710662998431161 0 -1.710662998431161 13.985945315607751 0 0 0 0 -15.441951717531992 -1.0085669354918423 0 -1.0085669354918423 8.5997004430382589 0 0 0 0 -14.703729177423156 2.6440412116255629 0 2.6440412116255629 9.2560421069580343 0 0 0 0 -17.147260336249474 -6.4175868625411141 0 -6.4175868625411141 3.38325781779713 0 0 0 0 -13.043685153883416 8.8174316943532176 0 8.8174316943532176 17.951463888239118 0 0 0 0 -13.269766127050389 0.41735297375670655 0 0.41735297375670655 11.945649676579592 0 0 0 0 -12.958413778752632 -0.024701367768891203 0 -0.024701367768891203 1.0419008738691651 0 0 0 0 -10.666550670001001 2.4621783639239663 0 2.4621783639239663 1.4777308642287694 0 0 0 0 -8.4979848684743047 4.7855113535651981 0 4.7855113535651981 18.467559107258239 0 0 0 0 -8.9933824755717069 6.7150655413429376 0 6.7150655413429376 12.840710476613623 0 0 0 0 -12.726896614018187 10.141555590403584 0 10.141555590403584 21.128660731269591 0 0 0 0 -26.236727028674068 -6.2803817761160872 0 -6.2803817761160872 2.9907484929957775 0 0 0 0 -17.601689823546621 -2.9097280418378659 0 -2.9097280418378659 -0.0011581743119677412 0 0 0 0 -16.066448195675548 -1.5815308008299098 0 -1.5815308008299098 1.8397578538526886 0 0 0 0 -19.873767880941159 -3.7625361940840776 0 -3.7625361940840776 6.4957426639834779 0 0 0 0 -10.442448700265231 2.0481718638810094 0 2.0481718638810094 6.7789562853637335 0 0 0 0 -18.143106442419594 -1.2082411142147862 0 -1.2082411142147862 10.210121512388838 0 0 0 0 -16.294218710136192 -4.5207788843110279 0 -4.5207788843110279 2.1391396541418999 0 0 0 0 -18.100256844370961 -3.4640985878015726 0 -3.4640985878015726 1.6895442143166974 0 0 0 0 -25.233984938786307 -9.9367607381518042 0 -9.9367607381518042 1.2721385176068623 0 0 0 0 -28.298707527112128 -12.723795335911632 0 -12.723795335911632 -2.0683519683784652 0 0 0 0 -23.320840467316884 -7.2957249014531271 0 -7.2957249014531271 -3.7933746278383751 0 0 0 0 -25.134660860843724 -7.6557031501350252 0 -7.6557031501350252 0.68796065228195857 0 0 0 0 -23.969651873028852 -10.560043715494558 0 -10.560043715494558 -10.186816394429798 0 0 0 0 -26.463319131760727 -4.3815806010162532 0 -4.3815806010162532 -3.5674204847013016 0 0 0 0 -26.712364799202078 -14.866523045286471 0 -14.866523045286471 -7.6021942934617073 0 0 0 0 -32.643740070099966 -15.053065119043744 0 -15.053065119043744 -2.8027034335814278 0 0 0 0 -31.944465892884182 -9.3141355347843273 0 -9.3141355347843273 -2.4116853023508042 0 0 0 0 -0.20898330111868724 0.18937609209223183 0 0.18937609209223183 0.042113148413938095 0 0 0 0 4.3901606745257595 5.2555096343780292 0 5.2555096343780292 1.831102613225994 0 0 0 0 -24.000717729562894 -10.889189967025914 0 -10.889189967025914 -4.0584585540917715 0 0 0 0 -25.266208760100653 -8.5696242618235061 0 -8.5696242618235061 -7.700089301401249 0 0 0 0 -19.631444164711411 -9.0799840971326944 0 -9.0799840971326944 -4.6439107479536688 0 0 0 0 -25.634317417025159 -7.6294241193330663 0 -7.6294241193330663 -3.5646021321077797 0 0 0 0 -34.140819969414224 -12.738513436481298 0 -12.738513436481298 -2.9881981305192653 0 0 0 0 -19.244227813038378 -9.2160796654910655 0 -9.2160796654910655 -7.0193154041863863 0 0 0 0 -26.356724877812667 -11.012119156633275 0 -11.012119156633275 -3.7282217505632822 0 0 0 0 -25.960704969062135 -11.927156227808766 0 -11.927156227808766 -7.9874131360827505 0 0 0 0 8.4545488782400753 -1.1864177664776037 0 -1.1864177664776037 -0.68770641571927627 0 0 0 0 -0.065209970791260119 0.053632646177991461 0 0.053632646177991461 0.0098931449927470716 0 0 0 0 9.7248609812791074 5.3218860424665024 0 5.3218860424665024 0.35088119635224757 0 0 0 0 1.8781603155048288 1.9259257856597856 0 1.9259257856597856 3.3328439605908216 0 0 0 0 4.3920770098807225 6.5927379521214533 0 6.5927379521214533 3.4280288013119389 0 0 0 0 -0.61788726095836921 1.7793534973801002 0 1.7793534973801002 1.0723934817558349 0 0 0 0 -3.6543605681108602 1.784463233471854 0 1.784463233471854 0.16963693014119485 0 0 0 0 -13.840579133629944 1.5831328932395081 0 1.5831328932395081 2.1993551831899367 0 0 0 0 -12.140377765339508 1.0240852987312508 0 1.0240852987312508 -3.7747297312671435 0 0 0 0 -31.062334292480955 -3.8040876739692493 0 -3.8040876739692493 -3.1527994049636163 0 0 0 0 -11.431758501965305 -4.7594502094369773 0 -4.7594502094369773 -7.3191396644232896 0 0 0 0 -10.14798339855588 -19.464604105889066 0 -19.464604105889066 -19.667796846918804 0 0 0 0 0.024500520676049575 0.034853927225073633 0 0.034853927225073633 -0.082083437204683474 0 0 0 0 -11.287594011255351 -7.0735724136010845 0 -7.0735724136010845 -4.207709734870491 0 0 0 0 -10.163057207966631 -17.506932011844356 0 -17.506932011844356 -16.963840009254852 0 0 0 0 -5.6566131350882642 -5.1506315091925785 0 -5.1506315091925785 -3.6515052616102821 0 0 0 0 -17.228965653091109 -5.5523671520685838 0 -5.5523671520685838 -0.37743494636174546 0 0 0 0 -11.689370814154245 -5.0661299233744757 0 -5.0661299233744757 0.64541634960289684 0 0 0 0 -10.955584887764417 -2.8012511947316625 0 -2.8012511947316625 0.78562350911946055 0 0 0 0 -9.4440180925430468 -3.9192439453684074 0 -3.9192439453684074 1.1564065539116655 0 0 0 0 -8.4422114320277615 -0.56441501108639613 0 -0.56441501108639613 -0.024386678815972118 0 0 0 0 -14.33640710331747 -5.7670248701589344 0 -5.7670248701589344 0.64300020990552298 0 0 0 0 -9.7355963870168125 -3.9161189651757979 0 -3.9161189651757979 1.3342800426401027 0 0 0 0 -8.9525363802367792 -0.3121352280023757 0 -0.3121352280023757 2.7261967755009664 0 0 0 0 -1.9842472716427437 1.1003914501320082 0 1.1003914501320082 -1.3474523790018225 0 0 0 0 2.1077421770146429 1.0319096984044052 0 1.0319096984044052 -0.89656994959386793 0 0 0 0 -1.0905707334092831 1.5283329615295109 0 1.5283329615295109 1.1417505585680161 0 0 0 0 -10.128128940297756 -3.2463322090953284 0 -3.2463322090953284 0.9937637693896022 0 0 0 0 -10.433095015458093 -1.1298970205273235 0 -1.1298970205273235 2.4955860905787404 0 0 0 0 -7.8292661367104301 -2.1120498574550197 0 -2.1120498574550197 1.4380787321074422 0 0 0 0 -4.2631039600373697 -1.3715235969012296 0 -1.3715235969012296 0.34604946487111476 0 0 0 0 -4.6725315037256223 -1.75079870811863 0 -1.75079870811863 0.029356137365972756 0 0 0 0 1.7526312870554648 -1.795736201128844 0 -1.795736201128844 -3.102861334865608 0 0 0 0 -0.15829643089664458 -0.7308812091178396 0 -0.7308812091178396 -0.26645154576841001 0 0 0 0 0.4036229074741513 0.077517642702996881 0 0.077517642702996881 -0.00014465605513391822 0 0 0 0 -3.0516265631949864 3.6235092481240656 0 3.6235092481240656 4.054041836678266 0 0 0 0 -3.6634842694296381 0.32614264531261306 0 0.32614264531261306 1.1126635289006894 0 0 0 0 -1.6806494368138374 -1.1182827238947937 0 -1.1182827238947937 -8.8727442186013263 0 0 0 0 -5.360207347504911 -9.0336570940661431 0 -9.0336570940661431 -8.4295061140064718 0 0 0 0 -0.39658678022446026 -0.59447190394249549 0 -0.59447190394249549 -0.13477458258957742 0 0 0 0 -9.3070366280066992 1.4733357572132633 0 1.4733357572132633 -0.3072079878754721 0 0 0 0 -9.5195954062037345 -8.894196445323189 0 -8.894196445323189 -4.1674912344877839 0 0 0 0 -7.3437141482900188 -4.2522646390327168 0 -4.2522646390327168 5.155790955769703 0 0 0 0 -3.930546952046214 0.1494821017918575 0 0.1494821017918575 0.97244047145917545 0 0 0 0 -13.389586590290492 3.7692214891884817 0 3.7692214891884817 9.0355386658688417 0 0 0 0 -5.7474891791862319 0.46640230251380643 0 0.46640230251380643 3.6060637253452796 0 0 0 0 -1.9311145476422098 -0.40356161261136947 0 -0.40356161261136947 1.6768646756015926 0 0 0 0 -4.1796191563707197 -0.12323946252961981 0 -0.12323946252961981 0.98122442161656043 0 0 0 0 -1.9862418593548341 2.1597923541988502 0 2.1597923541988502 1.6458841651703437 0 0 0 0 1.1371930872210214 7.0666314923688844 0 7.0666314923688844 -5.7162301605316088 0 0 0 0 9.151965945903612 -1.4918334750360813 0 -1.4918334750360813 -2.3120298785268574 0 0 0 0 -1.9973471468256321 3.130739015665057 0 3.130739015665057 -2.7521564565984775 0 0 0 0 -6.4667935219340507 -5.4294635261806441 0 -5.4294635261806441 -3.9555053259681188 0 0 0 0 -0.12191410101628719 0.10980040795139967 0 0.10980040795139967 0.098259577402002724 0 0 0 0 -12.710878205030895 -0.17596293409496866 0 -0.17596293409496866 2.9885826109481712 0 0 0 0 -0.28349243405051183 -0.66287020381753692 0 -0.66287020381753692 0.47649410068362141 0 0 0 0 -3.6768868903673138 -1.8152353832675772 0 -1.8152353832675772 -0.10264680932744596 0 0 0 0 -3.9259280307262543 -2.0240772273405021 0 -2.0240772273405021 5.7843028994788028 0 0 0 0 -3.0041291506113339 -6.1791447162082562 0 -6.1791447162082562 -0.30632130452686823 0 0 0 0 -9.3756474015372078 0.26461120682644435 0 0.26461120682644435 4.509644386910665 0 0 0 0 -3.390145761382179 0.47577222395241403 0 0.47577222395241403 0.25478891768819856 0 0 0 0 -10.454726252937689 9.4060085735160079 0 9.4060085735160079 -2.373077454602381 0 0 0 0 -8.0237426317567042 2.8237818887434551 0 2.8237818887434551 1.3177462908327868 0 0 0 0 1.0855422660970362 3.4367791097748928 0 3.4367791097748928 -1.9885118899648617 0 0 0 0 -0.72107363674422231 2.2045540483734101 0 2.2045540483734101 -2.1512020245824317 0 0 0 0 -0.89128358909193039 1.0435258981967657 0 1.0435258981967657 0.69125856391244445 0 0 0 0 2.2590490202619549 -0.082539602534268397 0 -0.082539602534268397 0.29534679501916372 0 0 0 0 -0.76061337345145574 1.0798384284090154 0 1.0798384284090154 0.46597258472845837 0 0 0 0 -3.6825873243219576 0.97705087521121392 0 0.97705087521121392 1.4721142466546553 0 0 0 0 0.59597522663898417 -1.8140493276367025 0 -1.8140493276367025 -1.3142141758721682 0 0 0 0 0.05506942603685161 0.15214139636468182 0 0.15214139636468182 -0.0080148943050638299 0 0 0 0 -0.081671211286355572 -0.0072722850985176279 0 -0.0072722850985176279 0.028674877738723868 0 0 0 0 -2.8745425270562919 5.2661399637023898 0 5.2661399637023898 -5.9143196009233918 0 0 0 0 5.8585634316295909 -3.3946421956813495 0 -3.3946421956813495 -4.5961130483267567 0 0 0 0 -30.973099741739134 2.3652031223207857 0 2.3652031223207857 1.5021506137999658 0 0 0 0 -22.436398694867421 -19.500700774612145 0 -19.500700774612145 -4.3236708104515706 0 0 0 0 -23.755529003279662 9.1910669742689084 0 9.1910669742689084 -7.3605050234504752 0 0 0 0 -0.13654752529435399 -0.049892565646734388 0 -0.049892565646734388 -0.00028763120200781585 0 0 0 0 0.19935747392082703 7.7613622971773868 0 7.7613622971773868 -2.2675128289156441 0 0 0 0 -4.152099690742034 4.8536683306085386 0 4.8536683306085386 9.6799089178628215 0 0 0 0 0.27508517060778104 0.16674008932065476 0 0.16674008932065476 -0.16014264360540764 0 0 0 0 7.0520191455980239 0.357985093067275 0 0.357985093067275 -0.15712936797282495 0 0 0 0 -3.1065713969510398 -0.72426305516354317 0 -0.72426305516354317 0.15558584177692528 0 0 0 0 -0.26426664000927502 0.1456968527833491 0 0.1456968527833491 0.014403227761923043 0 0 0 0 -1.4780592948586833 0.22390134799767125 0 0.22390134799767125 0.20016304457661099 0 0 0 0 -0.68147228892313905 0.94470873284724033 0 0.94470873284724033 -0.020444519718141822 0 0 0 0 0.19013063796592178 0.87462041263393964 0 0.87462041263393964 0.41971757403000254 0 0 0 0 -1.3184845048695806 0.80625566225637613 0 0.80625566225637613 0.17942280878148692 0 0 0 0 -0.54503623162963777 0.36013809336818059 0 0.36013809336818059 3.7320729585138421 0 0 0 0 -0.20333871858197483 -0.0019225657931549733 0 -0.0019225657931549733 0.015207266784902067 0 0 0 0 3.4874556444665359 0.99065768263303555 0 0.99065768263303555 -5.4124509163208199 0 0 0 0 -5.6635110924617038 1.2344275285576334 0 1.2344275285576334 -0.018817118443978237 0 0 0 0 -23.189958034169877 -13.499483452007009 0 -13.499483452007009 -11.783609724358225 0 0 0 0 -22.23641972626865 -7.744597415228057 0 -7.744597415228057 -3.9570972581915913 0 0 0 0 0.85499080172121467 -1.354858996824533 0 -1.354858996824533 -10.712519512340187 0 0 0 0 -0.14128463525238999 -0.078757850357323633 0 -0.078757850357323633 -0.0076087193384868548 0 0 0 0 -4.4670253821532242 -4.6780750080377098 0 -4.6780750080377098 -2.2512981673350856 0 0 0 0 -4.0003372868995939 3.2318528807911884 0 3.2318528807911884 -4.7278075039729703 0 0 0 0 -6.0873910221562255 2.1505467669291338 0 2.1505467669291338 -0.080476518966539082 0 0 0 0 3.1935583170379687 -1.9379467879907826 0 -1.9379467879907826 -3.6810008150677929 0 0 0 0 -20.69712579913903 10.855371288694473 0 10.855371288694473 -4.4230280859009392 0 0 0 0 -0.47469867070321925 1.5209006735160819 0 1.5209006735160819 -0.016515076464473977 0 0 0 0 -3.4419510233656183 1.3671777813946835 0 1.3671777813946835 0.2081088546839763 0 0 0 0 -2.0828928636983619 0.032454640454546269 0 0.032454640454546269 0.024697576221904605 0 0 0 0 -0.24242040132403453 0.013046718227858634 0 0.013046718227858634 0.027139328494446391 0 0 0 0 -1.7514430168901001 0.066042628158018979 0 0.066042628158018979 0.091976830094677706 0 0 0 0 -3.5969328036553634 0.11473520324555864 0 0.11473520324555864 0.22383377993953157 0 0 0 0 -1.0032757341687102 0.17669388935197716 0 0.17669388935197716 0.43058511051314952 0 0 0 0 -1.0744107881047498 0.098060932129730105 0 0.098060932129730105 0.023989144781423312 0 0 0 0 -2.8971435951661988 0.5792279549089443 0 0.5792279549089443 -0.23600558920652759 0 0 0 0 -2.5727437176465173 -3.0018157413364746 0 -3.0018157413364746 -2.9080883131296842 0 0 0 0 -4.9253412232355913 -0.79716458856945138 0 -0.79716458856945138 2.1526121343546971 0 0 0 0 -3.9813583776867745 -0.33620353988921181 0 -0.33620353988921181 0.018626993128535219 0 0 0 0 -2.6077537888118485 -0.14418204317978933 0 -0.14418204317978933 0.021685081215875746 0 0 0 0 -3.3949511876926408 -0.65024931800951435 0 -0.65024931800951435 1.8867727113648076 0 0 0 0 -0.11211144441949727 -0.12455876840022295 0 -0.12455876840022295 -1.6484729960970466 0 0 0 0 -1.9118117564711987 -0.24615658155639153 0 -0.24615658155639153 0.055787293634194692 0 0 0 0 -6.8445948176340607 -4.2912907017276041 0 -4.2912907017276041 -0.15670276638268499 0 0 0 0 -3.8867894114155206 -0.38543150208781185 0 -0.38543150208781185 -0.094482850212365577 0 0 0 0 -0.57354548545703032 -0.11012717165923291 0 -0.11012717165923291 -0.1057272851546181 0 0 0 0 -3.901059958829137 -0.3330159795704617 0 -0.3330159795704617 -0.24559680494937197 0 0 0 0 -2.0063289690378951 -1.2863296498204804 0 -1.2863296498204804 1.3159162948933414 0 0 0 0 -6.1199477123482211 -1.3991554804693465 0 -1.3991554804693465 1.996290997361541 0 0 0 0 -4.8580716861961264 1.1563295708753429 0 1.1563295708753429 2.0908799505564559 0 0 0 0 -3.5431252926864545 1.286606973460394 0 1.286606973460394 2.0950616405263816 0 0 0 0 -7.6046867396303242 4.5262875477944249 0 4.5262875477944249 -0.48827210748831362 0 0 0 0 3.6968561144694831 -3.5359774224657414 0 -3.5359774224657414 0.16348550059510103 0 0 0 0 -11.524670752698512 -7.766448922093204 0 -7.766448922093204 0.64840397088742208 0 0 0 0 -7.6237698682052724 0.52988694802316516 0 0.52988694802316516 1.523151167509738 0 0 0 0 -0.027409013425559792 -0.10473767211751905 0 -0.10473767211751905 -0.11696576392254709 0 0 0 0 -42.406662611494539 14.355978171591183 0 14.355978171591183 -9.1389673940647214 0 0 0 0 -45.945480581498487 0.73978089198115793 0 0.73978089198115793 7.7337719155049456 0 0 0 0 -19.53580267704092 -21.923362896486935 0 -21.923362896486935 15.146845250119295 0 0 0 0 -51.048831204912858 19.349148316600257 0 19.349148316600257 25.11328182655955 0 0 0 0 -109.67741671919612 27.342266677707723 0 27.342266677707723 14.010920674149455 0 0 0 0 -52.763595743907445 10.463414442004609 0 10.463414442004609 -10.610111649403109 0 0 0 0 -136.34456045290972 27.70129369564523 0 27.70129369564523 15.67666284628659 0 0 0 0 -3.9099536331996205 -0.26015349012202904 0 -0.26015349012202904 -0.32490357548938675 0 0 0 0 -0.25270367738596322 -0.76389322446172869 0 -0.76389322446172869 -0.34934538696240935 0 0 0 0 9.168262909065561 4.8841612517616344 0 4.8841612517616344 -27.658977083650345 0 0 0 0 -3.9680890779727633 -0.27983858043653065 0 -0.27983858043653065 -0.17463409793029427 0 0 0 0 -3.972557635854173 -0.30758615320420546 0 -0.30758615320420546 -0.032917804395406591 0 0 0 0 -2.3669434825205826 0.54429676751551082 0 0.54429676751551082 2.6628284686628967 0 0 0 0 2.8300653920960031 4.5089373082853479 0 4.5089373082853479 5.4131219257536181 0 0 0 0 -6.0544103529682616 0.23859634826422216 0 0.23859634826422216 9.4626510356136215 0 0 0 0 -9.3837473783496534 -3.9208060997848126 0 -3.9208060997848126 5.6615305401033353 0 0 0 0 -7.0720189334679162 41.375179857746382 0 41.375179857746382 -27.934686661844935 0 0 0 0 27.478141451914098 -17.142021528735008 0 -17.142021528735008 -17.822908695872243 0 0 0 0 -0.54320114543776232 -0.06193963327545049 0 -0.06193963327545049 0.10213014086284947 0 0 0 0 -0.57849671009766723 -0.051048068042416794 0 -0.051048068042416794 -0.11254871688558905 0 0 0 0 -42.421350238888408 43.865509863900314 0 43.865509863900314 -71.025980376485165 0 0 0 0 -65.527837131647175 -33.925060537859082 0 -33.925060537859082 5.5533298520366898 0 0 0 0 -95.266694700781954 72.890108724556683 0 72.890108724556683 -31.283276134870672 0 0 0 0 -162.75605743660361 42.364951124147055 0 42.364951124147055 9.6622639832183168 0 0 0 0 -74.573139770107446 21.447046381791949 0 21.447046381791949 -0.004265548646086385 0 0 0 0 -14.075814796429768 14.102994472926525 0 14.102994472926525 -17.597613057197165 0 0 0 0 23.910271211774671 -11.913036090552179 0 -11.913036090552179 -8.4840297772597957 0 0 0 0 -17.359214490850718 15.456216139954156 0 15.456216139954156 -17.512844143517292 0 0 0 0 -83.934637474758347 31.965281210522683 0 31.965281210522683 -9.9108465315791818 0 0 0 0 -15.817433066455123 16.228309487767646 0 16.228309487767646 -17.455068366483591 0 0 0 0 -300.09661074436553 80.428444080898117 0 80.428444080898117 -19.004044927111465 0 0 0 0 -162.53092416296667 34.09207165477595 0 34.09207165477595 -33.223040470312455 0 0 0 0 -216.46765322604915 36.954095870746926 0 36.954095870746926 -0.1575057564682818 0 0 0 0 -162.18584699820713 46.260673354744199 0 46.260673354744199 -30.599619492448817 0 0 0 0 -210.24628663211115 51.146403714848525 0 51.146403714848525 -28.886997650913656 0 0 0 0 -210.47083909357571 49.212242384914234 0 49.212242384914234 -34.381275205142266 0 0 0 0 -206.40105208108662 83.295877968697567 0 83.295877968697567 -7.4691372964028488 0 0 0 0 -205.73000597333703 53.100265648059562 0 53.100265648059562 0.94988355599970475 0 0 0 0 -126.45870777543132 65.787385276516972 0 65.787385276516972 -25.562319412179249 0 0 0 0 -181.14575999926456 66.019788365415309 0 66.019788365415309 -0.058123841518664676 0 0 0 0 -134.07076906609655 45.427402099060984 0 45.427402099060984 2.7066611063811017 0 0 0 0 -105.59343715874957 45.634979849756661 0 45.634979849756661 -7.3519981535059316 0 0 0 0 -173.00268307108308 94.427117246486986 0 94.427117246486986 -20.870444166007125 0 0 0 0 -144.02336652684335 107.63810009283847 0 107.63810009283847 -42.100586402467727 0 0 0 0 -97.042425268487932 54.225895294778198 0 54.225895294778198 -10.738607100377934 0 0 0 0 -162.84850245486268 85.115166009873619 0 85.115166009873619 -24.749910659193539 0 0 0 0 -37.169420287284083 33.578265218099233 0 33.578265218099233 -46.361871082186838 0 0 0 0 -14.623381206689373 -8.0626566385795968 0 -8.0626566385795968 -19.519188657074096 0 0 0 0 -100.19302706600865 45.80683409479925 0 45.80683409479925 -13.294167219038215 0 0 0 0 -67.552799052205742 41.891784203915861 0 41.891784203915861 -22.971934101623432 0 0 0 0 -67.444155367513929 19.325173606693603 0 19.325173606693603 -1.2742470361285854 0 0 0 0 -2.8382880423996539 8.0599182487622443 0 8.0599182487622443 -18.902114757326444 0 0 0 0 -15.900061722495593 -0.79556527656347953 0 -0.79556527656347953 -8.8642251388744739 0 0 0 0 -0.11897435627133746 8.3743139245439284 0 8.3743139245439284 -8.9834257981657402 0 0 0 0 -20.129068165588251 17.823396507624892 0 17.823396507624892 -27.135780519723824 0 0 0 0 -0.73203959703843346 -1.1165058037726077 0 -1.1165058037726077 -0.025688037308314926 0 0 0 0 -20.280662743447465 -1.3377264517805116 0 -1.3377264517805116 3.9898545318377501 0 0 0 0 -4.5632251459774125 -3.487319438552106 0 -3.487319438552106 -3.2027477593547928 0 0 0 0 24.147660667997116 -0.60850580960673994 0 -0.60850580960673994 -19.082122202642267 0 0 0 0 9.3004104185165488 -19.879843830872808 0 -19.879843830872808 -9.4233275625931867 0 0 0 0 -0.029312256429214756 -0.045742468027899719 0 -0.045742468027899719 -0.049469146961307109 0 0 0 0 -6.8755212739506533 2.9116975184913088 0 2.9116975184913088 -3.1151566711673695 0 0 0 0 -7.7694922784139635 -3.2028771362813586 0 -3.2028771362813586 4.8459167607218205 0 0 0 0 -12.125709195708623 4.8344076402215137 0 4.8344076402215137 2.8679086814937023 0 0 0 0 -13.941968040215215 -13.433311673273508 0 -13.433311673273508 9.526159082389313 0 0 0 0 -6.9786299152619904 -6.5619717044510821 0 -6.5619717044510821 14.20994257450009 0 0 0 0 0.11323703189918888 10.794189185157506 0 10.794189185157506 8.5733515434047831 0 0 0 0 -20.489291714176943 -5.2456145550838755 0 -5.2456145550838755 -9.0648811764701236 0 0 0 0 -8.0691522968190839 -10.506508399814038 0 -10.506508399814038 0.99196279813980937 0 0 0 0 -0.69653210655451403 -15.607306762597261 0 -15.607306762597261 2.314348302862129 0 0 0 0 -1.5795256540222908 -6.9942669679349478 0 -6.9942669679349478 -5.833246042910389 0 0 0 0 -17.367344976044478 -0.34418385163435516 0 -0.34418385163435516 -1.4495198641278648 0 0 0 0 -4.1532810552962474 -5.7896477313613843 0 -5.7896477313613843 15.315676089716078 0 0 0 0 -10.262563912527185 -14.342396744649221 0 -14.342396744649221 5.7249968404154856 0 0 0 0 4.4253208331192582 -11.469474350445438 0 -11.469474350445438 1.6103789910359865 0 0 0 0 -3.7607436318203327 -3.4927076698298549 0 -3.4927076698298549 0.65118055515506512 0 0 0 0 -5.3265730236817035 -6.7410455703683851 0 -6.7410455703683851 -6.0412438904155579 0 0 0 0 -0.74164423850757544 -3.1824085142419882 0 -3.1824085142419882 -0.845863722882785 0 0 0 0 -3.7184198334869265 0.35127181898478987 0 0.35127181898478987 -0.26520812460668347 0 0 0 0 -4.4210630547731853 -3.5156814618752605 0 -3.5156814618752605 -3.7535306578600398 0 0 0 0 -6.5757861005258746 -0.73949345591421434 0 -0.73949345591421434 0.2750155116515316 0 0 0 0 15.875881374758137 2.3269939233367722 0 2.3269939233367722 -8.8896370539486611 0 0 0 0 14.420119816835722 -25.319539463885206 0 -25.319539463885206 -22.14038330736301 0 0 0 0 24.032584926345407 4.1742080513970876 0 4.1742080513970876 -42.359333965900362 0 0 0 0 3.1993980163879314 66.388035043951533 0 66.388035043951533 -122.64870692149753 0 0 0 0 -32.79312725892396 -2.3938108740722299 0 -2.3938108740722299 11.094556149206369 0 0 0 0 -26.041361232422787 14.400814337199506 0 14.400814337199506 28.944807388404058 0 0 0 0 -4.2561206265909277 11.717264668130213 0 11.717264668130213 -0.65627626932081284 0 0 0 0 -2.7144312914539626 1.0159624004629535 0 1.0159624004629535 -0.27117065293684378 0 0 0 0 -230.06671573339554 98.867633394911635 0 98.867633394911635 -114.70686054938577 0 0 0 0 -232.08189215824677 60.381367751398621 0 60.381367751398621 -101.12027504875071 0 0 0 0 -308.4056579860171 92.867780989745569 0 92.867780989745569 -102.37566019798675 0 0 0 0 -81.346002738122479 127.75979899525791 0 127.75979899525791 -136.03104805960228 0 0 0 0 -1.1394428055195078 0.52836330764680906 0 0.52836330764680906 -0.21900153682239748 0 0 0 0 -82.355337949273235 -13.018642626864136 0 -13.018642626864136 6.5530706167375712 0 0 0 0 -330.65691817897459 123.66109891576342 0 123.66109891576342 -55.516083457254524 0 0 0 0 -0.89781730619598932 0.41896896380289306 0 0.41896896380289306 -0.23521855052231877 0 0 0 0 -299.95894281572509 123.32788180905736 0 123.32788180905736 -13.691834315516417 0 0 0 0 -38.633432997372438 55.857137242286839 0 55.857137242286839 -15.551522434490323 0 0 0 0 -229.04727459337983 105.22237096905253 0 105.22237096905253 -76.170813536522076 0 0 0 0 -205.3329746319032 91.907247383899829 0 91.907247383899829 -113.79171404677788 0 0 0 0 -209.45766729256206 106.15457802979527 0 106.15457802979527 -89.685579292879538 0 0 0 0 -188.47306827984903 105.30581396007464 0 105.30581396007464 -106.2835579459118 0 0 0 0 -207.28284732305656 111.14247247135754 0 111.14247247135754 -85.267056391733405 0 0 0 0 -190.51145302701025 107.67439067339336 0 107.67439067339336 -86.463665050977113 0 0 0 0 -190.6961813947255 100.54827149530408 0 100.54827149530408 -90.868457889985848 0 0 0 0 -226.82686969617862 90.074214623252928 0 90.074214623252928 -92.459722708671549 0 0 0 0 -239.17423309769043 105.88563383683494 0 105.88563383683494 -76.462403864043893 0 0 0 0 -240.84571271491677 84.054348640980464 0 84.054348640980464 -68.609145786931691 0 0 0 0 -180.21797667603732 75.667066730761903 0 75.667066730761903 -62.973240986725514 0 0 0 0 -0.25428793206734901 0.533261682563829 0 0.533261682563829 -0.18320193354668457 0 0 0 0 -391.81404464462503 88.282263544418967 0 88.282263544418967 -3.8691688049280799 0 0 0 0 -278.00116446037464 126.82778854433941 0 126.82778854433941 -69.654791765987923 0 0 0 0 -265.23597807483475 97.892370009193314 0 97.892370009193314 -28.999211437479516 0 0 0 0 -240.54909485628559 99.54090918988841 0 99.54090918988841 -34.809979792163944 0 0 0 0 -244.88461363951501 114.25778466838059 0 114.25778466838059 -0.27121541516303793 0 0 0 0 -248.888064612991 81.148556697445372 0 81.148556697445372 -63.736184510924346 0 0 0 0 -257.45976627917071 109.25965336517939 0 109.25965336517939 -24.042607934298431 0 0 0 0 -178.03545192053934 110.44293164569029 0 110.44293164569029 -59.409955955840111 0 0 0 0 -199.95636307815221 90.639885746918452 0 90.639885746918452 -3.637645405265765 0 0 0 0 -206.80539857356598 111.43927054489228 0 111.43927054489228 -32.35240013359887 0 0 0 0 -172.48076892581958 96.481570553535832 0 96.481570553535832 -12.791091797532202 0 0 0 0 -221.42671785708626 97.456163575213949 0 97.456163575213949 9.4437299866200313 0 0 0 0 -234.5753687737124 121.7624894331616 0 121.7624894331616 -4.5963069063795547 0 0 0 0 -242.37099843072428 119.89367634055772 0 119.89367634055772 4.4302633213331788 0 0 0 0 -258.55559469508262 139.70818465746339 0 139.70818465746339 -8.5219062814693132 0 0 0 0 -210.09286125037761 112.04505849830181 0 112.04505849830181 3.4431038753831373 0 0 0 0 -253.36150377302693 107.40441867891566 0 107.40441867891566 6.4756340041234992 0 0 0 0 -248.45827863216618 108.1625711836823 0 108.1625711836823 -1.8415712735910432 0 0 0 0 -304.22450025923536 74.882025363426678 0 74.882025363426678 -4.8829273238855073 0 0 0 0 -288.80624535182096 120.49484456202384 0 120.49484456202384 -29.643319883546653 0 0 0 0 -290.02080468011445 131.24139087250541 0 131.24139087250541 -14.558882765266951 0 0 0 0 -182.27056055788853 143.28086888163529 0 143.28086888163529 -35.875067047135474 0 0 0 0 -305.84758818746195 200.21353974080517 0 200.21353974080517 -61.369985649408918 0 0 0 0 -227.8183635535861 276.04859855991174 0 276.04859855991174 -278.74491813769589 0 0 0 0 -29.931355882661592 6.366814788554902 0 6.366814788554902 40.827953700892785 0 0 0 0 -1.6425544145717268 0.38888856694360108 0 0.38888856694360108 -0.037380658018967457 0 0 0 0 -91.318819443782559 151.55203811843506 0 151.55203811843506 -187.74944074767771 0 0 0 0 -467.6686023651273 285.06831060872781 0 285.06831060872781 0.10346448615436042 0 0 0 0 -323.48271244734497 49.998859892617368 0 49.998859892617368 -44.330727481913158 0 0 0 0 -456.40446465717105 196.35696970561665 0 196.35696970561665 -48.956815507315312 0 0 0 0 -6.0885907917428028 0.32899712722478258 0 0.32899712722478258 0.45241370361480365 0 0 0 0 -3.2828722365773682 -0.020297540558669169 0 -0.020297540558669169 0.028058521246535812 0 0 0 0 11.734541940946656 -1.1010588785228472 0 -1.1010588785228472 0.1059166213788324 0 0 0 0 -68.221427845528524 23.514974415904447 0 23.514974415904447 0.018040235640569335 0 0 0 0 -22.875328817306581 45.816996874890819 0 45.816996874890819 -96.551459812413356 0 0 0 0 -3.9619188014304498 0.6340255059286406 0 0.6340255059286406 0.50000349468625138 0 0 0 0 -181.64036445854265 127.10407680461756 0 127.10407680461756 -36.357926108701236 0 0 0 0 -26.035851446744346 38.647997158515459 0 38.647997158515459 -55.677783267609392 0 0 0 0 68.115456965636156 20.049430579355182 0 20.049430579355182 -48.806432028638085 0 0 0 0 -1.4872960126673398 1.748817026465737 0 1.748817026465737 1.7361985883862179 0 0 0 0 -0.040420006618832494 1.4822658717101795 0 1.4822658717101795 0.077302200152766246 0 0 0 0 -175.44659345221044 71.329488979659828 0 71.329488979659828 -13.43896663923246 0 0 0 0 52.530925028877363 -14.977989513861028 0 -14.977989513861028 -4.5596737011573794 0 0 0 0 -138.17389382097099 33.167844155877859 0 33.167844155877859 16.080085184861719 0 0 0 0 -172.91467184454086 124.25354177508316 0 124.25354177508316 -36.378214995997126 0 0 0 0 -239.64436513240912 54.075470610331315 0 54.075470610331315 1.3650739997363956 0 0 0 0 -228.41501251745467 121.81410408398531 0 121.81410408398531 -12.983365774203456 0 0 0 0 -90.866405238136394 -3.0681753284615159 0 -3.0681753284615159 -0.074119232055106177 0 0 0 0 -61.481791079815594 43.130298365519742 0 43.130298365519742 18.633485896658918 0 0 0 0 -119.96938978455137 -23.649568074179268 0 -23.649568074179268 -25.527446158709786 0 0 0 0 -140.49546359377655 0.0094290936032401795 0 0.0094290936032401795 57.865267152735747 0 0 0 0 -174.87607861970173 -1.6108651004557544 0 -1.6108651004557544 57.972713047571027 0 0 0 0 -42.653605707726456 11.747840158848192 0 11.747840158848192 20.731245150289332 0 0 0 0 -74.277354358664525 4.1097226732058516 0 4.1097226732058516 95.824964651204709 0 0 0 0 -66.994311581338934 -68.102925784140766 0 -68.102925784140766 -61.71880001731131 0 0 0 0 -1.8325320825497826 -0.95685055946542263 0 -0.95685055946542263 -0.28901749912870112 0 0 0 0 16.478930554470935 -157.44912345065339 0 -157.44912345065339 -111.37963789162131 0 0 0 0 -149.80870645455707 28.052433493248955 0 28.052433493248955 88.107662654645139 0 0 0 0 -208.52272207041824 164.02886639092401 0 164.02886639092401 -62.885848102402619 0 0 0 0 -6.9605189847256099 -1.5524446721788476 0 -1.5524446721788476 0.041094027583633633 0 0 0 0 -11.182814953660909 6.9876575680777924 0 6.9876575680777924 -13.847179102728299 0 0 0 0 -388.24956253069104 26.650675930030204 0 26.650675930030204 18.224624518477096 0 0 0 0 -498.16446481674302 134.13084142644209 0 134.13084142644209 -62.862081707461051 0 0 0 0 222.55167935954705 -146.48292406929633 0 -146.48292406929633 -209.789278574419 0 0 0 0 -2.7075451626020239 -1.067421213302477 0 -1.067421213302477 -0.45060408356641279 0 0 0 0 -1.9223652947734919 -0.75065823746700477 0 -0.75065823746700477 -0.21302877879579402 0 0 0 0 -662.84480167262336 169.76258458476795 0 169.76258458476795 154.57575387646804 0 0 0 0 -127.4246727920854 -240.82540298728708 0 -240.82540298728708 -146.88464388875386 0 0 0 0 -54.147741090770069 35.436957939339138 0 35.436957939339138 22.443610768819124 0 0 0 0 -289.3731870646252 -61.412918406871484 0 -61.412918406871484 22.624222067323768 0 0 0 0 -499.01334761329508 -204.64954739116149 0 -204.64954739116149 39.112708507082019 0 0 0 0 -275.05727062461119 -120.24372812430522 0 -120.24372812430522 59.982264993884755 0 0 0 0 -500.06233437917291 -60.674960181513882 0 -60.674960181513882 84.760711671930466 0 0 0 0 -362.5879151443678 -34.478756739767192 0 -34.478756739767192 76.039036090472635 0 0 0 0 -321.1355661341031 33.502058776215556 0 33.502058776215556 8.4250082657239318 0 0 0 0 -153.31143956520555 6.2398659568800383 0 6.2398659568800383 3.1051909750694762 0 0 0 0 -147.3104039446207 -7.5915226138316356 0 -7.5915226138316356 29.095645065106829 0 0 0 0 79.22919773272676 42.862479939631093 0 42.862479939631093 -46.428410247749945 0 0 0 0 -190.55813723545361 82.84736785048824 0 82.84736785048824 -48.060709878551094 0 0 0 0 -253.29615993881634 -19.555437485646827 0 -19.555437485646827 6.487227663187805 0 0 0 0 -171.14845899298325 67.507320015331388 0 67.507320015331388 -60.990488829932609 0 0 0 0 -193.62374984846792 67.69720525212287 0 67.69720525212287 -57.873590830280861 0 0 0 0 -206.17705095462406 103.94638896308408 0 103.94638896308408 -86.392276639426669 0 0 0 0 -207.31838307077271 112.12080451315337 0 112.12080451315337 -70.743277245326993 0 0 0 0 -265.35370078126516 91.41624762713974 0 91.41624762713974 -31.295795075065872 0 0 0 0 -265.30326331039214 93.867459151709227 0 93.867459151709227 -64.267453588861372 0 0 0 0 -378.52853606181816 68.864743708833103 0 68.864743708833103 40.713767223051207 0 0 0 0 -499.91394047925479 25.446773297057977 0 25.446773297057977 63.025252679205302 0 0 0 0 -364.27760377645427 42.930691863406551 0 42.930691863406551 8.4827048463307264 0 0 0 0 -2.1922877006774826 0.69429467835683489 0 0.69429467835683489 0.11232154803850436 0 0 0 0 -13.506656268547886 11.477472865300911 0 11.477472865300911 46.926950340645533 0 0 0 0 -38.459669640884385 -28.749214352576928 0 -28.749214352576928 -18.503693965973724 0 0 0 0 -22.672308626828453 -15.282702294564423 0 -15.282702294564423 -8.8989557578924376 0 0 0 0 -48.972650305653588 -19.287667249953671 0 -19.287667249953671 3.2730849660295576 0 0 0 0 -30.816707035713989 -9.1709617878760383 0 -9.1709617878760383 -1.2361406080635042 0 0 0 0 -4.7779875620653911 0.88820501424902432 0 0.88820501424902432 2.9802897562392445 0 0 0 0 -25.70624126428811 -2.3018812045440882 0 -2.3018812045440882 2.522609271341139 0 0 0 0 -0.89273663550557103 5.2787456795078924 0 5.2787456795078924 3.1125188895972542 0 0 0 0 -34.674739786071768 -10.308703316756848 0 -10.308703316756848 -27.623506190502724 0 0 0 0 -0.4098419251991956 0.67227734225160773 0 0.67227734225160773 0.95858835731031344 0 0 0 0 -6.9516693541845598 -0.49735059403928972 0 -0.49735059403928972 4.7956912066338191 0 0 0 0 -39.347746333376563 -18.917661225008516 0 -18.917661225008516 -13.714062587067303 0 0 0 0 -17.679420310789283 63.417686731275126 0 63.417686731275126 51.86225637576284 0 0 0 0 -69.300254024001333 -79.277155641092264 0 -79.277155641092264 -63.791032120940599 0 0 0 0 -0.8556694913496159 0.21993728134839152 0 0.21993728134839152 0.074583778664389144 0 0 0 0 -27.980808652961969 25.550231123454736 0 25.550231123454736 -77.107676686518062 0 0 0 0 -0.50111445434885304 0.56312547148928616 0 0.56312547148928616 0.68195079996051144 0 0 0 0 -107.62771466212689 -45.198318824112135 0 -45.198318824112135 61.580746208002665 0 0 0 0 -3.0511274499021965 -4.6445192556467845 0 -4.6445192556467845 -0.021122826402233841 0 0 0 0 -69.257063543453114 -4.2996287301766429 0 -4.2996287301766429 31.559494924683463 0 0 0 0 -46.459817424416542 -8.7448255286321341 0 -8.7448255286321341 32.270827147554797 0 0 0 0 -0.13646950366045019 -0.30044856334662029 0 -0.30044856334662029 -0.088765321963125143 0 0 0 0 -70.191313393261225 -8.6029374504615248 0 -8.6029374504615248 -3.9917275051623164 0 0 0 0 -16.593753307012776 13.539581673160157 0 13.539581673160157 -14.069314007428659 0 0 0 0 -63.666188490936065 21.8614390957231 0 21.8614390957231 33.184365809571034 0 0 0 0 -36.970220354443882 24.743392839305386 0 24.743392839305386 25.305644152712318 0 0 0 0 -49.947187600955658 9.3456495168221636 0 9.3456495168221636 10.305592295836277 0 0 0 0 -54.472082488144224 12.941645483555533 0 12.941645483555533 14.495368964288616 0 0 0 0 20.878001044232406 9.2564616727121773 0 9.2564616727121773 10.01083839278607 0 0 0 0 -2.0392492912687885 -4.9877312404493281 0 -4.9877312404493281 1.8690236780089435 0 0 0 0 -10.988367344645667 -28.127664661650726 0 -28.127664661650726 -39.432373121276839 0 0 0 0 -7.7789081463397451 -11.69998758996266 0 -11.69998758996266 4.1106225331513926 0 0 0 0 -9.0621927060701637 -7.9569829951232833 0 -7.9569829951232833 -2.0288421721266445 0 0 0 0 -6.9646775386718218 -5.5042067089547402 0 -5.5042067089547402 0.29403285500163179 0 0 0 0 -1.909055252568578 -3.2339565003378539 0 -3.2339565003378539 -3.1259103045515531 0 0 0 0 -24.146768722714114 -0.57130720824530101 0 -0.57130720824530101 4.3552936275592771 0 0 0 0 9.8320382524234446 -9.5857836225251418 0 -9.5857836225251418 0.09232137462083756 0 0 0 0 0.05935225895376206 -0.024794927274616185 0 -0.024794927274616185 -0.18473821508688193 0 0 0 0 -1.5937894849589611 -3.2131175977352484 0 -3.2131175977352484 1.1095942966180701 0 0 0 0 -3.5555798869592081 -0.21178490477112888 0 -0.21178490477112888 0.84624287206798954 0 0 0 0 -0.44675461579443265 -0.22638258977768189 0 -0.22638258977768189 -0.24139503243158078 0 0 0 0 -3.164675277121205 -3.1899995470044757 0 -3.1899995470044757 4.8390653912514097 0 0 0 0 1.3241690212744288 -5.0752751809470453 0 -5.0752751809470453 2.1817753518670031 0 0 0 0 3.2387943976646056 -0.86048637771713743 0 -0.86048637771713743 1.3029556972387013 0 0 0 0 -10.042937323463775 -1.2863548650714449 0 -1.2863548650714449 3.9137168199515884 0 0 0 0 -12.948431347995211 0.46599740249082799 0 0.46599740249082799 3.3710245375929162 0 0 0 0 -5.8526734923698314 0.51067085200663609 0 0.51067085200663609 -1.3624184917806019 0 0 0 0 -1.8162361819850048 -2.9022993196714566 0 -2.9022993196714566 -0.0075045931397710319 0 0 0 0 -5.7572338258124489 -3.1627820394448629 0 -3.1627820394448629 3.750778923467351 0 0 0 0 -9.1038770083250711 -3.0249896731180854 0 -3.0249896731180854 2.05804442976752 0 0 0 0 -8.8588192747515677 -2.5161621599803645 0 -2.5161621599803645 0.14980356659441441 0 0 0 0 -0.78088178314163059 -1.6234198335603232 0 -1.6234198335603232 1.6693646196653611 0 0 0 0 -1.5615837823847531 -0.93256398974154564 0 -0.93256398974154564 1.0758658135936141 0 0 0 0 -2.4231392757446883 -3.4082610207366031 0 -3.4082610207366031 -0.82148621558599189 0 0 0 0 -9.7813619763091992 -12.422112887835233 0 -12.422112887835233 6.0113251072446587 0 0 0 0 -4.2411196140674292 -8.9624264789706487 0 -8.9624264789706487 3.1337968036812072 0 0 0 0 -12.277004595473045 -6.1308333776953958 0 -6.1308333776953958 4.0135562929993966 0 0 0 0 -2.9645135690589441 1.156867894599122 0 1.156867894599122 -0.071733742607495321 0 0 0 0 -5.8438987832960265 11.619131357015775 0 11.619131357015775 15.290988507509873 0 0 0 0 -26.332768682594178 -7.6903992268557388 0 -7.6903992268557388 -2.9508765981262854 0 0 0 0 -6.0649394708207183 -2.5284462458569372 0 -2.5284462458569372 -5.8135987349496077 0 0 0 0 -3.8290279929284452 1.2929003307314488 0 1.2929003307314488 -0.27172558212524733 0 0 0 0 -9.009510987948488 1.5851925322702414 0 1.5851925322702414 -0.8158887338423142 0 0 0 0 -7.2064381960335595 -1.1570769801473162 0 -1.1570769801473162 7.1168386594761834 0 0 0 0 -2.8514833666031336 -4.258828882213237 0 -4.258828882213237 -7.0734722206535707 0 0 0 0 -4.4437969321461424 -17.051591195062571 0 -17.051591195062571 -29.249864342616803 0 0 0 0 -0.93465006768724379 0.057813542928048633 0 0.057813542928048633 -0.48141072573828797 0 0 0 0 0.0073750483493455476 -0.3440745803044063 0 -0.3440745803044063 -0.33389634288595954 0 0 0 0 -46.406579814572979 -0.68834291800364866 0 -0.68834291800364866 2.2329598981676924 0 0 0 0 -3.356197718807052 -1.6605568444544652 0 -1.6605568444544652 -0.32042307438593287 0 0 0 0 42.573594156877334 -78.750491342933444 0 -78.750491342933444 36.588868943475745 0 0 0 0 -7.2148604060170847 -2.3196518644480371 0 -2.3196518644480371 2.8464745203458106 0 0 0 0 -8.4128792637093284 -1.8726332722532391 0 -1.8726332722532391 -1.1464078132424333 0 0 0 0 -6.0770974147615746 -2.8299498147343982 0 -2.8299498147343982 0.40405913529343046 0 0 0 0 -13.096412479702849 -1.2877383542921734 0 -1.2877383542921734 0.13231585679520164 0 0 0 0 -3.7502988111018567 -2.2453245802995365 0 -2.2453245802995365 0.82511225352664042 0 0 0 0 -4.0092110055840458 -2.3200939466370354 0 -2.3200939466370354 0.99508582190273964 0 0 0 0 -8.2883898565169147 -2.3181722358788477 0 -2.3181722358788477 -0.6954161463793298 0 0 0 0 -7.1248832287183177 -1.3309959595054508 0 -1.3309959595054508 -0.12504425104732775 0 0 0 0 -5.0924581335008838 -1.8708407264902753 0 -1.8708407264902753 0.037151487578814285 0 0 0 0 -4.3940711598424969 -2.7782010480996746 0 -2.7782010480996746 0.70940380502543121 0 0 0 0 -2.8401160007388171 -3.902647649732689 0 -3.902647649732689 1.3021356334331244 0 0 0 0 -1.9422076253501857 -1.8881782051923324 0 -1.8881782051923324 1.2206319643932038 0 0 0 0 -6.2973046810056985 -6.4676608596163305 0 -6.4676608596163305 -2.8695322291179304 0 0 0 0 -4.6120707661193592 -1.9284450788909453 0 -1.9284450788909453 0.66330708356656487 0 0 0 0 -5.407489410659764 -1.4958129098343989 0 -1.4958129098343989 -2.2970730222650673 0 0 0 0 -1.8108512026174939 -1.6353525461937011 0 -1.6353525461937011 -0.81456564585532076 0 0 0 0 -4.1354828343210102 -2.3883624840962625 0 -2.3883624840962625 -2.8143046791349207 0 0 0 0 -5.3783172598559759 -1.6463811179870049 0 -1.6463811179870049 -2.8933761194341674 0 0 0 0 -0.845346654198881 -0.11101910426656403 0 -0.11101910426656403 0.070116860691318561 0 0 0 0 -9.2167524854830845 0.84793163555872297 0 0.84793163555872297 2.5819475693608638 0 0 0 0 -2.3246148724252098 -3.6827711577203921 0 -3.6827711577203921 1.9188299349260658 0 0 0 0 -11.234088791427894 3.3410932621238203 0 3.3410932621238203 1.6245688466392494 0 0 0 0 -3.2896156912100878 0.58304459974189449 0 0.58304459974189449 -0.025370638507745902 0 0 0 0 -4.236849864541 -5.5372799851615468 0 -5.5372799851615468 1.80886767612526 0 0 0 0 -2.3233288561841619 -6.485062320469126 0 -6.485062320469126 -0.43459810805367738 0 0 0 0 -2.2664841875012183 -3.735282013565687 0 -3.735282013565687 1.8213517398363752 0 0 0 0 -16.86344675788132 1.1291448007629015 0 1.1291448007629015 3.8032116267461333 0 0 0 0 -10.654846891723992 -4.7950334780749699 0 -4.7950334780749699 5.7764652037928954 0 0 0 0 -12.369988587456646 -2.8807699156756144 0 -2.8807699156756144 2.070323014916994 0 0 0 0 -7.9883308991211379 0.32863266577874128 0 0.32863266577874128 -0.88817001614040691 0 0 0 0 -8.1945976202123347 0.53522298425821191 0 0.53522298425821191 2.7968581914442439 0 0 0 0 -8.0291103430372459 0.55418025360658874 0 0.55418025360658874 3.2186792641609827 0 0 0 0 -38.095836623392898 -19.775078441129722 0 -19.775078441129722 13.085801361620156 0 0 0 0 -38.641977384573508 14.467123650147901 0 14.467123650147901 28.124799405067051 0 0 0 0 -5.6275786618734855 -7.3891472204506385 0 -7.3891472204506385 -0.51775617414091357 0 0 0 0 -10.637021501484014 -5.9781024640782761 0 -5.9781024640782761 11.101635328099292 0 0 0 0 -9.9463197044624394 -7.1121038179397829 0 -7.1121038179397829 2.7578743071581187 0 0 0 0 -4.3800153081247117 -3.4468874273253505 0 -3.4468874273253505 10.742915370443768 0 0 0 0 1.9167506373198648 30.688505794238253 0 30.688505794238253 24.628963130877082 0 0 0 0 -0.40791285761462248 0.038798260189444989 0 0.038798260189444989 0.51315822152214086 0 0 0 0 -54.233961980673485 -12.488920392175061 0 -12.488920392175061 9.3052025575207153 0 0 0 0 -57.418617925808576 -26.083317089719003 0 -26.083317089719003 -11.892618753698954 0 0 0 0 -15.898978455310498 -7.2283095529068078 0 -7.2283095529068078 -2.3221875705943944 0 0 0 0 -29.423093097466335 -20.632730205932432 0 -20.632730205932432 -8.52518362923702 0 0 0 0 -31.894556049980338 -7.5675849629035916 0 -7.5675849629035916 3.553015057841435 0 0 0 0 -32.276354819392509 -4.1760261767444717 0 -4.1760261767444717 12.423843765688645 0 0 0 0 -21.3444645887256 0.88402383487099456 0 0.88402383487099456 -0.53348352148259437 0 0 0 0 -25.04423898505047 -15.334505476489717 0 -15.334505476489717 -4.6761627322583479 0 0 0 0 -26.386252623395194 -19.937718060588395 0 -19.937718060588395 -17.907199462366318 0 0 0 0 -21.209567713220167 -2.9627031996742232 0 -2.9627031996742232 -21.208147976956582 0 0 0 0 -27.736917395177443 -11.637989014991831 0 -11.637989014991831 -9.1004747799716768 0 0 0 0 -26.412013019502638 -7.3885428380833442 0 -7.3885428380833442 -1.2309406403644232 0 0 0 0 -30.403465281717217 -16.243476226692412 0 -16.243476226692412 -4.7149478636220437 0 0 0 0 -34.159684821937844 -11.03567628018677 0 -11.03567628018677 -0.54380020464702739 0 0 0 0 -26.043667981371982 3.6183701662669705 0 3.6183701662669705 0.75066170781467001 0 0 0 0 -3.9290627322397995 0.93807362649145176 0 0.93807362649145176 -4.4091732086454272 0 0 0 0 -0.34972483354063932 0.42646763044601244 0 0.42646763044601244 1.6607593891822432 0 0 0 0 -0.20587973194411546 0.12080035588997973 0 0.12080035588997973 2.5581971643844499 0 0 0 0 -3.5249522336107475 -6.9156460573661462 0 -6.9156460573661462 4.7840538579406484 0 0 0 0 -25.537101852034539 -8.8473256110927139 0 -8.8473256110927139 0.62765771021338423 0 0 0 0 -13.59419172012349 -5.3528169507554253 0 -5.3528169507554253 1.1891975141309992 0 0 0 0 -0.49483584807785519 -4.4849760436888744 0 -4.4849760436888744 -4.2477684560577131 0 0 0 0 -18.932181420973393 12.706275330135369 0 12.706275330135369 -5.5352638581589417 0 0 0 0 -1.5950708096318351 0.53574226565983807 0 0.53574226565983807 -0.11873691831515509 0 0 0 0 -10.464747686110059 -10.821869813968078 0 -10.821869813968078 21.128159898976094 0 0 0 0 -1.1514661576848084 10.613340441360723 0 10.613340441360723 27.593027150281557 0 0 0 0 -24.850716502884097 -14.678605518144963 0 -14.678605518144963 -11.59151610971989 0 0 0 0 0.3805301217998931 0.90739551755248726 0 0.90739551755248726 1.0547661952278133 0 0 0 0 -1.9187094062446803 1.1109698321518806 0 1.1109698321518806 0.77201287532763163 0 0 0 0 -9.2768242439196911 -3.6461215417216692 0 -3.6461215417216692 -0.52818632339096894 0 0 0 0 -7.3354564598780598 2.1026405262527987 0 2.1026405262527987 10.22943328244304 0 0 0 0 -0.55917858357380368 -0.10006434413091725 0 -0.10006434413091725 3.5735147003844094 0 0 0 0 -29.977357037118054 -13.381602615298533 0 -13.381602615298533 -1.4949503127708468 0 0 0 0 -16.628184016078194 -15.94656299217295 0 -15.94656299217295 -12.481209548420054 0 0 0 0 -50.895666674665335 -10.064423103133642 0 -10.064423103133642 4.2377331056581795 0 0 0 0 -39.637858299506661 -23.943383248714547 0 -23.943383248714547 -10.666046633498468 0 0 0 0 -0.69540041060606939 0.20926398839471005 0 0.20926398839471005 -0.010778128079899751 0 0 0 0 -96.207716192820953 -58.471283472203623 0 -58.471283472203623 -34.761146619510626 0 0 0 0 -24.576136014286021 -14.879740269153018 0 -14.879740269153018 -13.812205810908587 0 0 0 0 -50.025253455443817 -39.431803351337265 0 -39.431803351337265 -32.278596380185206 0 0 0 0 -126.68280061838959 -1.0912050113983014 0 -1.0912050113983014 -8.8503216704456236 0 0 0 0 -83.983456516763908 -11.680878671328131 0 -11.680878671328131 0.68313622023811149 0 0 0 0 -64.757992212363206 1.3782682592749183 0 1.3782682592749183 -12.637489086053961 0 0 0 0 -59.199646989101097 3.7347237431115774 0 3.7347237431115774 2.6502832272491332 0 0 0 0 -58.085641331887018 -15.256631826744766 0 -15.256631826744766 0.80778958781213817 0 0 0 0 -46.872588946102042 -1.5717399465308972 0 -1.5717399465308972 4.9204708277449072 0 0 0 0 -42.013712899237817 10.135922135625034 0 10.135922135625034 2.5080979421632037 0 0 0 0 -43.492116165049083 3.6535723021614785 0 3.6535723021614785 -0.73359147159865756 0 0 0 0 -25.061953582680871 6.245916785826914 0 6.245916785826914 -0.50182994304083195 0 0 0 0 -34.517003692515573 14.434091558779286 0 14.434091558779286 -5.4700834053901985 0 0 0 0 -36.546581517230152 3.5969399850879427 0 3.5969399850879427 -7.0778741183871716 0 0 0 0 -25.912549888897047 7.4079516011595103 0 7.4079516011595103 -12.172606588710323 0 0 0 0 -57.572763460386341 14.251807306066283 0 14.251807306066283 -6.4885071906706457 0 0 0 0 -61.765954303480612 -3.4462461914953622 0 -3.4462461914953622 -5.1396837598289835 0 0 0 0 -39.493660642064242 10.8041625247062 0 10.8041625247062 -24.537474663848684 0 0 0 0 -58.920897547770437 -3.9444995023727927 0 -3.9444995023727927 -9.5953286241125397 0 0 0 0 -46.95914474435267 -7.5081362260193032 0 -7.5081362260193032 -20.000046475684115 0 0 0 0 -47.159391677196254 -2.170368125236763 0 -2.170368125236763 -15.818155565552786 0 0 0 0 -23.492978926853539 3.2683295542626354 0 3.2683295542626354 -7.2877625248036111 0 0 0 0 -34.008128011540975 -3.1313971205991038 0 -3.1313971205991038 -6.8451552743366051 0 0 0 0 -37.334074782362222 2.2834862132207263 0 2.2834862132207263 -11.960435679088164 0 0 0 0 -45.236929830505687 -8.0108661332749307 0 -8.0108661332749307 -7.4284923062343751 0 0 0 0 -35.305169749909965 -2.6728684170181509 0 -2.6728684170181509 -6.499198118863319 0 0 0 0 -34.71149082787133 -4.8895909602410725 0 -4.8895909602410725 -0.75606955431442202 0 0 0 0 -25.820066088428575 -4.78335596695905 0 -4.78335596695905 -4.2961821276606997 0 0 0 0 -43.349383465549181 -11.266752622201125 0 -11.266752622201125 -3.3612551937000035 0 0 0 0 -37.154959400111693 -4.2096709020133005 0 -4.2096709020133005 2.7962820918279476 0 0 0 0 -65.769895587975952 -6.4142490179504676 0 -6.4142490179504676 10.794694257680703 0 0 0 0 -57.05748721812779 -16.567607126660562 0 -16.567607126660562 -8.3317850774376723 0 0 0 0 -48.078173704050641 -6.7036663175359053 0 -6.7036663175359053 2.4943143968303048 0 0 0 0 -58.866085598259815 -5.5566716262846967 0 -5.5566716262846967 8.4425380071226925 0 0 0 0 -33.35734219546066 9.135715058427877 0 9.135715058427877 6.3103500824634011 0 0 0 0 -58.644083255952864 -0.035618762918602442 0 -0.035618762918602442 15.860947335555693 0 0 0 0 -25.918213069902777 -8.0303955374904348 0 -8.0303955374904348 4.7084758975315708 0 0 0 0 -41.627270316901559 -8.6371782968763 0 -8.6371782968763 13.124886561705466 0 0 0 0 -0.097955015606531859 0.15412548042344554 0 0.15412548042344554 -0.1989221597103481 0 0 0 0 -75.301852262866305 6.0735619323126286 0 6.0735619323126286 15.977328863040611 0 0 0 0 2.377925379691078 27.817772248511787 0 27.817772248511787 -15.399906627370342 0 0 0 0 -25.719962078763274 2.8576408649665836 0 2.8576408649665836 0.96163137105077112 0 0 0 0 -46.106475832384604 -13.481362928558212 0 -13.481362928558212 9.733071749017931 0 0 0 0 -57.676580913175712 -9.8985826845440101 0 -9.8985826845440101 13.043320390814642 0 0 0 0 -55.518429915460729 14.981837039116272 0 14.981837039116272 0.43500665950409712 0 0 0 0 -19.385913844289462 52.907659419118076 0 52.907659419118076 13.940623504161067 0 0 0 0 -50.524457873632855 32.778807825418568 0 32.778807825418568 -11.618102836249761 0 0 0 0 34.748385311595484 4.8687317384501512 0 4.8687317384501512 -22.214308453967078 0 0 0 0 -58.797303947323428 1.4044664322046034 0 1.4044664322046034 -59.124049611313808 0 0 0 0 -81.881040196558388 -23.046765735486275 0 -23.046765735486275 -2.8816411243105335 0 0 0 0 -91.529027189575572 8.7279119933288598 0 8.7279119933288598 15.090598396365692 0 0 0 0 -47.280107869770291 59.425479728402109 0 59.425479728402109 12.541547294875841 0 0 0 0 -1.3462580432317264 1.4436691617282662 0 1.4436691617282662 1.1095973208058225 0 0 0 0 1.069811030785786 3.0756476704185332 0 3.0756476704185332 1.808145295338818 0 0 0 0 -0.18281508712992434 0.38459045836359351 0 0.38459045836359351 0.0047722508034806488 0 0 0 0 -31.420857978080676 -9.3403811177697094 0 -9.3403811177697094 2.7995283244769098 0 0 0 0 -24.872063855345914 -10.174310499073727 0 -10.174310499073727 -0.069794392775762049 0 0 0 0 -42.584590139253123 -7.9486059303503964 0 -7.9486059303503964 2.7364594531399078 0 0 0 0 -27.57578654030749 2.1119878745204019 0 2.1119878745204019 -2.0558997130499961 0 0 0 0 0.32865934873469715 0.6591506647530565 0 0.6591506647530565 0.60808984803092181 0 0 0 0 -47.908215699357243 -10.045072943196629 0 -10.045072943196629 4.0825748864845863 0 0 0 0 -5.5949142608224065 3.3260011150152593 0 3.3260011150152593 5.2776868722368562 0 0 0 0 -6.3915191553733166 2.7476893365972614 0 2.7476893365972614 1.7041875218735072 0 0 0 0 5.4647583550226955 11.446969341395008 0 11.446969341395008 -1.3235333013614365 0 0 0 0 -19.688289493735283 13.153800947822546 0 13.153800947822546 -0.074593348041659624 0 0 0 0 -7.6871801247943949 8.148721473954204 0 8.148721473954204 -0.91926018015897171 0 0 0 0 -13.216492198167543 4.3482765522697946 0 4.3482765522697946 -2.8893439032682551 0 0 0 0 -5.4284997345948796 7.1175455478882839 0 7.1175455478882839 -5.9121531227506807 0 0 0 0 -14.059960362717902 9.443889084400837 0 9.443889084400837 -1.8816021251745951 0 0 0 0 -25.795101549120773 5.9972906142158831 0 5.9972906142158831 -0.074279937575738586 0 0 0 0 -20.698027180782447 -1.749930252711664 0 -1.749930252711664 -0.83576311275953685 0 0 0 0 -5.9061921585234813 2.2032431242766108 0 2.2032431242766108 -4.4888977564582433 0 0 0 0 -25.15982016332282 -1.1588828539097804 0 -1.1588828539097804 5.595297742820037 0 0 0 0 -18.369469893161295 -5.2767004164363982 0 -5.2767004164363982 0.52597391767613999 0 0 0 0 7.4424681878463161 -2.2946013116177539 0 -2.2946013116177539 2.7955034637290197 0 0 0 0 -13.955185208258627 4.6677263367897126 0 4.6677263367897126 11.377943716058155 0 0 0 0 -5.4512795875929214 5.4850459347074736 0 5.4850459347074736 7.6923537700930069 0 0 0 0 20.113322511241677 7.104966126370428 0 7.104966126370428 -3.5128412015609172 0 0 0 0 -0.21057295341867288 0.29931070183332054 0 0.29931070183332054 0.34094558052703117 0 0 0 0 34.557624684602615 17.943644996931987 0 17.943644996931987 0.24297048237491481 0 0 0 0 -0.04634871454719125 0.113913722267732 0 0.113913722267732 0.11883843922631576 0 0 0 0 -53.50220173894013 -11.741990451686377 0 -11.741990451686377 6.3141670227605289 0 0 0 0 -24.382984503525222 2.9956940382544559 0 2.9956940382544559 -4.5389961047284828 0 0 0 0 -0.57631322972217536 1.723629410063694 0 1.723629410063694 1.0040798339138655 0 0 0 0 4.3146125916437086 0.60526556166911405 0 0.60526556166911405 0.78467582295648697 0 0 0 0 -8.3911499861278571 4.9314247655412089 0 4.9314247655412089 2.6611863909690641 0 0 0 0 -20.499325330767988 6.9008547293687812 0 6.9008547293687812 2.7891209827838566 0 0 0 0 -0.69736826756897052 1.7261726203306189 0 1.7261726203306189 0.98634891176972772 0 0 0 0 -13.044151403237265 11.663737401616629 0 11.663737401616629 18.350084394737337 0 0 0 0 -10.091555708474516 7.1800696240046733 0 7.1800696240046733 3.2699613957216513 0 0 0 0 -23.660851640459441 1.5586039509144882 0 1.5586039509144882 6.9673860009334874 0 0 0 0 -6.6305010483538354 1.4558887143584514 0 1.4558887143584514 2.053375405693032 0 0 0 0 -16.230789049213854 -7.0474850091223828 0 -7.0474850091223828 6.9897746613160621 0 0 0 0 -21.736523226407371 -2.7614575765693417 0 -2.7614575765693417 5.1242736232878769 0 0 0 0 -30.471691635415482 -3.1233296505333783 0 -3.1233296505333783 5.5100384142790517 0 0 0 0 -25.837755239837861 -9.4957199356938276 0 -9.4957199356938276 1.4034472472003472 0 0 0 0 -26.642385118517268 -8.1152725206766547 0 -8.1152725206766547 -0.3477681893098179 0 0 0 0 -32.696892735264555 -9.554768123475128 0 -9.554768123475128 4.6918468352903062 0 0 0 0 -26.624373649046902 -9.6261515019110959 0 -9.6261515019110959 4.0134263328133528 0 0 0 0 -32.895720623111629 -16.084060747872712 0 -16.084060747872712 3.6667515026261128 0 0 0 0 -49.137641532708585 -23.676910968381407 0 -23.676910968381407 1.7636024645603356 0 0 0 0 -10.771128890681211 -24.567043356011794 0 -24.567043356011794 -6.305384812955996 0 0 0 0 -30.641123481746035 -33.236667674094633 0 -33.236667674094633 -5.9280367612611826 0 0 0 0 -36.222778711215142 3.3524752424985707 0 3.3524752424985707 6.7462651909598321 0 0 0 0 -101.76558636405207 20.984925577544033 0 20.984925577544033 2.2109459154295763 0 0 0 0 -44.960304767636671 2.0691911990689693 0 2.0691911990689693 9.0595894964456534 0 0 0 0 -19.741909596425103 -0.26709984307072432 0 -0.26709984307072432 2.8668647981058655 0 0 0 0 1.1428626032866305 11.734877120996231 0 11.734877120996231 -4.1180013121019954 0 0 0 0 -22.745121962461099 11.564707759939811 0 11.564707759939811 2.3870908773263295 0 0 0 0 -30.159725543902368 27.4185243500559 0 27.4185243500559 -1.3720827283248127 0 0 0 0 -2.2176549655300732 6.5108178261704168 0 6.5108178261704168 -2.8591670607540323 0 0 0 0 1.4373707707509311 2.0350162316223219 0 2.0350162316223219 1.4042081723630986 0 0 0 0 -53.783893365369295 1.9183354048357728 0 1.9183354048357728 -7.1290504282921177 0 0 0 0 -54.584074113838142 1.1598405763013488 0 1.1598405763013488 3.0647863805828592 0 0 0 0 -56.07218909482981 -5.0970974513077749 0 -5.0970974513077749 -8.7860341429298359 0 0 0 0 -0.15173287902081434 -0.16261101036432279 0 -0.16261101036432279 -0.16394611318066876 0 0 0 0 9.1845740680164454 -11.321011199865495 0 -11.321011199865495 -2.3083118314767717 0 0 0 0 -111.52425020064493 38.014984530290363 0 38.014984530290363 28.788408678446444 0 0 0 0 -0.21373116886596577 0.32974469855249566 0 0.32974469855249566 -0.45694592985706262 0 0 0 0 -75.307882739029083 -21.613048778258758 0 -21.613048778258758 -32.446392372130958 0 0 0 0 -14.308679315501649 -21.35966567314729 0 -21.35966567314729 0.0017171332652878846 0 0 0 0 -20.915571842920599 -23.622191497622666 0 -23.622191497622666 -0.70007132200396427 0 0 0 0 -74.706827146161231 -13.973946381869155 0 -13.973946381869155 9.8895898494688055 0 0 0 0 -58.926194922677496 1.7611078088837147 0 1.7611078088837147 5.765319994914762 0 0 0 0 -55.745331349298795 -3.2575451996561924 0 -3.2575451996561924 12.546609292133212 0 0 0 0 -56.656635590648875 1.679612361753577 0 1.679612361753577 7.9054262704532903 0 0 0 0 -56.019833635578834 -1.6575852882805293 0 -1.6575852882805293 11.261842778296057 0 0 0 0 -56.042409758228132 -2.6046612756775858 0 -2.6046612756775858 6.4185501893263108 0 0 0 0 -49.372900669433875 -8.9561397136531582 0 -8.9561397136531582 3.7259106586598705 0 0 0 0 -45.649896245444324 -1.7583606885312975 0 -1.7583606885312975 -2.1635647163976728 0 0 0 0 -52.790935869776149 0.8016173437709142 0 0.8016173437709142 3.0847858983756851 0 0 0 0 -50.820798750697577 -2.4423677228422775 0 -2.4423677228422775 5.8458447914422038 0 0 0 0 -34.073416842817096 -8.6425993823149838 0 -8.6425993823149838 1.1441714710724966 0 0 0 0 -43.626217561546582 -4.0087686803309737 0 -4.0087686803309737 3.1927486146449269 0 0 0 0 -40.963775205862476 -7.8628429862748703 0 -7.8628429862748703 3.4047624010289006 0 0 0 0 -37.955054851732712 -4.0115543178962696 0 -4.0115543178962696 -5.7946482536403323 0 0 0 0 -33.128521590480887 -7.2353688392576601 0 -7.2353688392576601 -3.6458787959827532 0 0 0 0 -39.437214292087447 -4.5374449412773288 0 -4.5374449412773288 -1.3568343691507891 0 0 0 0 -44.609524375700857 2.8117753845659195 0 2.8117753845659195 -7.3807302851317331 0 0 0 0 -29.564314639288568 3.5209924575519764 0 3.5209924575519764 -17.869311778618453 0 0 0 0 -56.220824855648971 4.3782071779155274 0 4.3782071779155274 -6.8501197989044726 0 0 0 0 -33.35939024568961 -4.4846948853737985 0 -4.4846948853737985 -13.754628156888089 0 0 0 0 -10.546807500610157 -11.446594942055867 0 -11.446594942055867 -15.689285248469005 0 0 0 0 -45.953663243479241 0.64197656076669318 0 0.64197656076669318 -12.157259610606445 0 0 0 0 -24.284875208486483 -11.662857030053516 0 -11.662857030053516 -9.1455597485196876 0 0 0 0 -28.919516732481497 -16.125209551009846 0 -16.125209551009846 -10.054068821374187 0 0 0 0 -14.53697351491428 -19.173826859720066 0 -19.173826859720066 -10.129267716834523 0 0 0 0 -4.7022252476526774 -21.7160881874143 0 -21.7160881874143 -8.0483323878848978 0 0 0 0 -20.086109193191078 -15.093889499814097 0 -15.093889499814097 -9.0789982794273669 0 0 0 0 -0.5529452540922648 -21.86567834316007 0 -21.86567834316007 -4.8184631204221233 0 0 0 0 -17.458791154613209 -17.492198841703598 0 -17.492198841703598 37.314042213754277 0 0 0 0 -24.701534722749784 9.3364950647929561 0 9.3364950647929561 -14.963621936282379 0 0 0 0 4.634518720133201 15.65383593212907 0 15.65383593212907 -35.343443132819736 0 0 0 0 -56.06328576112719 38.919934812331121 0 38.919934812331121 -17.132021803326779 0 0 0 0 -0.11308095910612259 0.11349009834015078 0 0.11349009834015078 -0.2748608113035671 0 0 0 0 -106.21149453308635 6.9243599429453226 0 6.9243599429453226 4.4788033259132476 0 0 0 0 -0.50527536812393592 -0.70652571328992408 0 -0.70652571328992408 -0.70118729914008204 0 0 0 0 -48.506023755620845 -23.331998588140806 0 -23.331998588140806 -27.685544684368267 0 0 0 0 -71.584439045333966 20.295219746459239 0 20.295219746459239 13.230729175504166 0 0 0 0 -5.427016031876974 28.805677238230295 0 28.805677238230295 -13.019625305444492 0 0 0 0 -85.878812144765106 24.022834848627099 0 24.022834848627099 5.1701930484787795 0 0 0 0 -69.462463389249024 28.831198626013958 0 28.831198626013958 6.5781974450618463 0 0 0 0 -67.397470994982541 15.557099828993891 0 15.557099828993891 4.2654448422608766 0 0 0 0 -94.096988071298256 8.9620639819799237 0 8.9620639819799237 2.6621789239630544 0 0 0 0 -70.592435948758066 8.3796540081260673 0 8.3796540081260673 -11.250564194250046 0 0 0 0 -91.730958397208269 -0.020100361357648922 0 -0.020100361357648922 17.37309029788355 0 0 0 0 -99.349316980521508 -7.8449818890897092 0 -7.8449818890897092 6.7212147881968178 0 0 0 0 -38.79958615380383 -7.8506785619661628 0 -7.8506785619661628 3.2366943707412332 0 0 0 0 -18.391889730457478 -17.777634508039824 0 -17.777634508039824 -8.217255852172741 0 0 0 0 11.747617611466922 -8.4675595031307864 0 -8.4675595031307864 -14.593247112400718 0 0 0 0 1.1061780790769262 -15.335777441947599 0 -15.335777441947599 -11.07098503395909 0 0 0 0 -37.186180398090073 -5.8482833264143892 0 -5.8482833264143892 -0.08674376075950363 0 0 0 0 -33.623676296938356 -26.252080401178048 0 -26.252080401178048 -10.685247683842135 0 0 0 0 -59.860907739057438 46.473106889097544 0 46.473106889097544 23.668621992554094 0 0 0 0 -0.78195316377281898 0.031518223582313709 0 0.031518223582313709 0.019277308605152289 0 0 0 0 -1.6639616398623644 -0.067178900964504851 0 -0.067178900964504851 0.074985000457074222 0 0 0 0 -22.245037647790014 -6.0759867927375808 0 -6.0759867927375808 49.464043709301308 0 0 0 0 8.6181574185247882 -24.962721817240151 0 -24.962721817240151 37.964682444534695 0 0 0 0 0.35433418337561307 -1.0293299225678538 0 -1.0293299225678538 15.077227212135284 0 0 0 0 50.232479447560763 -20.309523031741307 0 -20.309523031741307 -45.283263438471948 0 0 0 0 -72.894985271048427 -17.130235616575245 0 -17.130235616575245 -45.914956732770165 0 0 0 0 -0.39306964188743621 -0.23915619848036229 0 -0.23915619848036229 -0.16938431701950502 0 0 0 0 15.529361462234419 17.727395283827839 0 17.727395283827839 -33.763119757196222 0 0 0 0 6.6554316969668434 2.1164006078901707 0 2.1164006078901707 -0.56607819525555669 0 0 0 0 9.0241927462375315 -9.0563999272507516 0 -9.0563999272507516 -3.7623890831086193 0 0 0 0 4.3403748101172823 -8.0053396420372849 0 -8.0053396420372849 -0.63722496453064537 0 0 0 0 -0.73263350846351472 -0.60138363921512195 0 -0.60138363921512195 -0.4797084962873035 0 0 0 0 5.0323775724591542 -19.865865620029069 0 -19.865865620029069 -2.2127222934167889 0 0 0 0 -41.536249736625905 61.222159841525809 0 61.222159841525809 -24.816496992133445 0 0 0 0 -11.887965476282261 67.607037836650647 0 67.607037836650647 1.9581660378312087 0 0 0 0 -17.748918348135703 41.896979872698473 0 41.896979872698473 -9.9126703086269004 0 0 0 0 -0.34775922329757947 0.19466424342652111 0 0.19466424342652111 -0.052699212756370906 0 0 0 0 -37.953381500193245 -8.4336107687998716 0 -8.4336107687998716 -18.229777388174057 0 0 0 0 -38.913734695892344 38.903910092405603 0 38.903910092405603 -10.578107649357914 0 0 0 0 -26.175211084100738 -7.0906957071083987 0 -7.0906957071083987 12.406206544212939 0 0 0 0 6.725779269792838 2.1666906233603953 0 2.1666906233603953 -2.3613025965733527 0 0 0 0 -56.827209455172124 1.5972603596624566 0 1.5972603596624566 10.022378668564954 0 0 0 0 -24.941130487450209 -1.6353610782658592 0 -1.6353610782658592 -0.30484568245559629 0 0 0 0 -63.200374755429493 2.2537215473550312 0 2.2537215473550312 4.5984235466478083 0 0 0 0 -30.047090305786696 1.4352273143564815 0 1.4352273143564815 -1.985830567558196 0 0 0 0 -16.189177679607383 -3.864963481893767 0 -3.864963481893767 -2.504219669603728 0 0 0 0 -29.50396558517923 -7.1849297728094061 0 -7.1849297728094061 0.8279520204212929 0 0 0 0 10.30000542200105 3.0593309699934466 0 3.0593309699934466 -0.50750137913594529 0 0 0 0 11.401679629409045 -1.3923497204570587 0 -1.3923497204570587 -24.251094190089077 0 0 0 0 -18.223999589281448 -5.2847813633748473 0 -5.2847813633748473 -0.92373494503028453 0 0 0 0 -8.9724577470205986 -24.407559976946619 0 -24.407559976946619 0.75067728960928193 0 0 0 0 -88.051062260961771 -18.024857102969207 0 -18.024857102969207 -18.005127181231046 0 0 0 0 4.8577570728903083 16.022345675450044 0 16.022345675450044 -8.9746079898393702 0 0 0 0 -23.886061405821238 20.118673432951923 0 20.118673432951923 -62.814396636381559 0 0 0 0 -65.052599703105443 -49.219443991025472 0 -49.219443991025472 -12.719612541040249 0 0 0 0 -0.87811936285055481 0.030664277340562984 0 0.030664277340562984 0.02389250475297669 0 0 0 0 -99.93253964890755 55.575400901840965 0 55.575400901840965 32.733015273847052 0 0 0 0 -76.556313953330118 38.253923525531278 0 38.253923525531278 7.3031940575444025 0 0 0 0 -95.868329004570114 25.450016022954415 0 25.450016022954415 17.982332047388901 0 0 0 0 -107.59346515137622 2.9300156392809775 0 2.9300156392809775 5.1723089506006801 0 0 0 0 5.4837647275162453 -6.4536283835695514 0 -6.4536283835695514 -1.926084703267982 0 0 0 0 -17.384136591070273 -16.651999332301525 0 -16.651999332301525 -6.5411569827300156 0 0 0 0 -0.93690399892103926 0.13364681980622706 0 0.13364681980622706 -0.036049270811684971 0 0 0 0 -39.546375546093259 -54.229077662877508 0 -54.229077662877508 -61.378936962214354 0 0 0 0 -64.566069791917471 44.127216136866764 0 44.127216136866764 28.754901702025116 0 0 0 0 -2.4654559039784303 0.20250065323683586 0 0.20250065323683586 0.0028162099626560314 0 0 0 0 -17.216298306157114 -16.665614927486857 0 -16.665614927486857 -8.7963279560497263 0 0 0 0 -13.104134161312231 -11.707658158944984 0 -11.707658158944984 -3.2137519120768019 0 0 0 0 -9.9003261473444581 1.3634209010309775 0 1.3634209010309775 2.4066993357123323 0 0 0 0 -3.5834985558631161 -4.2219968074178844 0 -4.2219968074178844 25.070074218651179 0 0 0 0 -41.418844461413755 12.374974574427345 0 12.374974574427345 3.1286160941129637 0 0 0 0 -52.073038454151174 -13.243431852881072 0 -13.243431852881072 0.94770026863905077 0 0 0 0 -22.295845292283957 -11.579558355120485 0 -11.579558355120485 0.99970626978036847 0 0 0 0 -28.695554337751673 -4.8744804086249047 0 -4.8744804086249047 1.2372034573597261 0 0 0 0 -23.041839208952297 -20.397607278509152 0 -20.397607278509152 1.2972318999903116 0 0 0 0 -26.581449494273329 -15.238333411821158 0 -15.238333411821158 -0.48907359571108522 0 0 0 0 -27.520726262556309 -20.863443692061189 0 -20.863443692061189 -14.977192472751499 0 0 0 0 -21.652668149443343 -10.288857887803157 0 -10.288857887803157 2.62816194975803 0 0 0 0 -0.66979574953002441 0.25330500252268706 0 0.25330500252268706 0.015504230742688929 0 0 0 0 -19.50005466687071 -20.766729920403382 0 -20.766729920403382 -3.6195897771285548 0 0 0 0 -24.845073127164369 6.5491230813632724 0 6.5491230813632724 36.784348873372835 0 0 0 0 -0.7703387161653481 0.34905270085570095 0 0.34905270085570095 -0.03050614519448358 0 0 0 0 -14.994370866909776 2.1283193631168484 0 2.1283193631168484 7.532027736042334 0 0 0 0 -1.4541933671116567 1.8383622728577931 0 1.8383622728577931 -0.31542339295584298 0 0 0 0 -6.2896613472839817 -3.4843645293460419 0 -3.4843645293460419 2.6236036827174161 0 0 0 0 -4.5614613696452579 0.72399271440322677 0 0.72399271440322677 3.6756955148502315 0 0 0 0 1.4825144138576434 0.057399099047480563 0 0.057399099047480563 -0.012208671751180109 0 0 0 0 -0.77763243860113107 7.5372657050453373 0 7.5372657050453373 10.686994605873828 0 0 0 0 -4.8107663097634941 -1.090771397829249 0 -1.090771397829249 6.1018336681332146 0 0 0 0 7.6893487144498067 12.217447404643195 0 12.217447404643195 7.1798905890751596 0 0 0 0 -0.29451627159386362 0.078566372280588936 0 0.078566372280588936 0.015640501781259874 0 0 0 0 -18.444081311770788 8.363514912883371 0 8.363514912883371 7.4859189114189624 0 0 0 0 -50.416131435682473 -8.3457039372067676 0 -8.3457039372067676 0.022061099946510915 0 0 0 0 -61.42931622548349 -1.378493323494034 0 -1.378493323494034 -1.1603119806900102 0 0 0 0 -67.586367167446951 -28.943336884412048 0 -28.943336884412048 -15.79058267561541 0 0 0 0 -25.248163419149932 11.869317706251524 0 11.869317706251524 2.1911969669454416 0 0 0 0 -9.8345621134849353 -10.045035443592109 0 -10.045035443592109 -12.488750081690881 0 0 0 0 -0.38275264458542324 -0.21540161763531174 0 -0.21540161763531174 -0.13946482578783953 0 0 0 0 -48.028250921059225 15.916060695525474 0 15.916060695525474 3.4612102093186365 0 0 0 0 -3.6458593304851092 8.3049578764018364 0 8.3049578764018364 -3.7427177638500595 0 0 0 0 -0.7677729907959332 -0.57601467379503291 0 -0.57601467379503291 -0.40993039245229435 0 0 0 0 -35.178286625659894 15.308991913473005 0 15.308991913473005 1.1600200478027656 0 0 0 0 -33.388373887721173 -1.5612557996187739 0 -1.5612557996187739 5.750768906715539 0 0 0 0 -84.765678066231885 -4.11944844015329 0 -4.11944844015329 6.3279299513780671 0 0 0 0 -15.05585977490955 1.5105133951650345 0 1.5105133951650345 1.4893652830425665 0 0 0 0 -27.976588635719651 6.0476713287925126 0 6.0476713287925126 -4.8087931773615384 0 0 0 0 -27.911668400751012 3.0942772035715826 0 3.0942772035715826 5.1166413779345774 0 0 0 0 -13.899295969971718 3.4524552361193983 0 3.4524552361193983 0.0090712421870986285 0 0 0 0 -20.117681026940772 -3.002360963981638 0 -3.002360963981638 0.34863503122657979 0 0 0 0 -26.729056171637239 3.6294838906179439 0 3.6294838906179439 -0.011003268737287039 0 0 0 0 -33.877104514771418 0.71599433170837523 0 0.71599433170837523 1.2785363132686429 0 0 0 0 -59.887796189976143 -14.941227375301983 0 -14.941227375301983 -5.5359356607559453 0 0 0 0 -60.456435132044135 0.28779546660017874 0 0.28779546660017874 0.0082121100475422183 0 0 0 0 -34.044251794116946 -8.7583704019570963 0 -8.7583704019570963 -7.7476809435222167 0 0 0 0 -59.406910645576318 1.3790502557906645 0 1.3790502557906645 0.95654767247381733 0 0 0 0 -58.140207637055028 1.0408409687831599 0 1.0408409687831599 0.0039595514841775092 0 0 0 0 -83.164119353587012 7.3934384133307445 0 7.3934384133307445 -0.35275013465980964 0 0 0 0 -31.940125810166137 -0.79379507442144748 0 -0.79379507442144748 -0.0063526268466240644 0 0 0 0 -49.598274904727077 9.4082596688561448 0 9.4082596688561448 -2.5212894055011557 0 0 0 0 -29.38299091328372 3.8796003450913279 0 3.8796003450913279 -7.3366035085062746 0 0 0 0 -27.442920004268217 -1.8949070407296476 0 -1.8949070407296476 -1.7012215511907307 0 0 0 0 -51.303850335518291 4.0413255132156642 0 4.0413255132156642 -2.5002206874289303 0 0 0 0 -21.08492681860605 4.2952055723644254 0 4.2952055723644254 -6.6928486765211339 0 0 0 0 -57.589998468331032 1.9041716483051161 0 1.9041716483051161 5.7347906101081847 0 0 0 0 -80.971595441436875 -14.356846415277971 0 -14.356846415277971 -3.9794608255389257 0 0 0 0 -50.345340966616277 1.467422218159216 0 1.467422218159216 -21.918024010551328 0 0 0 0 -57.321363657592883 -2.6978239789007432 0 -2.6978239789007432 0.83718089363288328 0 0 0 0 -99.227842957758185 21.075065332095665 0 21.075065332095665 3.0983139764022596 0 0 0 0 -74.93828621751527 2.6563985494839955 0 2.6563985494839955 12.049648698204322 0 0 0 0 -57.092480454288875 7.952319837922345 0 7.952319837922345 5.7268324009313858 0 0 0 0 -74.31504056414451 0.80880225537157457 0 0.80880225537157457 4.0034420752398034 0 0 0 0 -59.395867569366601 13.64884085053373 0 13.64884085053373 -12.776584763790908 0 0 0 0 -49.948527780881705 -2.2750865931698172 0 -2.2750865931698172 -10.22323679059545 0 0 0 0 -72.732266206527356 7.9413828482110045 0 7.9413828482110045 2.9465167343858809 0 0 0 0 -71.006495812389403 4.0777047432325588 0 4.0777047432325588 6.5695579966223505 0 0 0 0 -73.661272134559567 0.10002896924417293 0 0.10002896924417293 1.9518734967218023 0 0 0 0 -66.872887731578885 -14.299316401072218 0 -14.299316401072218 -2.7111987650237097 0 0 0 0 -0.14515731606056903 0.05281447200453826 0 0.05281447200453826 -0.020914580975714914 0 0 0 0 -5.8209017278441024 15.155490167666386 0 15.155490167666386 9.0139434818407693 0 0 0 0 -11.767142871969327 -8.1683713897425854 0 -8.1683713897425854 5.8879773531107986 0 0 0 0 -11.066816031967505 6.5379685178662532 0 6.5379685178662532 4.5534120560975282 0 0 0 0 -0.22026671526969466 0.067338356231818608 0 0.067338356231818608 0.016321705887347382 0 0 0 0 -8.034591915042256 -11.862302895482031 0 -11.862302895482031 -4.4229409641282942 0 0 0 0 -49.902166540670464 -3.5025888426547303 0 -3.5025888426547303 9.3871113900941339 0 0 0 0 -0.41680141303114482 -0.10830925655599355 0 -0.10830925655599355 -0.036179701234053674 0 0 0 0 -3.5749359215260483 -9.0274255947479816 0 -9.0274255947479816 9.4963395185324089 0 0 0 0 -22.808028816800288 9.7857967304265543 0 9.7857967304265543 13.579475302460537 0 0 0 0 -49.266236314043454 -13.635748053527436 0 -13.635748053527436 -2.6686615804663347 0 0 0 0 -48.126261363428057 -17.175413405577636 0 -17.175413405577636 7.7731881817647945 0 0 0 0 -36.195426321479317 -11.000225135848211 0 -11.000225135848211 -12.597864153129448 0 0 0 0 -40.380343951607756 1.1291664554499192 0 1.1291664554499192 15.342852725326225 0 0 0 0 -0.39824686510130647 -0.21095115670390285 0 -0.21095115670390285 -0.32874202745449022 0 0 0 0 -31.302755574950424 12.971271797306891 0 12.971271797306891 -7.1771545034030169 0 0 0 0 -21.881715170791722 -13.258792283223897 0 -13.258792283223897 13.426402631218366 0 0 0 0 -37.527745851459258 -2.9984091469191441 0 -2.9984091469191441 -47.47464505844124 0 0 0 0 -86.475430131471057 35.621261311451605 0 35.621261311451605 -2.0493899768910637 0 0 0 0 -34.090500287382383 0.79011318123644969 0 0.79011318123644969 1.82506802955902 0 0 0 0 -0.090580904560434661 -0.054451772050484237 0 -0.054451772050484237 -0.17075326918316069 0 0 0 0 -57.614683759789841 23.089490481602837 0 23.089490481602837 -2.4648872015647072 0 0 0 0 -63.108935658467999 3.0822802475344844 0 3.0822802475344844 1.6649494805000131 0 0 0 0 -50.191967451781238 -11.904639342527531 0 -11.904639342527531 0.56829377534597825 0 0 0 0 12.881669746829175 -9.4592237391129608 0 -9.4592237391129608 0.60411933356971304 0 0 0 0 -7.2830550978251267 -0.8932359018613738 0 -0.8932359018613738 20.27326604116854 0 0 0 0 -3.3163880864713065 -1.6604832830953065 0 -1.6604832830953065 2.2416319829743259 0 0 0 0 -0.66660417062318444 -0.3177920571156001 0 -0.3177920571156001 0.21122288419330348 0 0 0 0 -4.5337478789333545 0.58061555321554437 0 0.58061555321554437 2.0669169640843492 0 0 0 0 -3.2649828556013745 -3.1580224116083855 0 -3.1580224116083855 2.0105110971188083 0 0 0 0 -0.77921699920898391 -1.8172628335412355 0 -1.8172628335412355 1.3940614297699767 0 0 0 0 -2.0229115128568083 -1.9363789397928315 0 -1.9363789397928315 2.2265043411598526 0 0 0 0 -2.0396958860459264 -0.98469476767618147 0 -0.98469476767618147 -0.34141569160904478 0 0 0 0 -8.3894730375614017 -14.53490859185672 0 -14.53490859185672 17.16690527927085 0 0 0 0 -1.676468685043325 -0.61052026145660587 0 -0.61052026145660587 -0.17166777000356068 0 0 0 0 -5.0816940330996658 -0.1145898903493503 0 -0.1145898903493503 1.0820551775175318 0 0 0 0 -2.8084560358256567 -4.7659148161570783 0 -4.7659148161570783 24.104971960618855 0 0 0 0 -1.1357867473095311 -0.33239863528892322 0 -0.33239863528892322 -0.075911989445306416 0 0 0 0 -4.1070618398443912 -6.4093006587882826 0 -6.4093006587882826 -6.785766224215422 0 0 0 0 4.8194801903118787 3.8128698024466416 0 3.8128698024466416 14.189043905217545 0 0 0 0 4.1629683488827141 -0.064240695593667851 0 -0.064240695593667851 -0.35801375627733023 0 0 0 0 -0.038744868760183238 0.020474294849739394 0 0.020474294849739394 -0.015193175250609647 0 0 0 0 -0.097781834858324146 -11.333185088350746 0 -11.333185088350746 -7.4569746491239428 0 0 0 0 -13.602927728283703 -21.864546504911871 0 -21.864546504911871 -2.9600755681188531 0 0 0 0 2.937866866330296 2.5474715866431978 0 2.5474715866431978 26.777209020011085 0 0 0 0 -5.038291535949611 -3.6470783115239556 0 -3.6470783115239556 -3.6464591168808056 0 0 0 0 0.0063505869820801308 -7.9074091976329868 0 -7.9074091976329868 -0.058393659944499632 0 0 0 0 -11.165781267898637 -4.3800170755895209 0 -4.3800170755895209 2.7815884025025497 0 0 0 0 -11.186889403514215 -4.7356718952808734 0 -4.7356718952808734 8.1619539173354099 0 0 0 0 -7.0655807610546617 -8.0496121372170606 0 -8.0496121372170606 6.0654041119913984 0 0 0 0 -8.67730777966608 -4.6592222891421429 0 -4.6592222891421429 6.5674808470404784 0 0 0 0 0.55134108404672588 -4.7280161578979927 0 -4.7280161578979927 7.0429936401803843 0 0 0 0 -0.15762859324149758 -12.110783481847166 0 -12.110783481847166 4.2590666865932008 0 0 0 0 -12.889676658614917 0.24852699172264181 0 0.24852699172264181 -0.051132609367961379 0 0 0 0 16.578277795561007 -10.719972775738515 0 -10.719972775738515 3.2162089185692366 0 0 0 0 -0.12614855688139315 -0.20564697527687059 0 -0.20564697527687059 0.014623053795012442 0 0 0 0 24.723849107796923 -12.37552607142354 0 -12.37552607142354 1.6812544049700229 0 0 0 0 3.1628930128172215 -5.9100428756030396 0 -5.9100428756030396 6.5998132415360473 0 0 0 0 -0.070875980159144092 -10.022215081720976 0 -10.022215081720976 2.8936469347082152 0 0 0 0 1.8078256075732497 -1.9995804377062401 0 -1.9995804377062401 0.86053620022815447 0 0 0 0 3.1153876293001304 -12.045717562075124 0 -12.045717562075124 4.7192059894086853 0 0 0 0 -8.1454303353034447 -6.5120643387679165 0 -6.5120643387679165 -0.31341076846746674 0 0 0 0 -8.6120639145201494 -5.5605907222421465 0 -5.5605907222421465 -0.41753885251828393 0 0 0 0 -20.228841616588454 -5.1569689205272766 0 -5.1569689205272766 1.5774556600970691 0 0 0 0 -11.709797809751763 0.59436404949573962 0 0.59436404949573962 -5.1076701628334344 0 0 0 0 -6.0819801539646505 -0.40700346919134844 0 -0.40700346919134844 -3.0401929522139053 0 0 0 0 -20.62808074048553 2.7496281725949756 0 2.7496281725949756 -4.4706172379379367 0 0 0 0 -14.459930978699958 -4.198842030364875 0 -4.198842030364875 -0.00017210964011396817 0 0 0 0 -0.22879047168498801 -6.3398031895846909 0 -6.3398031895846909 -0.0067578537430403613 0 0 0 0 -0.10718213202653715 -6.00341593128186 0 -6.00341593128186 0.8971651920382584 0 0 0 0 0.12991114434498741 -5.7785790112109288 0 -5.7785790112109288 0.0041781206566830877 0 0 0 0 -0.87296901112131309 -6.5788193905845915 0 -6.5788193905845915 0.57053949633187528 0 0 0 0 -1.1810867956282891 -4.8004057805296272 0 -4.8004057805296272 1.2932081527773458 0 0 0 0 4.0041223455418731 -1.899470785317007 0 -1.899470785317007 1.0357834278700082 0 0 0 0 3.09425277092123 -3.2995493384810537 0 -3.2995493384810537 1.4445819727490818 0 0 0 0 10.252421838187729 -2.5934266320932347 0 -2.5934266320932347 0.8432291595891499 0 0 0 0 8.8132395245265798 -2.8904256033722171 0 -2.8904256033722171 0.00093112191064145507 0 0 0 0 4.8337749685942981 -4.6558927451327907 0 -4.6558927451327907 0.8705773506181067 0 0 0 0 -31.125280942975223 8.1165009391156957 0 8.1165009391156957 26.936671291762721 0 0 0 0 -1.3325611735426719 0.32800665703068332 0 0.32800665703068332 0.29013910000520127 0 0 0 0 -1.0353126257439307 0.20348251580583465 0 0.20348251580583465 -0.030102927859008415 0 0 0 0 4.3142835819744505 -4.4507429054487648 0 -4.4507429054487648 3.4292667271355253 0 0 0 0 -0.07088030974038162 -0.22731310334403965 0 -0.22731310334403965 0.068228465736632923 0 0 0 0 21.468301381015408 -13.085189798300231 0 -13.085189798300231 -24.562387272621706 0 0 0 0 -0.58157666816708087 -0.71449286708191195 0 -0.71449286708191195 0.50587833316403152 0 0 0 0 7.624462555102582 -4.6015047519872772 0 -4.6015047519872772 -0.65388212885661545 0 0 0 0 -0.24952475316995404 -0.61966878392124158 0 -0.61966878392124158 0.7810908023582761 0 0 0 0 -34.996993962244233 14.828891946019347 0 14.828891946019347 9.5046766360626762 0 0 0 0 4.4092286999330099 2.5362352688871965 0 2.5362352688871965 -4.1276550886832979 0 0 0 0 -9.7132257261600898 6.5743912023322082 0 6.5743912023322082 0.42943922579439686 0 0 0 0 -21.900757459918168 -0.83633278115694409 0 -0.83633278115694409 6.2847861037917561 0 0 0 0 -0.095997232529118293 -0.10174042163705366 0 -0.10174042163705366 0.031058685131447994 0 0 0 0 -25.455846988514622 9.046255375618145 0 9.046255375618145 1.7653913919134112 0 0 0 0 1.293029166143242 -6.6433924578861605 0 -6.6433924578861605 -1.2723044868683218 0 0 0 0 24.628053345602893 7.1427287271006712 0 7.1427287271006712 -83.65192400283874 0 0 0 0 23.44178649450987 33.541641057126505 0 33.541641057126505 -23.355300639397697 0 0 0 0 -0.36197287888141716 0.15563966044549415 0 0.15563966044549415 -0.10747525222351155 0 0 0 0 38.77360206432104 -9.2244199172051911 0 -9.2244199172051911 -33.538471530209968 0 0 0 0 47.240599076205399 17.388754605876773 0 17.388754605876773 -47.785558824694903 0 0 0 0 11.98545252095937 -8.0244870093592766 0 -8.0244870093592766 -52.022279225156481 0 0 0 0 -12.988039505984489 -16.257925602351918 0 -16.257925602351918 -13.879466716072194 0 0 0 0 -43.091102483944269 -10.536612127364316 0 -10.536612127364316 -9.142357816452753 0 0 0 0 -30.943474033661914 -10.184162524073999 0 -10.184162524073999 -0.012079324480425615 0 0 0 0 -60.723858188750455 -15.265430160077081 0 -15.265430160077081 0.5992683448527889 0 0 0 0 9.9706459618319059 -7.0033832437753265 0 -7.0033832437753265 -13.71729679301148 0 0 0 0 7.1765769150581491 3.9240310747205043 0 3.9240310747205043 1.3439370744510171 0 0 0 0 -11.940004582032998 13.988602950192131 0 13.988602950192131 -3.3051397422843252 0 0 0 0 -7.2723866192054629 11.340297275798015 0 11.340297275798015 -18.934016030571939 0 0 0 0 -33.311248141286342 -4.165050277166884 0 -4.165050277166884 -11.09774245659613 0 0 0 0 -28.071333333180519 21.800942291980121 0 21.800942291980121 -6.9104260113419826 0 0 0 0 19.144263578424216 5.1218423114960103 0 5.1218423114960103 -10.593412384066298 0 0 0 0 -1.0439917029029431 0.43311653952655416 0 0.43311653952655416 -0.12363781832552959 0 0 0 0 -0.65895290310072596 0.63337753401546093 0 0.63337753401546093 -0.0049011893154825726 0 0 0 0 -12.399205878329667 14.742298227606128 0 14.742298227606128 -2.6067063104966053 0 0 0 0 -0.65860715881717624 0.61807328339352074 0 0.61807328339352074 0.0023034421533284304 0 0 0 0 -1.5831390923359052 0.38156991731607182 0 0.38156991731607182 0.0043681169173303567 0 0 0 0 18.386906135692698 9.3687855074081341 0 9.3687855074081341 -4.180878742686069 0 0 0 0 50.256668934525806 41.319237476744554 0 41.319237476744554 -9.3961793036052512 0 0 0 0 -40.41473935873853 -22.461618541179771 0 -22.461618541179771 -11.269290271220058 0 0 0 0 -0.3884207069907859 0.24202013747735407 0 0.24202013747735407 -0.080628072531916173 0 0 0 0 -12.488672757806853 -2.8063676867757863 0 -2.8063676867757863 -1.3640675883209212 0 0 0 0 -20.131542926117618 -4.5335110817419633 0 -4.5335110817419633 1.3335472562696964 0 0 0 0 -0.9617462181308909 0.46283419552888816 0 0.46283419552888816 0.067577798375772102 0 0 0 0 -19.291618625423325 -13.082868066233065 0 -13.082868066233065 -6.1297845853747503 0 0 0 0 48.38493659861274 0.084630541605950516 0 0.084630541605950516 -58.008668583965033 0 0 0 0 -27.204095578808847 47.651404426593331 0 47.651404426593331 59.408291401122945 0 0 0 0 -0.84481999016992404 0.18399783228393041 0 0.18399783228393041 -0.016021828957595352 0 0 0 0 4.4119090221838633 -2.4429191817415301 0 -2.4429191817415301 6.4286398341988615 0 0 0 0 -4.1080010608129669 32.111379219767571 0 32.111379219767571 -5.1487631922115504 0 0 0 0 -4.8563678817363325 -1.0752609194845775 0 -1.0752609194845775 15.420785648376125 0 0 0 0 -3.7532692152872187 4.2955279728927209 0 4.2955279728927209 23.874899832466916 0 0 0 0 -0.94154010364609775 0.25635084931094632 0 0.25635084931094632 0.63358988981277686 0 0 0 0 -5.2944041572691276 -0.10722573661781354 0 -0.10722573661781354 1.318458110136703 0 0 0 0 -4.9644296435089927 -1.0395460265807657 0 -1.0395460265807657 0.96277050159824284 0 0 0 0 -7.8250935144969844 -0.89974091310818949 0 -0.89974091310818949 2.6855955345429265 0 0 0 0 1.3304227969861131 6.8374198496774561 0 6.8374198496774561 12.786306840102895 0 0 0 0 -1.0626149294741722 0.34495733642392068 0 0.34495733642392068 0.32588508951782214 0 0 0 0 2.6840512786930049 13.078920237093541 0 13.078920237093541 23.458806337288749 0 0 0 0 -10.016786092230177 -5.7286411495639697 0 -5.7286411495639697 -1.3264555956856725 0 0 0 0 -6.3798032513632279 -2.8058433305660913 0 -2.8058433305660913 -0.9013518763160846 0 0 0 0 -9.4546196617375244 -4.0549594263345909 0 -4.0549594263345909 1.5601822281988973 0 0 0 0 -7.620697051273055 -1.8731024934118707 0 -1.8731024934118707 3.6426214790570839 0 0 0 0 -10.935083208602009 -3.1842670749167468 0 -3.1842670749167468 4.8114590847955583 0 0 0 0 -8.209983208871563 -1.0235824259789297 0 -1.0235824259789297 2.4741513700648881 0 0 0 0 -16.271955846585115 -3.347188214647673 0 -3.347188214647673 3.3963207246573575 0 0 0 0 -9.459752392511291 -4.5579773473073999 0 -4.5579773473073999 -5.2263734754011182 0 0 0 0 -12.667135944589972 0.85840838773746952 0 0.85840838773746952 10.150408816426875 0 0 0 0 -8.4915592317962592 0.12175344909552344 0 0.12175344909552344 0.27034711180087967 0 0 0 0 -7.5441919760733072 -0.26475116881837035 0 -0.26475116881837035 0.50917215759258383 0 0 0 0 -7.419486302020232 -0.19834323549021349 0 -0.19834323549021349 0.49005406349801817 0 0 0 0 -7.7175125814130752 0.92073761514186536 0 0.92073761514186536 -1.2608239018875054 0 0 0 0 -14.175478023391406 -0.62644436236993783 0 -0.62644436236993783 2.9695235972533993 0 0 0 0 -10.37978683149413 -1.3217825232591736 0 -1.3217825232591736 6.1956046272075866 0 0 0 0 -8.7207457148607119 -0.23718011587781396 0 -0.23718011587781396 0.37752983869576412 0 0 0 0 -8.4489862604132213 -0.9798792108670682 0 -0.9798792108670682 3.2844163960690764 0 0 0 0 -1.5112163411465431 1.0987986323269467 0 1.0987986323269467 0.92240690076085463 0 0 0 0 -7.7525567255761416 -2.5269787982100809 0 -2.5269787982100809 -3.5564590083831433 0 0 0 0 -12.778155791731479 1.1352957729331479 0 1.1352957729331479 0.73515255804036883 0 0 0 0 -12.54458034933424 -2.2884799756671823 0 -2.2884799756671823 -0.69213871810990213 0 0 0 0 -8.9306992524611815 0.31569345403753246 0 0.31569345403753246 -0.70067242994679191 0 0 0 0 -10.480653486401025 -0.51295537653298595 0 -0.51295537653298595 -0.91663517068190004 0 0 0 0 -3.5303473636350304 0.34556425196019802 0 0.34556425196019802 0.84901309975769101 0 0 0 0 -5.3879770219267371 0.5019226963266985 0 0.5019226963266985 0.93237213781884676 0 0 0 0 -2.8430993633810431 1.367462141630142 0 1.367462141630142 2.9994581155714855 0 0 0 0 -9.1503722945162735 -0.64835828139524665 0 -0.64835828139524665 1.9910121759342019 0 0 0 0 -4.839299911686993 0.66265134917604129 0 0.66265134917604129 0.91632912855285475 0 0 0 0 -8.7893821248289896 -0.11531041078774251 0 -0.11531041078774251 2.7498636461277286 0 0 0 0 -0.71203326519474075 0.033800686426857851 0 0.033800686426857851 0.54464025230816637 0 0 0 0 -1.2454666125759104 0.88629495407025161 0 0.88629495407025161 1.4115288165924085 0 0 0 0 -4.7516388436924899 0.76713640297465702 0 0.76713640297465702 3.1265010676184204 0 0 0 0 -0.63594863393495871 -1.3472093105582692 0 -1.3472093105582692 0.42131192093406045 0 0 0 0 -8.5985781769413734 1.0467777277859938 0 1.0467777277859938 6.0171373827432149 0 0 0 0 -12.983808558008604 -0.29740746734813683 0 -0.29740746734813683 0.21407467699461336 0 0 0 0 -8.1278360525975586 -4.9736136046959274 0 -4.9736136046959274 -1.6824180996664424 0 0 0 0 0.8068892713781679 -18.536753558104465 0 -18.536753558104465 -8.863623922603395 0 0 0 0 -23.554721077647628 -7.1554424137509045 0 -7.1554424137509045 12.614416204915159 0 0 0 0 -6.8595861636567861 3.0671244703637512 0 3.0671244703637512 -1.4667460527006497 0 0 0 0 -13.493294339848944 -1.9101073505152044 0 -1.9101073505152044 -3.1169006923971203 0 0 0 0 -13.780669819680043 -1.6745404972807307 0 -1.6745404972807307 5.5656811329234728 0 0 0 0 -8.0153344284553896 -2.2253473925404705 0 -2.2253473925404705 2.8975955446970261 0 0 0 0 -14.042284418901545 1.4655514387404551 0 1.4655514387404551 -1.3347477473030978 0 0 0 0 -17.045654940946406 -0.15188945726218606 0 -0.15188945726218606 3.8791848166887064 0 0 0 0 -8.3006328890332952 -7.249308034051694 0 -7.249308034051694 4.7622738958784225 0 0 0 0 -0.90279254613960802 -6.0134191017836649 0 -6.0134191017836649 0.7361024290899536 0 0 0 0 -1.445307920103108 -0.42335474281448882 0 -0.42335474281448882 1.515149928493112 0 0 0 0 -2.8235438819265255 2.3860047414284296 0 2.3860047414284296 2.5722563053074055 0 0 0 0 -16.551279644595525 0.74761802469799932 0 0.74761802469799932 3.9936310687020864 0 0 0 0 -7.1167986563177692 2.1133080948049212 0 2.1133080948049212 3.9293294187157919 0 0 0 0 -8.4009025331106386 3.8670645918374476 0 3.8670645918374476 6.6318908986413021 0 0 0 0 -11.585864746790321 -0.97507229562046405 0 -0.97507229562046405 0.33698625824365891 0 0 0 0 -8.5373023909231236 -0.44313308105909854 0 -0.44313308105909854 0.62569332838924996 0 0 0 0 -12.391488554763782 -0.84996948455466281 0 -0.84996948455466281 0.30234274041642095 0 0 0 0 -10.987833778111053 -0.55022005066215485 0 -0.55022005066215485 -0.13064751932597574 0 0 0 0 -9.6838579280884005 -1.569348242188056 0 -1.569348242188056 -0.29991306163165632 0 0 0 0 -11.877023701381404 -1.2737442189066854 0 -1.2737442189066854 -0.22710438875941463 0 0 0 0 -8.3716580368745781 0.49381770040101003 0 0.49381770040101003 0.339957106248022 0 0 0 0 -11.264830204343525 -0.48973619517829547 0 -0.48973619517829547 0.69223134101140005 0 0 0 0 -10.552481515269392 -1.3615422844368368 0 -1.3615422844368368 0.44146868956863727 0 0 0 0 -10.799884581434526 -1.6548834041570615 0 -1.6548834041570615 0.12216262623123697 0 0 0 0 -12.028327690582955 0.16449835366744026 0 0.16449835366744026 -0.25829276129837808 0 0 0 0 -13.777265670599263 -0.51901159090731142 0 -0.51901159090731142 0.47558308413036343 0 0 0 0 -1.9169145454163381 -1.5661961389604819 0 -1.5661961389604819 0.85459168383190032 0 0 0 0 -11.900783605657978 -0.72632622873158414 0 -0.72632622873158414 -0.82023725894936206 0 0 0 0 -3.7876918502902779 -4.2787849791866108 0 -4.2787849791866108 0.61063841783438644 0 0 0 0 -13.256838294726549 0.16947927742628721 0 0.16947927742628721 -0.11515477871773783 0 0 0 0 -12.617239595048886 -0.10690957027669867 0 -0.10690957027669867 -0.76731076020768363 0 0 0 0 -2.3847719471746771 -1.2641980155807317 0 -1.2641980155807317 -0.11222480621266129 0 0 0 0 -4.6823625815741252 -2.2510207076275606 0 -2.2510207076275606 3.5776409123238011 0 0 0 0 -12.975954791801996 -0.89231662243319221 0 -0.89231662243319221 2.3069263112136582 0 0 0 0 -1.2325170892596127 -0.13628050580834739 0 -0.13628050580834739 0.17823264548805978 0 0 0 0 2.9189359633564891 -7.6765072742766449 0 -7.6765072742766449 4.1491063446206056 0 0 0 0 -4.5111094688729878 -2.3047456265990123 0 -2.3047456265990123 1.1006002429238368 0 0 0 0 -7.2773657564932819 -2.9255376385928704 0 -2.9255376385928704 -0.90901136924544801 0 0 0 0 -1.3256965871064423 -1.0821096164221373 0 -1.0821096164221373 1.7247296783587474 0 0 0 0 -5.3483855091071746 -1.0705474989623269 0 -1.0705474989623269 2.8914172831718616 0 0 0 0 -7.4861498399077391 -0.11972178028218927 0 -0.11972178028218927 1.2468926591406104 0 0 0 0 -10.871971823811691 3.9947051592862515 0 3.9947051592862515 2.4589299066155443 0 0 0 0 -8.1141363142887712 -0.67866085372830298 0 -0.67866085372830298 -0.32473979879122794 0 0 0 0 -12.428886769720521 2.9230958984438047 0 2.9230958984438047 -0.52723459468728606 0 0 0 0 -0.93712801177923311 -1.5325521091181464 0 -1.5325521091181464 1.3265519589931918 0 0 0 0 -0.25497179312424834 -1.1918453282530095 0 -1.1918453282530095 1.4213587300139292 0 0 0 0 -11.687458774476909 -1.4469130803827124 0 -1.4469130803827124 -1.5390115080994917 0 0 0 0 1.7295224184163089 2.5849401660570379 0 2.5849401660570379 -5.2501337186325827 0 0 0 0 -17.792318776671891 5.4324075689275553 0 5.4324075689275553 1.9425157200626018 0 0 0 0 -9.7491743185928499 -12.778103226094913 0 -12.778103226094913 18.460332279387956 0 0 0 0 17.453579674831417 -10.917088233728407 0 -10.917088233728407 -1.549642971509229 0 0 0 0 -8.189987084763743 -6.873049471092088 0 -6.873049471092088 7.5697062368751631 0 0 0 0 1.2318163994132192 8.5888636790435839 0 8.5888636790435839 10.443408249493018 0 0 0 0 -4.7501592451881152 -0.32727455510757864 0 -0.32727455510757864 6.4539868042193973 0 0 0 0 -10.061876061408157 -1.7167823083361888 0 -1.7167823083361888 8.626370413346649 0 0 0 0 -6.5132793767879775 0.07517720891053159 0 0.07517720891053159 24.062912711820672 0 0 0 0 2.5094822830724297 4.2697790139824292 0 4.2697790139824292 5.3781227339813995 0 0 0 0 -1.4484566050985812 -0.61024016342788912 0 -0.61024016342788912 0.041103057943270516 0 0 0 0 1.9577613933433895 4.5239892222602975 0 4.5239892222602975 5.7339764203596246 0 0 0 0 -5.6210820202522882 -2.8528777337241991 0 -2.8528777337241991 4.7170372165323897 0 0 0 0 1.558826987464272 4.4381683227288704 0 4.4381683227288704 5.8064598535595451 0 0 0 0 1.9669123928833869 3.5380869852079968 0 3.5380869852079968 5.276112867557913 0 0 0 0 1.3078185695194406 1.0125208761015756 0 1.0125208761015756 3.5847263275503565 0 0 0 0 -1.089951754605039 1.0407812045764953 0 1.0407812045764953 1.0246634687459975 0 0 0 0 -2.9602444181036844 -3.4124247174601976 0 -3.4124247174601976 -0.05426681630353869 0 0 0 0 -4.3178616741497535 -3.9459353679241076 0 -3.9459353679241076 0.15750442209707671 0 0 0 0 -13.300570600373248 -2.2218492482351166 0 -2.2218492482351166 5.9258475846329475 0 0 0 0 -5.9303607087670365 -3.0262534615552195 0 -3.0262534615552195 -0.7719608924336947 0 0 0 0 -3.4955894261436242 1.2032910337037492 0 1.2032910337037492 0.47157020188478782 0 0 0 0 -0.014585791748412902 0.10436771768699771 0 0.10436771768699771 -0.015296605701837995 0 0 0 0 -0.76846539731468511 12.410362494657704 0 12.410362494657704 7.6259826674414626 0 0 0 0 -42.23839849340402 -11.012344087642191 0 -11.012344087642191 1.9209376822618651 0 0 0 0 -18.699786421275348 0.33196553785182914 0 0.33196553785182914 7.3373312424058668 0 0 0 0 -17.198502693188857 5.6531919512156605 0 5.6531919512156605 1.4637581149535208 0 0 0 0 -23.940853713819706 7.2085675153586521 0 7.2085675153586521 6.4719796164154104 0 0 0 0 -18.526658905459044 -3.7679535497250356 0 -3.7679535497250356 5.8644561441719816 0 0 0 0 -10.151799325334878 -2.8355077694997988 0 -2.8355077694997988 0.44515198883527773 0 0 0 0 -16.782894721840421 3.5737124016720543 0 3.5737124016720543 2.973116699036467 0 0 0 0 -9.5912241436144541 0.89761822377998612 0 0.89761822377998612 1.2661769378600809 0 0 0 0 -11.019882191028955 -1.9796177667999757 0 -1.9796177667999757 1.9451142480714898 0 0 0 0 -10.689963956458087 -2.962587778527066 0 -2.962587778527066 1.9845249438063206 0 0 0 0 -11.497281334952277 -1.1274311345125909 0 -1.1274311345125909 0.43463198271354031 0 0 0 0 -11.426017530835452 -1.0441550078066228 0 -1.0441550078066228 0.4193303051587236 0 0 0 0 -4.4038804211222669 2.2140614770212608 0 2.2140614770212608 -0.17075159183889355 0 0 0 0 -12.310674413582092 -0.97235353286420434 0 -0.97235353286420434 0.75676033852928981 0 0 0 0 -0.0474259324488564 0.12359172839632038 0 0.12359172839632038 0.050682033407284832 0 0 0 0 -7.2608779711272291 -0.0099017733412551934 0 -0.0099017733412551934 0.23703644016916314 0 0 0 0 -8.6033194406991242 1.4003702073120508 0 1.4003702073120508 0.17038634583900603 0 0 0 0 -8.3486246134089015 0.78880809099840121 0 0.78880809099840121 0.46184700173407123 0 0 0 0 -8.9035400100110564 0.58166880129871856 0 0.58166880129871856 0.84309781127331007 0 0 0 0 -0.059366773965411568 0.14831697758839013 0 0.14831697758839013 0.087948888178080331 0 0 0 0 -9.8038767025350353 -0.80976786831780245 0 -0.80976786831780245 -0.82652858887860248 0 0 0 0 -10.067094231530064 -0.16376681882201183 0 -0.16376681882201183 0.044573043985963068 0 0 0 0 -9.7771769653427327 -0.65052795314474565 0 -0.65052795314474565 -0.092359933914465842 0 0 0 0 -10.981732529286091 -0.08075857227451877 0 -0.08075857227451877 0.64606742363645253 0 0 0 0 -9.7941487803609562 0.31983253817733726 0 0.31983253817733726 1.1073039197112848 0 0 0 0 -8.8646498443686141 0.41874765639298062 0 0.41874765639298062 0.35730512022091432 0 0 0 0 -9.4453253091596707 0.11272510654272594 0 0.11272510654272594 -0.23869953906222463 0 0 0 0 -11.00529931094934 1.9605463939392038 0 1.9605463939392038 3.779348470246191 0 0 0 0 -11.378491299934467 0.30456010908500275 0 0.30456010908500275 2.9584028325209601 0 0 0 0 -9.4755164843572857 -0.04419127410432111 0 -0.04419127410432111 1.2332528376070115 0 0 0 0 -8.6413763237051171 -0.60912334161642434 0 -0.60912334161642434 1.0985835200999645 0 0 0 0 -8.32060199145144 -1.6621024910010931 0 -1.6621024910010931 0.81662504449241169 0 0 0 0 -11.909423881235853 -2.9759179900767094 0 -2.9759179900767094 4.2435680556005764 0 0 0 0 -10.524703040779059 -2.8418438637401096 0 -2.8418438637401096 4.2092320688955169 0 0 0 0 -12.441179201674458 -0.6243119749740913 0 -0.6243119749740913 3.6174434925387686 0 0 0 0 -19.450897709699348 0.1481490636970193 0 0.1481490636970193 6.7340909568164307 0 0 0 0 -12.884477455449087 0.14838294023331855 0 0.14838294023331855 6.4014512417166998 0 0 0 0 -10.013125211975421 0.9182961532692957 0 0.9182961532692957 2.2033154064587848 0 0 0 0 -7.8552465239408775 0.51938745678938858 0 0.51938745678938858 -0.066338126135519815 0 0 0 0 -8.3382708510380326 1.3866114619638097 0 1.3866114619638097 5.5318422275163357 0 0 0 0 -10.967754827313911 -1.9836331379681269 0 -1.9836331379681269 1.8402646414347998 0 0 0 0 -7.7587633986495348 -2.8788658038420749 0 -2.8788658038420749 2.5775762781152025 0 0 0 0 -2.6279101368718329 5.1133361879210497 0 5.1133361879210497 7.1418891016061821 0 0 0 0 -0.046524457855056767 0.1290535495156071 0 0.1290535495156071 0.065967202427336336 0 0 0 0 -7.2177618851765146 3.4543754194354506 0 3.4543754194354506 8.6695861793531321 0 0 0 0 -2.9691342038131552 4.5611618209142648 0 4.5611618209142648 7.8015051637240731 0 0 0 0 -4.2895946254125263 0.52227573434302776 0 0.52227573434302776 0.097776267089156238 0 0 0 0 -5.5224652111214709 -1.3273385680552394 0 -1.3273385680552394 4.0507748498205274 0 0 0 0 -4.2676638734628796 3.9031545478828775 0 3.9031545478828775 7.0446955374563913 0 0 0 0 1.2755913545115618 0.86770305086696453 0 0.86770305086696453 4.3371606536775289 0 0 0 0 -2.3155954844223743 5.1422977057079606 0 5.1422977057079606 6.993220946604545 0 0 0 0 -6.2615470181144701 0.66163697485956163 0 0.66163697485956163 2.2123004357761147 0 0 0 0 -17.779922455456699 25.481051566343865 0 25.481051566343865 8.0368123595286534 0 0 0 0 -5.4698042562195042 0.80176398626451828 0 0.80176398626451828 1.5691787533537749 0 0 0 0 -4.9148183658137654 0.82558224597127339 0 0.82558224597127339 0.09654484341382652 0 0 0 0 -2.7215914995540516 1.0346557293437399 0 1.0346557293437399 -0.20943511994744313 0 0 0 0 2.2155109090990663 6.6986892376466471 0 6.6986892376466471 -4.3261801477184463 0 0 0 0 -3.8437945740583874 0.71280943173913691 0 0.71280943173913691 0.79922819589446314 0 0 0 0 7.5945561598809945 1.3047152950120449 0 1.3047152950120449 5.3647397949654305 0 0 0 0 -12.70468164697146 -0.33242292931432615 0 -0.33242292931432615 1.0603586673030017 0 0 0 0 49.019551417462935 84.204801352720551 0 84.204801352720551 -26.338831912142069 0 0 0 0 -106.00662186676982 -170.24054514707143 0 -170.24054514707143 -89.041728758124009 0 0 0 0 -24.951833067678308 7.0408859081202309 0 7.0408859081202309 0.70222626772897456 0 0 0 0 -16.753988969483544 7.3637088792989971 0 7.3637088792989971 -19.97099313765375 0 0 0 0 -18.062111356566675 0.16174915257144562 0 0.16174915257144562 5.3879178005981885 0 0 0 0 -21.87280106300841 0.1124924339012523 0 0.1124924339012523 6.3061306720564971 0 0 0 0 -13.990302970252742 -3.975872924370492 0 -3.975872924370492 6.5706142082408405 0 0 0 0 -16.026140622372623 -3.2554286041095111 0 -3.2554286041095111 7.7977442575665918 0 0 0 0 -8.6350751816280535 -5.5401717625420588 0 -5.5401717625420588 8.4923540350940669 0 0 0 0 -1.3372981662346177 -0.0068527976566348237 0 -0.0068527976566348237 -0.020731584331915243 0 0 0 0 -7.4025784656460019 -5.9722547487422162 0 -5.9722547487422162 5.0642860178948013 0 0 0 0 -5.8965961933245126 -1.1214623559890242 0 -1.1214623559890242 3.9707326749011145 0 0 0 0 -6.6561102593872796 0.38971177409554425 0 0.38971177409554425 0.038043483502076619 0 0 0 0 -4.3519705040662302 -0.081478432433868875 0 -0.081478432433868875 1.6790271713581433 0 0 0 0 -0.65091018072303086 -25.08653494812409 0 -25.08653494812409 -6.296941464407837 0 0 0 0 -10.213052883478667 0.0085971801586310903 0 0.0085971801586310903 5.6357879839342786 0 0 0 0 -6.1935224335176109 0.014702421252441589 0 0.014702421252441589 0.31149684868305982 0 0 0 0 1.4052654607503428 -3.156094266540947 0 -3.156094266540947 18.627128663514384 0 0 0 0 -38.224123501204531 -7.0760768645629355 0 -7.0760768645629355 75.858249135919436 0 0 0 0 -4.3962984493564363 -37.56781550978522 0 -37.56781550978522 53.425382675457172 0 0 0 0 -10.463592361051269 18.342469320301916 0 18.342469320301916 -69.355887687825998 0 0 0 0 -108.01241186118614 3.1887560553294634 0 3.1887560553294634 55.368583131075752 0 0 0 0 -10.736362378252124 18.860269951177429 0 18.860269951177429 0.578026184366081 0 0 0 0 -21.891671964196576 11.007122464908662 0 11.007122464908662 -4.8192747417145938 0 0 0 0 -0.26784777949681526 -0.086375894875764025 0 -0.086375894875764025 0.041718733753679071 0 0 0 0 -15.534663906450078 -15.237588733145344 0 -15.237588733145344 6.3744752865486589 0 0 0 0 -17.12690747473971 11.510084952102488 0 11.510084952102488 -4.9587769942595514 0 0 0 0 2.7592824084122185 16.384080024782008 0 16.384080024782008 59.980628000287425 0 0 0 0 25.737032541041117 -31.169584309403604 0 -31.169584309403604 30.456801115105918 0 0 0 0 -5.6127605494155937 0.10637592250841976 0 0.10637592250841976 0.41039744441393011 0 0 0 0 -0.97098351055209875 -0.41558530139658068 0 -0.41558530139658068 0.96953013307195679 0 0 0 0 24.813361945578436 21.406701178043477 0 21.406701178043477 -93.212836255447201 0 0 0 0 89.897728314294 -53.953434706347366 0 -53.953434706347366 -62.08982604219932 0 0 0 0 -27.264043108114492 -42.323784682728274 0 -42.323784682728274 64.348052584527238 0 0 0 0 -8.150363912614921 -31.129594290010573 0 -31.129594290010573 8.2938150023218213 0 0 0 0 -26.379707999502898 -29.636870292893349 0 -29.636870292893349 26.239084202344429 0 0 0 0 -20.336974679918058 -26.020953883114203 0 -26.020953883114203 12.360282266695322 0 0 0 0 -0.068451269384240732 -31.039516483989246 0 -31.039516483989246 18.137938404843908 0 0 0 0 9.1934995507235726 22.147915392222899 0 22.147915392222899 -2.4027812362114673 0 0 0 0 -21.87679908390237 10.799468992158836 0 10.799468992158836 24.969820232893056 0 0 0 0 -0.21143847304913699 0.12981656505731642 0 0.12981656505731642 0.61837456982925953 0 0 0 0 -18.898163921740888 8.82534434196549 0 8.82534434196549 -17.289544669778024 0 0 0 0 -48.80343173397705 -0.8107327512266238 0 -0.8107327512266238 1.5041336324395616 0 0 0 0 -18.193796508046944 2.7619750766057223 0 2.7619750766057223 -0.69709158225396095 0 0 0 0 -36.38046784718972 -10.381691620684933 0 -10.381691620684933 -2.8690213834215683 0 0 0 0 8.9988926162353948 -11.764447796333457 0 -11.764447796333457 -6.5768043870980364 0 0 0 0 -24.957253496419071 -30.955803125032617 0 -30.955803125032617 -4.1716944500355808 0 0 0 0 -48.628267460866482 -0.42930515795467272 0 -0.42930515795467272 6.4759483962488957 0 0 0 0 -14.891472907898788 -3.6279855159658041 0 -3.6279855159658041 -5.4665994679380674 0 0 0 0 -21.171598580255704 -9.759935398922039 0 -9.759935398922039 0.81410670301443133 0 0 0 0 -20.179992988083541 -3.8125283764823052 0 -3.8125283764823052 17.014463919824266 0 0 0 0 -14.169806762885855 -20.318948551853055 0 -20.318948551853055 11.031237416342833 0 0 0 0 -24.826384507519833 -20.818167371136269 0 -20.818167371136269 0.67910885429807877 0 0 0 0 -19.289457049508201 -12.641728239256736 0 -12.641728239256736 -0.24439075724285431 0 0 0 0 -14.801725776344028 -17.906850750855256 0 -17.906850750855256 -27.47987146308833 0 0 0 0 -4.2288600533611316 5.9865264377081076 0 5.9865264377081076 -16.687464068101747 0 0 0 0 -42.967356855167964 -24.397567385638013 0 -24.397567385638013 1.645880194637698 0 0 0 0 -0.80596723079954558 0.060384285418313866 0 0.060384285418313866 0.30479009822103009 0 0 0 0 -34.951276559636426 -41.71597518995668 0 -41.71597518995668 -18.62418746506205 0 0 0 0 -0.73260143849232762 -0.042063137860355759 0 -0.042063137860355759 0.50884310774103136 0 0 0 0 -52.600941710192274 -21.838637442890786 0 -21.838637442890786 4.1096773178232979 0 0 0 0 -24.616241388208437 -26.794985851419824 0 -26.794985851419824 -5.0612350085423259 0 0 0 0 2.8476594008125176 5.9893836900281485 0 5.9893836900281485 9.1335566870902767 0 0 0 0 -1.4322814385204836 0.60365698868455731 0 0.60365698868455731 -0.049460132463497342 0 0 0 0 -0.61590701284876559 3.9405275555882326 0 3.9405275555882326 4.8855166780771242 0 0 0 0 2.2085282544030633 4.5095412602131546 0 4.5095412602131546 6.6249103147326878 0 0 0 0 -0.10027666409041558 2.548714543924234 0 2.548714543924234 4.9663056887463881 0 0 0 0 -4.8408736962737748 0.64944696918314548 0 0.64944696918314548 5.9850789196598271 0 0 0 0 -6.2932766963458562 -1.4924532070256191 0 -1.4924532070256191 3.5988758132532439 0 0 0 0 -2.7476224838792405 0.74728592753058365 0 0.74728592753058365 3.8871153245877395 0 0 0 0 -2.414309809471888 2.3155481865542242 0 2.3155481865542242 7.5164854508138887 0 0 0 0 0.5294060531850846 3.069296703437999 0 3.069296703437999 1.8256311496612625 0 0 0 0 -3.8259255477423721 1.2418382784426285 0 1.2418382784426285 4.4484215690044948 0 0 0 0 -3.3436426628722984 0.75018177828883381 0 0.75018177828883381 1.8827369908044602 0 0 0 0 -2.3245044647756004 4.2024828977438915 0 4.2024828977438915 -7.8146564071396085 0 0 0 0 -2.3097585206305666 -0.47552047500846584 0 -0.47552047500846584 1.319839972050886 0 0 0 0 -8.2371897274351795 -7.3001584984527881 0 -7.3001584984527881 3.9417069913524756 0 0 0 0 -1.003817299393738 0.15756168822080951 0 0.15756168822080951 0.50757387163812329 0 0 0 0 -4.4453697221269977 -13.613956569590869 0 -13.613956569590869 -0.31971792213767003 0 0 0 0 -20.533956163645769 -11.335811541697403 0 -11.335811541697403 3.4161688100082301 0 0 0 0 -20.239413064669861 -6.1704654264179339 0 -6.1704654264179339 -9.4799945964523999 0 0 0 0 -13.652339907204805 -13.529609815930726 0 -13.529609815930726 -9.1280915791958677 0 0 0 0 -13.204025952076336 -18.498929014568716 0 -18.498929014568716 3.9977899889973969 0 0 0 0 -1.5056487158010583 -0.050542879898037185 0 -0.050542879898037185 0.33814039672004786 0 0 0 0 -87.458265460430994 48.018748855959075 0 48.018748855959075 -55.040194229048211 0 0 0 0 -5.8711122459308172 -1.2809747975324512 0 -1.2809747975324512 0.020142609384720345 0 0 0 0 32.309407043719148 -17.247368996905053 0 -17.247368996905053 -66.631520051795235 0 0 0 0 -1.6955278448128617 -0.30119841162412975 0 -0.30119841162412975 0.43696227959806255 0 0 0 0 -0.42411075439304824 -0.63291509213355224 0 -0.63291509213355224 -0.088442315500201873 0 0 0 0 -46.995414789795177 18.285681530960687 0 18.285681530960687 0.73178654433516499 0 0 0 0 -11.032007151730795 -3.4480670696467826 0 -3.4480670696467826 13.570042097791195 0 0 0 0 -9.1191257300710049 4.6239776054367407 0 4.6239776054367407 1.3029458169067141 0 0 0 0 -5.6055843169387121 1.9984158425983285 0 1.9984158425983285 2.5075531777163333 0 0 0 0 -13.243229787745804 7.2691984379369501 0 7.2691984379369501 1.5574695537592049 0 0 0 0 -11.72691574449891 -3.4701772230269512 0 -3.4701772230269512 -2.2498531404726521 0 0 0 0 -2.3344576717676446 -0.43523837695762602 0 -0.43523837695762602 0.043904614869410441 0 0 0 0 -16.882822727552593 -3.4097343720978301 0 -3.4097343720978301 3.3283401500062837 0 0 0 0 -31.118220228087011 -0.64691578076838141 0 -0.64691578076838141 7.3316489492535766 0 0 0 0 -7.8643657504358089 2.0431917173081473 0 2.0431917173081473 -0.32069084481202026 0 0 0 0 -25.443234510215859 4.301250002231555 0 4.301250002231555 5.8381231074846482 0 0 0 0 -11.363161866806966 -0.50292701074395785 0 -0.50292701074395785 0.51877639108186591 0 0 0 0 -0.14966761673932538 1.4577987600261986 0 1.4577987600261986 0.55441494759054233 0 0 0 0 -22.785188187130188 -8.1395055128359672 0 -8.1395055128359672 7.5269685067821683 0 0 0 0 -26.788029584075048 -7.238569610510126 0 -7.238569610510126 9.1194629278625143 0 0 0 0 -24.606623068045337 -8.1116313614283229 0 -8.1116313614283229 8.725655853258786 0 0 0 0 -1.5760284502564677 -0.62452438051064085 0 -0.62452438051064085 1.485003265621742 0 0 0 0 -7.8853529297430214 4.7400188464936619 0 4.7400188464936619 4.6658237991061213 0 0 0 0 -6.9281859818856901 -5.9467443910020421 0 -5.9467443910020421 -0.90721346558184734 0 0 0 0 -2.3664714873621939 -0.93756214898600021 0 -0.93756214898600021 0.58253732754980714 0 0 0 0 -3.1068114352137854 37.359964548177402 0 37.359964548177402 46.175285598607616 0 0 0 0 -29.995772222704545 11.397826162008641 0 11.397826162008641 69.392242179480263 0 0 0 0 -7.9418399150654295 5.9839688751902713 0 5.9839688751902713 27.278638557491149 0 0 0 0 -12.99897835937827 -3.1203730737007334 0 -3.1203730737007334 6.7202299526745577 0 0 0 0 -10.687943232090277 1.1433996998976603 0 1.1433996998976603 1.0302261586697481 0 0 0 0 -27.319566824737194 -14.116008247807372 0 -14.116008247807372 7.1087796048100245 0 0 0 0 -16.789314144700555 -0.91537403745105017 0 -0.91537403745105017 1.0047924170290181 0 0 0 0 -19.302577159409338 1.629823290392892 0 1.629823290392892 8.1402572146501484 0 0 0 0 -13.981023780329451 3.3889206364007123 0 3.3889206364007123 6.6440069483614934 0 0 0 0 -15.741988758179104 1.5451206356647162 0 1.5451206356647162 8.578192769278246 0 0 0 0 -13.796920222034643 -0.83807029284621404 0 -0.83807029284621404 0.19977853628793762 0 0 0 0 -21.978298197965842 13.431651949301624 0 13.431651949301624 11.111807328990153 0 0 0 0 -21.090175508670654 9.5592044403060754 0 9.5592044403060754 25.067730393171814 0 0 0 0 -22.646488810813025 1.5451254091411215 0 1.5451254091411215 16.114566894129098 0 0 0 0 -15.370092466232563 26.049699487082989 0 26.049699487082989 11.870122950009545 0 0 0 0 -3.8561208483670271 22.530112188183409 0 22.530112188183409 -8.9488873035872984 0 0 0 0 -18.302287651507868 9.3956998202678506 0 9.3956998202678506 -7.4619493787178044 0 0 0 0 -17.832343819744835 18.932403719715889 0 18.932403719715889 -3.1611842353465818 0 0 0 0 -34.571010648687661 -11.285334468260203 0 -11.285334468260203 -23.985204409529615 0 0 0 0 -0.9554933605268161 18.685329906294555 0 18.685329906294555 -45.945276327988722 0 0 0 0 -8.6123278135871715 16.440137703963089 0 16.440137703963089 -55.21403522964215 0 0 0 0 -0.53485395871393848 18.112068355278893 0 18.112068355278893 -56.490292783008499 0 0 0 0 -9.7117075714920702 22.415756808373885 0 22.415756808373885 -8.7719747152843865 0 0 0 0 -8.4838413362394931 28.432510836835377 0 28.432510836835377 -28.959206538273293 0 0 0 0 -27.086789158532156 43.906296743063137 0 43.906296743063137 -31.889898889512438 0 0 0 0 -60.191179697685584 13.973967288697679 0 13.973967288697679 5.5200279010365989 0 0 0 0 -22.939141195955926 15.572948279196339 0 15.572948279196339 4.3534220151555019 0 0 0 0 -24.241103452715834 3.668930786326257 0 3.668930786326257 33.058840835079536 0 0 0 0 -32.395649571684316 -7.0602831441184719 0 -7.0602831441184719 9.3585089647208406 0 0 0 0 -25.507211224953608 12.243400782212689 0 12.243400782212689 27.356367838101278 0 0 0 0 -37.467848742445312 -0.27820550054951809 0 -0.27820550054951809 1.7884266495636894 0 0 0 0 -38.019071525732215 -2.0232471914237635 0 -2.0232471914237635 4.3147148146611016 0 0 0 0 -0.39028447933118748 -0.40618307742991711 0 -0.40618307742991711 -0.29287413052455769 0 0 0 0 -4.3689922385781301 -3.0855011697065606 0 -3.0855011697065606 21.077943996777549 0 0 0 0 -0.9716745966165945 -8.2903995537239439 0 -8.2903995537239439 16.071747602735968 0 0 0 0 -54.130460678547934 2.7296020602304907 0 2.7296020602304907 11.130442416859751 0 0 0 0 -35.133283309939998 -12.068301670571259 0 -12.068301670571259 4.3831512645488147 0 0 0 0 8.0228814010006317 4.2096253962828314 0 4.2096253962828314 -2.6288067667134101 0 0 0 0 -0.045264289750775788 2.6847468127505181 0 2.6847468127505181 -2.6653673998159206 0 0 0 0 8.8748856062247796 -3.510742173388735 0 -3.510742173388735 -3.5967731206685869 0 0 0 0 5.9533416226513509 -5.0818159615015475 0 -5.0818159615015475 17.52055280778518 0 0 0 0 0.20652543126243472 6.9966360101061014 0 6.9966360101061014 21.842709759430022 0 0 0 0 -7.0470724380167162 0.34109609336004976 0 0.34109609336004976 0.031273207708242767 0 0 0 0 -2.6863525558619585 -1.7054998760705757 0 -1.7054998760705757 4.5728021150067661 0 0 0 0 -4.2162041918381874 -1.791014561013526 0 -1.791014561013526 9.0422662954133557 0 0 0 0 -9.6074193848144205 0.13243087801743059 0 0.13243087801743059 8.3894794935615664 0 0 0 0 -6.475871043072619 0.066504982114485856 0 0.066504982114485856 0.32898564185277612 0 0 0 0 -2.8983737974340329 -13.073890394762884 0 -13.073890394762884 58.787945960273532 0 0 0 0 -6.1659354383679705 -0.42065732300290204 0 -0.42065732300290204 0.30419427202835592 0 0 0 0 6.3816726533586916 8.0471410616574985 0 8.0471410616574985 5.5352018643191059 0 0 0 0 3.4453314710553968 -4.3958675016681923 0 -4.3958675016681923 6.8708308814822203 0 0 0 0 -4.9009005379266455 0.3802565882923048 0 0.3802565882923048 4.2280083068849308 0 0 0 0 -40.806159334984841 -30.417218632839422 0 -30.417218632839422 43.54707829662253 0 0 0 0 -8.9538239232897467 9.6453223778859183 0 9.6453223778859183 20.559904132170232 0 0 0 0 -20.264495327593067 6.8231102397284928 0 6.8231102397284928 7.5675241044746144 0 0 0 0 -15.733084792303998 -1.2833839503805393 0 -1.2833839503805393 3.000963939346434 0 0 0 0 -42.85983678644061 -37.329814718882517 0 -37.329814718882517 116.78579032115795 0 0 0 0 -26.571476473030998 31.726121171108161 0 31.726121171108161 20.680144492163663 0 0 0 0 0.73357656754433265 -0.59582835760249964 0 -0.59582835760249964 22.25163982543836 0 0 0 0 -4.3475827287802531 -44.227540333577736 0 -44.227540333577736 56.920878048900022 0 0 0 0 -7.0313199976539771 1.5547922190923922 0 1.5547922190923922 0.13819250629714541 0 0 0 0 -10.657896317687118 -0.10486923905898493 0 -0.10486923905898493 10.102801372259592 0 0 0 0 -6.727934033391648 -3.8582301690496479 0 -3.8582301690496479 13.599249398916609 0 0 0 0 -5.5380973297906166 -3.4855963676441206 0 -3.4855963676441206 5.8814559053173525 0 0 0 0 -11.254871061323684 0.59796834833974799 0 0.59796834833974799 5.3892337675646331 0 0 0 0 -10.623450456043258 -1.5070344665900102 0 -1.5070344665900102 9.8742458069325494 0 0 0 0 -11.513516776055425 -0.56599739144504291 0 -0.56599739144504291 0.70374292618640233 0 0 0 0 -8.5111750193609623 -2.4562358109434399 0 -2.4562358109434399 -1.9096163583438965 0 0 0 0 -9.2493463318542126 -1.2532075596068353 0 -1.2532075596068353 4.6055816418538598 0 0 0 0 -5.6193859879276715 -0.63670510856778151 0 -0.63670510856778151 -0.30989684261317052 0 0 0 0 -11.613963028128637 -1.3404137330093988 0 -1.3404137330093988 0.025592185768637421 0 0 0 0 -11.922932959780155 -5.9297234974646074 0 -5.9297234974646074 -1.2013041537012299 0 0 0 0 -5.6225888292702813 2.4923048096076457 0 2.4923048096076457 2.7617288663120281 0 0 0 0 -5.3018207309087302 9.0377027778483239 0 9.0377027778483239 5.2850007484126991 0 0 0 0 -8.2066422941663859 3.5796060171062436 0 3.5796060171062436 4.3723558745741684 0 0 0 0 -14.20681929291186 2.5056627871269654 0 2.5056627871269654 3.7063655512876039 0 0 0 0 -7.8061969216923899 5.6405743998220714 0 5.6405743998220714 4.5109423230380798 0 0 0 0 -3.7427378768261406 3.1807493363945127 0 3.1807493363945127 1.3461918949402047 0 0 0 0 -6.1506910365751537 -1.2851825612569883 0 -1.2851825612569883 3.3947357176600121 0 0 0 0 -9.0999414102607261 0.95704486390269494 0 0.95704486390269494 0.42828854028601882 0 0 0 0 -7.7873617956615817 -0.091667153105959187 0 -0.091667153105959187 -1.9936949445244636 0 0 0 0 -8.4042072833390193 1.7951213192210105 0 1.7951213192210105 0.57353979166691715 0 0 0 0 -9.9248590683564544 -0.27068525837850643 0 -0.27068525837850643 -0.20786986656418094 0 0 0 0 -9.8380275249255646 -0.12754185934751661 0 -0.12754185934751661 -0.48383035755441028 0 0 0 0 -10.573732111088248 -2.6703410374903349 0 -2.6703410374903349 -2.6686817916804557 0 0 0 0 -9.8902872955404746 -0.6208230896945679 0 -0.6208230896945679 -1.2914425786679544 0 0 0 0 -12.308310781286309 -1.8753155609240366 0 -1.8753155609240366 7.3884030678151476 0 0 0 0 0.78876633790991946 5.3029781954886914 0 5.3029781954886914 1.5103556704732455 0 0 0 0 -3.0395606938436686 19.059121918959931 0 19.059121918959931 6.583000135879729 0 0 0 0 -6.0379594723424255 2.6062911468236099 0 2.6062911468236099 2.595235497417467 0 0 0 0 -17.817556408845121 -2.024540579075051 0 -2.024540579075051 4.9643769179822073 0 0 0 0 -14.562073126988253 1.9663672661248484 0 1.9663672661248484 1.1774167156758182 0 0 0 0 -20.163062342213379 -7.8535572458367255 0 -7.8535572458367255 -0.17519822380150174 0 0 0 0 -21.965833180516711 -7.1294718265916117 0 -7.1294718265916117 -3.1560884949361707 0 0 0 0 -24.254518511083006 2.2499603140840918 0 2.2499603140840918 3.6545028138446014 0 0 0 0 -15.873599412656404 -4.341086142978213 0 -4.341086142978213 -8.552061166703993 0 0 0 0 -16.330532390960798 0.6702237065483132 0 0.6702237065483132 7.7953603395496884 0 0 0 0 -18.187577003245678 3.9364937585991129 0 3.9364937585991129 2.0753375901711024 0 0 0 0 -17.759678622994215 3.2927300787029026 0 3.2927300787029026 7.0306300978509171 0 0 0 0 -7.8947759756652189 1.4317992699005071 0 1.4317992699005071 3.3371204298727428 0 0 0 0 -10.648685899723205 -5.2843751021529215 0 -5.2843751021529215 3.0451578720992529 0 0 0 0 -19.496647883686819 -3.1906561454570692 0 -3.1906561454570692 12.892831779787343 0 0 0 0 -15.884584244317921 0.10350117145964077 0 0.10350117145964077 7.7169813580985647 0 0 0 0 -26.972773572984806 2.876343658675637 0 2.876343658675637 4.1019623023291842 0 0 0 0 -23.378091167597631 -1.0556765202415477 0 -1.0556765202415477 7.7013137777889824 0 0 0 0 -13.466453847850062 -6.9804312963719894 0 -6.9804312963719894 2.9273893090928595 0 0 0 0 -22.380330374306141 -12.81551227254397 0 -12.81551227254397 2.2063098605055984 0 0 0 0 -5.48501717023737 -18.368705976435194 0 -18.368705976435194 -42.448500955675399 0 0 0 0 -43.008835016475132 -9.6576276391378997 0 -9.6576276391378997 1.8221153001514665 0 0 0 0 -23.609732844907057 -2.3764687719092024 0 -2.3764687719092024 -3.7675647011769797 0 0 0 0 -34.421773721585851 8.9960867154800326 0 8.9960867154800326 -15.136183194594764 0 0 0 0 -24.918452466945382 -14.024700706180738 0 -14.024700706180738 -26.897314901770869 0 0 0 0 -21.501564009062349 -7.186570763256384 0 -7.186570763256384 -13.837097608479098 0 0 0 0 -42.647813546585894 -15.127241098241029 0 -15.127241098241029 -8.2260332298119465 0 0 0 0 -21.508485928414302 2.7564502173906931 0 2.7564502173906931 5.6016874445899703 0 0 0 0 -0.3565323834194345 -0.27244495268536228 0 -0.27244495268536228 -0.0094803894871716421 0 0 0 0 -39.797789404841751 -1.3717898576396692 0 -1.3717898576396692 5.3704039751594337 0 0 0 0 -23.62144306992991 1.2921500968924633 0 1.2921500968924633 1.1868076660828137 0 0 0 0 -7.7440803479166789 2.7064965304435873 0 2.7064965304435873 -1.6814035105364269 0 0 0 0 -18.874558111433089 -1.1270417425791521 0 -1.1270417425791521 -1.481457086073533 0 0 0 0 -21.113679306604354 -7.7561018458771684 0 -7.7561018458771684 -3.143130882337573 0 0 0 0 -16.78907926267857 -5.3433231620004449 0 -5.3433231620004449 -2.1189795913200555 0 0 0 0 -24.5130937580725 -6.3524786042827373 0 -6.3524786042827373 -0.11411589213423667 0 0 0 0 -23.903824055358996 -11.719641487872472 0 -11.719641487872472 -3.8844073023585679 0 0 0 0 -26.08615085780184 -8.8968700799964608 0 -8.8968700799964608 -2.6068157883371441 0 0 0 0 -29.250630564190942 -7.1470576848387282 0 -7.1470576848387282 -3.5342556601066235 0 0 0 0 -28.776421887188349 -15.108164488892623 0 -15.108164488892623 -6.6482631588212371 0 0 0 0 -23.669095542918512 -11.557629278869001 0 -11.557629278869001 -4.1885946599080626 0 0 0 0 -20.859541856962096 -10.973237844062055 0 -10.973237844062055 -7.6209026147586201 0 0 0 0 -23.609668226805297 -12.227968983423807 0 -12.227968983423807 -3.3909368685605159 0 0 0 0 -19.557782022461652 -7.4762350168124101 0 -7.4762350168124101 -2.9082350960447911 0 0 0 0 -24.917670273711337 -10.332123377622622 0 -10.332123377622622 -2.8788627412033523 0 0 0 0 -22.954648003811599 -8.0409076961244068 0 -8.0409076961244068 -0.4543286693860864 0 0 0 0 -35.894283158033431 -11.823413323536442 0 -11.823413323536442 -1.5252908873013666 0 0 0 0 -21.895493892678132 -12.570037883018585 0 -12.570037883018585 -4.7470526303384872 0 0 0 0 -24.35932309506461 -12.411957206507481 0 -12.411957206507481 -3.2154132456485058 0 0 0 0 -19.900733848342497 -9.1615943790999381 0 -9.1615943790999381 -2.3658393110607676 0 0 0 0 -23.516477156714245 -12.380158360642724 0 -12.380158360642724 -4.336523960048595 0 0 0 0 -14.924599701036641 -11.509139043695768 0 -11.509139043695768 -9.7755685230375207 0 0 0 0 -23.907507998137589 -15.20121259583442 0 -15.20121259583442 -7.1791492152107139 0 0 0 0 -31.135663161740013 -18.54771710405231 0 -18.54771710405231 -7.3888247638918756 0 0 0 0 -29.709422989100858 -17.223816357957276 0 -17.223816357957276 -7.4512609554612936 0 0 0 0 -17.63290603434325 -19.330842520242925 0 -19.330842520242925 -19.343973825947955 0 0 0 0 -7.4680254755803617 -8.2167449882790038 0 -8.2167449882790038 -9.7573694576312562 0 0 0 0 -14.170261278054568 -8.13813796991586 0 -8.13813796991586 -7.7484465878991955 0 0 0 0 -5.9253662225570096 1.9891157223713662 0 1.9891157223713662 -0.56124338404816343 0 0 0 0 -6.9737147448304313 2.4164715595179302 0 2.4164715595179302 -3.0856087774456284 0 0 0 0 -13.974283402752917 -2.5021470441777183 0 -2.5021470441777183 -4.0351040088929153 0 0 0 0 -10.94019520591246 -5.5750229383823013 0 -5.5750229383823013 41.911805801882991 0 0 0 0 -3.2843325812718831 0.59305945949625993 0 0.59305945949625993 0.89357309606521085 0 0 0 0 -5.0025199402217382 0.35187182767640657 0 0.35187182767640657 -0.18855304621374652 0 0 0 0 -5.0373587524263712 2.6724975215883546 0 2.6724975215883546 2.2913604823072546 0 0 0 0 -4.1537182221111735 0.13694642301486759 0 0.13694642301486759 0.71170223989762427 0 0 0 0 -1.1238392007560662 0.83955193118119631 0 0.83955193118119631 -0.30027645793679625 0 0 0 0 -7.5418321876395567 -3.611945695509462 0 -3.611945695509462 -1.7183583454921063 0 0 0 0 -15.357372951835714 -3.4720789078131702 0 -3.4720789078131702 -1.3482160741045845 0 0 0 0 -9.3635439719237183 -0.18941062934919728 0 -0.18941062934919728 -3.0492366160023039 0 0 0 0 -8.1656063942082255 -1.4755009851574243 0 -1.4755009851574243 -3.1387776580377249 0 0 0 0 -15.125668082931952 -4.5337346996159908 0 -4.5337346996159908 -4.603631794200993 0 0 0 0 -12.312348631774512 -3.0717495167695219 0 -3.0717495167695219 -3.9276948930455546 0 0 0 0 0.12819538109145157 0.94154228825763475 0 0.94154228825763475 0.3646416732758031 0 0 0 0 -9.3783369170141668 8.0350126035057201 0 8.0350126035057201 10.426725707509604 0 0 0 0 -0.047533241499507994 1.0033884467234842 0 1.0033884467234842 0.48372668980138611 0 0 0 0 3.0836663704176317 4.3596011588301735 0 4.3596011588301735 0.3017063297525624 0 0 0 0 0.68463300517396419 2.1095293106723148 0 2.1095293106723148 0.97859262564315941 0 0 0 0 -0.23074607260423363 -0.43679732590976528 0 -0.43679732590976528 -1.6482590137793807 0 0 0 0 -0.26433351260471483 0.051121328705246327 0 0.051121328705246327 0.31576887191646952 0 0 0 0 2.1196170409421029 1.9142394182756561 0 1.9142394182756561 -1.9786300071384346 0 0 0 0 -10.585553439634168 -1.3890646077296083 0 -1.3890646077296083 -1.2633359459031188 0 0 0 0 -6.4274329838065292 2.3951368225858847 0 2.3951368225858847 2.191592682208781 0 0 0 0 2.5573629489299492 -1.5406199455161982 0 -1.5406199455161982 6.463573639123946 0 0 0 0 3.8023413028840878 11.551264293887186 0 11.551264293887186 0.46110568984647671 0 0 0 0 6.6423028188983153 3.2798543898013577 0 3.2798543898013577 -3.394045504833457 0 0 0 0 -11.61662031652213 -2.1615727132018492 0 -2.1615727132018492 12.334559072669663 0 0 0 0 -21.379026455673738 8.314650917496067 0 8.314650917496067 2.5251947402787209 0 0 0 0 -6.2183098453679122 12.591945594670676 0 12.591945594670676 -15.24864899290219 0 0 0 0 -0.21936737207601453 -0.31275339503295241 0 -0.31275339503295241 0.097913688347502692 0 0 0 0 -24.683405502089954 -2.2673004074421215 0 -2.2673004074421215 -3.9415871872121135 0 0 0 0 -13.525290384324762 -2.3265246229233298 0 -2.3265246229233298 -3.9412948404522012 0 0 0 0 -26.140284435261492 -0.68180058468624338 0 -0.68180058468624338 -0.71352687227408751 0 0 0 0 -55.240960405557416 -9.0458142798651124 0 -9.0458142798651124 2.4754823282847553 0 0 0 0 -29.948566508212025 -3.0625711073497826 0 -3.0625711073497826 3.8776889709254192 0 0 0 0 -68.586491029095669 15.571475643425156 0 15.571475643425156 -5.8963433033299566 0 0 0 0 -56.55273475372087 -37.452237051554647 0 -37.452237051554647 -14.112848423054743 0 0 0 0 -0.079513990643214072 -0.12163747140901648 0 -0.12163747140901648 -0.11206451210141377 0 0 0 0 -8.2407265027559333 -22.942570078959449 0 -22.942570078959449 23.74886204988411 0 0 0 0 -26.815321543497703 10.687165201835072 0 10.687165201835072 -6.1569908049739865 0 0 0 0 -5.1758006151903828 1.8901146976234315 0 1.8901146976234315 -5.6518681114210665 0 0 0 0 -5.2306239050103613 2.7495555847036712 0 2.7495555847036712 -3.4175081242766758 0 0 0 0 -0.34720220387569611 -0.11273752627365319 0 -0.11273752627365319 0.021986042522579297 0 0 0 0 -4.6599019142722682 3.5192191827810007 0 3.5192191827810007 -2.3843306974264351 0 0 0 0 -0.87974737465810904 4.4297403728620566 0 4.4297403728620566 13.864695416964423 0 0 0 0 -0.87596855213450908 5.6172016989717974 0 5.6172016989717974 10.000700347977727 0 0 0 0 -0.67496928139553347 1.750812770084508 0 1.750812770084508 9.7235663131431807 0 0 0 0 -0.6725363584846491 1.9395695535388882 0 1.9395695535388882 15.676752660399131 0 0 0 0 -44.54120403928755 -7.2372554494709647 0 -7.2372554494709647 46.970563079878758 0 0 0 0 -2.0359317342168239 0.21083225770196101 0 0.21083225770196101 0.095206076735158324 0 0 0 0 -54.780070034830715 48.537375182650806 0 48.537375182650806 78.423260653630777 0 0 0 0 -1.1813019850305864 -1.0509994131382285 0 -1.0509994131382285 10.430539021851985 0 0 0 0 -2.0595904206602427 4.1413583892715167 0 4.1413583892715167 18.029911141580527 0 0 0 0 -1.8972732889194504 2.6532946681882645 0 2.6532946681882645 11.816888701184212 0 0 0 0 0.41644132828150759 1.3157544666875651 0 1.3157544666875651 12.498732126659561 0 0 0 0 0.63556591022552311 1.9405010192619905 0 1.9405010192619905 10.212743726088718 0 0 0 0 65.852641709141608 18.519497529017066 0 18.519497529017066 -32.24399816725667 0 0 0 0 24.465296756172393 -100.2446324799092 0 -100.2446324799092 -112.61208375601197 0 0 0 0 -50.310639270475804 -89.98596626236322 0 -89.98596626236322 -78.918490625530438 0 0 0 0 -144.94322133336391 -87.637217042158795 0 -87.637217042158795 -67.649116978427813 0 0 0 0 -1.0915247656448628 5.0841137704512249 0 5.0841137704512249 -11.990560221211211 0 0 0 0 -129.9343045941896 -89.152563579124845 0 -89.152563579124845 -21.426064674084927 0 0 0 0 -0.78244643236127587 -0.38091962701208182 0 -0.38091962701208182 0.11272619860532831 0 0 0 0 -7.5918649848499626 1.7373444293367868 0 1.7373444293367868 22.219827965523251 0 0 0 0 -1.2810282954022725 -0.16815714003826088 0 -0.16815714003826088 0.12241682556440128 0 0 0 0 -37.664702779722575 36.576185525509516 0 36.576185525509516 -33.408323186616585 0 0 0 0 -112.52978168584013 -17.395376259057429 0 -17.395376259057429 25.988527093546523 0 0 0 0 -37.979935566483618 -26.732707680449721 0 -26.732707680449721 -17.591761322911353 0 0 0 0 -55.233394399485405 -61.905170311741074 0 -61.905170311741074 -46.083178995847334 0 0 0 0 -19.405549766374634 -12.21600531040192 0 -12.21600531040192 -16.624904408259908 0 0 0 0 -19.931572266152216 -22.41203249416904 0 -22.41203249416904 -88.198534302244184 0 0 0 0 -1.8710576363137079 0.42499161299792121 0 0.42499161299792121 0.71353189324821642 0 0 0 0 -1.4143972728238126 0.12840146067641811 0 0.12840146067641811 0.065209025803449103 0 0 0 0 -1.2693718921686568 -0.03254527559064968 0 -0.03254527559064968 0.1697907888013418 0 0 0 0 1.8117959296359913 0.79967468506576722 0 0.79967468506576722 -5.8071200771738933 0 0 0 0 -38.295049812881189 12.468267018909984 0 12.468267018909984 15.300171208084748 0 0 0 0 -2.0376054232310707 -2.0826258743766721 0 -2.0826258743766721 3.0408420574298578 0 0 0 0 -1.5088661674290051 -1.4769749916357835 0 -1.4769749916357835 2.3368717816434543 0 0 0 0 -1.1149438053962513 -5.2642579475106528 0 -5.2642579475106528 -0.0070738804042772864 0 0 0 0 -1.1384175562252494 -3.1944963928561849 0 -3.1944963928561849 4.3501970144714717 0 0 0 0 -9.4296369463263545 -3.9086841001008876 0 -3.9086841001008876 4.4484267528626589 0 0 0 0 -14.065209905302254 10.003552097875479 0 10.003552097875479 -0.73177243679706194 0 0 0 0 -0.56446842605315339 -0.11844522443243122 0 -0.11844522443243122 0.096896846678733078 0 0 0 0 -2.9275458406464168 -1.5480684156855973 0 -1.5480684156855973 14.957934335061488 0 0 0 0 -21.978004001000954 -14.287395833702526 0 -14.287395833702526 -7.2683947165059122 0 0 0 0 0.38354604160849703 -8.0928414943328644 0 -8.0928414943328644 5.0353988234496008 0 0 0 0 -1.4507590708760034 0.18657253181585354 0 0.18657253181585354 0.054459521698809091 0 0 0 0 7.3134210395264745 4.0620467353708198 0 4.0620467353708198 0.22099650163035989 0 0 0 0 16.425903012805065 -3.8131880584387829 0 -3.8131880584387829 -55.495271661666152 0 0 0 0 -0.56847627724616245 0.034830609236253807 0 0.034830609236253807 0.024726503819236169 0 0 0 0 -16.502079971269268 18.814126498835734 0 18.814126498835734 25.042654805519295 0 0 0 0 -74.852589743302815 -105.26646713726804 0 -105.26646713726804 -67.146194099711295 0 0 0 0 -138.67708047975611 -91.785640812422784 0 -91.785640812422784 -6.6312492048814633 0 0 0 0 -90.649568031309173 -56.328339872338198 0 -56.328339872338198 -50.210364751984741 0 0 0 0 -124.27037547843975 -48.219560074105246 0 -48.219560074105246 -46.832106791727526 0 0 0 0 -98.122420398103714 -55.296402843340886 0 -55.296402843340886 -91.507810145177643 0 0 0 0 -120.25679950643098 -54.730405352193699 0 -54.730405352193699 -91.495139664053298 0 0 0 0 -36.464600818327199 -6.9667454036809771 0 -6.9667454036809771 0.016033549446002202 0 0 0 0 -114.77848334710507 -2.7943770578017677 0 -2.7943770578017677 21.099659059977043 0 0 0 0 -51.655386536243896 7.0660267219424391 0 7.0660267219424391 -92.044480671468023 0 0 0 0 -76.862982013529518 -34.545629543018912 0 -34.545629543018912 -28.582734140703984 0 0 0 0 -76.175367129337246 -28.657165084180185 0 -28.657165084180185 -9.612287580622997 0 0 0 0 -64.040215530661953 1.1911550685244716 0 1.1911550685244716 -14.946500203978724 0 0 0 0 -36.424681671131111 37.628275992009506 0 37.628275992009506 -53.12423873158005 0 0 0 0 -127.1640813601407 -28.752403906948288 0 -28.752403906948288 -93.741101947545062 0 0 0 0 -91.945434169196233 -32.724033604749074 0 -32.724033604749074 -93.65875883306073 0 0 0 0 -123.70945041580671 -16.738206890740695 0 -16.738206890740695 -39.306310058074239 0 0 0 0 -40.875554598364033 33.185066903078706 0 33.185066903078706 -23.192193070303681 0 0 0 0 -2.1813157949400193 -4.1612705257614806 0 -4.1612705257614806 -2.4049989588308449 0 0 0 0 3.1292905534610327 -0.71072006169835333 0 -0.71072006169835333 -3.3237184930851278 0 0 0 0 -7.7765536558144959 0.49536073568480177 0 0.49536073568480177 -2.9822250213158821 0 0 0 0 -6.0391569059247558 2.817870758363787 0 2.817870758363787 -0.29103580597743672 0 0 0 0 -7.415782653624774 -4.6399973861667227 0 -4.6399973861667227 -2.1421347710126968 0 0 0 0 -15.461796610423335 -0.60000109280566605 0 -0.60000109280566605 4.7666510683023589 0 0 0 0 -8.8241624687198055 6.7785486850460472 0 6.7785486850460472 7.7875532913077059 0 0 0 0 0.095015414988006253 -0.0054466953065066548 0 -0.0054466953065066548 -0.13682524923093442 0 0 0 0 -19.028992465712236 5.6077234221875294 0 5.6077234221875294 30.181218971594561 0 0 0 0 -17.558469199525007 -1.1851174186915165 0 -1.1851174186915165 8.2200061417835286 0 0 0 0 -1.5452247066899163 0.090178342881412021 0 0.090178342881412021 -0.040336959624131932 0 0 0 0 -14.409337635162046 25.671787503325877 0 25.671787503325877 1.7140812874456124 0 0 0 0 1.7943465708613076 -0.40056403487666259 0 -0.40056403487666259 -63.711600542072929 0 0 0 0 -26.287775767825224 -23.967473497930943 0 -23.967473497930943 13.573192443630887 0 0 0 0 -30.214084686958813 -18.91238478537192 0 -18.91238478537192 26.431748142108752 0 0 0 0 3.4888538460363634 -8.8741068339025304 0 -8.8741068339025304 -8.9093779350496867 0 0 0 0 -0.48880288710152087 0.032980971815563365 0 0.032980971815563365 -0.031571849342717076 0 0 0 0 -11.300500924418884 -18.149517464936402 0 -18.149517464936402 -12.572840619598772 0 0 0 0 -9.532970742760881 0.16510000948912307 0 0.16510000948912307 -4.551254660179616 0 0 0 0 -1.2167628583517214 0.79662338222940132 0 0.79662338222940132 -0.098779608097137081 0 0 0 0 2.118058621157104 11.082005579485509 0 11.082005579485509 0.47099742504929054 0 0 0 0 -4.1102129728878865 1.1909655348077877 0 1.1909655348077877 -0.20854962186588205 0 0 0 0 -2.9904446061154886 -5.3839009706682788 0 -5.3839009706682788 -18.135608367038188 0 0 0 0 -14.415423028240184 -36.980134658088701 0 -36.980134658088701 -30.623939373055009 0 0 0 0 -8.0798047846765257 -7.6149825268075233 0 -7.6149825268075233 -13.858266815035421 0 0 0 0 -1.4083643116771043 0.4491899713963754 0 0.4491899713963754 -0.048301511182053058 0 0 0 0 8.6393036088411463 -14.595637723891628 0 -14.595637723891628 -16.712368289165397 0 0 0 0 16.387323670485785 -14.057219184803728 0 -14.057219184803728 -18.481186770188515 0 0 0 0 11.636505096728797 -5.5286731124402877 0 -5.5286731124402877 -31.262646524671183 0 0 0 0 -1.5918648931328789 -0.51751449388831539 0 -0.51751449388831539 3.1856665363451775 0 0 0 0 -1.9784947058053106 0.53938894581595775 0 0.53938894581595775 0.10100066586116817 0 0 0 0 -3.5473063728459238 -0.086946352924826442 0 -0.086946352924826442 -0.27603161610829829 0 0 0 0 30.28940936383151 9.5765190977316479 0 9.5765190977316479 7.5406447483305783 0 0 0 0 -2.3792257965323245 1.697017304594457 0 1.697017304594457 -0.14558524280969354 0 0 0 0 -2.637680471692633 1.2126328267755229 0 1.2126328267755229 -0.16406111748652957 0 0 0 0 -1.7818273397788289 0.84009188195115314 0 0.84009188195115314 0.047805467104126365 0 0 0 0 -4.3302511354031594 0.19680033871439662 0 0.19680033871439662 -0.70658431406691413 0 0 0 0 -10.703341861604713 4.7707448321664856 0 4.7707448321664856 2.3027169193084944 0 0 0 0 0.580638997913411 7.3348741691516404 0 7.3348741691516404 -3.4331343121042011 0 0 0 0 -9.4377691105837584 5.2755938423527162 0 5.2755938423527162 -1.9749608063629651 0 0 0 0 0.23159106058954393 0.29753331832401564 0 0.29753331832401564 -0.20962749380386514 0 0 0 0 1.2807696120516994 0.23008053092796033 0 0.23008053092796033 2.3937330618624912 0 0 0 0 -9.2218974669449381 -0.065913616271817688 0 -0.065913616271817688 0.020057050915184504 0 0 0 0 -0.39075676460767994 0.17499501308518361 0 0.17499501308518361 0.036380980064098352 0 0 0 0 -6.1070946254121736 2.8419884636563753 0 2.8419884636563753 -0.2687770675670933 0 0 0 0 -1.4795744334096526 -0.50019051584564078 0 -0.50019051584564078 2.4581373773744222 0 0 0 0 -0.68105135438781872 -2.3668203232782945 0 -2.3668203232782945 2.9480248448283031 0 0 0 0 -0.75299833559984108 -2.0027654147434721 0 -2.0027654147434721 1.1100590465472788 0 0 0 0 1.4980251278557262 -2.6113971686138626 0 -2.6113971686138626 0.0065529931384673374 0 0 0 0 0.022436418108576106 -0.0026580302076055773 0 -0.0026580302076055773 0.031673051495727904 0 0 0 0 -4.4858013291122916 2.0243863356973617 0 2.0243863356973617 -1.2171218620464721 0 0 0 0 -8.4856921669706935 5.1410696371578597 0 5.1410696371578597 -0.00014389434140414377 0 0 0 0 -12.312471457038555 1.5376705913550839 0 1.5376705913550839 -0.99138187408974865 0 0 0 0 -9.0010573951929018 4.2677167008495687 0 4.2677167008495687 -0.59772074630324035 0 0 0 0 -8.7844031746153632 3.1303093219226472 0 3.1303093219226472 0.25285554243431108 0 0 0 0 -12.7262619433277 2.996575088601785 0 2.996575088601785 3.0463091898723453 0 0 0 0 -11.843518866655359 0.65422872459355297 0 0.65422872459355297 -3.9429955672419252 0 0 0 0 -21.835709577065927 1.5259106297006648 0 1.5259106297006648 2.6888565269676548 0 0 0 0 -15.505559863900999 4.6126410939862179 0 4.6126410939862179 -0.0042887326909044638 0 0 0 0 -0.04241703736180602 0.02070664628074681 0 0.02070664628074681 -0.03168114992018279 0 0 0 0 -11.613722380781837 -1.2735443701071965 0 -1.2735443701071965 0.0037541249266032648 0 0 0 0 -13.09964648968969 -0.85373965590948342 0 -0.85373965590948342 0.69179902466495191 0 0 0 0 -10.937584121845248 -1.1965116769235993 0 -1.1965116769235993 -0.014311473450716304 0 0 0 0 -11.246421645635564 -0.87082701388586425 0 -0.87082701388586425 0.22317976530047678 0 0 0 0 -2.4574423349815895 -0.60120769930388818 0 -0.60120769930388818 -0.013297080202061171 0 0 0 0 -11.234816591036179 -3.5636202071988206 0 -3.5636202071988206 -0.54883676923192581 0 0 0 0 -10.363372735211669 -2.3766351100825998 0 -2.3766351100825998 1.0667557449796299 0 0 0 0 -10.880160657854503 -0.9046882743744602 0 -0.9046882743744602 -0.458647603713354 0 0 0 0 -11.130227768180134 -1.070452205115823 0 -1.070452205115823 -0.15142594335915227 0 0 0 0 -8.2704624910566054 -0.23525658509847158 0 -0.23525658509847158 -0.56954472011207535 0 0 0 0 -7.2419580539913113 -3.9944950217039219 0 -3.9944950217039219 -0.72338213379570782 0 0 0 0 -5.6615199272738437 -2.8587606454207624 0 -2.8587606454207624 -0.51397863058565285 0 0 0 0 -9.0703433191538352 -0.62753969791515374 0 -0.62753969791515374 -0.025017156369480986 0 0 0 0 -5.1203762004069375 -1.8250032818399955 0 -1.8250032818399955 0.040506974610842295 0 0 0 0 -12.98030499322158 -10.209384166602334 0 -10.209384166602334 -3.7469683417710939 0 0 0 0 -21.338932141733949 0.33483130310823483 0 0.33483130310823483 7.3313540759150584 0 0 0 0 -24.932626732677818 -6.5529023221930522 0 -6.5529023221930522 0.62890140408585182 0 0 0 0 -0.97372198930881737 -1.6954338974822285 0 -1.6954338974822285 0.53525181448792591 0 0 0 0 -7.0442733621966909 -2.2680459021608783 0 -2.2680459021608783 0.84756641849934056 0 0 0 0 -9.6835246913486444 -3.6934096846660438 0 -3.6934096846660438 -0.34771799297746708 0 0 0 0 -16.900316830528027 -2.5870528703285629 0 -2.5870528703285629 -0.076257325074216453 0 0 0 0 -12.986693186216144 -1.2525579267631599 0 -1.2525579267631599 -1.6938461384761414 0 0 0 0 -9.2060470604794133 4.2086849919999985 0 4.2086849919999985 1.2327018174663897 0 0 0 0 -16.488186821665749 -1.8949685727278531 0 -1.8949685727278531 -1.7538305271725818 0 0 0 0 -1.9205250354046939 1.0744368087391081 0 1.0744368087391081 0.89132852564758136 0 0 0 0 -10.309760146003555 -2.1163264775573922 0 -2.1163264775573922 0.011114854494989973 0 0 0 0 -17.640873277383434 -5.304728321573263 0 -5.304728321573263 1.432780999265197 0 0 0 0 30.428348246319729 55.448524243686748 0 55.448524243686748 -0.10652961224667354 0 0 0 0 -1.1119833159663344 -0.41700187039268855 0 -0.41700187039268855 0.091804140141142826 0 0 0 0 7.4399756121474638 24.25202277835259 0 24.25202277835259 42.224972883654374 0 0 0 0 30.450308806939503 50.703498480206655 0 50.703498480206655 66.696959617959976 0 0 0 0 22.600933462626926 81.586576601914089 0 81.586576601914089 0.51623684110581969 0 0 0 0 -6.5014951042594475 45.6084337231148 0 45.6084337231148 94.969567383426281 0 0 0 0 -5.02083119353847 -3.9215162461115085 0 -3.9215162461115085 6.120191398230336 0 0 0 0 14.154334809692955 62.62206020777495 0 62.62206020777495 61.028598125310808 0 0 0 0 -4.4183298608368204 27.244865840541948 0 27.244865840541948 39.979973651382622 0 0 0 0 27.59428959188881 32.811139233756194 0 32.811139233756194 -1.940869216106762 0 0 0 0 -253.06208249192059 214.64625186569231 0 214.64625186569231 190.949118359127 0 0 0 0 0.97880826428990986 98.012416508111329 0 98.012416508111329 121.04373766978323 0 0 0 0 -34.839770141050394 178.72320375912329 0 178.72320375912329 -1.4846822201338687 0 0 0 0 13.244428960841105 42.956580477589227 0 42.956580477589227 81.954013960368343 0 0 0 0 -135.46432093683325 28.469626147353324 0 28.469626147353324 417.50767584844357 0 0 0 0 -12.181103190041817 -2.5463236598647567 0 -2.5463236598647567 -0.0045204542560752237 0 0 0 0 -44.611203535669688 -43.544488563256827 0 -43.544488563256827 56.799280133617827 0 0 0 0 -27.972768567115054 -2.5744155620295714 0 -2.5744155620295714 8.2037739649079953 0 0 0 0 -161.7371932470578 -1.7097735399776752 0 -1.7097735399776752 24.634920466756114 0 0 0 0 -145.61338886756266 34.969285209586324 0 34.969285209586324 -18.578970856485597 0 0 0 0 -13.222296708053385 -2.0110636946250722 0 -2.0110636946250722 0.26180007801545657 0 0 0 0 16.83383670242074 -31.526346233348164 0 -31.526346233348164 17.656062796573835 0 0 0 0 -1.3019059197322349 -49.382307503785007 0 -49.382307503785007 12.371562701101311 0 0 0 0 -22.208165161964644 -2.7078883534104818 0 -2.7078883534104818 25.304852424717836 0 0 0 0 27.756413238748792 -42.991233598243468 0 -42.991233598243468 -2.9265017879246784 0 0 0 0 41.190126243356644 -20.873524915064891 0 -20.873524915064891 8.2086862787845121 0 0 0 0 -9.4258119944151986 -21.375775952857623 0 -21.375775952857623 30.453100049601311 0 0 0 0 -2.1420825057696113 -1.0212887884343083 0 -1.0212887884343083 0.60813661123662666 0 0 0 0 -12.30769307106857 3.3500472263462306 0 3.3500472263462306 18.760139372762978 0 0 0 0 28.477722535105386 -29.377292562808677 0 -29.377292562808677 -2.4799966226705692 0 0 0 0 34.301394886464209 4.4079642477197094 0 4.4079642477197094 -32.34271727830054 0 0 0 0 -4.1179575714932071 5.8384073742257385 0 5.8384073742257385 -13.113358658353064 0 0 0 0 -3.7183179502708299 -9.7337912709978553 0 -9.7337912709978553 -13.619658028172609 0 0 0 0 2.6741401404606222 -10.525888751372548 0 -10.525888751372548 -13.750479337615303 0 0 0 0 -37.085950113247236 -46.306927323208853 0 -46.306927323208853 -47.066455107107544 0 0 0 0 -0.6210079032806668 -0.52561574228623797 0 -0.52561574228623797 -0.61725779502044165 0 0 0 0 -5.140937664284138 13.171702401647565 0 13.171702401647565 -49.417689898807851 0 0 0 0 -192.05956342520108 -31.198608333472706 0 -31.198608333472706 -1.309181994460376 0 0 0 0 -206.91271111590868 27.773416794811958 0 27.773416794811958 -5.1983998341524646 0 0 0 0 -108.12870741054576 -4.7015491444098103 0 -4.7015491444098103 15.458508145022222 0 0 0 0 -147.35801023975 -17.8623230416651 0 -17.8623230416651 12.087645779756144 0 0 0 0 -45.812672156220287 -14.73584847490438 0 -14.73584847490438 -3.6898574523099228 0 0 0 0 -1.4991145474069469 -1.5587842505615974 0 -1.5587842505615974 -1.6278780896291281 0 0 0 0 -65.848644185512967 35.989942374648706 0 35.989942374648706 -6.2569086807322236 0 0 0 0 -64.137904134509881 -14.779935069302496 0 -14.779935069302496 1.1254971267184715 0 0 0 0 -42.626558310755172 11.61002274516278 0 11.61002274516278 7.0553673720684174 0 0 0 0 -83.142951755722606 -11.114470760792869 0 -11.114470760792869 3.8435077921002403 0 0 0 0 0.30664412738769897 1.449797895675772 0 1.449797895675772 -10.476684900866331 0 0 0 0 2.3004038592080178 -2.2918999952222521 0 -2.2918999952222521 -5.7564711851310335 0 0 0 0 5.0805972532907617 -3.5658139902822654 0 -3.5658139902822654 -17.380824033432816 0 0 0 0 -1.0036959546791664 -2.1966360165135139 0 -2.1966360165135139 -3.0817068686705902 0 0 0 0 4.6658576359113795 -11.644031101206423 0 -11.644031101206423 -8.5038038121452928 0 0 0 0 -2.2111138704171935 -9.4097885605683018 0 -9.4097885605683018 -1.2977595320649016 0 0 0 0 0.43094344500331694 -1.0550438507552009 0 -1.0550438507552009 -1.4943446123905426 0 0 0 0 -0.39145611054482288 -3.3227081690593536 0 -3.3227081690593536 -5.4004959365415885 0 0 0 0 -9.5517007082235068 -9.0042480491963488 0 -9.0042480491963488 2.6193675568775916 0 0 0 0 -4.2343710105633363 -10.412550287968088 0 -10.412550287968088 0.58879647943012969 0 0 0 0 -1.0092054462911619 -3.4759170626621199 0 -3.4759170626621199 -0.91887653061485253 0 0 0 0 -10.893607213930409 -5.4103139333532795 0 -5.4103139333532795 0.44880942552913439 0 0 0 0 -4.3184270749879943 -1.5406079516601494 0 -1.5406079516601494 1.369813515973874 0 0 0 0 -4.9932094485911875 -14.579940914345116 0 -14.579940914345116 9.1022052564469504 0 0 0 0 -16.767349423585983 13.55737758869401 0 13.55737758869401 -33.053560349503869 0 0 0 0 -2.8778737500160787 1.9341446927872425 0 1.9341446927872425 -10.961923586951315 0 0 0 0 -0.4244769416670735 -0.077241828820410419 0 -0.077241828820410419 0.13706986057105797 0 0 0 0 0.85251063421691597 -0.75504646185995128 0 -0.75504646185995128 -0.75411642312564453 0 0 0 0 -31.796901000147045 -3.153094119553316 0 -3.153094119553316 21.403547846222068 0 0 0 0 -6.2644448114497209 0.38008054168028593 0 0.38008054168028593 1.599099572878913 0 0 0 0 -15.766332684603185 9.3346313970040455 0 9.3346313970040455 -6.8276774474895774 0 0 0 0 -0.37348877974363859 -1.8641761108800665 0 -1.8641761108800665 -5.6169098803570705 0 0 0 0 -2.4082858884794405 2.1780078903957474 0 2.1780078903957474 -7.03107299772023 0 0 0 0 -0.018685548071516678 -1.193867243298314 0 -1.193867243298314 -2.3166474601371192 0 0 0 0 -0.45733278512125253 -0.034866426200323986 0 -0.034866426200323986 -2.402191238289106 0 0 0 0 -0.036179562002871535 1.4315355740881159 0 1.4315355740881159 0.6413389298685388 0 0 0 0 -4.4452389994876285 -1.0980198261799501 0 -1.0980198261799501 0.24760478194457392 0 0 0 0 0.7319749717717059 -3.7518592357281477 0 -3.7518592357281477 2.2085311798109046 0 0 0 0 -0.56494743253279012 -0.44983709951725359 0 -0.44983709951725359 0.25039439090778615 0 0 0 0 1.9167500130515691 -2.0648826121405364 0 -2.0648826121405364 -2.4746930872074699 0 0 0 0 -0.13738360044058595 -0.17034245479538557 0 -0.17034245479538557 0.059930448644704315 0 0 0 0 -7.1032760907237389 5.5274987742078565 0 5.5274987742078565 1.2564127386138466 0 0 0 0 0.42819382548623253 1.4956688222193861 0 1.4956688222193861 -4.0765627665097099 0 0 0 0 4.7631411758884497 -1.3361468521402458 0 -1.3361468521402458 -2.9647695749138734 0 0 0 0 -6.0277666528631926 0.006058131325062277 0 0.006058131325062277 -3.4141273018481115 0 0 0 0 -0.64564771857840242 0.25442817462584344 0 0.25442817462584344 -4.3585369174243169 0 0 0 0 -0.65744276973236992 0.14107911216876801 0 0.14107911216876801 -4.0421623924818419 0 0 0 0 0.60227200804547465 -0.17265672236655405 0 -0.17265672236655405 -4.2997614069843166 0 0 0 0 -0.9188376159530165 0.13708225393006224 0 0.13708225393006224 0.080762329527720222 0 0 0 0 -6.5846789497336431 -8.1440837314243026 0 -8.1440837314243026 -8.8351795156430626 0 0 0 0 -0.67316096348258725 -0.71964678427099216 0 -0.71964678427099216 -1.399167855659357 0 0 0 0 -4.8806711674669714 0.75559069223240272 0 0.75559069223240272 -0.06207049981964019 0 0 0 0 -0.84759085762763409 0.22889324944078027 0 0.22889324944078027 0.0082822532744426525 0 0 0 0 -4.9208958705607984 -3.7930909210748709 0 -3.7930909210748709 -0.10889442585590814 0 0 0 0 -1.7036183200852548 0.11682901188642525 0 0.11682901188642525 -0.024022416680249847 0 0 0 0 -4.2622614967694972 -3.2173698172586001 0 -3.2173698172586001 -2.2074805837684721 0 0 0 0 -2.3187068803163129 -0.6142568030557527 0 -0.6142568030557527 -1.1578382774047213 0 0 0 0 -5.1979691789421558 0.15597110821890681 0 0.15597110821890681 0.35476830727434217 0 0 0 0 -4.786707012424813 -2.6202478577326644 0 -2.6202478577326644 -2.433968774684331 0 0 0 0 -4.8540279582530275 -3.8635396070044266 0 -3.8635396070044266 -1.7849020151314789 0 0 0 0 -2.4809237073850454 -1.5950353781890954 0 -1.5950353781890954 -2.0365339448435975 0 0 0 0 -8.4125753253611038 -2.2997240756673136 0 -2.2997240756673136 1.0143073427372258 0 0 0 0 -26.370401018713892 -21.486311710217308 0 -21.486311710217308 6.1042035270753132 0 0 0 0 1.1376078420679576 -1.0263001595647552 0 -1.0263001595647552 -0.17173794275965948 0 0 0 0 1.5411194352273014 -26.602972064451563 0 -26.602972064451563 -20.342406937896499 0 0 0 0 -13.878723804644324 -1.8814632808642386 0 -1.8814632808642386 0.85451044363759365 0 0 0 0 -410.90994597728786 -240.45633277124702 0 -240.45633277124702 -35.215854905854982 0 0 0 0 -2.5796578507087062 0.75653891107297788 0 0.75653891107297788 -0.81713265655459622 0 0 0 0 -161.70002234862113 -276.43459626262768 0 -276.43459626262768 -308.88061910777986 0 0 0 0 -35.026360504582044 47.744685555546425 0 47.744685555546425 -29.963393516003407 0 0 0 0 -87.110479658289478 43.239386567977789 0 43.239386567977789 -20.454760293953484 0 0 0 0 -174.74924538514097 -100.63921818608118 0 -100.63921818608118 -76.055156033337795 0 0 0 0 -6.320485967919069 2.5833779266572234 0 2.5833779266572234 -0.84785991006367667 0 0 0 0 -168.14765389321474 -57.840016945317544 0 -57.840016945317544 -36.373683659175768 0 0 0 0 -222.1524235891884 -75.660748553220287 0 -75.660748553220287 -37.604366301055073 0 0 0 0 -214.30802896495334 -135.40095726719903 0 -135.40095726719903 2.4022704644589918 0 0 0 0 -2.9611136439227224 0.70848643025949443 0 0.70848643025949443 0.034583278200133204 0 0 0 0 -82.823525290245016 -78.105780414647469 0 -78.105780414647469 -71.099717433665063 0 0 0 0 -499.28266295653793 -110.87499052883018 0 -110.87499052883018 62.684623972103097 0 0 0 0 -359.31588965389346 -19.646354765919988 0 -19.646354765919988 -0.28111055135368695 0 0 0 0 -310.37331732705843 1.5344401690733562 0 1.5344401690733562 20.379118974713933 0 0 0 0 -284.32726340654153 -65.059955603122589 0 -65.059955603122589 0.5676520430565688 0 0 0 0 -136.41932889435611 25.184407683358099 0 25.184407683358099 -8.0908808250078437 0 0 0 0 -315.9993782678539 -27.739704650272898 0 -27.739704650272898 28.387677752080272 0 0 0 0 -3.303879194655778 -0.010036795329853021 0 -0.010036795329853021 -0.22446521624492588 0 0 0 0 -14.95855628292702 3.1830380791343815 0 3.1830380791343815 -0.81766796854363921 0 0 0 0 -13.534936484770697 2.3750985633267971 0 2.3750985633267971 -0.0036113524050670246 0 0 0 0 -0.18922896817866786 -0.30436319262778255 0 -0.30436319262778255 -0.12976461975691783 0 0 0 0 -12.868085793523278 2.1767434447951661 0 2.1767434447951661 -0.27791752919584667 0 0 0 0 -12.907736863387981 2.4206903238888597 0 2.4206903238888597 -0.83162381899423643 0 0 0 0 -13.474246522677277 1.8642150865752285 0 1.8642150865752285 -1.2048579384116831 0 0 0 0 -11.281576030515595 3.1112522820433588 0 3.1112522820433588 -0.36956070880672132 0 0 0 0 -22.841368075563878 10.735332734069658 0 10.735332734069658 3.0587662971440466 0 0 0 0 -84.232332261682132 -28.600244669193749 0 -28.600244669193749 -13.733837396604969 0 0 0 0 -12.174926905525354 3.8756120299513555 0 3.8756120299513555 -5.2061213385036407 0 0 0 0 -9.930576759123305 3.0638423238374228 0 3.0638423238374228 -0.38092360129995595 0 0 0 0 -21.384631891714889 4.9814661054887921 0 4.9814661054887921 1.2397058387711581 0 0 0 0 -11.732136919412369 9.3719799774320833 0 9.3719799774320833 -43.164948380083217 0 0 0 0 -20.242920500446417 1.1891579488599433 0 1.1891579488599433 2.0258427566801913 0 0 0 0 -16.05123037688054 5.1412712073576472 0 5.1412712073576472 -1.1473014084173201 0 0 0 0 -1.6354644393082367 1.1099373666910743 0 1.1099373666910743 0.61721469791830397 0 0 0 0 -15.041594740279834 1.6897783259837595 0 1.6897783259837595 -0.7720449955978097 0 0 0 0 -9.5580921614969157 -1.1199731048531802 0 -1.1199731048531802 -11.827373198314319 0 0 0 0 -56.391735791423343 3.2961317247770552 0 3.2961317247770552 8.9341130603428098 0 0 0 0 -3.0093961079462499 0.35320475271663554 0 0.35320475271663554 0.52332936077195913 0 0 0 0 -55.781723403471915 -12.130863179723207 0 -12.130863179723207 -2.2725812339525078 0 0 0 0 -96.860815658081265 -35.483254910515868 0 -35.483254910515868 -0.70277772657395587 0 0 0 0 -105.34681892481967 -22.276022677884797 0 -22.276022677884797 6.4638174975466143 0 0 0 0 -85.145555250152483 -43.741709750835113 0 -43.741709750835113 -16.31282062921764 0 0 0 0 -33.612650061357272 -113.5280641043514 0 -113.5280641043514 3.1172829362601533 0 0 0 0 -23.975386580330451 -21.566083586618575 0 -21.566083586618575 -21.573153720317492 0 0 0 0 -11.669405408771127 2.8790387845739662 0 2.8790387845739662 0.00019440883731539288 0 0 0 0 -11.655406978873543 3.0318768349051028 0 3.0318768349051028 -0.16424778985560184 0 0 0 0 -11.387800257627532 2.8958263366888031 0 2.8958263366888031 -1.0273386645572713 0 0 0 0 -11.355813638557819 3.2166879770582675 0 3.2166879770582675 -0.47972774319869393 0 0 0 0 -10.618746426740472 2.95481966669524 0 2.95481966669524 -0.4123365365795606 0 0 0 0 61.420533681139204 -2.6100933147015155 0 -2.6100933147015155 -9.0227841157542201 0 0 0 0 31.944681505056906 -212.73214168422092 0 -212.73214168422092 -93.150967960780235 0 0 0 0 -367.98515215036969 -280.01191459811093 0 -280.01191459811093 -73.271540635265978 0 0 0 0 -284.77394884442037 -135.03627134125549 0 -135.03627134125549 3.7050995787582792 0 0 0 0 -301.42359174629382 -145.90945021649492 0 -145.90945021649492 48.798772655423271 0 0 0 0 -528.93663846589334 49.916646628863219 0 49.916646628863219 56.250096157028537 0 0 0 0 -659.63336086297431 64.161384826056391 0 64.161384826056391 70.921328721249211 0 0 0 0 -686.26748009271614 -104.18341709245908 0 -104.18341709245908 44.661100448791501 0 0 0 0 -10.054046514281211 2.3759558444988755 0 2.3759558444988755 -0.2738176149422516 0 0 0 0 -9.5494989884864481 1.5918158118177383 0 1.5918158118177383 1.0600543335024653 0 0 0 0 -776.30946258070617 283.82214316862132 0 283.82214316862132 -384.02046072701603 0 0 0 0 -7.2271970419751597 2.3315524024695931 0 2.3315524024695931 0.003657553190789494 0 0 0 0 -356.6462326523864 -680.74349730461404 0 -680.74349730461404 -157.95096581090698 0 0 0 0 -4.8794585587812378 0.26228214328177835 0 0.26228214328177835 0.048696447932537981 0 0 0 0 -356.53922201222667 176.29864588508957 0 176.29864588508957 -63.019353175539379 0 0 0 0 89.016283593009575 -440.70850995101063 0 -440.70850995101063 -29.313671667795688 0 0 0 0 -5.4681017714632532 -1.6581006430163816 0 -1.6581006430163816 -0.41047103130928525 0 0 0 0 -266.37130581124893 38.096302175679881 0 38.096302175679881 44.008684728760173 0 0 0 0 -63.016015190298162 135.85651474442949 0 135.85651474442949 -60.21902040014254 0 0 0 0 -254.20670922866157 -55.548428438965303 0 -55.548428438965303 29.771091922369237 0 0 0 0 -226.05378217479301 -12.015385619734928 0 -12.015385619734928 55.050562575091121 0 0 0 0 -146.61509168506564 -50.212216286398217 0 -50.212216286398217 29.120911768027955 0 0 0 0 -202.63717691350212 -3.8886740198809946 0 -3.8886740198809946 17.616872788769939 0 0 0 0 -178.58561427000495 33.20013631972035 0 33.20013631972035 44.098829630148124 0 0 0 0 -151.91982053023639 -20.631439576701851 0 -20.631439576701851 -42.115283515791965 0 0 0 0 -145.62122989852469 -26.172761033857704 0 -26.172761033857704 10.913170763699728 0 0 0 0 -152.5772093446194 -21.015430003852696 0 -21.015430003852696 7.1386473428589889 0 0 0 0 -141.53465770766707 -31.407102083245771 0 -31.407102083245771 1.8014628826548496 0 0 0 0 -138.65345216118112 -21.86782142302701 0 -21.86782142302701 0.0060633774550531427 0 0 0 0 -152.83526902195081 -31.730817684677938 0 -31.730817684677938 13.706697263571328 0 0 0 0 -141.58196517582928 -32.188779137430885 0 -32.188779137430885 14.685999742795559 0 0 0 0 -145.24231279212472 -29.08283304288814 0 -29.08283304288814 12.55558753185062 0 0 0 0 -127.08961860990894 -22.363027180366942 0 -22.363027180366942 11.364576614257075 0 0 0 0 -146.6546961964093 -35.346435033259866 0 -35.346435033259866 12.1428199569188 0 0 0 0 -155.36025344477093 -34.713828953348639 0 -34.713828953348639 12.110916833116622 0 0 0 0 -156.36324641059218 -32.33386419980414 0 -32.33386419980414 15.041922372011918 0 0 0 0 -149.3259546480358 -35.118135246643348 0 -35.118135246643348 7.7031102625540342 0 0 0 0 -145.32601273011278 -29.481840968623416 0 -29.481840968623416 14.494445252034581 0 0 0 0 -145.30653784445622 -26.771857598987694 0 -26.771857598987694 8.5229223204607543 0 0 0 0 -151.85164809058097 -26.340323168091189 0 -26.340323168091189 15.42200435857734 0 0 0 0 -137.19857187821253 -13.666502216720758 0 -13.666502216720758 13.886516435251977 0 0 0 0 -164.72914571309866 -15.516045592676463 0 -15.516045592676463 23.207052755420932 0 0 0 0 -125.92859142155885 30.329161594838169 0 30.329161594838169 36.623961462157467 0 0 0 0 -0.3087631565051101 -0.24117318747866179 0 -0.24117318747866179 0.10577942622979394 0 0 0 0 -134.47391205778149 -13.329995203319996 0 -13.329995203319996 13.925266746918311 0 0 0 0 -104.92266739088245 3.2594626320906332 0 3.2594626320906332 4.7117823391354321 0 0 0 0 -149.14699282283254 -0.59684672908079861 0 -0.59684672908079861 6.7055979355668391 0 0 0 0 -140.36878320187543 -26.334818130663219 0 -26.334818130663219 8.1486945831321442 0 0 0 0 -125.73282746942641 -26.638043008543377 0 -26.638043008543377 5.7649789710636128 0 0 0 0 -127.50042701841539 -25.313884625887173 0 -25.313884625887173 9.3383025215940449 0 0 0 0 -145.6335227309925 -27.02562518746096 0 -27.02562518746096 13.921199687061545 0 0 0 0 -122.8848741135771 -33.734819535085933 0 -33.734819535085933 5.8668991700543245 0 0 0 0 -60.195325246712855 1.5026814454639368 0 1.5026814454639368 -3.8313032898894868 0 0 0 0 -98.702639736793572 -17.385719872305415 0 -17.385719872305415 4.0818072093278559 0 0 0 0 -99.579111394294159 -16.236930556176517 0 -16.236930556176517 5.9802912258239189 0 0 0 0 -0.12260432115153641 -0.39742907251695669 0 -0.39742907251695669 0.2171133272953415 0 0 0 0 -11.521622687051604 3.6834740385810605 0 3.6834740385810605 -4.9567673849544533 0 0 0 0 -51.077295045570281 -10.322287034751007 0 -10.322287034751007 -3.2252915845926289 0 0 0 0 -115.95030154717369 104.52626070161548 0 104.52626070161548 -43.596483200678193 0 0 0 0 0.30260676178312274 0.41184057819501874 0 0.41184057819501874 0.28008134605599827 0 0 0 0 -85.158877895564729 70.271413941198318 0 70.271413941198318 -58.502693971041197 0 0 0 0 -138.20074926168854 78.16373655241415 0 78.16373655241415 -25.128402106395733 0 0 0 0 -33.533356047122652 4.3180368257387585 0 4.3180368257387585 6.5159335025783491 0 0 0 0 -180.36955813469467 76.503215935697625 0 76.503215935697625 12.648376808075369 0 0 0 0 -1.5456962939315417 1.5431122423210937 0 1.5431122423210937 -11.320976539309555 0 0 0 0 -49.951510853070431 3.6437407818585825 0 3.6437407818585825 9.8264763363424947 0 0 0 0 -0.15213925762527047 0.14955900682462797 0 0.14955900682462797 0.18656593308854674 0 0 0 0 -189.46240069267697 71.727032136010365 0 71.727032136010365 10.285025386880832 0 0 0 0 -183.42989072830642 7.9960944942646961 0 7.9960944942646961 33.939092349557342 0 0 0 0 -189.87658348139848 71.970366899736575 0 71.970366899736575 39.280515316714201 0 0 0 0 -198.75990602614911 73.527535821899932 0 73.527535821899932 46.606330142404602 0 0 0 0 -183.29176815657593 92.339685752953699 0 92.339685752953699 14.457937724503381 0 0 0 0 -178.01929770417155 77.580288300383231 0 77.580288300383231 -19.471266417348808 0 0 0 0 -216.28830292051316 135.35090739002362 0 135.35090739002362 -10.799674085606043 0 0 0 0 -182.35869695177848 87.235705596122713 0 87.235705596122713 25.432101864804324 0 0 0 0 -206.62271670974042 118.66532568160402 0 118.66532568160402 0.89420504437955373 0 0 0 0 -218.16650436845157 101.28769229888056 0 101.28769229888056 60.786484612370515 0 0 0 0 -199.82766861850178 53.741355098673637 0 53.741355098673637 110.96687718608678 0 0 0 0 -191.72139139565616 9.0903400578902875 0 9.0903400578902875 89.152150617469758 0 0 0 0 -498.96383575337677 -122.03627733849251 0 -122.03627733849251 168.57829358809474 0 0 0 0 -370.56639372628706 51.122030018433705 0 51.122030018433705 83.604545207839053 0 0 0 0 -500.27673975797552 130.6692957334273 0 130.6692957334273 80.051928237324091 0 0 0 0 -334.28964476874353 167.25262666947785 0 167.25262666947785 -16.584032134762676 0 0 0 0 -333.820748504535 179.25980125013314 0 179.25980125013314 34.341331877535183 0 0 0 0 -139.9983813149156 89.735408050364398 0 89.735408050364398 -44.055250588855259 0 0 0 0 -131.65607429592274 196.36990278258892 0 196.36990278258892 -168.2357695769642 0 0 0 0 -141.40896325632832 119.56588542665777 0 119.56588542665777 -70.595763761300532 0 0 0 0 -48.36300549754651 67.227145926917927 0 67.227145926917927 -105.9480025924676 0 0 0 0 -52.599151519043517 2.4784956592897061 0 2.4784956592897061 -29.232741786381325 0 0 0 0 -159.12749405522663 316.18426619835782 0 316.18426619835782 -433.88424568808881 0 0 0 0 -498.94894155682738 283.79324936903924 0 283.79324936903924 -13.638814334790174 0 0 0 0 -500.02315624876792 11.416420250660977 0 11.416420250660977 33.715314608900464 0 0 0 0 -33.197195043663669 14.723571909513339 0 14.723571909513339 11.417303424507793 0 0 0 0 -5.4561932446733437 -4.2720477344572618 0 -4.2720477344572618 -2.2609043995699523 0 0 0 0 -24.165969353433383 -11.699025846959909 0 -11.699025846959909 30.944475098026487 0 0 0 0 -1.7402351072292832 2.051757750604402 0 2.051757750604402 6.1578955744385437 0 0 0 0 -359.84542229432645 72.12185175977497 0 72.12185175977497 -3.0615318284120914 0 0 0 0 -499.50854832874484 142.00198715493889 0 142.00198715493889 -28.302042754013424 0 0 0 0 -2.0211351349118623 -0.89755985042875075 0 -0.89755985042875075 0.10154790180149142 0 0 0 0 -1.8288476039066106 -0.43202716809767949 0 -0.43202716809767949 1.6412667658401487 0 0 0 0 -10.534286189871978 -2.2249368813933916 0 -2.2249368813933916 27.148290542199913 0 0 0 0 -86.03911186681438 11.639523441034317 0 11.639523441034317 6.9303526286402075 0 0 0 0 -148.27019126408231 2.3312582153834001 0 2.3312582153834001 84.624625936746781 0 0 0 0 -154.52110756037291 49.472226588636715 0 49.472226588636715 -18.94721228112337 0 0 0 0 -128.75324055200326 45.817197876588466 0 45.817197876588466 -20.195163150195924 0 0 0 0 -154.18652932812802 44.435550099652289 0 44.435550099652289 -21.52696285778876 0 0 0 0 -187.84089921834311 62.463164271260496 0 62.463164271260496 -14.285651050612159 0 0 0 0 -160.28177109663375 33.357123423763369 0 33.357123423763369 16.445596146667867 0 0 0 0 -178.52234759604107 48.53795043817658 0 48.53795043817658 20.166783920802459 0 0 0 0 -202.68873833811494 49.200575610264707 0 49.200575610264707 57.856007477117203 0 0 0 0 -157.05710624273343 47.228481730438716 0 47.228481730438716 28.731504181844144 0 0 0 0 -194.15830944572235 33.868741935034137 0 33.868741935034137 25.450361867220806 0 0 0 0 -202.89133268671321 6.4565770106048319 0 6.4565770106048319 10.803976681434733 0 0 0 0 -247.84312268271788 36.571969909236543 0 36.571969909236543 28.729254776048862 0 0 0 0 -325.05778867801655 -20.596157262977314 0 -20.596157262977314 6.0911005713722943 0 0 0 0 -248.08133018211311 99.658273569687495 0 99.658273569687495 -46.624413987265712 0 0 0 0 -482.14872462019139 128.23942409446772 0 128.23942409446772 -46.274233364998466 0 0 0 0 -1.8828637957958101 -1.3464953850033261 0 -1.3464953850033261 -1.3596099618528972 0 0 0 0 -6.0625003855702744 -89.501379726802071 0 -89.501379726802071 -82.695338550394013 0 0 0 0 -391.66488045243409 -88.159530457427763 0 -88.159530457427763 -78.929450487243685 0 0 0 0 -216.14404670750628 -60.29206739372728 0 -60.29206739372728 -163.09451193902919 0 0 0 0 -178.01214429007405 -60.047727523378086 0 -60.047727523378086 -103.42758905687327 0 0 0 0 -188.02099170780275 -6.4122720581705153 0 -6.4122720581705153 -72.650699351194021 0 0 0 0 -148.63722943518678 -21.410887473081459 0 -21.410887473081459 -52.869284482002755 0 0 0 0 -233.89277799893262 -39.354790940296112 0 -39.354790940296112 -25.063808405957275 0 0 0 0 -231.17208657232368 -38.078713168021579 0 -38.078713168021579 -69.320041597522561 0 0 0 0 -190.23850666867656 -24.521736438621673 0 -24.521736438621673 -24.217043833313909 0 0 0 0 -224.43445120273009 -33.261660419285988 0 -33.261660419285988 5.0708532666790234 0 0 0 0 -170.45868741664526 -13.874474126646561 0 -13.874474126646561 12.026544426197717 0 0 0 0 -158.51865352635014 -19.066758392148614 0 -19.066758392148614 14.000044408012798 0 0 0 0 -181.66381056314276 -28.28623451007175 0 -28.28623451007175 17.701921586610155 0 0 0 0 -167.18230185859557 -45.955630943679864 0 -45.955630943679864 1.9400228058760831 0 0 0 0 -176.19360991029771 -59.540538466796107 0 -59.540538466796107 -43.325673796085425 0 0 0 0 -159.36496722187621 -36.733781025652149 0 -36.733781025652149 -13.984592816918394 0 0 0 0 -146.43212836023667 -38.334531640968777 0 -38.334531640968777 -15.936965313282343 0 0 0 0 -142.1676553209536 -37.100934894344391 0 -37.100934894344391 -0.43777226752075649 0 0 0 0 -140.65610535008545 -28.459407061650253 0 -28.459407061650253 0.53146329972616968 0 0 0 0 -113.37590862791967 -20.428644130234744 0 -20.428644130234744 -0.30862304583183686 0 0 0 0 -105.66469388062796 -21.391007398134548 0 -21.391007398134548 -25.22189626436483 0 0 0 0 -126.64153828424151 -36.276387993308077 0 -36.276387993308077 -16.022018333755113 0 0 0 0 -119.050719312213 -27.343315122646196 0 -27.343315122646196 -27.726497220441047 0 0 0 0 -90.788834505176055 -25.910357500396856 0 -25.910357500396856 -39.328611160222181 0 0 0 0 -147.61074360248949 -30.356089804126043 0 -30.356089804126043 -35.065894181265719 0 0 0 0 -120.90455189355225 -34.487077513191409 0 -34.487077513191409 -47.316593515915088 0 0 0 0 -106.04044436101412 -19.808975682334193 0 -19.808975682334193 -68.050206280742032 0 0 0 0 -98.166191480933321 2.7149196510368085 0 2.7149196510368085 -21.618551061482322 0 0 0 0 -85.70090711677949 16.987904548646895 0 16.987904548646895 -62.958080587561682 0 0 0 0 -127.09165748619125 3.4352228004306653 0 3.4352228004306653 -44.775245788529048 0 0 0 0 -120.55632273396986 -2.2016296622301752 0 -2.2016296622301752 -52.866446320580849 0 0 0 0 -86.630178265558015 16.49216069972524 0 16.49216069972524 -33.175296678997483 0 0 0 0 -70.514180417002081 36.530273089837053 0 36.530273089837053 -40.216741975205025 0 0 0 0 -84.37650062632656 18.197845230954641 0 18.197845230954641 -38.423799531163368 0 0 0 0 -81.539326867793761 4.3840344250915209 0 4.3840344250915209 -45.052774501902377 0 0 0 0 -125.34980145360987 22.776837461883304 0 22.776837461883304 -45.256905861139217 0 0 0 0 -147.96574395532843 -25.459070901719542 0 -25.459070901719542 -21.905027797438976 0 0 0 0 -109.20739004458574 -45.738328427313945 0 -45.738328427313945 -28.316045627372489 0 0 0 0 -174.78872182081795 -23.041533727963355 0 -23.041533727963355 -17.987032279533196 0 0 0 0 -177.27084989575542 -66.461265855840452 0 -66.461265855840452 4.6605071165090521 0 0 0 0 -214.08604749085976 14.412713056172784 0 14.412713056172784 -43.612653521873881 0 0 0 0 -189.337793444829 -18.133719345844383 0 -18.133719345844383 -60.667691762156608 0 0 0 0 -137.2854640327032 -17.351052077219975 0 -17.351052077219975 -83.210661017557754 0 0 0 0 -154.20504747085397 19.122405384902606 0 19.122405384902606 -63.260066746281723 0 0 0 0 -229.7280789500619 33.542364560370032 0 33.542364560370032 -123.95588150797062 0 0 0 0 -348.53076138384404 -0.21916386809616029 0 -0.21916386809616029 -21.522687494186471 0 0 0 0 -255.68207775191013 -162.87378224410304 0 -162.87378224410304 -36.602472755766144 0 0 0 0 -189.11686766727871 -96.031663915089382 0 -96.031663915089382 -29.730495113611596 0 0 0 0 -141.67874574961297 -65.763193628033946 0 -65.763193628033946 -27.693056090648913 0 0 0 0 -236.22573864563867 -53.646608126102883 0 -53.646608126102883 2.5316756997808625 0 0 0 0 -212.70415999060242 -52.358900587880299 0 -52.358900587880299 -0.92711631842558972 0 0 0 0 -214.29793691714053 -78.214590305965174 0 -78.214590305965174 18.060277909091099 0 0 0 0 -218.23142627813831 -28.975687184634566 0 -28.975687184634566 73.925620096229864 0 0 0 0 -217.50381838562089 -65.178810725131228 0 -65.178810725131228 39.200596113179472 0 0 0 0 -191.94504115139534 -51.972791977156646 0 -51.972791977156646 14.953451929461039 0 0 0 0 -234.30043689681133 -79.24956342398076 0 -79.24956342398076 0.47793795129427963 0 0 0 0 -192.55973343207131 -58.89433273750663 0 -58.89433273750663 -31.693840599934106 0 0 0 0 -155.42448643347598 -67.808090605210054 0 -67.808090605210054 -29.897917029424036 0 0 0 0 -349.19690924269878 -156.09159931842791 0 -156.09159931842791 67.793131927102706 0 0 0 0 -200.32329203877362 -26.376495808010702 0 -26.376495808010702 12.041710573564387 0 0 0 0 -279.79218745308299 -176.43882278841542 0 -176.43882278841542 89.784528255439412 0 0 0 0 -0.51990343756471336 0.0087497362851411964 0 0.0087497362851411964 0.9923076422234699 0 0 0 0 -499.98638553809542 -23.755097796110306 0 -23.755097796110306 24.659379139669127 0 0 0 0 -485.90984731394292 -21.205671919869904 0 -21.205671919869904 14.852966232347876 0 0 0 0 -0.68551213648237375 0.28649930613614671 0 0.28649930613614671 2.5072061168698019 0 0 0 0 -157.75081325184874 -69.134280670607779 0 -69.134280670607779 -22.670942464283712 0 0 0 0 -153.69003447476439 -40.414878406535308 0 -40.414878406535308 29.985496079483482 0 0 0 0 -25.993168902077741 -10.446923142375397 0 -10.446923142375397 -55.94362901054717 0 0 0 0 -499.96129536161556 -9.217576457818021 0 -9.217576457818021 4.9012239750498674 0 0 0 0 -0.41215674892673193 1.5113537850128047 0 1.5113537850128047 4.0349289723230344 0 0 0 0 -478.73706704427786 9.5405029107618109 0 9.5405029107618109 20.735971922591197 0 0 0 0 -7.0209817167069559 -1.1564154714221218 0 -1.1564154714221218 -1.2367260083631209 0 0 0 0 -2.2144122698809952 0.049727826135438136 0 0.049727826135438136 -3.2031846472008283 0 0 0 0 -1.9031808269178327 -0.58233132934566356 0 -0.58233132934566356 -1.956021519727301 0 0 0 0 0.60548055249455501 -2.0865657984620043 0 -2.0865657984620043 -3.6347221432494052 0 0 0 0 -1.8837147545464177 -0.1775539934550352 0 -0.1775539934550352 -2.9263937509592779 0 0 0 0 -2.6928601149447786 -1.5934915165692018 0 -1.5934915165692018 -4.1166877528604005 0 0 0 0 -2.8388440200578771 -1.0604979458806838 0 -1.0604979458806838 -3.1521283699931857 0 0 0 0 -5.3785448276630632 0.19231948510400798 0 0.19231948510400798 -3.407283667519323 0 0 0 0 -9.3819625694068236 -2.3879018903285782 0 -2.3879018903285782 -3.6079439786341538 0 0 0 0 0.10383851776110475 -0.21237227151210814 0 -0.21237227151210814 -0.67428263279754019 0 0 0 0 -5.5172733580702698 0.89060078977760782 0 0.89060078977760782 -5.9621698583628131 0 0 0 0 -10.88786367623527 -0.34087936113662742 0 -0.34087936113662742 -0.14334804327598549 0 0 0 0 -11.836598459782181 -6.5753133844920058 0 -6.5753133844920058 5.5619545362274607 0 0 0 0 -9.4285534524810828 -11.188180846648692 0 -11.188180846648692 -9.1565041307903812 0 0 0 0 -5.7860716961486105 -5.3757024571676766 0 -5.3757024571676766 -0.986062018145617 0 0 0 0 -1.1413833540425316 -2.5271948205124133 0 -2.5271948205124133 -1.5624347985943823 0 0 0 0 -10.064316855484321 0.34821046331455818 0 0.34821046331455818 -1.496843445428226 0 0 0 0 7.6578360544426687 -8.6430349588758304 0 -8.6430349588758304 -22.602057767028327 0 0 0 0 -2.2403717365911007 -2.2910818394971209 0 -2.2910818394971209 -12.674840447710949 0 0 0 0 -0.89180696409760385 -0.24507897308949467 0 -0.24507897308949467 0.013403531180202322 0 0 0 0 -12.284143975219195 -10.021386203598695 0 -10.021386203598695 -0.83116334682699744 0 0 0 0 0.037273170350374585 -0.85667579164967633 0 -0.85667579164967633 -0.38237799072172468 0 0 0 0 -1.2610290481970878 -2.913729935145966 0 -2.913729935145966 3.0622450620504367 0 0 0 0 -12.919590175846679 -3.2582717976038111 0 -3.2582717976038111 -5.2864021334449944 0 0 0 0 9.9146522571008973 -0.15694474500787692 0 -0.15694474500787692 -5.054515279008001 0 0 0 0 -1.045073982990445 -0.41282830166045503 0 -0.41282830166045503 -0.0043914113343256067 0 0 0 0 3.424727088601685 -2.5511384513761755 0 -2.5511384513761755 2.1355260243942666 0 0 0 0 -0.22464324102829636 -0.20071938369327258 0 -0.20071938369327258 0.080441272846184741 0 0 0 0 -4.482038989339344 -0.28057266623432042 0 -0.28057266623432042 2.6212861540192307 0 0 0 0 -1.7787219113787671 -0.33691329386339031 0 -0.33691329386339031 0.091763510550038258 0 0 0 0 6.1045385848228761 0.38016541374372537 0 0.38016541374372537 0.6539013659308921 0 0 0 0 -2.6176804895294481 0.39937463211128943 0 0.39937463211128943 5.7172581683499288 0 0 0 0 -2.7445680974651623 -2.2177757900478241 0 -2.2177757900478241 -10.564842496651863 0 0 0 0 -4.4309424637912329 -0.7335867285642439 0 -0.7335867285642439 0.25026005298067933 0 0 0 0 -5.7601198069314705 -1.9108898501955309 0 -1.9108898501955309 -7.1109653664296175 0 0 0 0 -1.827409346577042 -0.7838093766930001 0 -0.7838093766930001 -8.5345924056696276 0 0 0 0 -3.906569530183333 -7.1128823840988389 0 -7.1128823840988389 -5.1434680529300749 0 0 0 0 -3.4301921776677773 -8.1222415761124012 0 -8.1222415761124012 -5.8585143729301308 0 0 0 0 -0.14139893155571315 -0.18616048710997557 0 -0.18616048710997557 0.06572573625518574 0 0 0 0 -4.6496800008026185 0.20825464507879587 0 0.20825464507879587 4.8909495845166475 0 0 0 0 -2.6094116588296359 -0.79738410274571803 0 -0.79738410274571803 -0.79933581156051536 0 0 0 0 -15.799525542093761 -3.4406836003938679 0 -3.4406836003938679 -5.2738074348960708 0 0 0 0 -7.9705849303427385 -4.652542499798983 0 -4.652542499798983 -6.4351313839063096 0 0 0 0 -9.5962400103671825 -2.4479508004451418 0 -2.4479508004451418 4.3657283528111748 0 0 0 0 -3.6190481361977618 -6.9853118924917936 0 -6.9853118924917936 -4.3015126698066979 0 0 0 0 5.8801765063262792 5.4293770554443199 0 5.4293770554443199 -6.0550554091792037 0 0 0 0 1.4247385594216961 -1.2996682859859661 0 -1.2996682859859661 -4.9429554537810905 0 0 0 0 0.94823751862713834 -9.2900671877182504 0 -9.2900671877182504 -7.5175283980320273 0 0 0 0 1.9825911300686094 0.55198397167848867 0 0.55198397167848867 -1.7640722055730782 0 0 0 0 0.6980412497281705 0.34560905061005692 0 0.34560905061005692 -1.9714971258913931 0 0 0 0 5.6978397418515669 2.2685315038156659 0 2.2685315038156659 -4.6051487820591035 0 0 0 0 -2.9067490392553736 2.0104916825821988 0 2.0104916825821988 -3.6954969088880034 0 0 0 0 -0.94043236460493063 1.6829405791934846 0 1.6829405791934846 -13.413277647025666 0 0 0 0 1.53975848657592 -1.9833987155862189 0 -1.9833987155862189 -8.1849385284369873 0 0 0 0 -0.86256257740024012 -1.1890440895234633 0 -1.1890440895234633 -3.4327030234195135 0 0 0 0 -0.44226448891458858 -0.63366278966765321 0 -0.63366278966765321 -2.8184498811701815 0 0 0 0 -0.25778581625508856 0.01814426387624124 0 0.01814426387624124 -3.5747663412413626 0 0 0 0 -1.1361120667411484 2.0338033070121435 0 2.0338033070121435 -10.290588281590317 0 0 0 0 -1.1889144592487355 -3.881357000352228 0 -3.881357000352228 -8.2495834003020718 0 0 0 0 -5.4631229423166587 -4.1089714428229627 0 -4.1089714428229627 1.0218209438871781 0 0 0 0 -0.72226688550912854 -0.56294790309107512 0 -0.56294790309107512 0.58157719331987501 0 0 0 0 -2.2665823531751812 -1.5739757920614466 0 -1.5739757920614466 -9.0429417146676201 0 0 0 0 -2.8548377229453763 0.88974466489958104 0 0.88974466489958104 -17.483539136757372 0 0 0 0 -1.4941331911522866 -1.7850201126917682 0 -1.7850201126917682 -9.6682433231117102 0 0 0 0 -2.9303651632835681 -2.6445921094843925 0 -2.6445921094843925 -5.9977172437145754 0 0 0 0 -2.0557385745923966 -4.6117300987912131 0 -4.6117300987912131 -8.1997428976424089 0 0 0 0 -105.11690473663475 -28.047478018415546 0 -28.047478018415546 -0.98806259915215833 0 0 0 0 -105.40352231196653 -24.199920400489173 0 -24.199920400489173 9.3328967924501285 0 0 0 0 -99.936638627046705 -29.319999956093682 0 -29.319999956093682 -6.9703262714579068 0 0 0 0 -83.341043705704578 -25.423755520250154 0 -25.423755520250154 -4.6487748836982519 0 0 0 0 -89.831277691693685 -22.491260813560871 0 -22.491260813560871 -3.7888230211379152 0 0 0 0 -49.494038986878877 -39.391101848474818 0 -39.391101848474818 -42.765781490087647 0 0 0 0 -5.470661710089189 -10.279676697289119 0 -10.279676697289119 -23.553095350132708 0 0 0 0 -30.167124612125917 -32.934486323003284 0 -32.934486323003284 -26.415605493024145 0 0 0 0 -38.957113195683633 -11.354360803418558 0 -11.354360803418558 -4.4614759259246739 0 0 0 0 -74.644648277633678 -16.371747854879857 0 -16.371747854879857 -3.8199739015342402 0 0 0 0 -19.550378694355459 -4.1002839310770014 0 -4.1002839310770014 -10.092603135293416 0 0 0 0 -29.459165124748324 -19.715731439191728 0 -19.715731439191728 -15.876624176952419 0 0 0 0 -7.1779985384600877 -9.0594698696944533 0 -9.0594698696944533 -16.230381740580526 0 0 0 0 -13.191849955568614 -4.6421341548305008 0 -4.6421341548305008 -11.477132776839085 0 0 0 0 -0.047045022601787778 0.28400457685869895 0 0.28400457685869895 -0.16142400131661616 0 0 0 0 6.2878986038122093 1.2972077705005631 0 1.2972077705005631 -12.885308885433318 0 0 0 0 -29.853326970845956 -27.556010973161335 0 -27.556010973161335 -33.063824136732592 0 0 0 0 17.536195173332089 -7.5287223911533943 0 -7.5287223911533943 -26.700812694072283 0 0 0 0 -0.023080058227748168 -0.46751962067390451 0 -0.46751962067390451 -2.6859708979300247 0 0 0 0 -0.1085189680175489 0.092781053664973134 0 0.092781053664973134 -0.42696016048476471 0 0 0 0 -44.027090483785287 7.9143754777402933 0 7.9143754777402933 26.672978502200863 0 0 0 0 -86.803721263120678 -35.346727372976744 0 -35.346727372976744 -1.2156582394532052 0 0 0 0 -103.82857095079635 -16.340687424457258 0 -16.340687424457258 -13.354016633655192 0 0 0 0 -83.072814747774828 0.059379017846708848 0 0.059379017846708848 3.5971621750105669 0 0 0 0 -29.67307884721049 9.3478064193874388 0 9.3478064193874388 0.35271691469631605 0 0 0 0 -0.31570987887622692 -0.13703992246672603 0 -0.13703992246672603 -0.85760004039704163 0 0 0 0 -27.361949941219791 12.704729779378908 0 12.704729779378908 -5.5970498312188965 0 0 0 0 16.208668649833271 -3.67665312086433 0 -3.67665312086433 -2.619039829700796 0 0 0 0 1.8433985571173253 14.166425327184243 0 14.166425327184243 -10.038085079399821 0 0 0 0 18.517953098264115 0.59083085088798271 0 0.59083085088798271 -13.329898463414793 0 0 0 0 13.798505210892472 8.7325939760366964 0 8.7325939760366964 -17.078963193923983 0 0 0 0 4.878570495357053 3.3826301481726091 0 3.3826301481726091 -18.457365084166895 0 0 0 0 -2.0829993245224614 -0.0044399738592346694 0 -0.0044399738592346694 -16.013406400044687 0 0 0 0 3.1390888048008492 -3.8360254474511635 0 -3.8360254474511635 -14.804846273199473 0 0 0 0 -19.785969083102827 6.9536462217931216 0 6.9536462217931216 -11.921357278661731 0 0 0 0 1.3915476291385858 -4.1321659259397734 0 -4.1321659259397734 -12.721722710537961 0 0 0 0 -23.537760260162941 0.85667990786757287 0 0.85667990786757287 -19.247815441572811 0 0 0 0 -30.833263773626186 3.1649558908214601 0 3.1649558908214601 -18.597026534009842 0 0 0 0 -74.830940033583829 -6.9310467217679275 0 -6.9310467217679275 -30.023342990780748 0 0 0 0 -48.759018083027513 17.92425524873039 0 17.92425524873039 -16.084608615575576 0 0 0 0 -2.0170999694830698 -0.64070776166844245 0 -0.64070776166844245 -0.36111857484611015 0 0 0 0 -0.1576843521779665 -0.85608832714126493 0 -0.85608832714126493 -2.8135008389122049 0 0 0 0 -0.71703634673281158 -6.9888999233601652 0 -6.9888999233601652 1.339782965836207 0 0 0 0 -0.92525997878555089 -1.4237891044801323 0 -1.4237891044801323 -2.3453399328438023 0 0 0 0 -1.6017263305693632 -1.2256211308838374 0 -1.2256211308838374 -1.3351821822129466 0 0 0 0 -1.7673965731388037 -2.1283206614890475 0 -2.1283206614890475 -1.6692096927708604 0 0 0 0 -1.7924651941957563 -0.70823644263043661 0 -0.70823644263043661 -2.1783631742266607 0 0 0 0 -1.8591042254629428 -0.90246191648896001 0 -0.90246191648896001 -1.5937688876766742 0 0 0 0 0.49651093646389199 -1.0412928224169491 0 -1.0412928224169491 -2.0049235672545009 0 0 0 0 -0.045219973674470282 -1.0115509631600164 0 -1.0115509631600164 -5.0669482360630012 0 0 0 0 -0.47812197254097555 -0.78570170164812225 0 -0.78570170164812225 -2.4664415187257873 0 0 0 0 -0.85191957622440206 -1.3323823626310034 0 -1.3323823626310034 -2.0670860669202291 0 0 0 0 -1.311204598598124 -0.27788641219308374 0 -0.27788641219308374 -2.6920047378697518 0 0 0 0 30.906077522562555 -25.102175357998931 0 -25.102175357998931 26.823716260435958 0 0 0 0 -0.16772476587911811 -0.95584264888568526 0 -0.95584264888568526 -2.8589095098082851 0 0 0 0 30.867154065501381 3.3352640472185158 0 3.3352640472185158 -12.912352824027948 0 0 0 0 -1.7931828720138583 -0.15969492783233363 0 -0.15969492783233363 -2.473947557257361 0 0 0 0 19.66703658188635 5.873756556261867 0 5.873756556261867 6.7437289106774188 0 0 0 0 -1.7903349692705888 -0.89568825323009094 0 -0.89568825323009094 -2.9824105229429279 0 0 0 0 -1.9603718881626264 -0.47454748039456263 0 -0.47454748039456263 -2.3493555947571849 0 0 0 0 -1.2426480351123246 -0.80120931794196792 0 -0.80120931794196792 -2.2550520781524028 0 0 0 0 21.266930325554426 -18.943919846175493 0 -18.943919846175493 -11.480906268083345 0 0 0 0 -2.6674758987337555 -1.3532140324460897 0 -1.3532140324460897 -3.2179566813665019 0 0 0 0 -2.5180689418793918 -0.81358668393630751 0 -0.81358668393630751 -2.9110951970009182 0 0 0 0 29.487523339131258 -11.668321714868704 0 -11.668321714868704 -17.986497104512637 0 0 0 0 -5.0556160950272897 7.0385797267754242 0 7.0385797267754242 -19.153311248733985 0 0 0 0 -0.4383932504721102 -1.0927511795630291 0 -1.0927511795630291 -3.125958696026311 0 0 0 0 21.992811012376478 -5.8903635215202712 0 -5.8903635215202712 -21.682368428031168 0 0 0 0 19.085084535406168 -3.7766611203914522 0 -3.7766611203914522 -16.806079070697251 0 0 0 0 15.118967350965249 -0.1191696646778837 0 -0.1191696646778837 -18.834448352434038 0 0 0 0 13.952916740265209 -10.758561573719817 0 -10.758561573719817 -15.933546870214968 0 0 0 0 6.6743624224477571 -18.784145647761434 0 -18.784145647761434 6.5382822306296475 0 0 0 0 1.0544133560397313 -4.0875835972869936 0 -4.0875835972869936 -11.052650501163725 0 0 0 0 -12.006450684390074 -6.0993373389183034 0 -6.0993373389183034 5.0853831545972525 0 0 0 0 6.9956945551066383 0.72100596692328622 0 0.72100596692328622 -14.127136135193155 0 0 0 0 -8.520361680141832 -1.729937269895693 0 -1.729937269895693 2.4532048012720651 0 0 0 0 -9.2821875651525261 -1.6808232719284071 0 -1.6808232719284071 2.6676943885703679 0 0 0 0 -0.77012999910682467 -1.3834444289480334 0 -1.3834444289480334 -2.7564553443351665 0 0 0 0 0.10288551277311342 0.067960588428251256 0 0.067960588428251256 -0.60336022733836669 0 0 0 0 -8.0536625661725338 3.217547204851499 0 3.217547204851499 -11.049620593766349 0 0 0 0 -9.8360589140320371 2.7158330097782937 0 2.7158330097782937 21.341856274076918 0 0 0 0 -5.9531201609443087 20.077708516914868 0 20.077708516914868 -0.1894291555282166 0 0 0 0 -3.1166607015884438 22.074227279544488 0 22.074227279544488 -18.344607591498516 0 0 0 0 5.7705576103167004 4.8121799378249506 0 4.8121799378249506 -19.453773296322709 0 0 0 0 -19.80817698296778 28.072355675442282 0 28.072355675442282 -31.08702454216882 0 0 0 0 -18.263418368826024 3.3379430783691362 0 3.3379430783691362 -2.0793475453098722 0 0 0 0 -0.14901050853294251 -0.59258626014766413 0 -0.59258626014766413 -2.2696034446379789 0 0 0 0 -53.338179028360173 22.929522073167277 0 22.929522073167277 -42.085066993161703 0 0 0 0 -49.75434456315179 13.136613446696686 0 13.136613446696686 -17.605135959928418 0 0 0 0 -21.210660025360994 18.314154856549408 0 18.314154856549408 -25.211674751497412 0 0 0 0 -23.078810040011376 10.128497409568411 0 10.128497409568411 -5.8135076019559904 0 0 0 0 -27.28934746756687 27.625142819581935 0 27.625142819581935 -36.042467816000681 0 0 0 0 -26.225845987317371 16.088672371357802 0 16.088672371357802 -15.603142383492866 0 0 0 0 -51.408289597966359 30.662490692620992 0 30.662490692620992 -27.897710117135631 0 0 0 0 -51.635865415819353 26.609337877556726 0 26.609337877556726 -51.27983229859575 0 0 0 0 -44.325965668256686 38.118486388179889 0 38.118486388179889 -38.295395431486412 0 0 0 0 -31.096534753806736 33.237626613829491 0 33.237626613829491 -43.314980715994267 0 0 0 0 -32.233330239632323 31.734676431955094 0 31.734676431955094 -22.020267695472285 0 0 0 0 -32.352732389374978 29.736678061922404 0 29.736678061922404 -33.221647978894538 0 0 0 0 -47.463269456076887 30.667079887586169 0 30.667079887586169 -45.300673245652263 0 0 0 0 -33.337901037993106 42.834590172698014 0 42.834590172698014 -40.095142243901201 0 0 0 0 -0.090420149038033415 -0.15749204856382981 0 -0.15749204856382981 -0.82537735870204287 0 0 0 0 -22.703730257589996 -4.3056372624134305 0 -4.3056372624134305 -8.2653719762178071 0 0 0 0 -46.947137890512749 44.528079847380475 0 44.528079847380475 -48.958881186099518 0 0 0 0 -27.147141246719912 38.83819740605469 0 38.83819740605469 -45.651848629413976 0 0 0 0 -43.065248220812464 32.463567643998317 0 32.463567643998317 -12.310425213619965 0 0 0 0 -31.067343927108595 27.077872612238536 0 27.077872612238536 -50.115678278478001 0 0 0 0 -27.729200297809257 30.487167567622009 0 30.487167567622009 -76.062733862495776 0 0 0 0 -1.2617181027217157 18.640444333636658 0 18.640444333636658 -7.9122762102493951 0 0 0 0 2.1239481244738272 28.21281424826855 0 28.21281424826855 -111.38627293769007 0 0 0 0 -21.861319667184944 -0.53042476094807967 0 -0.53042476094807967 7.9368373767692333 0 0 0 0 32.860668436031119 -10.497881526110675 0 -10.497881526110675 -35.924334708452299 0 0 0 0 -0.14694916222662968 -0.26045057770205915 0 -0.26045057770205915 -0.54327862986630526 0 0 0 0 -2.6362765788921934 4.2026569512527097 0 4.2026569512527097 6.5421365432857215 0 0 0 0 0.28065263702319498 -4.4260680432347783 0 -4.4260680432347783 -2.9418941899477886 0 0 0 0 12.992398309716009 -14.294914489764796 0 -14.294914489764796 -47.212674649610456 0 0 0 0 -0.20985266954810555 -0.58967156770473572 0 -0.58967156770473572 -1.5179494909180247 0 0 0 0 -6.146496487523109 10.966809810945325 0 10.966809810945325 5.8218509420472095 0 0 0 0 -0.55631176636078727 -0.91649114330644643 0 -0.91649114330644643 -1.9040979364666426 0 0 0 0 -1.0998971906418014 -0.88848451195139155 0 -0.88848451195139155 -1.0861755841885445 0 0 0 0 0.55770262067017029 2.6453700004010443 0 2.6453700004010443 -4.6247519104084915 0 0 0 0 3.1430873425124446 -8.098318333525981 0 -8.098318333525981 -0.21732355455681684 0 0 0 0 -1.7613299732963696 -3.3192352964464931 0 -3.3192352964464931 -2.5594780991661992 0 0 0 0 -2.8968850014498457 -0.49392074591060009 0 -0.49392074591060009 -3.3831375371256627 0 0 0 0 -5.632528996108249 -1.0830461829891078 0 -1.0830461829891078 -3.2963477600824262 0 0 0 0 -1.421039781816944 -0.30489807557043491 0 -0.30489807557043491 -4.1617726917977507 0 0 0 0 -10.264225957844246 2.5698622369238819 0 2.5698622369238819 -1.9499347735031733 0 0 0 0 -9.2325152903822527 4.9248325354832332 0 4.9248325354832332 2.5415337630208796 0 0 0 0 -1.0536738099049394 1.6936725937539698 0 1.6936725937539698 -3.3421837947623958 0 0 0 0 -11.841205480623103 -0.81372764255871743 0 -0.81372764255871743 -2.0972539213281607 0 0 0 0 -5.9387738105579047 -2.07402072545176 0 -2.07402072545176 -5.5703007947535923 0 0 0 0 -13.622085538365354 1.3412512014949698 0 1.3412512014949698 -4.4313443479281318 0 0 0 0 -4.889127497678146 2.1542536611477203 0 2.1542536611477203 -3.1702529036931537 0 0 0 0 -11.27189490114506 9.7674711078016117 0 9.7674711078016117 10.332169662192655 0 0 0 0 -11.237732523737577 7.3690765069939062 0 7.3690765069939062 0.46053472967992093 0 0 0 0 -10.336861647176192 28.121270047937514 0 28.121270047937514 11.925531851242113 0 0 0 0 19.04152299402449 16.59836357378191 0 16.59836357378191 -0.28886044517776099 0 0 0 0 -11.679636885020955 10.562026256661284 0 10.562026256661284 5.5218377822706088 0 0 0 0 -0.1737035333993332 1.4421743237194597 0 1.4421743237194597 -1.515936834920979 0 0 0 0 -7.0705425952664882 -1.6366633553650445 0 -1.6366633553650445 0.1285873878813959 0 0 0 0 -2.1954551774366458 -1.2871593511846342 0 -1.2871593511846342 -1.2569684170881161 0 0 0 0 34.198116074488098 6.8683119262089338 0 6.8683119262089338 -1.1701334650511832 0 0 0 0 -0.5245933085395329 0.51809141068501496 0 0.51809141068501496 -0.075867523707870088 0 0 0 0 -23.163758534259614 19.043373892183126 0 19.043373892183126 14.180456798502746 0 0 0 0 154.00910545173247 90.922134723400632 0 90.922134723400632 55.368511320417838 0 0 0 0 -8.8409730453931843 9.967859792693389 0 9.967859792693389 17.03776397682384 0 0 0 0 -70.073807733297144 -41.318838546118741 0 -41.318838546118741 50.498533431752762 0 0 0 0 -7.0027927853261644 24.578636716916662 0 24.578636716916662 -157.04804496408201 0 0 0 0 -72.072253145212812 -75.510452592838618 0 -75.510452592838618 -59.22666273582945 0 0 0 0 62.960339852802463 -72.324590466059917 0 -72.324590466059917 -13.713482368002666 0 0 0 0 -53.386974513305177 64.293698895974273 0 64.293698895974273 -67.708115192854507 0 0 0 0 -0.15305659527963567 -0.49499412831482026 0 -0.49499412831482026 -0.5990911289598686 0 0 0 0 -37.439743236635877 36.253020069395745 0 36.253020069395745 -18.75386615709067 0 0 0 0 -0.32043774978465778 -0.37845466353489599 0 -0.37845466353489599 -1.6081447399170754 0 0 0 0 0.66406105648093217 44.992949832934926 0 44.992949832934926 -127.85779697765275 0 0 0 0 55.96255948887665 -41.31286555188057 0 -41.31286555188057 -100.98044015476108 0 0 0 0 -42.376670401513366 29.306273536565797 0 29.306273536565797 -34.522712235548418 0 0 0 0 31.690681401249094 84.889021433874007 0 84.889021433874007 -95.175213817929233 0 0 0 0 -103.60930097311757 40.440155867329665 0 40.440155867329665 73.09274372937179 0 0 0 0 -0.26444328503566794 -4.8072638332676263 0 -4.8072638332676263 4.9275926810164847 0 0 0 0 0.29894699606746045 1.0999128448042552 0 1.0999128448042552 -0.14490488595860429 0 0 0 0 112.43984057659145 6.3521619240887333 0 6.3521619240887333 -60.398481828053093 0 0 0 0 0.0094038634733806248 6.0402473113391153 0 6.0402473113391153 -17.950176964054094 0 0 0 0 0.39551770103955874 -0.40144832405284525 0 -0.40144832405284525 -1.8834136948422895 0 0 0 0 4.438103470563874 -0.98865717040288459 0 -0.98865717040288459 -0.43419759423400706 0 0 0 0 0.55223474155080865 0.62218688670083466 0 0.62218688670083466 0.64032489708482876 0 0 0 0 2.4839658385790244 2.0745761237639968 0 2.0745761237639968 -2.1526064744883655 0 0 0 0 0.49391019982067519 2.0180248280141058 0 2.0180248280141058 -0.064417833430269411 0 0 0 0 2.2926167662758417 3.3097566341214204 0 3.3097566341214204 -14.279330478700842 0 0 0 0 -0.22765371096647868 0.31013532632542962 0 0.31013532632542962 -1.704659562867846 0 0 0 0 1.5113405880510982 0.0484898176585844 0 0.0484898176585844 -5.9836394591212922 0 0 0 0 -0.41356385973085708 8.3675026173731624 0 8.3675026173731624 -7.8025350039540946 0 0 0 0 0.22981919939525142 5.7482665066562912 0 5.7482665066562912 -0.89757562123713797 0 0 0 0 -1.9398578160526085 8.7053755403901079 0 8.7053755403901079 -4.1633427000266536 0 0 0 0 -40.396930825352683 14.385980399460056 0 14.385980399460056 -7.922810810632404 0 0 0 0 -6.7951843858743359 -0.45256331867068766 0 -0.45256331867068766 -24.676526746115769 0 0 0 0 -6.2765816949213331 4.8588466463902549 0 4.8588466463902549 -8.1504416518610867 0 0 0 0 2.3186530028415291 -2.0470768706904892 0 -2.0470768706904892 -5.7560292314395696 0 0 0 0 -5.2623436400626815 10.095353346999566 0 10.095353346999566 -6.2781466413591147 0 0 0 0 -9.8269595265028329 8.4361195223842316 0 8.4361195223842316 -6.7718789118960458 0 0 0 0 -1.2866883424273645 0.55133993924316449 0 0.55133993924316449 0.1876561980752644 0 0 0 0 -19.129917528859096 5.2078296550454475 0 5.2078296550454475 3.4744812535573715 0 0 0 0 -14.492573383089621 -44.704538314907687 0 -44.704538314907687 56.440363174762844 0 0 0 0 -25.196294711670816 52.806516077906466 0 52.806516077906466 -56.683500785343554 0 0 0 0 2.4287467907288374 53.73160252056087 0 53.73160252056087 -58.753611899759143 0 0 0 0 40.979851032414444 0.21071328730386085 0 0.21071328730386085 -30.896696272884512 0 0 0 0 -9.6939475229464733 -17.637385759423097 0 -17.637385759423097 -54.49295775120703 0 0 0 0 -61.565507687076206 37.339497617365765 0 37.339497617365765 -43.190574446072866 0 0 0 0 -61.55636268778926 17.016662847753572 0 17.016662847753572 5.52748434519809 0 0 0 0 -44.246193008446426 -33.575557785634714 0 -33.575557785634714 69.609083917335894 0 0 0 0 -42.245166894328577 65.084781205970145 0 65.084781205970145 -85.428874178267407 0 0 0 0 -0.72234441579323772 0.1964195651162316 0 0.1964195651162316 0.013201311814574825 0 0 0 0 -46.313559484404323 45.1136305009409 0 45.1136305009409 -30.054460737062726 0 0 0 0 -66.793021740991435 40.895396079320406 0 40.895396079320406 -31.975088233553478 0 0 0 0 -54.081794565070595 34.899534100004828 0 34.899534100004828 -29.853803639625532 0 0 0 0 -49.603185045571081 35.067257779967569 0 35.067257779967569 -54.087476527335241 0 0 0 0 -89.151588009095576 19.291464403294626 0 19.291464403294626 -36.457240436622328 0 0 0 0 -49.187174951767929 31.77704413085198 0 31.77704413085198 -28.536384325394806 0 0 0 0 -0.35615600242874024 -0.050873326718912093 0 -0.050873326718912093 0.033182881646695868 0 0 0 0 -23.46884472939837 49.874569107186311 0 49.874569107186311 -16.025066213124916 0 0 0 0 -32.65718784487035 -9.0214037527667514 0 -9.0214037527667514 28.178929247051542 0 0 0 0 -1.4456294275696564 -1.117544009005158 0 -1.117544009005158 -10.863398404363831 0 0 0 0 -44.513878360351555 42.756639510716973 0 42.756639510716973 -24.1493189110695 0 0 0 0 -58.484886866068791 33.74898440591344 0 33.74898440591344 17.339170216737614 0 0 0 0 -34.037810365052138 46.440224827652273 0 46.440224827652273 18.71908994924911 0 0 0 0 -10.445608537653243 8.2091528859088783 0 8.2091528859088783 51.120455145140539 0 0 0 0 -5.6423727634719398 -21.34636764267924 0 -21.34636764267924 76.96971721261707 0 0 0 0 -33.247373743286602 -1.7829680059963231 0 -1.7829680059963231 46.777334187012713 0 0 0 0 -18.512733833260427 -16.969748551705635 0 -16.969748551705635 80.644700847459262 0 0 0 0 2.2312154981991625 6.8045329030441053 0 6.8045329030441053 34.492012421485299 0 0 0 0 -42.474734196980535 34.98256624384473 0 34.98256624384473 -22.991110423760134 0 0 0 0 2.0015086471521499 10.849571243041179 0 10.849571243041179 -23.543100542394811 0 0 0 0 -97.353460342694234 73.576870925908352 0 73.576870925908352 -14.970678477511406 0 0 0 0 -65.647645770535746 62.414912248410552 0 62.414912248410552 -16.227997022220812 0 0 0 0 -77.421898940478059 37.327313234591188 0 37.327313234591188 18.071634552676883 0 0 0 0 -64.764659136602859 37.105635955831346 0 37.105635955831346 53.158125102439726 0 0 0 0 -60.172522526983812 48.533636779450831 0 48.533636779450831 18.518208040227847 0 0 0 0 -71.962341695454597 45.905747408374744 0 45.905747408374744 19.193323034398475 0 0 0 0 -72.294920984570126 36.194148577348024 0 36.194148577348024 1.0510130305621743 0 0 0 0 -44.479812079011026 16.776316552441429 0 16.776316552441429 14.215575829216959 0 0 0 0 -92.145185527056128 35.261211260034024 0 35.261211260034024 66.460784109102917 0 0 0 0 -112.22645583617054 -18.540246469758468 0 -18.540246469758468 -1.9623514142646243 0 0 0 0 -63.967125794282765 41.717037287584375 0 41.717037287584375 64.254149166907467 0 0 0 0 8.1560777053236961 -28.589890860098663 0 -28.589890860098663 -111.21048797035048 0 0 0 0 -1.434332376239535 -0.43122701227701477 0 -0.43122701227701477 -0.059248205896130293 0 0 0 0 -35.457604654680836 -26.857286626035744 0 -26.857286626035744 23.710432162881233 0 0 0 0 -35.700404275035908 -73.036545162714759 0 -73.036545162714759 -56.006161037854184 0 0 0 0 -121.57184641367508 43.908613233719635 0 43.908613233719635 1.2087067168135661 0 0 0 0 -8.8190225346370426 13.736187291701384 0 13.736187291701384 102.1765898339838 0 0 0 0 -3.1179140484450727 -21.849160977328758 0 -21.849160977328758 5.0571163282601788 0 0 0 0 -3.834357774776592 -1.1449166642678712 0 -1.1449166642678712 0.024032188361694608 0 0 0 0 -24.412466543517439 -20.729000056184418 0 -20.729000056184418 135.78579476586322 0 0 0 0 32.75101726525827 -33.863085665886018 0 -33.863085665886018 71.025118235663825 0 0 0 0 44.438410807793844 7.2075164552597357 0 7.2075164552597357 61.018522456601914 0 0 0 0 -4.7008712402312085 50.210522195425312 0 50.210522195425312 49.560898517864644 0 0 0 0 17.948592954115156 37.447712735551278 0 37.447712735551278 48.999445040183886 0 0 0 0 -27.170323522062972 23.917762987978683 0 23.917762987978683 62.879594633787292 0 0 0 0 -1.6287042595522507 -23.303813215494216 0 -23.303813215494216 -40.938874124230736 0 0 0 0 -18.299377468786588 -40.408391695564859 0 -40.408391695564859 14.589500278742264 0 0 0 0 -20.912355383634349 6.7741718810168514 0 6.7741718810168514 -27.089315994542218 0 0 0 0 3.159441574704033 -29.641709582001592 0 -29.641709582001592 -37.460980561665089 0 0 0 0 -3.4303737839964015 7.8088875145511736 0 7.8088875145511736 24.14796178035607 0 0 0 0 -0.16967337064087573 -0.4744368929915852 0 -0.4744368929915852 0.11380668730663676 0 0 0 0 -11.599719304261271 -6.9413895080141401 0 -6.9413895080141401 23.970080026638399 0 0 0 0 -3.0312726938909691 -22.31074938750065 0 -22.31074938750065 9.6073672072033673 0 0 0 0 -25.712276018435659 -41.788812997259726 0 -41.788812997259726 79.759732676330316 0 0 0 0 -1.7226794224156947 3.7092669022777187 0 3.7092669022777187 -4.481196471817313 0 0 0 0 -17.086267282116452 -1.7383367475134086 0 -1.7383367475134086 0.063348527517791298 0 0 0 0 -1.2120641064957454 -25.077544602213528 0 -25.077544602213528 39.351577463779769 0 0 0 0 39.283101707438163 -16.275183453131739 0 -16.275183453131739 -44.56941958968487 0 0 0 0 1.0198601180222795 6.3188579496916475 0 6.3188579496916475 12.671508495426338 0 0 0 0 5.9472330952867196 -13.846889338850531 0 -13.846889338850531 20.061192705878369 0 0 0 0 -76.959212142013712 -14.346261851668245 0 -14.346261851668245 134.97349421821008 0 0 0 0 -17.316549543849419 -1.4995971729809989 0 -1.4995971729809989 0.097001207860120481 0 0 0 0 -29.39803281475497 -13.62927748215245 0 -13.62927748215245 18.287381453315668 0 0 0 0 -1.3371973567368514 2.2240348996949351 0 2.2240348996949351 -9.3201968794722632 0 0 0 0 -8.5052831927823718 -15.153867158837855 0 -15.153867158837855 4.5963683022216628 0 0 0 0 -35.480407370300782 -6.0698259112112467 0 -6.0698259112112467 29.331993176309982 0 0 0 0 -5.8527876119533175 -10.024675041800137 0 -10.024675041800137 -5.6392921683075947 0 0 0 0 -16.382870485044243 -1.1070260672224688 0 -1.1070260672224688 0.047342213292803581 0 0 0 0 -33.987319530724562 11.766996120621265 0 11.766996120621265 82.822538356324088 0 0 0 0 -13.099183316991912 30.981572705601089 0 30.981572705601089 1.327438636017007 0 0 0 0 -14.829995919444013 -0.98011142501427673 0 -0.98011142501427673 -0.042130001968870845 0 0 0 0 -8.4535448550195724 -2.3775311343047179 0 -2.3775311343047179 -18.50470110795802 0 0 0 0 -8.8508286064736694 12.756112952069785 0 12.756112952069785 2.8471071001771975 0 0 0 0 -8.6479910682764967 12.120291151722597 0 12.120291151722597 4.277158804282351 0 0 0 0 -14.920307266351301 17.226342074405181 0 17.226342074405181 47.187270139877334 0 0 0 0 -1.6293525708406378 18.392771507542413 0 18.392771507542413 -3.8067697698572545 0 0 0 0 -5.6068299363214464 16.6921702257942 0 16.6921702257942 5.0559936333337951 0 0 0 0 -8.0197434494175468 12.297015665772129 0 12.297015665772129 -2.8519419868267164 0 0 0 0 -3.9945905303429754 13.300799452432869 0 13.300799452432869 -3.0866393696277328 0 0 0 0 -0.80159769953780824 11.178978911047615 0 11.178978911047615 -1.8577198732733393 0 0 0 0 0.86286742291713381 8.9678664544432429 0 8.9678664544432429 -19.489025179206223 0 0 0 0 0.89187444634444546 9.5829011725357418 0 9.5829011725357418 -6.6709749347369325 0 0 0 0 -0.70965144420893012 13.229796065065893 0 13.229796065065893 -11.179767760015494 0 0 0 0 -6.3995056086932891 16.608071215192282 0 16.608071215192282 -8.5006725211897418 0 0 0 0 -6.4819376738869323 21.062511619165296 0 21.062511619165296 -24.750362228185672 0 0 0 0 -18.679400975130193 -5.1580120673972587 0 -5.1580120673972587 -53.134139747526241 0 0 0 0 -1.7216963666349159 14.464287075603462 0 14.464287075603462 -7.5371019271827322 0 0 0 0 -119.33450231408142 -299.8609540511091 0 -299.8609540511091 -490.6903114769662 0 0 0 0 -499.34994390164866 -348.77559031742965 0 -348.77559031742965 -157.48816926617749 0 0 0 0 -12.266524274879885 -133.6564274184156 0 -133.6564274184156 -268.36696982394335 0 0 0 0 -183.23011943119036 -303.73519537838393 0 -303.73519537838393 -187.35655304471692 0 0 0 0 -94.240353189413327 -217.7579706713347 0 -217.7579706713347 -105.33293146652872 0 0 0 0 -64.175265720349216 -220.26820624571982 0 -220.26820624571982 -105.33654336961033 0 0 0 0 -246.92727003635309 -161.91312893716599 0 -161.91312893716599 -25.411683419688565 0 0 0 0 -498.86520658385325 -235.2007967677724 0 -235.2007967677724 48.00407291069719 0 0 0 0 -213.3332536204407 3.4659721005181723 0 3.4659721005181723 247.45058251379572 0 0 0 0 -225.93852316349239 -318.79236900174539 0 -318.79236900174539 -130.54429954453906 0 0 0 0 -1.6669894858058747 -0.89736046462429453 0 -0.89736046462429453 0.32973877241796307 0 0 0 0 -499.21885605133895 -256.06568745308863 0 -256.06568745308863 148.82791845166443 0 0 0 0 -35.089873875333069 -127.20994186175571 0 -127.20994186175571 58.845982939868321 0 0 0 0 -1.6285785266682389 -0.78511144628749685 0 -0.78511144628749685 0.31564791738081022 0 0 0 0 -134.64649708136585 -272.91577539584989 0 -272.91577539584989 -124.78220503976803 0 0 0 0 -127.68766269205594 58.429472358468189 0 58.429472358468189 251.95638862679817 0 0 0 0 -243.02133370172669 -105.65684901591302 0 -105.65684901591302 117.66146833294867 0 0 0 0 -239.60824889716082 -119.47806822990431 0 -119.47806822990431 9.8988721486225018 0 0 0 0 -114.52018106814876 -50.102010685747572 0 -50.102010685747572 -29.676589323761377 0 0 0 0 -232.52562077427547 -159.86327815449221 0 -159.86327815449221 -34.22187621530739 0 0 0 0 -55.530864960418967 -88.191051928089067 0 -88.191051928089067 -11.358082651280569 0 0 0 0 -8.6684176607022891 -32.646367753257948 0 -32.646367753257948 -45.529512127525123 0 0 0 0 -124.08344173609385 -194.51107779651088 0 -194.51107779651088 -115.98050169590351 0 0 0 0 -14.165546176988755 -91.324747549715426 0 -91.324747549715426 -21.91775584824569 0 0 0 0 -43.912791457835738 22.077873301734797 0 22.077873301734797 102.45172149197276 0 0 0 0 -10.144263228627096 -7.3754085591370782 0 -7.3754085591370782 71.925991647430607 0 0 0 0 14.764079107015277 -20.787265875388869 0 -20.787265875388869 77.02475290618375 0 0 0 0 -3.8649682715713425 8.586983797594165 0 8.586983797594165 17.867226652468304 0 0 0 0 -96.266054589958003 -69.984961314627 0 -69.984961314627 -13.344868465919884 0 0 0 0 -0.47398639824419675 -0.32816529950517026 0 -0.32816529950517026 0.133957365979369 0 0 0 0 -136.57761304298037 -104.41194518216443 0 -104.41194518216443 -51.860658190718439 0 0 0 0 -91.136660580898024 -31.959246276859687 0 -31.959246276859687 -27.135156390030545 0 0 0 0 -63.9799091825289 -47.513477312537475 0 -47.513477312537475 -22.944251676758398 0 0 0 0 11.13327600249886 -5.9707496621359688 0 -5.9707496621359688 -22.47191597402275 0 0 0 0 -29.204161006607137 21.868023663215574 0 21.868023663215574 -30.959139709744903 0 0 0 0 -51.629315598386711 6.9020546877900131 0 6.9020546877900131 -38.553289429953566 0 0 0 0 10.013063100317595 -9.2813297462510107 0 -9.2813297462510107 -10.870269864664778 0 0 0 0 -9.794609970401325 -1.3559446686876697 0 -1.3559446686876697 41.356976203298018 0 0 0 0 -43.164128536316639 13.377320263052811 0 13.377320263052811 48.938689641238518 0 0 0 0 -0.75021701020665787 -0.17339121399457591 0 -0.17339121399457591 0.13305093792866882 0 0 0 0 13.680950941854462 -2.8502837485937107 0 -2.8502837485937107 1.9544318048901559 0 0 0 0 -10.699916621861206 18.276699890760369 0 18.276699890760369 58.820089491423175 0 0 0 0 14.812765371547357 4.7202395297478006 0 4.7202395297478006 63.945098260758186 0 0 0 0 -8.7570707471322748 7.9376980104161419 0 7.9376980104161419 99.252827926784136 0 0 0 0 13.178204349216685 -7.2443645200093343 0 -7.2443645200093343 42.783806525453159 0 0 0 0 -9.3616982541716425 -4.8214681591983179 0 -4.8214681591983179 72.221138952280214 0 0 0 0 20.162173546465056 -6.6753224908028983 0 -6.6753224908028983 72.337435054567621 0 0 0 0 -5.5308211470971891 -1.6540626685026263 0 -1.6540626685026263 -0.00089818555565293612 0 0 0 0 -9.8488352164408752 -16.163909436746223 0 -16.163909436746223 121.73216461904065 0 0 0 0 -4.7100941807266281 -10.923134947649757 0 -10.923134947649757 16.137768136619783 0 0 0 0 -10.845008324480659 -11.969174237493291 0 -11.969174237493291 20.534554928703969 0 0 0 0 -3.8193639775345218 -10.510115408875691 0 -10.510115408875691 13.32172172315596 0 0 0 0 -1.9773838066494136 -11.949940457778482 0 -11.949940457778482 14.412459945117845 0 0 0 0 -0.27922658640683551 -0.60525403042360337 0 -0.60525403042360337 0.18216066565372349 0 0 0 0 -6.6427159029527729 -12.722233914810733 0 -12.722233914810733 17.892098962886735 0 0 0 0 -7.1270189361330267 -8.9943822347239575 0 -8.9943822347239575 14.686501851882994 0 0 0 0 -7.3259963961936592 -7.4552181718085251 0 -7.4552181718085251 0.16154292827917516 0 0 0 0 -11.068328568046127 -15.023272365832213 0 -15.023272365832213 16.831895363217484 0 0 0 0 -11.192839325502064 -20.366812879498696 0 -20.366812879498696 24.421608093374402 0 0 0 0 -139.33857015463559 6.8153848474048502 0 6.8153848474048502 96.843210484810555 0 0 0 0 -15.401333050880638 -1.5698510271476041 0 -1.5698510271476041 0.052636294179210813 0 0 0 0 33.529070823665279 3.8304965366878605 0 3.8304965366878605 -37.667627085546663 0 0 0 0 2.6379490726076256 8.089708450480515 0 8.089708450480515 14.274135961640752 0 0 0 0 -12.848324934565426 -13.314774993384361 0 -13.314774993384361 19.646147895346814 0 0 0 0 -0.19738347715974669 -10.329648216398425 0 -10.329648216398425 -9.3913289189419515 0 0 0 0 -12.425400782958551 -1.2413330096979802 0 -1.2413330096979802 -0.023333324738850997 0 0 0 0 -12.338660264257214 17.285796824010298 0 17.285796824010298 27.086383789025739 0 0 0 0 -10.739026252522365 9.712765270953545 0 9.712765270953545 6.7314466233510046 0 0 0 0 -0.092124505601532292 8.1163882397816636 0 8.1163882397816636 -13.335388681555358 0 0 0 0 -9.0509467855799812 3.8018552067040332 0 3.8018552067040332 -0.69414391173007317 0 0 0 0 -18.313476765055384 -11.243132930786288 0 -11.243132930786288 33.959689372533376 0 0 0 0 -7.5327071651922779 -3.0737747569246494 0 -3.0737747569246494 -12.401235576244915 0 0 0 0 4.5034624405543582 -7.1460355917791105 0 -7.1460355917791105 -14.087161987569544 0 0 0 0 -0.19066066947284455 -0.44509415797698171 0 -0.44509415797698171 0.14215436999024003 0 0 0 0 -21.626116869696489 2.4173633050639438 0 2.4173633050639438 48.200546260305998 0 0 0 0 -22.224671578430844 -17.679391533311197 0 -17.679391533311197 33.235729408709986 0 0 0 0 -6.4604276280041013 -2.0680258544022192 0 -2.0680258544022192 -0.0074647677263573048 0 0 0 0 -42.730199215595349 -7.1056350596252287 0 -7.1056350596252287 142.89235087312659 0 0 0 0 -6.3788972473284957 -9.9832898744186807 0 -9.9832898744186807 54.531095528655726 0 0 0 0 -5.7920877159174822 -2.3294900527963649 0 -2.3294900527963649 -0.11302941150061575 0 0 0 0 -74.432574641338761 -73.491348142568484 0 -73.491348142568484 76.581809746538738 0 0 0 0 21.027888099833035 -17.325144954704854 0 -17.325144954704854 13.053630339322819 0 0 0 0 -0.2462420445576754 1.4522208665260621 0 1.4522208665260621 13.140664772958843 0 0 0 0 -6.4152550491216971 -13.727793969615874 0 -13.727793969615874 6.328093539845483 0 0 0 0 -9.1971623948536223 -1.0906039213954408 0 -1.0906039213954408 -0.060798606897857016 0 0 0 0 -17.151603433221908 2.0897384709591762 0 2.0897384709591762 8.7109417161176594 0 0 0 0 -10.474222434587318 12.973652430459083 0 12.973652430459083 -0.57709698596099201 0 0 0 0 3.8692928929358459 -0.42723145265551565 0 -0.42723145265551565 -27.705664586977733 0 0 0 0 5.5654930783839518 3.8622861877442851 0 3.8622861877442851 -31.15447896514446 0 0 0 0 -3.516490335616254 10.762817061063231 0 10.762817061063231 3.6331141328109169 0 0 0 0 -6.6554565289115999 7.0126599592771015 0 7.0126599592771015 7.5089112841031209 0 0 0 0 -6.1333204526672489 -7.2385563831641324 0 -7.2385563831641324 -9.396460562739307 0 0 0 0 -3.8626930781904889 7.6404735393853729 0 7.6404735393853729 2.1769870308418433 0 0 0 0 -6.4835339448180864 -1.1179025820074826 0 -1.1179025820074826 -0.13874697835629199 0 0 0 0 1.1239275929028736 0.49285768820324449 0 0.49285768820324449 -17.779553024558243 0 0 0 0 -13.761753037989365 13.760616971841401 0 13.760616971841401 5.1154676945794222 0 0 0 0 -2.199092329894822 -1.7001971109535594 0 -1.7001971109535594 -1.4461341914302759 0 0 0 0 -3.4439273391599272 -2.7538193329779617 0 -2.7538193329779617 -34.308182771410131 0 0 0 0 -1.4009199747497405 -7.3804312239511578 0 -7.3804312239511578 -51.205340649011475 0 0 0 0 1.9255673936368112 19.132839656541201 0 19.132839656541201 -24.083604695957462 0 0 0 0 2.9064807752777142 13.131704569790786 0 13.131704569790786 -63.327825619401054 0 0 0 0 -3.1582009853664204 12.982362922371422 0 12.982362922371422 -4.06828073867716 0 0 0 0 -2.4764099626827374 9.7931168431648885 0 9.7931168431648885 -3.3583503510610253 0 0 0 0 -1.5128632086780271 11.334701245112033 0 11.334701245112033 -13.467188749956673 0 0 0 0 -8.2787693776899687 25.17298158941184 0 25.17298158941184 -9.8328258968755247 0 0 0 0 -63.345823322506476 33.903968338610341 0 33.903968338610341 -72.434184266368661 0 0 0 0 -1.0191086707393886 -0.38273479491992468 0 -0.38273479491992468 -0.034669038662374162 0 0 0 0 -8.5197355821383098 -109.52197570302927 0 -109.52197570302927 14.653506727134467 0 0 0 0 -19.638637500033838 46.810249790776702 0 46.810249790776702 -4.6532399428584501 0 0 0 0 -440.3009579041136 -107.32669881044812 0 -107.32669881044812 15.269957919863637 0 0 0 0 -499.06863151343759 -45.612908820602854 0 -45.612908820602854 1.4217907941343939 0 0 0 0 -147.84290594567847 -81.386745689506498 0 -81.386745689506498 -47.978529080902305 0 0 0 0 -0.6246470628595997 -0.67321914540355565 0 -0.67321914540355565 -0.5787446922016517 0 0 0 0 -251.87364489849642 -87.064746915404982 0 -87.064746915404982 -12.847868016157035 0 0 0 0 -438.16978404219026 47.460818826014446 0 47.460818826014446 40.193853823276925 0 0 0 0 -206.30450017098883 100.02914352456982 0 100.02914352456982 20.519302543347422 0 0 0 0 -10.152369161940669 -18.599649119814465 0 -18.599649119814465 29.157328231750661 0 0 0 0 -1.15656400301968 -0.63874892806292838 0 -0.63874892806292838 -0.52450665636633453 0 0 0 0 -499.90184496493021 168.95463707793562 0 168.95463707793562 12.943551269222628 0 0 0 0 -22.858987487238664 5.0385036552442006 0 5.0385036552442006 6.1791395870503951 0 0 0 0 20.970019555817089 28.787305163519189 0 28.787305163519189 9.346337638120346 0 0 0 0 -2.4361917280469534 -1.5198910767661733 0 -1.5198910767661733 -0.48738299752967351 0 0 0 0 -94.735660972863116 -1.2235859825989881 0 -1.2235859825989881 78.700421081139723 0 0 0 0 -491.0611512343603 -201.18304064377244 0 -201.18304064377244 -19.603246929020514 0 0 0 0 -274.62150325812274 177.25434176081453 0 177.25434176081453 -24.817637209113634 0 0 0 0 -499.25026894510393 26.950680186136356 0 26.950680186136356 107.27241539060383 0 0 0 0 -141.67725654893502 -36.638333318810034 0 -36.638333318810034 38.152460090570585 0 0 0 0 -94.285982913682801 54.199697213420876 0 54.199697213420876 5.7492753388114064 0 0 0 0 23.247092222778519 -22.619587151028135 0 -22.619587151028135 -55.375682509376674 0 0 0 0 32.132349127297971 1.7383585555920824 0 1.7383585555920824 -12.449561210522575 0 0 0 0 -52.915530261654112 -31.78309175153106 0 -31.78309175153106 19.611616029964495 0 0 0 0 -11.352245731626226 94.459681253759697 0 94.459681253759697 -84.370937471831411 0 0 0 0 -497.43018788600693 -15.539208664604059 0 -15.539208664604059 35.278528708532725 0 0 0 0 -0.90906125497305368 0.54143179412591724 0 0.54143179412591724 -0.47106069787399929 0 0 0 0 -1.3298445348506363 0.10887539026395521 0 0.10887539026395521 -0.22184659973669985 0 0 0 0 -8.2496819683415197 16.313995854788921 0 16.313995854788921 -35.511594278970065 0 0 0 0 -146.70237251636809 -99.541325254507612 0 -99.541325254507612 -70.287612372241867 0 0 0 0 -499.8140060220523 101.9439372912891 0 101.9439372912891 69.428795599666387 0 0 0 0 -498.60039700113055 102.23497152307759 0 102.23497152307759 69.253483373710907 0 0 0 0 -13.032037168481111 11.521474525127118 0 11.521474525127118 22.267032809712305 0 0 0 0 -13.644614963053755 11.255488848755242 0 11.255488848755242 26.811816166768352 0 0 0 0 -11.818594046114185 11.155460977355627 0 11.155460977355627 21.812050359400672 0 0 0 0 -11.477684445603245 12.347411616475968 0 12.347411616475968 13.549096660476181 0 0 0 0 -7.8203807638474245 20.612590346652695 0 20.612590346652695 13.924804590851366 0 0 0 0 -25.95225926096191 31.407593472175066 0 31.407593472175066 40.596073265754626 0 0 0 0 -25.157136276608071 7.4461364926254561 0 7.4461364926254561 54.152682106875673 0 0 0 0 -2.4474373168769006 -0.028468209500494446 0 -0.028468209500494446 -0.044681501792572742 0 0 0 0 -2.8178771184302605 -15.490717983647215 0 -15.490717983647215 43.023523066550226 0 0 0 0 -8.235320128985677 3.2113651903182294 0 3.2113651903182294 9.1894350827955691 0 0 0 0 -0.85208114219221898 1.6629695482417901 0 1.6629695482417901 1.9172873938419173 0 0 0 0 -4.9319209204550134 -0.28384082235047003 0 -0.28384082235047003 12.662063695733266 0 0 0 0 -9.4270247230942914 1.1093732878986202 0 1.1093732878986202 42.154604559361815 0 0 0 0 -4.038641640918426 2.3999260268845259 0 2.3999260268845259 7.2353646053763265e-05 0 0 0 0 -4.7456126314930316 -12.517832702200394 0 -12.517832702200394 12.408145720255675 0 0 0 0 -2.635052425813031 0.9868663113661218 0 0.9868663113661218 -0.44302923769642943 0 0 0 0 -5.515460934454973 2.8830780181838764 0 2.8830780181838764 0.35036909299145874 0 0 0 0 -4.2156879826816294 -2.4304514772818777 0 -2.4304514772818777 -3.288549341643261 0 0 0 0 -2.0950955067333803 1.0909596974023366 0 1.0909596974023366 -0.58476874515760391 0 0 0 0 -1.0347073537171507 0.90052402399316422 0 0.90052402399316422 -0.2103133472872426 0 0 0 0 -11.875725043965303 35.641228999960333 0 35.641228999960333 24.270857950776382 0 0 0 0 -17.740017556941439 3.6016955075919839 0 3.6016955075919839 2.0244864506018985 0 0 0 0 -0.023180113461903407 -0.11883276270180954 0 -0.11883276270180954 -0.022023439613120477 0 0 0 0 39.353495279742447 0.40670225262719839 0 0.40670225262719839 -9.2306512915715757 0 0 0 0 -7.2549008451142072 11.958622553187865 0 11.958622553187865 14.059055557840168 0 0 0 0 17.670719433970589 3.3372405648837571 0 3.3372405648837571 17.039794713767378 0 0 0 0 8.1105263271201693 0.14837937334385742 0 0.14837937334385742 -0.10782308628949977 0 0 0 0 -0.030680091004114729 -5.5243050998336543 0 -5.5243050998336543 12.669855026857874 0 0 0 0 3.5931042008601253 0.63053797348980112 0 0.63053797348980112 0.63658238147660029 0 0 0 0 -6.856077746938209 1.0039447114940665 0 1.0039447114940665 0.20556514031015991 0 0 0 0 -10.779111600895703 16.529263942244604 0 16.529263942244604 2.9682315419494216 0 0 0 0 -1.3797458831041132 0.78679323193005335 0 0.78679323193005335 -0.13030444086121773 0 0 0 0 0.42740725805915147 1.2569174157262937 0 1.2569174157262937 -0.36466157126400012 0 0 0 0 -11.573711384920898 2.1028821428744209 0 2.1028821428744209 27.644126788537051 0 0 0 0 -13.153193446347359 6.9810209486899453 0 6.9810209486899453 30.969516236748056 0 0 0 0 -19.234500394777569 6.8557671611212783 0 6.8557671611212783 31.138597733733548 0 0 0 0 -3.0182539462548448 4.3523626757925484 0 4.3523626757925484 26.261325207842219 0 0 0 0 -3.0049588756046433 16.744838026628912 0 16.744838026628912 41.189877908673708 0 0 0 0 -1.156906016501436 -0.59121779481873382 0 -0.59121779481873382 0.66063245064269815 0 0 0 0 -2.7346288216008361 -1.2844295581638256 0 -1.2844295581638256 25.787688555233615 0 0 0 0 0.0049066754063460394 9.6754667252966726 0 9.6754667252966726 8.5321160967295384 0 0 0 0 -1.4942418826485664 3.9076385055457763 0 3.9076385055457763 7.7902729887853468 0 0 0 0 -8.3345561236856156 7.0557384911453767 0 7.0557384911453767 12.498111517568251 0 0 0 0 -7.2551126944563293 7.0112823146984837 0 7.0112823146984837 12.499859520362719 0 0 0 0 -10.252136140723451 6.4759404873787929 0 6.4759404873787929 22.996861246743066 0 0 0 0 -12.51888470573931 8.4995555980309625 0 8.4995555980309625 28.184414515338858 0 0 0 0 -7.04703925890135 2.0076545200114282 0 2.0076545200114282 26.337771740251441 0 0 0 0 -4.9973302840085232 0.98817506437278957 0 0.98817506437278957 -0.14657121424109348 0 0 0 0 -31.660975839975436 2.9941030915649804 0 2.9941030915649804 0.57705809238548955 0 0 0 0 -6.1132721065368969 2.639701554198183 0 2.639701554198183 26.27455834227888 0 0 0 0 -11.875192189223981 5.861895948846545 0 5.861895948846545 26.043580893393354 0 0 0 0 -0.010891355437706807 -0.92874893857111829 0 -0.92874893857111829 10.062662094850786 0 0 0 0 -0.056956107813111778 -0.40799714266405429 0 -0.40799714266405429 -0.88284164329737269 0 0 0 0 -56.197784175631938 2.113392851065484 0 2.113392851065484 3.2613376470625326 0 0 0 0 -13.379090688464032 -67.957801291951043 0 -67.957801291951043 -3.4133747636836915 0 0 0 0 -11.448623208688332 -3.9268627410139061 0 -3.9268627410139061 -45.051749909657381 0 0 0 0 -3.254245815404829 81.601072264495031 0 81.601072264495031 -43.528621016292334 0 0 0 0 -50.232960482030649 -20.152122704367542 0 -20.152122704367542 -3.7652893056957168 0 0 0 0 -0.13025250952511103 -0.087556926634230869 0 -0.087556926634230869 -0.13740640657180447 0 0 0 0 -35.417694148748751 -3.4993543118391415 0 -3.4993543118391415 -0.2097267083810479 0 0 0 0 -30.641258397019101 6.0313239625955646 0 6.0313239625955646 0.85016602042372824 0 0 0 0 0.031071792024870204 0.377940366243946 0 0.377940366243946 -0.68474037332946081 0 0 0 0 -1.146285809183837 -2.5114662810654096 0 -2.5114662810654096 -7.0925042225982793 0 0 0 0 1.2678012428049215 1.776515749594914 0 1.776515749594914 -5.5826865546349609 0 0 0 0 -5.0591571244262923 -1.4674078436856632 0 -1.4674078436856632 -0.54082238248355452 0 0 0 0 -32.470264868547247 -4.5606749786096259 0 -4.5606749786096259 1.1821717330356591 0 0 0 0 -10.043407498473584 -9.3629910857209353 0 -9.3629910857209353 -8.7120692582909101 0 0 0 0 -9.4987979229188113 -0.42533319778357281 0 -0.42533319778357281 -2.8666716949284137 0 0 0 0 -11.425143223230407 7.3412228674346096 0 7.3412228674346096 -17.329319332647799 0 0 0 0 -1.6773203911901291 -1.0717942146391906 0 -1.0717942146391906 -2.0152055568231639 0 0 0 0 0.73827989642387593 45.77670873646602 0 45.77670873646602 8.6247578158793203 0 0 0 0 -1.515918740402336 -0.70194095666735379 0 -0.70194095666735379 0.14435309439628563 0 0 0 0 -7.1784909508537567 -2.2242105143257049 0 -2.2242105143257049 12.257265766104169 0 0 0 0 -7.2623501543680504 -5.7075296115954757 0 -5.7075296115954757 7.4335893386405019 0 0 0 0 5.7139113841049038 -4.0611744590401599 0 -4.0611744590401599 2.8488374472715918 0 0 0 0 8.7738404876490677 -11.327474150085578 0 -11.327474150085578 -16.781737835266881 0 0 0 0 7.9723245270388361 -20.641957629686829 0 -20.641957629686829 -23.202690464283791 0 0 0 0 7.9304995163529384 -18.153443799921476 0 -18.153443799921476 -8.2846313205405977 0 0 0 0 52.065572832926591 -4.5183394128729049 0 -4.5183394128729049 -12.223499292117125 0 0 0 0 -3.2075863627182368 0.47687787777721236 0 0.47687787777721236 -0.080128451906267037 0 0 0 0 -1.413575732018443 -0.095213961390180291 0 -0.095213961390180291 0.087970599920171186 0 0 0 0 -11.525675398733711 -19.271481388880488 0 -19.271481388880488 24.899477494872173 0 0 0 0 -7.9876178387494292 12.348737413363725 0 12.348737413363725 8.1072532115024174 0 0 0 0 -2.7789220315275998 -7.421915308649119 0 -7.421915308649119 -2.2883709568528161 0 0 0 0 2.1521643972255333 10.014302779490748 0 10.014302779490748 1.8396056115370953 0 0 0 0 130.91397285314451 -5.5905880292748833 0 -5.5905880292748833 -36.724329124044452 0 0 0 0 -24.476679898531074 -30.633294957914657 0 -30.633294957914657 -38.123864724878032 0 0 0 0 -80.315449902082037 -1.4672756693777558 0 -1.4672756693777558 -12.279544556543939 0 0 0 0 -0.49803758911536455 -0.174206908507615 0 -0.174206908507615 0.040467959238286881 0 0 0 0 -2.5982018366896114 -7.7055800000477959 0 -7.7055800000477959 -15.974173138262529 0 0 0 0 -27.717617737753699 -13.701769331254525 0 -13.701769331254525 9.055994386031216 0 0 0 0 -5.8830739163279588 -19.493939662542253 0 -19.493939662542253 -14.596840033954834 0 0 0 0 -5.2088958518411346 -14.795278280457694 0 -14.795278280457694 -7.6975637840018862 0 0 0 0 -46.868706418014881 -11.68945771580141 0 -11.68945771580141 0.17586046970725988 0 0 0 0 -22.594537842427599 7.0077747092761342 0 7.0077747092761342 12.334962838016736 0 0 0 0 -1.0830146577397688 0.14116476502132014 0 0.14116476502132014 -0.07087331419428293 0 0 0 0 -72.004676990807411 3.1157876666650282 0 3.1157876666650282 -7.2714960668434969 0 0 0 0 -147.38890440184332 -10.949795504906604 0 -10.949795504906604 -35.020734799760902 0 0 0 0 -44.796518789337142 1.3169659638105102 0 1.3169659638105102 -16.172226776131879 0 0 0 0 -40.099739353154291 4.2272929912128347 0 4.2272929912128347 -51.695229295632757 0 0 0 0 -36.825626866546486 17.759005154969529 0 17.759005154969529 -8.2540539815021816 0 0 0 0 -37.159772996671556 -2.8466520550851486 0 -2.8466520550851486 10.555138811819234 0 0 0 0 -37.279082542054546 -11.200299957696425 0 -11.200299957696425 35.435899463411829 0 0 0 0 -32.765763139920637 -23.939952308789316 0 -23.939952308789316 20.80757895979292 0 0 0 0 -30.800247057788056 -19.691077654372975 0 -19.691077654372975 14.831993485780799 0 0 0 0 -103.5895191112794 56.590693487523176 0 56.590693487523176 20.503763336694192 0 0 0 0 -78.658358206116191 -51.681532304098823 0 -51.681532304098823 -6.2874395658976709 0 0 0 0 -27.724122015985472 -23.617985456129134 0 -23.617985456129134 -5.462116561123139 0 0 0 0 -13.033546951659901 -7.6616961980398344 0 -7.6616961980398344 10.885584901842037 0 0 0 0 -5.5379015359449113 -4.036095956225779 0 -4.036095956225779 6.2070864751351564 0 0 0 0 -2.4009412280903426 -1.2223591950180737 0 -1.2223591950180737 0.1080166433427221 0 0 0 0 0.40813863623088764 -2.7494683082782103 0 -2.7494683082782103 -7.4734868435666613 0 0 0 0 -11.846038205845502 -31.20668277307027 0 -31.20668277307027 -43.343223377678669 0 0 0 0 -0.82549991340143336 -0.35639831939139732 0 -0.35639831939139732 -0.21780608600226636 0 0 0 0 -39.205497909465521 58.79492300714503 0 58.79492300714503 -70.725483832338114 0 0 0 0 -52.209500293209601 71.022571498097562 0 71.022571498097562 11.470441165635521 0 0 0 0 -75.902326739507998 9.0687681826458402 0 9.0687681826458402 12.546169153731739 0 0 0 0 -31.640449370737883 36.237624030627302 0 36.237624030627302 -3.5855516468539008 0 0 0 0 -1.2352246242021137 -0.068583427550322096 0 -0.068583427550322096 -0.085939776630767017 0 0 0 0 -47.618062490815078 13.07712680237195 0 13.07712680237195 22.322789003917137 0 0 0 0 -11.000155573061647 2.3353062842366796 0 2.3353062842366796 -55.231836578154343 0 0 0 0 -33.942566372754641 36.785835314471512 0 36.785835314471512 -17.057836749153012 0 0 0 0 0.76005683685468739 -11.360018489575378 0 -11.360018489575378 -7.0222818876964475 0 0 0 0 -6.2076218226669679 -4.151153484196465 0 -4.151153484196465 -0.084215222661448652 0 0 0 0 -14.479311845401497 -8.6993206076545668 0 -8.6993206076545668 14.164426144978734 0 0 0 0 -11.847468253342868 2.1394878185513875 0 2.1394878185513875 -4.4036943031269686 0 0 0 0 -12.235531641501154 3.4855965573467635 0 3.4855965573467635 -0.54126326916653511 0 0 0 0 -12.692948968858218 -32.757331840977315 0 -32.757331840977315 21.662246168240817 0 0 0 0 -2.4377424523593163 -10.335947609283775 0 -10.335947609283775 -4.523316192868279 0 0 0 0 -13.696289259836249 -5.0467085843328618 0 -5.0467085843328618 3.0193861135470144 0 0 0 0 -5.8050210184198807 -5.4797466185480932 0 -5.4797466185480932 -1.656278249178627 0 0 0 0 -12.165623145559721 -6.1449335414396664 0 -6.1449335414396664 -15.403689592273906 0 0 0 0 -32.986891411475426 -7.9414032243870878 0 -7.9414032243870878 -0.77207400601503196 0 0 0 0 -20.555153090507361 5.2789258047950369 0 5.2789258047950369 -6.8192620238189363 0 0 0 0 -10.724960288330749 -0.9520266924000893 0 -0.9520266924000893 -2.9764724567182554 0 0 0 0 -31.483220399218453 -7.7225467063381643 0 -7.7225467063381643 1.2795054169699593 0 0 0 0 -19.390706024381586 -18.248224690187175 0 -18.248224690187175 -7.0181314263631123 0 0 0 0 -16.43097705646943 -11.648439300976843 0 -11.648439300976843 4.3573334331003934 0 0 0 0 -1.1665616135029495 0.93407716962205711 0 0.93407716962205711 0.20742423952876454 0 0 0 0 -7.7352106306243513 -6.5909163110889111 0 -6.5909163110889111 -16.556569559346663 0 0 0 0 -30.653891905964343 7.2914369871916147 0 7.2914369871916147 -0.32494069067274722 0 0 0 0 -19.514339343511551 -5.7483810783518408 0 -5.7483810783518408 -0.52486490795975893 0 0 0 0 -4.7712516815023784 3.3522533326187953 0 3.3522533326187953 0.68083490873619656 0 0 0 0 -16.622678912228196 6.6266905058961614 0 6.6266905058961614 -1.3986221030336594 0 0 0 0 -12.607941923732369 -1.3046805342972334 0 -1.3046805342972334 1.1433527268963388 0 0 0 0 -17.28248552243474 -3.6717735490336239 0 -3.6717735490336239 1.3535927477900458 0 0 0 0 -16.046311513530554 -6.4124053738168172 0 -6.4124053738168172 0.38559491953012071 0 0 0 0 -6.6668385881752128 -5.6717431028452028 0 -5.6717431028452028 -2.4820906712591668 0 0 0 0 -6.2591964561730151 -95.257093212409387 0 -95.257093212409387 -44.780570430667694 0 0 0 0 -10.081597621089372 6.0569076807131381 0 6.0569076807131381 -3.3424342017945037 0 0 0 0 -5.4534470041666907 2.9582377412531775 0 2.9582377412531775 0.34423469105155458 0 0 0 0 -15.88784300681732 -1.3710302212204297 0 -1.3710302212204297 1.7168376236433005 0 0 0 0 -13.270674987438724 -2.0417425090164443 0 -2.0417425090164443 1.4890894569088431 0 0 0 0 -6.7084688899697085 -6.4588797463318031 0 -6.4588797463318031 -3.1270018408009435 0 0 0 0 -14.44374498342097 -3.5801527870833638 0 -3.5801527870833638 0.50317036287765404 0 0 0 0 -13.053272468896807 0.19168643251965767 0 0.19168643251965767 -0.15017439921837994 0 0 0 0 -8.7999237412029743 -4.0211370501640147 0 -4.0211370501640147 0.50869522983515303 0 0 0 0 -8.5651899426464411 -3.5000656156069709 0 -3.5000656156069709 0.83109869437674888 0 0 0 0 -8.5616156370360699 -2.1449198111854022 0 -2.1449198111854022 -0.50735568611753856 0 0 0 0 -12.404851402560325 -1.1631551031352103 0 -1.1631551031352103 1.0380465733152562 0 0 0 0 -12.533799126262238 -1.1576309868001715 0 -1.1576309868001715 1.2808719525752537 0 0 0 0 -12.317266218309442 -1.0155172679336459 0 -1.0155172679336459 1.1710843649248659 0 0 0 0 -6.1552973905522776 -5.8165957147488285 0 -5.8165957147488285 3.6074249692654803 0 0 0 0 -8.388985393240624 -2.2321621958405853 0 -2.2321621958405853 -0.24180033803075207 0 0 0 0 -8.9987922719385551 -3.0701554595786362 0 -3.0701554595786362 2.0871480152690722 0 0 0 0 -1.8495844898681224 -0.31040548283777025 0 -0.31040548283777025 0.25574078672867923 0 0 0 0 -4.307682192305947 0.81589279326903963 0 0.81589279326903963 -3.341643516504206 0 0 0 0 -9.742327550980594 -10.972156893938042 0 -10.972156893938042 6.3919143082225105 0 0 0 0 -9.6236309408380976 -13.972388940195358 0 -13.972388940195358 -0.72653205586810543 0 0 0 0 -14.953038989721335 -7.7002368808307438 0 -7.7002368808307438 4.3407726272716616 0 0 0 0 -22.165912792093195 -5.6503912057844445 0 -5.6503912057844445 14.401812463536245 0 0 0 0 -15.925402409297931 -3.786400590624325 0 -3.786400590624325 13.626631830859864 0 0 0 0 -12.007460611995839 1.0381203924532159 0 1.0381203924532159 5.171593448553331 0 0 0 0 -8.7465336430571767 -2.2479380733773286 0 -2.2479380733773286 1.1059638278757546 0 0 0 0 -15.498464814354975 -2.2029575067783855 0 -2.2029575067783855 1.5174372449977529 0 0 0 0 -12.391674148663043 -0.43502437784959902 0 -0.43502437784959902 -0.13205703615977882 0 0 0 0 -5.1699862303121336 14.350996563383944 0 14.350996563383944 12.950172390256839 0 0 0 0 -22.141981798768711 1.4316856746324049 0 1.4316856746324049 30.621731924111742 0 0 0 0 -26.671212755546094 -2.523326464986674 0 -2.523326464986674 27.391504237125702 0 0 0 0 -431.96053723774372 -102.45294840338794 0 -102.45294840338794 -24.356195789235485 0 0 0 0 -1.7595718932934243 2.5705333605105558 0 2.5705333605105558 -0.5174230005788174 0 0 0 0 -1.2414604233297268 24.319951415042944 0 24.319951415042944 34.54297392358103 0 0 0 0 -499.68279638841142 -80.002898187328725 0 -80.002898187328725 49.599706474345453 0 0 0 0 -318.94091407814972 -45.150778194027055 0 -45.150778194027055 41.391651353331646 0 0 0 0 -405.26213249690352 143.90833084270599 0 143.90833084270599 -40.667110877933844 0 0 0 0 -500.18565369221585 24.122608396777903 0 24.122608396777903 -87.100935584256661 0 0 0 0 -505.32644752241299 32.585119648634162 0 32.585119648634162 42.958201175346446 0 0 0 0 -227.07856596894715 89.098825598515859 0 89.098825598515859 -45.643456546341923 0 0 0 0 -3.2921266577572177 2.8962668405680487 0 2.8962668405680487 -0.23431273320566581 0 0 0 0 -3.5526356625747439 -2.8078807843225917 0 -2.8078807843225917 -1.9320547057898239 0 0 0 0 43.341713656878937 35.639346582475554 0 35.639346582475554 -69.079832252751601 0 0 0 0 -1.6503492865385323 0.48595384920647389 0 0.48595384920647389 -0.90676594540720268 0 0 0 0 -69.108420731438855 -103.42992159288102 0 -103.42992159288102 -20.536876291879103 0 0 0 0 -304.93588000849604 -101.21414426447505 0 -101.21414426447505 18.950463206166024 0 0 0 0 -2.1761357786099769 0.27700264049609968 0 0.27700264049609968 -0.20890963905407797 0 0 0 0 -496.77270503882892 77.232043976420812 0 77.232043976420812 13.002518158494404 0 0 0 0 -8.5343220889885743 6.212637499743586 0 6.212637499743586 -7.3877557028603178 0 0 0 0 -9.5902870438471837 3.4668213565683317 0 3.4668213565683317 0.67514577122312858 0 0 0 0 -11.609671513976537 9.0151636302282157 0 9.0151636302282157 -11.717064562722584 0 0 0 0 -19.667961116394054 1.7909511372752718 0 1.7909511372752718 3.3706457390020921 0 0 0 0 -23.005861653347665 -0.42512409397874507 0 -0.42512409397874507 3.2719853609892766 0 0 0 0 -3.930547980981828 -1.2390558193399102 0 -1.2390558193399102 -0.69354091415229746 0 0 0 0 -7.714876969640045 0.94393536816889423 0 0.94393536816889423 -1.6744821430087029 0 0 0 0 -9.7514988491438999 -2.567005228546293 0 -2.567005228546293 4.4138971299811374 0 0 0 0 -4.6451109691293127 -1.7748954414873728 0 -1.7748954414873728 -0.96006480354273172 0 0 0 0 -7.8677666804678665 1.427489211525824 0 1.427489211525824 -2.1345600359309458 0 0 0 0 -7.7065374432531826 1.9775495167351096 0 1.9775495167351096 2.8846461704727062 0 0 0 0 -6.0286858710283013 0.33647320463740726 0 0.33647320463740726 4.3729480606598372 0 0 0 0 -2.9304817498628175 -1.6650598850132039 0 -1.6650598850132039 -0.90285277815318843 0 0 0 0 -6.600107176822803 -4.9738541231056104 0 -4.9738541231056104 14.889168719583324 0 0 0 0 -9.4111901325641156 5.7880831774223793 0 5.7880831774223793 8.9759559664833972 0 0 0 0 -3.47872912315961 10.99600009288141 0 10.99600009288141 -3.5078310754468305 0 0 0 0 -12.216976116133083 5.6876549239345167 0 5.6876549239345167 10.088382839996214 0 0 0 0 -17.803882686511542 -4.0547720055996486 0 -4.0547720055996486 4.5034402583673625 0 0 0 0 -14.173704682081109 -4.2826204193620736 0 -4.2826204193620736 7.6885452264409082 0 0 0 0 -13.49665403385643 4.2321297924737138 0 4.2321297924737138 0.24058610475128717 0 0 0 0 -4.2298395562457358 -14.019093149541753 0 -14.019093149541753 21.041129766686936 0 0 0 0 -2.9767742494977938 -0.90737797019204436 0 -0.90737797019204436 8.1701432012178543 0 0 0 0 -1.8941514021050914 -1.0047900468412161 0 -1.0047900468412161 -0.53235747006897727 0 0 0 0 -22.632560450539586 11.209429924034083 0 11.209429924034083 -12.143126405968559 0 0 0 0 6.3618292736637159 -1.9322126905038175 0 -1.9322126905038175 4.3776882984268752 0 0 0 0 -11.027012563705142 -11.903176640345215 0 -11.903176640345215 -0.3052971658288044 0 0 0 0 26.891889547106985 61.387932822620087 0 61.387932822620087 -9.8594608963285282 0 0 0 0 -2.2880790025661781 -27.749202913857619 0 -27.749202913857619 2.1374133022277988 0 0 0 0 -38.417925251698762 -24.147186477142071 0 -24.147186477142071 3.9719517267715219 0 0 0 0 -64.413203252372114 5.6464957963746656 0 5.6464957963746656 12.566510569547944 0 0 0 0 -173.88674207320628 -2.1533286436417711 0 -2.1533286436417711 28.197058250694397 0 0 0 0 -30.292141822266785 23.06278353096765 0 23.06278353096765 -23.003672475647733 0 0 0 0 5.6888824338284394 -3.1469569977086707 0 -3.1469569977086707 -44.551018647836656 0 0 0 0 10.327969480400498 34.69766266298808 0 34.69766266298808 9.0084412837796606 0 0 0 0 -0.088679374727198557 -0.12235280468875676 0 -0.12235280468875676 0.49406074895430829 0 0 0 0 -45.737650589177804 -0.79066564438182496 0 -0.79066564438182496 -4.5707258104572475 0 0 0 0 -39.543504592177669 20.991538721961376 0 20.991538721961376 -33.546367594595722 0 0 0 0 -23.937400632712922 1.2937592313346933 0 1.2937592313346933 -10.845800205004139 0 0 0 0 -0.55452843075359581 -0.39734363726879129 0 -0.39734363726879129 -0.29977960844575668 0 0 0 0 14.211432925944791 -3.5451002458199099 0 -3.5451002458199099 -18.428633777736707 0 0 0 0 -10.293757037342857 23.080772451824203 0 23.080772451824203 -35.663436378211046 0 0 0 0 7.2268542841354702 -10.358068030125651 0 -10.358068030125651 -12.337547345618304 0 0 0 0 0.92682283440808533 -6.590375131057371 0 -6.590375131057371 -14.361629938806558 0 0 0 0 1.8096784684989871 -14.065624776053482 0 -14.065624776053482 -4.8868531595774698 0 0 0 0 3.357183943839118 -7.2204955590295299 0 -7.2204955590295299 -14.990958609795342 0 0 0 0 -18.252727614123614 0.10338622773662109 0 0.10338622773662109 7.5227210233081792 0 0 0 0 5.0851207744535714 -1.1010129704832536 0 -1.1010129704832536 -19.079992710762895 0 0 0 0 -15.704621566362675 5.6745072194493105 0 5.6745072194493105 -3.747443267604126 0 0 0 0 1.9421892440971078 7.1867119070890766 0 7.1867119070890766 9.6627580391476044 0 0 0 0 -9.0459969623602774 -5.4624817201607243 0 -5.4624817201607243 12.208378687559332 0 0 0 0 0.28829552262124825 -0.570940557008492 0 -0.570940557008492 1.3301969725335259 0 0 0 0 -12.660331243427663 -6.9116268037113855 0 -6.9116268037113855 5.6652657071617796 0 0 0 0 -9.594849134271044 -4.1986716393872427 0 -4.1986716393872427 -1.3388771862259716 0 0 0 0 -10.762839325811456 -5.8115409517109526 0 -5.8115409517109526 -0.56264620879939997 0 0 0 0 -26.305018298043251 -11.267217348193213 0 -11.267217348193213 -0.5624090256693961 0 0 0 0 -29.205844709813846 6.9889104188960971 0 6.9889104188960971 -5.2811822007770957 0 0 0 0 -18.25971283551803 2.5316781809423787 0 2.5316781809423787 1.3534426848326007 0 0 0 0 -16.242682557326134 -1.595575047223349 0 -1.595575047223349 4.2562471162498241 0 0 0 0 -9.0861326990702764 -6.865677746229693 0 -6.865677746229693 10.297172487082463 0 0 0 0 -7.0378383255720109 -1.5810487260257382 0 -1.5810487260257382 1.5497195796078245 0 0 0 0 -6.0919937123371142 -5.0503217365666799 0 -5.0503217365666799 4.0038503368096485 0 0 0 0 -0.22785007863642726 -1.5381100925224667 0 -1.5381100925224667 2.3825967998907269 0 0 0 0 -3.0268963157163853 1.7003535691540037 0 1.7003535691540037 4.5697395954386479 0 0 0 0 -5.4920436091747433 -2.4041470232693598 0 -2.4041470232693598 1.4834713784337623 0 0 0 0 -2.9859775625209295 -4.486406321993428 0 -4.486406321993428 1.4553410270866527 0 0 0 0 -4.2763494213076001 -7.1330777563633205 0 -7.1330777563633205 4.9360762979667925 0 0 0 0 -7.3657477074025337 -6.5202084063253096 0 -6.5202084063253096 -7.0545309942386467 0 0 0 0 -6.2105404617400239 -0.44809136553995987 0 -0.44809136553995987 1.3058590065513198 0 0 0 0 -1.7267672087336905 6.3318087345246568 0 6.3318087345246568 -33.365230861617761 0 0 0 0 -13.84569184824386 11.914933299171025 0 11.914933299171025 -8.5039236210803466 0 0 0 0 -15.307062785577273 29.032326801389331 0 29.032326801389331 -41.188483247575249 0 0 0 0 -13.346361138432712 16.483617081861951 0 16.483617081861951 -14.125476501400158 0 0 0 0 -8.0853746269356179 6.6466595649134916 0 6.6466595649134916 -11.268357903839103 0 0 0 0 -16.744140502694279 12.279733941172083 0 12.279733941172083 -8.0527865017973568 0 0 0 0 -18.868697069602604 9.3794182580522047 0 9.3794182580522047 -4.8301656768699672 0 0 0 0 -38.253690398895969 17.166702053333807 0 17.166702053333807 -5.8921945845518735 0 0 0 0 -0.15598492481431681 -0.26055769303179144 0 -0.26055769303179144 0.053459816495956769 0 0 0 0 -11.096161159917074 10.620469214283204 0 10.620469214283204 12.288417509422288 0 0 0 0 -13.225018986112843 0.60999349674344749 0 0.60999349674344749 -2.7314315093933601 0 0 0 0 -9.4290216338496773 -1.8001062603734757 0 -1.8001062603734757 0.48873178116222427 0 0 0 0 -13.059246862958389 -5.3646862799032249 0 -5.3646862799032249 10.730635186682406 0 0 0 0 -13.326262982680646 4.4692573755141325 0 4.4692573755141325 4.4205567201954636 0 0 0 0 -7.8950689854410188 -1.1339697262924231 0 -1.1339697262924231 0.78794235988945416 0 0 0 0 -14.853942308326054 10.810763673583565 0 10.810763673583565 -8.8120951390637003 0 0 0 0 -11.767595785924414 11.260855362103428 0 11.260855362103428 -10.587894221239864 0 0 0 0 -23.066344702305287 16.975430843604016 0 16.975430843604016 -5.8870208045692749 0 0 0 0 -16.016623830337327 -1.4773749019449474 0 -1.4773749019449474 15.269550616049855 0 0 0 0 -10.27667911534288 -2.8432237208408226 0 -2.8432237208408226 0.24594562376640972 0 0 0 0 -2.2487994530394424 0.007285628659820631 0 0.007285628659820631 0.28262083144859951 0 0 0 0 -10.444673749714184 -0.95608150140057546 0 -0.95608150140057546 -0.95865348942209039 0 0 0 0 -17.912651673627806 -0.66346048156862025 0 -0.66346048156862025 5.9609309373223027 0 0 0 0 -10.218262320853228 -1.2267583854228548 0 -1.2267583854228548 -1.0088928536833919 0 0 0 0 -5.9062525751591402 -14.064351518983912 0 -14.064351518983912 21.866443766419962 0 0 0 0 -5.6754876691944798 -1.8304522484616714 0 -1.8304522484616714 0.16284215386634249 0 0 0 0 -9.6368859716985753 0.20292475792957987 0 0.20292475792957987 1.2643193101125405 0 0 0 0 -10.75231157555254 1.2843387048064159 0 1.2843387048064159 -1.8740364511638745 0 0 0 0 -24.208523991858783 3.207745594188367 0 3.207745594188367 3.8802428261925002 0 0 0 0 -6.0092553249414777 0.10341970643965226 0 0.10341970643965226 -0.71630814078150706 0 0 0 0 0.1595397328247552 -0.024970921771461541 0 -0.024970921771461541 0.16242873553989656 0 0 0 0 -8.3600627040832478 0.34495108883184855 0 0.34495108883184855 0.87454337913735003 0 0 0 0 -6.9921436268077741 1.8312035662844153 0 1.8312035662844153 -0.68526315352221445 0 0 0 0 -0.061282504983936281 -0.03077629513480673 0 -0.03077629513480673 0.077795140652949346 0 0 0 0 -15.47860181234222 3.1942193260467366 0 3.1942193260467366 -2.6883333656575132 0 0 0 0 -25.215791797912061 6.4381136572220043 0 6.4381136572220043 1.4916189587388544 0 0 0 0 -9.4791166275158503 0.31824110624242508 0 0.31824110624242508 -0.37897661618893608 0 0 0 0 -7.7308490209788943 0.38229808030445156 0 0.38229808030445156 -1.3719687448196112 0 0 0 0 -2.8277431849752501 1.8173512234559803 0 1.8173512234559803 -0.69614143870333467 0 0 0 0 -8.16609597641866 0.17665747000476983 0 0.17665747000476983 -1.3176561877034487 0 0 0 0 -10.383783205335476 -1.0394326997949861 0 -1.0394326997949861 0.2292888097570227 0 0 0 0 -1.2788143343357019 1.9695326060579923 0 1.9695326060579923 -0.20956050981285301 0 0 0 0 -6.8142476186010299 1.1794535859649713 0 1.1794535859649713 -0.26903321306593853 0 0 0 0 -6.4566379154534843 1.3475184691794482 0 1.3475184691794482 -0.71445737605318982 0 0 0 0 -5.7206164334518235 0.92336068219276513 0 0.92336068219276513 -0.26411707575292098 0 0 0 0 -9.2248139149451163 -0.86702077496952157 0 -0.86702077496952157 -1.7883171468897103 0 0 0 0 -10.858363522773516 -1.8739965402809204 0 -1.8739965402809204 -0.63438638892228028 0 0 0 0 -2.3518199993437214 1.5467683782932151 0 1.5467683782932151 0.21911596990643517 0 0 0 0 -3.9974045450842368 1.1431813009429845 0 1.1431813009429845 -0.52074511315140626 0 0 0 0 -4.3359687345773636 0.71068778957182133 0 0.71068778957182133 -0.63283913523973467 0 0 0 0 -5.443351189014038 1.33473424713425 0 1.33473424713425 -0.4531378675658857 0 0 0 0 -5.442995606790646 1.6017128473053788 0 1.6017128473053788 -2.5090124502544313 0 0 0 0 -5.560139880812585 1.3262922354169291 0 1.3262922354169291 -0.58415952765824741 0 0 0 0 -5.4825227720622252 1.2577657067089447 0 1.2577657067089447 -0.5627510728299967 0 0 0 0 -4.8978655592145515 0.60831777702209422 0 0.60831777702209422 -1.1810561794874275 0 0 0 0 -5.9211300418284054 4.2909433318803565 0 4.2909433318803565 -0.85460562108201543 0 0 0 0 -3.3780327760118665 1.9444465862436733 0 1.9444465862436733 -0.89180374808089447 0 0 0 0 -3.3748685261916762 0.30453135367639561 0 0.30453135367639561 -1.2861424195337747 0 0 0 0 -0.67381600594890934 0.91216677627097531 0 0.91216677627097531 -0.019081115278425098 0 0 0 0 -6.8288404592569805 2.8900757183267292 0 2.8900757183267292 -0.841381298510953 0 0 0 0 -7.1228416954461409 1.3402808245356876 0 1.3402808245356876 0.037284012502368569 0 0 0 0 -4.5062275482923724 0.96727017861672948 0 0.96727017861672948 -0.015230079703144384 0 0 0 0 -6.6269376517111596 1.9256357405486995 0 1.9256357405486995 0.19324182889016583 0 0 0 0 -6.2078540770037307 2.096817466225005 0 2.096817466225005 -0.18097997083162909 0 0 0 0 -6.1827353735243378 2.0775184693869164 0 2.0775184693869164 -0.27119833510201374 0 0 0 0 -6.1898299291344756 1.9105862484100342 0 1.9105862484100342 -0.67600049106209781 0 0 0 0 -2.6637183917450216 0.96224790051564923 0 0.96224790051564923 -0.64421796089226291 0 0 0 0 -2.2277228117782215 1.4756171251387116 0 1.4756171251387116 -0.76056212802097889 0 0 0 0 -2.0520983544854063 0.63633293554182258 0 0.63633293554182258 -0.10181178113193218 0 0 0 0 -2.0097682328173492 1.0700362833758019 0 1.0700362833758019 -0.67349400782219648 0 0 0 0 -3.4075525076844499 1.6953873047174712 0 1.6953873047174712 -0.17919507547037483 0 0 0 0 -3.6208026419330963 1.5518280401323068 0 1.5518280401323068 -0.14183752188330345 0 0 0 0 -3.3283061817369344 1.0933542680126038 0 1.0933542680126038 -0.32756323902907525 0 0 0 0 -1.8954156509871609 0.84972914582903059 0 0.84972914582903059 -0.5463031439650905 0 0 0 0 -2.7780798406098484 0.99962101902762868 0 0.99962101902762868 -0.58402936291864194 0 0 0 0 -1.7322013751671932 2.0900680228395441 0 2.0900680228395441 -0.4825343811258449 0 0 0 0 -2.0314023807805848 1.2992709636013842 0 1.2992709636013842 -0.74970816430681708 0 0 0 0 -0.37750136999102324 3.3712685627162955 0 3.3712685627162955 -5.0575792322573676 0 0 0 0 -4.1693883970516481 6.0070838167211669 0 6.0070838167211669 -6.4915780834066368 0 0 0 0 -2.508319792870533 1.2038592919040301 0 1.2038592919040301 0.48340851496079873 0 0 0 0 -2.409161671590482 1.8618624207706489 0 1.8618624207706489 -0.39488651882828663 0 0 0 0 -2.7351916396360139 2.0460636699782242 0 2.0460636699782242 -1.188262089641114 0 0 0 0 -1.8216735186888666 0.53678123142140777 0 0.53678123142140777 1.1132217925640033 0 0 0 0 -2.2821911088848879 1.2394882495771675 0 1.2394882495771675 -0.41442501353810712 0 0 0 0 -0.72223591341415272 0.37740049039122558 0 0.37740049039122558 -0.12572055687824868 0 0 0 0 -3.5014183832048502 1.1145564280200659 0 1.1145564280200659 -0.12818307568159071 0 0 0 0 -4.3385845503735254 5.8490452280458385 0 5.8490452280458385 -4.8645256166715285 0 0 0 0 -10.383304432640671 4.1256054981292465 0 4.1256054981292465 4.3761092590434529 0 0 0 0 -0.51002198594392745 0.78426965451964481 0 0.78426965451964481 0.40504586692102063 0 0 0 0 -5.6097642622330568 5.9750478410039669 0 5.9750478410039669 5.8614501661877512 0 0 0 0 -1.6535449358061669 -4.4173969264651873 0 -4.4173969264651873 6.6221523051768347 0 0 0 0 0.087230110724247467 0.012833986842698764 0 0.012833986842698764 0.015240095258327147 0 0 0 0 -6.8634653633635025 1.5968534425124119 0 1.5968534425124119 -0.048110315877053722 0 0 0 0 -6.4692657520918146 2.0967249373258596 0 2.0967249373258596 0.19248396524051259 0 0 0 0 -4.6564216323331493 1.5520300923079731 0 1.5520300923079731 0.0080699001219670663 0 0 0 0 -4.8844726335623818 1.2880087776336495 0 1.2880087776336495 0.33814339337268962 0 0 0 0 -5.3209134182525304 1.4665290593646745 0 1.4665290593646745 0.51031469711094957 0 0 0 0 -3.0324042059301064 0.3094668849411164 0 0.3094668849411164 0.69788452327836836 0 0 0 0 -4.4729974320791825 1.6475960151222466 0 1.6475960151222466 -0.62341416987987941 0 0 0 0 -4.7466780848694725 1.1735693061869199 0 1.1735693061869199 0.605240785479225 0 0 0 0 -2.6284722634102469 0.070037047865329605 0 0.070037047865329605 0.99733134375152233 0 0 0 0 -3.3130165760139256 0.64144564603849474 0 0.64144564603849474 0.88627736327578288 0 0 0 0 -7.8606920389424886 2.1487684300620913 0 2.1487684300620913 -1.6086189938298503 0 0 0 0 -7.862222464450042 2.1496237367190361 0 2.1496237367190361 -0.055184396312597528 0 0 0 0 -3.1872765888325656 1.243944194222327 0 1.243944194222327 1.4803066527845123 0 0 0 0 -6.4544351876780821 -0.80583312004227325 0 -0.80583312004227325 1.2602020670210632 0 0 0 0 -5.1535510740211521 0.40229572676246406 0 0.40229572676246406 0.71189881687030265 0 0 0 0 -5.3352294000987968 -0.91237171154830321 0 -0.91237171154830321 0.9763237075642337 0 0 0 0 -6.8379775709117894 -0.53330599959497249 0 -0.53330599959497249 1.2356581832083862 0 0 0 0 -6.6443583202453738 -0.68748978395439053 0 -0.68748978395439053 0.19143740022461486 0 0 0 0 -2.2228311268722232 1.8557479196464026 0 1.8557479196464026 0.73792920772466242 0 0 0 0 -6.423654793685273 0.70675559945028965 0 0.70675559945028965 0.99922422182498849 0 0 0 0 -6.2836284267746123 0.21928500774322401 0 0.21928500774322401 1.0675223358661015 0 0 0 0 -7.1133995062709801 1.0263823018848086 0 1.0263823018848086 0.67289509466473874 0 0 0 0 -4.1536984494204958 -1.4347756377519403 0 -1.4347756377519403 0.35138459790726317 0 0 0 0 -2.8950366592835053 -0.53099651128923142 0 -0.53099651128923142 1.0048042300549014 0 0 0 0 -5.0618320907725938 0.76331153563618859 0 0.76331153563618859 1.5648382822059665 0 0 0 0 -5.0540517430599721 0.97654900938752576 0 0.97654900938752576 1.5134888319918218 0 0 0 0 -6.1629974001668604 1.1875531537339912 0 1.1875531537339912 2.637833495617377 0 0 0 0 -3.17147549369035 2.37960677132049 0 2.37960677132049 1.4197546045470584 0 0 0 0 -3.1049613761728843 0.81811257301751761 0 0.81811257301751761 0.77771108584896753 0 0 0 0 -4.229963199096801 1.2879920327870522 0 1.2879920327870522 0.62294687584976316 0 0 0 0 -1.4106808901814902 0.5463415810082024 0 0.5463415810082024 0.62179735079605936 0 0 0 0 -5.5483701391249269 0.75690416366506952 0 0.75690416366506952 1.045197590604289 0 0 0 0 -9.7391269701679448 0.58405841076315923 0 0.58405841076315923 2.8790030599549965 0 0 0 0 -1.879975187488526 3.7697523433775331 0 3.7697523433775331 -1.3039348278422267 0 0 0 0 -1.3952859373073947 0.78371183274457801 0 0.78371183274457801 0.23227968382731892 0 0 0 0 -5.3787431806224504 0.35229222298275076 0 0.35229222298275076 0.030570856819672088 0 0 0 0 -4.742349084981015 7.1841461089072389 0 7.1841461089072389 -4.0280343981442854 0 0 0 0 -3.6628033976685401 3.5475341087624965 0 3.5475341087624965 -3.2722658648071787 0 0 0 0 -4.3032937626260264 3.9612922187157542 0 3.9612922187157542 -0.46775014069200793 0 0 0 0 -4.505531802998803 3.4962640133818166 0 3.4962640133818166 0.9332769821343021 0 0 0 0 -3.5823643346309382 3.524905850488361 0 3.524905850488361 -0.52128440664676745 0 0 0 0 -3.0937623104255181 4.9985949315097997 0 4.9985949315097997 -0.45472407984124869 0 0 0 0 -5.8174178506887984 4.6121084563643677 0 4.6121084563643677 -0.45177487534424721 0 0 0 0 -8.1443696347705554 6.1651876784184765 0 6.1651876784184765 4.7914561045462847 0 0 0 0 -4.9574142411309827 2.9723393339999147 0 2.9723393339999147 -0.89470315110571419 0 0 0 0 -9.8361597639222964 3.7627873113706585 0 3.7627873113706585 4.391157162947934 0 0 0 0 -3.3032267876574224 4.5241233473729636 0 4.5241233473729636 1.136575538750634 0 0 0 0 -4.5321703496843604 2.5803156129396196 0 2.5803156129396196 -1.0244714421007728 0 0 0 0 -1.9177644412445716 6.6484003614826275 0 6.6484003614826275 4.1805487794146927 0 0 0 0 -1.1789675823420112 4.3468824671957549 0 4.3468824671957549 0.14439803621506542 0 0 0 0 -1.6686153179434768 3.8967503029999477 0 3.8967503029999477 0.79868683399355689 0 0 0 0 -1.9987784339501786 7.3687248350968719 0 7.3687248350968719 -2.0455049545088571 0 0 0 0 -10.538844176153361 3.9661331290691493 0 3.9661331290691493 -0.57728266129473127 0 0 0 0 -24.389544218619449 15.947796513943633 0 15.947796513943633 5.8712668125221654 0 0 0 0 -1.378971736700227 1.5874092454038813 0 1.5874092454038813 0.2937215899642705 0 0 0 0 -12.419714031891999 6.5912310847364282 0 6.5912310847364282 -1.8530718196391707 0 0 0 0 12.822696949311648 20.452758604704172 0 20.452758604704172 -27.649159191345575 0 0 0 0 -12.524951861641966 -4.9565914790917986 0 -4.9565914790917986 18.76387619372602 0 0 0 0 -9.6977233696470648 7.4036989397494253 0 7.4036989397494253 0.0091178827069597901 0 0 0 0 -0.061532833872661286 -5.6750867934110829 0 -5.6750867934110829 16.717656284253678 0 0 0 0 -9.4354100879636462 0.53054571785844473 0 0.53054571785844473 1.8401162538995663 0 0 0 0 -0.94359139229454758 0.17067843372556268 0 0.17067843372556268 0.39324652502416324 0 0 0 0 -0.29108749118018196 0.33597864301441049 0 0.33597864301441049 -0.14002457061300388 0 0 0 0 -0.34789589237291718 1.7988875325783393 0 1.7988875325783393 2.3083750009069952 0 0 0 0 -9.5714944626670331 3.0370157459216784 0 3.0370157459216784 -0.0066515522883179301 0 0 0 0 -10.031104722103009 4.3625955055064622 0 4.3625955055064622 4.0716125992516936 0 0 0 0 -25.438027619828517 -1.6544153437211406 0 -1.6544153437211406 8.0243838689227687 0 0 0 0 5.4163225481752306 -26.852336111492946 0 -26.852336111492946 21.886563334024231 0 0 0 0 -10.141065153599811 16.145130311327932 0 16.145130311327932 -8.5063384519581575 0 0 0 0 -10.981051205242863 14.501759515760853 0 14.501759515760853 7.3172042226117355 0 0 0 0 -3.3622604539054919 12.756354523652817 0 12.756354523652817 -9.9584745970362576 0 0 0 0 -1.4081721014567847 -13.523795463368742 0 -13.523795463368742 26.69850212962001 0 0 0 0 -34.917663432375775 18.033010097078034 0 18.033010097078034 33.239719534198684 0 0 0 0 -13.192119907756705 6.3039985788375361 0 6.3039985788375361 9.0110915435186598 0 0 0 0 -6.472481299896117 3.5337981961789637 0 3.5337981961789637 6.4407632838842233 0 0 0 0 -0.061697427001250915 1.7545082807744494 0 1.7545082807744494 2.3088460351045326 0 0 0 0 -3.8378609748310737 3.8604409217826117 0 3.8604409217826117 0.19821691401093133 0 0 0 0 -12.329944585913665 11.771237482182588 0 11.771237482182588 2.451973227173994 0 0 0 0 -3.8115686138996807 3.4891416656782326 0 3.4891416656782326 0.69574098193470491 0 0 0 0 -2.3004523221470663 5.9417935302586926 0 5.9417935302586926 3.6181495569686888 0 0 0 0 -3.8897593427916881 2.7820043736260573 0 2.7820043736260573 -0.0067505729347821231 0 0 0 0 -3.3488804090112936 3.4826976139410659 0 3.4826976139410659 0.41591886792680555 0 0 0 0 -3.0496638971605989 3.598219799950499 0 3.598219799950499 0.26606565467666909 0 0 0 0 -3.9038240543336542 3.4735674928895044 0 3.4735674928895044 0.48525598875729425 0 0 0 0 -3.6281972635747479 3.1880645891754735 0 3.1880645891754735 0.16613268202976528 0 0 0 0 -3.9410942049921687 3.8360265080457907 0 3.8360265080457907 0.086156687070403137 0 0 0 0 -3.6868579791371303 3.8544654813090204 0 3.8544654813090204 -1.0316491520375592 0 0 0 0 -4.4623724431523328 5.8988986819220743 0 5.8988986819220743 0.035934154270734098 0 0 0 0 -3.1151888314311691 3.2829922903109221 0 3.2829922903109221 0.22977995314867883 0 0 0 0 -3.3523628913326062 1.7737967367501213 0 1.7737967367501213 -0.3777554263816611 0 0 0 0 -2.8780455147276598 3.5393446152157049 0 3.5393446152157049 0.42337409900257406 0 0 0 0 -2.5255950157588813 2.9217683331800242 0 2.9217683331800242 0.39147819096157299 0 0 0 0 -0.17578658427316007 1.014759011013286 0 1.014759011013286 1.4725553279160435 0 0 0 0 -4.4245519155834359 5.4074702588630537 0 5.4074702588630537 -44.377030792317782 0 0 0 0 28.193723049921516 -167.67545047536086 0 -167.67545047536086 101.49906413583187 0 0 0 0 9.4551208751352078 118.53244771749485 0 118.53244771749485 19.371692402237443 0 0 0 0 -0.66778702181552063 0.17053848525179527 0 0.17053848525179527 -0.28591687494352536 0 0 0 0 -125.01905322744074 163.21349108345703 0 163.21349108345703 5.0899213355440907 0 0 0 0 -282.56270839634556 -132.82080700486813 0 -132.82080700486813 104.58491084349657 0 0 0 0 -36.285710412568278 -75.206984130212732 0 -75.206984130212732 -96.394878415884108 0 0 0 0 -212.88581515722268 64.027915972763651 0 64.027915972763651 28.769446151082093 0 0 0 0 -68.598850254837316 -29.869785013138653 0 -29.869785013138653 1.4558294678286074 0 0 0 0 -224.09406493701124 -66.870683373091566 0 -66.870683373091566 -5.4950665522408144 0 0 0 0 80.381047833862169 21.623265350400942 0 21.623265350400942 -34.411025808475415 0 0 0 0 -4.3018864792748843 -34.985278509212463 0 -34.985278509212463 -13.12858301153608 0 0 0 0 2.2510607537687974 -10.704713082867471 0 -10.704713082867471 3.3645735393306495 0 0 0 0 0.091021437572205599 -0.11268199679837088 0 -0.11268199679837088 0.07260473989480376 0 0 0 0 -13.128464354119728 -16.448950943474301 0 -16.448950943474301 30.501597055344291 0 0 0 0 -15.051307684007952 -10.187579799929324 0 -10.187579799929324 18.764529867379679 0 0 0 0 -117.13520139233356 47.688593853284203 0 47.688593853284203 27.852906914693236 0 0 0 0 -162.1583287931029 40.658138463022283 0 40.658138463022283 28.544620113784958 0 0 0 0 -33.887045357436477 7.1287475651445789 0 7.1287475651445789 25.444906556108663 0 0 0 0 -4.7541137761877508 4.3838842298179941 0 4.3838842298179941 1.9376399384634055 0 0 0 0 -3.1351245061561031 -0.51372553622429606 0 -0.51372553622429606 -1.1600994846126298 0 0 0 0 -5.2513460177151501 3.3071822669483453 0 3.3071822669483453 0.23928456408939169 0 0 0 0 -3.7408370183937447 2.721030981859804 0 2.721030981859804 -1.7831939809901549 0 0 0 0 -2.8264558050243522 -9.6323875725090033 0 -9.6323875725090033 3.0642732867138989 0 0 0 0 11.616877224256953 -2.4565791746533137 0 -2.4565791746533137 -5.9614433031182443 0 0 0 0 -5.6037912174178928 1.4324940536791537 0 1.4324940536791537 -1.9130134111476309 0 0 0 0 -4.2495240196270192 3.2001776887129094 0 3.2001776887129094 -2.0569026580869543 0 0 0 0 10.054829237781746 7.6135870487884745 0 7.6135870487884745 -3.510228683627588 0 0 0 0 2.2510471036615627 5.3346084747822715 0 5.3346084747822715 -2.9520329197393664 0 0 0 0 -0.32259764120839574 0.51013433735368752 0 0.51013433735368752 -0.78203964405826609 0 0 0 0 -2.3692523058533652 1.5724534561813357 0 1.5724534561813357 -1.0905915035986027 0 0 0 0 -2.4687045927847748 -2.8871821518904142 0 -2.8871821518904142 0.31574971319099632 0 0 0 0 -1.2797494083278025 -6.9995352928243051 0 -6.9995352928243051 -7.3478803863570192 0 0 0 0 -0.21489352080770319 -0.63297879226847986 0 -0.63297879226847986 0.081656829425364563 0 0 0 0 -5.9194444529799455 6.8209038665090418 0 6.8209038665090418 9.0455221467923934 0 0 0 0 -2.7902688170222723 -0.96623716293802353 0 -0.96623716293802353 -0.22574138532657617 0 0 0 0 -3.7993306324785316 -1.022938065127331 0 -1.022938065127331 10.874973093108451 0 0 0 0 -2.3832942232718075 3.046942183704914 0 3.046942183704914 1.7093726554412569 0 0 0 0 -2.0598967425718877 0.93144659258315765 0 0.93144659258315765 -0.64960377345735665 0 0 0 0 -3.5323115855891611 2.5315462601175049 0 2.5315462601175049 1.5540129084266709 0 0 0 0 -2.2566210479388875 1.3163805521947163 0 1.3163805521947163 -0.58443919841501613 0 0 0 0 -107.64211642338586 42.725194546457061 0 42.725194546457061 15.103317086391371 0 0 0 0 -20.680784529069882 5.2691277639443967 0 5.2691277639443967 5.9592049850339208 0 0 0 0 0.049042088273380635 0.17844849049643652 0 0.17844849049643652 -0.0052259766749518377 0 0 0 0 -4.677915079779126 2.9519587455224752 0 2.9519587455224752 -5.7482102153685446 0 0 0 0 -5.4273868315028722 -0.47222614703582622 0 -0.47222614703582622 -1.0430344871106172 0 0 0 0 -1.280998629586179 -1.3687507430295796 0 -1.3687507430295796 -1.9578340436825954 0 0 0 0 -5.6955600630431036 0.22661789539824895 0 0.22661789539824895 1.0595159108600001 0 0 0 0 -14.842414586125898 -29.37599873901803 0 -29.37599873901803 0.70815347451819832 0 0 0 0 4.5404736481599173 10.885665124325897 0 10.885665124325897 -9.604928147532469 0 0 0 0 -2.7542130145294976 -1.0633654832915003 0 -1.0633654832915003 -0.2490072851750178 0 0 0 0 -2.4146166308910324 -2.766925749189511 0 -2.766925749189511 -3.1813290477722376 0 0 0 0 -4.3789814877541176 -4.9263152163772475 0 -4.9263152163772475 2.7832897826893941 0 0 0 0 -0.029257914885616798 0.42092282624244337 0 0.42092282624244337 -0.22537628206606319 0 0 0 0 -75.59066593165835 46.762158730835267 0 46.762158730835267 -26.888153887690635 0 0 0 0 -93.10652091925482 48.648442829566079 0 48.648442829566079 -17.980593052517179 0 0 0 0 -102.9553618717938 32.224782237846568 0 32.224782237846568 -11.888900573485728 0 0 0 0 -63.342779298834557 54.120493578981836 0 54.120493578981836 -0.7112755904593655 0 0 0 0 -55.348437183337637 27.843351711868195 0 27.843351711868195 -11.261080782192835 0 0 0 0 -55.715220562307138 37.026680792228319 0 37.026680792228319 -18.669330924864767 0 0 0 0 -83.782854452803832 39.588901368329687 0 39.588901368329687 -18.83180862409904 0 0 0 0 -71.499050962607257 30.555424091726273 0 30.555424091726273 -16.274758169533584 0 0 0 0 -47.129986534706063 15.662247423203098 0 15.662247423203098 -19.000422275468509 0 0 0 0 -70.59811752228552 20.537288358262686 0 20.537288358262686 -17.813696398743105 0 0 0 0 -36.749817483294521 -5.5955858048114919 0 -5.5955858048114919 -17.081726744212119 0 0 0 0 -62.074573795149547 -2.1207651546374393 0 -2.1207651546374393 -16.042991111611968 0 0 0 0 -52.489908527099374 6.0023034173131578 0 6.0023034173131578 -16.270531902101993 0 0 0 0 -40.236837936186703 16.392953237399638 0 16.392953237399638 -13.578247763587569 0 0 0 0 -23.435960800915268 3.9028138365178506 0 3.9028138365178506 -16.33022626882736 0 0 0 0 -47.628999896366167 12.779446817326345 0 12.779446817326345 -14.102440227787838 0 0 0 0 -27.509482997790371 39.98627147895818 0 39.98627147895818 -10.07148668650359 0 0 0 0 -26.477273678076308 6.2763212067181167 0 6.2763212067181167 -9.1857404725670904 0 0 0 0 -16.759518279961071 14.839005491812145 0 14.839005491812145 -2.785105006366166 0 0 0 0 2.3911536279863412 19.205402637353927 0 19.205402637353927 18.684308952473145 0 0 0 0 -0.79524122470411385 -0.047494396406364103 0 -0.047494396406364103 6.0042389192972223 0 0 0 0 -11.395649081827287 2.5123300029004554 0 2.5123300029004554 26.831656835048875 0 0 0 0 -13.85690531252078 73.221484863981971 0 73.221484863981971 -9.9275261589664865 0 0 0 0 -7.6913391687299963 33.945273974579493 0 33.945273974579493 0.90393869821866701 0 0 0 0 -126.48243372092224 96.535138225793048 0 96.535138225793048 1.4966674151897337 0 0 0 0 -102.26332619535526 63.10796926212447 0 63.10796926212447 17.992636455583693 0 0 0 0 -101.46106367564157 60.906623933354219 0 60.906623933354219 2.3088736883202046 0 0 0 0 -125.76616478005144 68.501891379956987 0 68.501891379956987 28.963027066197071 0 0 0 0 -27.5273978827571 24.732214905838248 0 24.732214905838248 -2.2475694788651026 0 0 0 0 -37.185015243794851 -24.811522419196365 0 -24.811522419196365 -11.531986088963603 0 0 0 0 -27.216357622205919 -24.749446704308639 0 -24.749446704308639 -13.313798558166354 0 0 0 0 -23.665936291597518 -21.390075514872649 0 -21.390075514872649 -11.611031941422675 0 0 0 0 -24.398773883323031 -26.511562397259581 0 -26.511562397259581 -16.950275116932858 0 0 0 0 -25.41632922022518 -27.070272569446161 0 -27.070272569446161 -16.343463668635877 0 0 0 0 -23.389836703158551 -27.209752661849279 0 -27.209752661849279 -17.986261782922384 0 0 0 0 -22.682946772663399 -28.246575749141869 0 -28.246575749141869 -16.587523798736939 0 0 0 0 -28.867102342882504 -21.075438063227409 0 -21.075438063227409 -17.39085298566431 0 0 0 0 -17.615755512443684 -20.750369146305843 0 -20.750369146305843 -17.860541870142356 0 0 0 0 -28.338663151123114 -20.638210362723612 0 -20.638210362723612 -19.092067592337116 0 0 0 0 -28.762001261613477 -20.427281869853346 0 -20.427281869853346 -18.119432435697149 0 0 0 0 -37.360547024797086 -5.6749941554648444 0 -5.6749941554648444 -16.040779704090141 0 0 0 0 -28.58005487964499 -21.055421272628394 0 -21.055421272628394 -18.434258592765445 0 0 0 0 -28.27810399281401 -9.6599143190736783 0 -9.6599143190736783 -14.553238589759758 0 0 0 0 -17.575139190021446 -5.010207811089515 0 -5.010207811089515 -12.794288790038138 0 0 0 0 -7.7409215378452245 -11.128299370327909 0 -11.128299370327909 -9.5939572974589282 0 0 0 0 -11.259217645362241 -3.2510351723461781 0 -3.2510351723461781 4.9322087876906835 0 0 0 0 5.1453221117501471 3.5221674068271227 0 3.5221674068271227 2.6179170244405867 0 0 0 0 -2.4897462008118509 -16.175790590327523 0 -16.175790590327523 -14.133475081235588 0 0 0 0 -10.869268218048433 -13.41314330613946 0 -13.41314330613946 -4.9483272464356105 0 0 0 0 -16.237802325693565 -17.921886934053646 0 -17.921886934053646 -11.704743577737361 0 0 0 0 -16.874659724068355 -21.857895762218135 0 -21.857895762218135 -16.626319571154454 0 0 0 0 -11.688714765774932 -23.838644917923887 0 -23.838644917923887 -18.992084212119153 0 0 0 0 -20.048697253918931 -27.923554734756351 0 -27.923554734756351 -17.593053781695517 0 0 0 0 -13.806141551255337 -29.468166699600999 0 -29.468166699600999 -30.763643793748543 0 0 0 0 -4.0240572515619988 -17.388689122479633 0 -17.388689122479633 -20.981131398132788 0 0 0 0 -30.108127972334614 -36.685886322979741 0 -36.685886322979741 -44.7299247622189 0 0 0 0 -27.091874813033428 -27.647941293294934 0 -27.647941293294934 -19.815999642898305 0 0 0 0 -44.616025517251558 -20.2596115600128 0 -20.2596115600128 -32.568107785277675 0 0 0 0 -30.008982236840552 -33.800087165041418 0 -33.800087165041418 -19.006203692944723 0 0 0 0 -19.264614874294523 -28.783763410319438 0 -28.783763410319438 -23.431728547796183 0 0 0 0 -16.701966343719732 3.1586666452560053 0 3.1586666452560053 -40.966356440890308 0 0 0 0 -33.753559749573242 36.39622455377912 0 36.39622455377912 -16.375709891120081 0 0 0 0 -29.42948423228836 21.124933609879747 0 21.124933609879747 35.784862621682862 0 0 0 0 -0.35365006525466924 20.758989976134671 0 20.758989976134671 -3.5917972426450433 0 0 0 0 -21.695498386707641 7.2111513290840179 0 7.2111513290840179 2.5094211466981733 0 0 0 0 -13.685901874031515 -4.6651291049811903 0 -4.6651291049811903 -21.100682498318349 0 0 0 0 -16.236298398658391 -17.671979447679348 0 -17.671979447679348 -50.889283602410273 0 0 0 0 -2.7704373068129549 5.083506649048072 0 5.083506649048072 8.3538902118498299 0 0 0 0 -2.2035993986148696 -10.95492978008042 0 -10.95492978008042 -18.955189195399328 0 0 0 0 5.0907747681078224 24.375377239765257 0 24.375377239765257 28.118671215112386 0 0 0 0 5.3782976531103941 9.0055397470506477 0 9.0055397470506477 2.5038811149424873 0 0 0 0 -3.1539837078607889 18.566366280788884 0 18.566366280788884 -7.1989954954328823 0 0 0 0 -4.2726975024253306 28.846311195895311 0 28.846311195895311 25.560466621415685 0 0 0 0 15.76201976738048 20.161709143463327 0 20.161709143463327 29.03181915273052 0 0 0 0 5.6700215657701847 38.493466103240451 0 38.493466103240451 48.969039893636079 0 0 0 0 10.475219571877233 24.514370497328059 0 24.514370497328059 27.104410697056665 0 0 0 0 0.45092416449324446 24.105404763778324 0 24.105404763778324 69.877420691711336 0 0 0 0 6.8560484606448426 34.295199497083217 0 34.295199497083217 53.930539827553162 0 0 0 0 9.2980357437361363 17.814531708461942 0 17.814531708461942 54.586475391886722 0 0 0 0 13.352811808130355 23.101370956699327 0 23.101370956699327 31.272214815510097 0 0 0 0 3.3406834334659834 16.557621380303033 0 16.557621380303033 33.880818465517706 0 0 0 0 6.1172466761800024 -4.2138663064995399 0 -4.2138663064995399 -11.739025654382289 0 0 0 0 -4.6991781275112317 1.7547312475519163 0 1.7547312475519163 19.692017537906736 0 0 0 0 9.6065212039192147 7.4465025536251233 0 7.4465025536251233 3.9111577015377179 0 0 0 0 10.616683561837817 13.579528583015531 0 13.579528583015531 14.581532917875961 0 0 0 0 -0.74585719562355735 15.864804996747552 0 15.864804996747552 46.434865681030033 0 0 0 0 7.4545595099008324 19.472452280717903 0 19.472452280717903 29.824654197240989 0 0 0 0 0.25425932063473056 34.874780936776148 0 34.874780936776148 70.994624104423792 0 0 0 0 16.31218522550239 28.151721622788216 0 28.151721622788216 42.494713531854202 0 0 0 0 16.563051370856329 -8.2741454043140692 0 -8.2741454043140692 19.949264609218062 0 0 0 0 39.372476781727073 14.632159238493728 0 14.632159238493728 -27.859430027797316 0 0 0 0 25.657818753551965 2.5657481884033473 0 2.5657481884033473 -32.148607536629129 0 0 0 0 15.891655940739383 12.874632957281165 0 12.874632957281165 -36.522830513541578 0 0 0 0 25.700271317772831 1.8026709131072352 0 1.8026709131072352 -40.747774975592847 0 0 0 0 -24.724738150611756 19.154530492171261 0 19.154530492171261 -20.578748108207037 0 0 0 0 -22.564188778994321 22.863618159052351 0 22.863618159052351 -21.469052029238327 0 0 0 0 -0.15287773198688193 0.15396143846122934 0 0.15396143846122934 0.013151639958762562 0 0 0 0 -15.294087790732192 10.128726276223517 0 10.128726276223517 0.59631716561352732 0 0 0 0 -12.7541244301201 -12.337736518824613 0 -12.337736518824613 -29.170756916862828 0 0 0 0 -31.202240462445388 41.707332552327841 0 41.707332552327841 -3.7273283008630642 0 0 0 0 6.1687105137132221 50.485013814751625 0 50.485013814751625 76.190071797382402 0 0 0 0 -7.9060422688645566 3.2066832993325951 0 3.2066832993325951 -1.0354713249680505 0 0 0 0 11.524070244355244 -18.185771817132263 0 -18.185771817132263 12.489138584726078 0 0 0 0 33.921882233186125 41.541725858807226 0 41.541725858807226 45.179997250297887 0 0 0 0 -2.0282705419913327 35.469530044377535 0 35.469530044377535 45.423942872638008 0 0 0 0 26.508027603446862 11.834708974575534 0 11.834708974575534 64.620980750275038 0 0 0 0 -13.23021503654013 22.67806734695781 0 22.67806734695781 101.83135025143272 0 0 0 0 -6.236024633728448 -9.4431300850674234 0 -9.4431300850674234 -6.0320412263131402 0 0 0 0 2.1745159155543661 -8.4757054598265995 0 -8.4757054598265995 -9.0569014598900139 0 0 0 0 8.492490500711483 -2.7298734972853254 0 -2.7298734972853254 -8.7216671826137144 0 0 0 0 -7.189039543402032 9.6314092597473291 0 9.6314092597473291 -7.5819170356957102 0 0 0 0 -3.3057789630183834 -1.6854085994198158 0 -1.6854085994198158 -2.8123924468814039 0 0 0 0 -15.920664159079024 57.523678696972993 0 57.523678696972993 98.808471183124965 0 0 0 0 4.9134235820984031 -0.82260443022130403 0 -0.82260443022130403 -4.2257958534894442 0 0 0 0 -0.91960750370138733 -0.26276192615471361 0 -0.26276192615471361 -0.95302653559032047 0 0 0 0 -7.2790981158038299 1.8744601089040336 0 1.8744601089040336 -0.87138447908850603 0 0 0 0 11.480074068464091 59.907718350598515 0 59.907718350598515 67.174174435881824 0 0 0 0 -8.5463904618209199 27.275848850285485 0 27.275848850285485 46.135723985009747 0 0 0 0 -16.197586001744639 35.450811331128705 0 35.450811331128705 59.418943405753794 0 0 0 0 -18.863272550885426 46.894520224030813 0 46.894520224030813 78.927342333766362 0 0 0 0 -19.123301805679148 44.975470328450399 0 44.975470328450399 67.308060523630388 0 0 0 0 -10.09987696271196 27.805881185912227 0 27.805881185912227 30.666903424101577 0 0 0 0 -8.4415055055320636 14.935642264293413 0 14.935642264293413 65.845428998319619 0 0 0 0 -30.131662668391073 35.846100258885713 0 35.846100258885713 60.983545935978185 0 0 0 0 42.128785126591339 87.220572842984865 0 87.220572842984865 -18.619547499286114 0 0 0 0 24.577283390236971 -85.456842430675451 0 -85.456842430675451 -45.939154850011533 0 0 0 0 -81.149524470510187 -26.010433274630032 0 -26.010433274630032 -4.7426129278128712 0 0 0 0 -161.35303803649094 -56.896611630754251 0 -56.896611630754251 -9.2291053799947349 0 0 0 0 -161.33919775284539 -22.332471697392009 0 -22.332471697392009 0.066346036588058155 0 0 0 0 -256.95129298190432 -57.610658318912783 0 -57.610658318912783 14.616102286362775 0 0 0 0 -256.49417049842532 -57.5999353104487 0 -57.5999353104487 -1.7955681710672593 0 0 0 0 -1.4079726803920618 0.59802538589978482 0 0.59802538589978482 0.27076702895670668 0 0 0 0 -313.25028588726082 7.5009719991694794 0 7.5009719991694794 -6.7482976846178637 0 0 0 0 -163.63629342865988 -95.728059946995074 0 -95.728059946995074 10.970071153221795 0 0 0 0 -182.83157898634045 -137.22707517634953 0 -137.22707517634953 33.276345989313 0 0 0 0 -3.404207051983597 0.90435352001676228 0 0.90435352001676228 -0.14066996582325286 0 0 0 0 -237.26667478233867 -104.84328441894482 0 -104.84328441894482 23.413915146471396 0 0 0 0 -6.1141350844054614 84.592054053521565 0 84.592054053521565 -7.905160416299907 0 0 0 0 -309.37964872220209 -54.706710783540018 0 -54.706710783540018 47.597896341296604 0 0 0 0 9.0690901470848786 -8.3714703693890087 0 -8.3714703693890087 38.051978563692614 0 0 0 0 -12.025057610860472 15.491353011627439 0 15.491353011627439 45.026144880026436 0 0 0 0 13.756813933986905 23.489231072018924 0 23.489231072018924 39.64490685220872 0 0 0 0 -14.593240200625758 32.043937316687959 0 32.043937316687959 94.343527219639668 0 0 0 0 -8.3963961180591014 3.7003536629261475 0 3.7003536629261475 29.163484239697254 0 0 0 0 -1.9984904647233179 11.204677459331123 0 11.204677459331123 58.895833381364923 0 0 0 0 21.834031038807552 53.600229682100007 0 53.600229682100007 48.08779873187018 0 0 0 0 -8.1941135849646649 3.298215019223556 0 3.298215019223556 -1.120601773465598 0 0 0 0 63.747052126818744 21.741596198121613 0 21.741596198121613 -12.103331987275624 0 0 0 0 -7.254834418661412 2.7365426403488753 0 2.7365426403488753 -0.72631430623108117 0 0 0 0 -37.027695098992808 100.16409493481831 0 100.16409493481831 123.37326979078762 0 0 0 0 -5.4507292214366316 -9.5745943843344321 0 -9.5745943843344321 61.531014547754353 0 0 0 0 -41.529525442544127 48.372623471458837 0 48.372623471458837 -7.518391238415461 0 0 0 0 15.658485685885466 -7.7094669707607295 0 -7.7094669707607295 -57.99029902912946 0 0 0 0 -0.32672352151848827 27.333127758799947 0 27.333127758799947 -9.0251349769833951 0 0 0 0 -79.928440014940406 -15.046197925456227 0 -15.046197925456227 -33.955696495842972 0 0 0 0 36.918781751147435 3.263499108458177 0 3.263499108458177 -39.661051850171816 0 0 0 0 29.533471971072686 24.044224650867136 0 24.044224650867136 -19.757601379529206 0 0 0 0 -1.1284138696028094 7.4124042001185444 0 7.4124042001185444 -36.36982077740015 0 0 0 0 -5.2792535676181416 5.513240815630148 0 5.513240815630148 -31.76519246638054 0 0 0 0 32.123039024083027 -0.37732094842135666 0 -0.37732094842135666 -49.874167422933169 0 0 0 0 31.87379411666052 3.4426200351689431 0 3.4426200351689431 -37.185087800641895 0 0 0 0 1.1604555865246766 6.1397823829381082 0 6.1397823829381082 -51.929841925899836 0 0 0 0 -5.2554265064491119 8.1365812257505468 0 8.1365812257505468 -39.11780146039132 0 0 0 0 -62.47938521660808 -20.745314174519535 0 -20.745314174519535 -44.266993753414766 0 0 0 0 -73.381408381974779 13.46477626989406 0 13.46477626989406 -38.531952404610593 0 0 0 0 -96.001172235495233 -2.2010358983357605 0 -2.2010358983357605 -28.793270625136529 0 0 0 0 -139.05808589475237 -2.2026663524695778 0 -2.2026663524695778 -21.003906012169182 0 0 0 0 -176.16704741712658 58.600496938905295 0 58.600496938905295 -31.610547607722083 0 0 0 0 -201.75175289049275 -15.055924445507685 0 -15.055924445507685 -25.178230890996304 0 0 0 0 -80.632649527762169 -10.385503518133021 0 -10.385503518133021 -64.423088740345008 0 0 0 0 -244.26492044481029 -90.951365835196896 0 -90.951365835196896 -41.503578527145123 0 0 0 0 -74.541042763282576 2.2450471489487143 0 2.2450471489487143 -101.71112544925791 0 0 0 0 77.654840264610357 -79.947496969910731 0 -79.947496969910731 -17.402742876879984 0 0 0 0 -0.41570538669826673 -0.36304832214189631 0 -0.36304832214189631 -0.16070614058779498 0 0 0 0 -1.7654333868513277 45.408391533871281 0 45.408391533871281 -20.002449943934607 0 0 0 0 -355.03224667461882 57.489518387479933 0 57.489518387479933 4.4849850642631282 0 0 0 0 -176.55421667241581 -31.423172900412169 0 -31.423172900412169 -46.520071728142511 0 0 0 0 -241.17602942868371 -166.24876554253296 0 -166.24876554253296 -5.9579379354801176 0 0 0 0 -1.836619537143652 -0.6899028896615409 0 -0.6899028896615409 -0.34400156455758513 0 0 0 0 -159.66060038412706 44.926140368271831 0 44.926140368271831 -23.723681749397315 0 0 0 0 -166.14773486920876 52.274846907318647 0 52.274846907318647 -28.34783937362954 0 0 0 0 -173.65248701068708 17.778405878319887 0 17.778405878319887 -3.290240184605409 0 0 0 0 -143.0412988652206 48.121866459742108 0 48.121866459742108 -53.66465036090699 0 0 0 0 -162.83776978545211 23.291459215358373 0 23.291459215358373 -40.121970174612215 0 0 0 0 -124.65444458728052 36.091288135932473 0 36.091288135932473 -40.45743962835013 0 0 0 0 -134.37669288872439 103.09190314733894 0 103.09190314733894 -66.802426134189318 0 0 0 0 -168.9277095741727 118.78770935467503 0 118.78770935467503 -71.087948122881244 0 0 0 0 -0.2046115071498793 0.011261865464519127 0 0.011261865464519127 -0.40743707500870979 0 0 0 0 -164.21959345676805 57.205089018713124 0 57.205089018713124 -27.897973476887046 0 0 0 0 -214.44857319973926 76.126928187938006 0 76.126928187938006 -33.823905347957407 0 0 0 0 -126.62198190519155 73.481045111261665 0 73.481045111261665 -46.226918698097506 0 0 0 0 -127.32682514070984 52.504142594745076 0 52.504142594745076 -31.757843023470514 0 0 0 0 -138.67158329805352 56.693069225585759 0 56.693069225585759 -32.516024413974947 0 0 0 0 -97.993667352384364 28.124297332510764 0 28.124297332510764 -35.121569707138178 0 0 0 0 -127.21633837519244 23.893057833839947 0 23.893057833839947 -30.385138930208313 0 0 0 0 -105.61797802108893 24.441170305143785 0 24.441170305143785 -28.317949008492405 0 0 0 0 -73.641469114079882 18.282812544760418 0 18.282812544760418 -34.340408141125977 0 0 0 0 -91.042320553408899 37.557346541362563 0 37.557346541362563 -37.49822291186058 0 0 0 0 -106.98832041816127 49.128083867791815 0 49.128083867791815 -42.912092843775554 0 0 0 0 -70.985804872825611 7.7458094358050857 0 7.7458094358050857 -29.531364598674998 0 0 0 0 -61.516196591569496 -13.906112434468639 0 -13.906112434468639 -16.416631362172438 0 0 0 0 -58.697674875225857 -6.6360401335189181 0 -6.6360401335189181 -24.542340841493171 0 0 0 0 -90.830777466507243 16.799358455505285 0 16.799358455505285 -33.242023808236581 0 0 0 0 -92.196778970966534 3.3058875377758881 0 3.3058875377758881 -24.824896643764987 0 0 0 0 -79.643369250613659 -6.9541369831583779 0 -6.9541369831583779 -22.267391591805108 0 0 0 0 -65.703851037218556 8.2866130584538951 0 8.2866130584538951 -34.398724328522349 0 0 0 0 -113.00568873347584 31.086268456470066 0 31.086268456470066 -37.885679456422565 0 0 0 0 -110.7354618525037 11.127456081120556 0 11.127456081120556 -29.81905340772164 0 0 0 0 -161.28357112013418 41.665309968718361 0 41.665309968718361 -29.604503983922768 0 0 0 0 -138.53343077666261 25.591519382415413 0 25.591519382415413 -22.04131772906112 0 0 0 0 -101.26573674347128 16.930693239535003 0 16.930693239535003 -25.168100274432163 0 0 0 0 -96.158798126383999 -1.8391852980598458 0 -1.8391852980598458 -26.66911452767522 0 0 0 0 -28.832795394589994 -13.580223842013424 0 -13.580223842013424 -39.48073508855277 0 0 0 0 -10.865964530152269 -19.799493684745585 0 -19.799493684745585 -17.049754550900246 0 0 0 0 -8.7766037577716816 11.354778620421428 0 11.354778620421428 -12.595379772334354 0 0 0 0 -68.037044765297196 -1.7983001320632184 0 -1.7983001320632184 -11.919964031366362 0 0 0 0 14.457184181422235 -0.23313395824629879 0 -0.23313395824629879 -33.596269714767743 0 0 0 0 31.562849604457369 18.035005679407789 0 18.035005679407789 -17.800614503015822 0 0 0 0 15.334423647240328 -25.846305609207093 0 -25.846305609207093 30.950989381272734 0 0 0 0 68.750584278902352 6.678953928026317 0 6.678953928026317 -6.7241941338286324 0 0 0 0 7.1002026136138738 -4.3628315999107485 0 -4.3628315999107485 -14.145033201847582 0 0 0 0 -15.003238125614189 -22.620205423713742 0 -22.620205423713742 8.7529455714122832 0 0 0 0 22.096857843668658 -18.49455201760361 0 -18.49455201760361 -12.015231328289246 0 0 0 0 19.928834486985693 -8.0211485712591468 0 -8.0211485712591468 -0.57700321527545384 0 0 0 0 -38.962589347038374 -15.519097634122545 0 -15.519097634122545 -27.819340882033657 0 0 0 0 -55.854764884133147 0.8928220119753405 0 0.8928220119753405 -24.745958378829073 0 0 0 0 -34.230996512148522 -5.2319924587329183 0 -5.2319924587329183 -5.8792795846172794 0 0 0 0 -14.668291259829857 -21.959375339644907 0 -21.959375339644907 -21.268746277337698 0 0 0 0 -36.054788651747003 -14.805809357844964 0 -14.805809357844964 -24.897613703477077 0 0 0 0 -37.87461738057641 -15.506291679219146 0 -15.506291679219146 -9.0599683735983945 0 0 0 0 -24.125225270200644 -32.224786316998348 0 -32.224786316998348 -12.661640246679298 0 0 0 0 -15.382138520895751 -25.521170416785822 0 -25.521170416785822 -10.964270031846581 0 0 0 0 -20.989076433799255 -27.962943697367905 0 -27.962943697367905 -15.588488030707822 0 0 0 0 -37.757103080238267 -17.660941856053512 0 -17.660941856053512 -15.867574296436942 0 0 0 0 -14.439770987749398 -27.531096411129738 0 -27.531096411129738 -6.9948580708624775 0 0 0 0 14.480494342207749 -6.1174131202274111 0 -6.1174131202274111 -1.2227416041222341 0 0 0 0 -52.972693405054088 -35.207290283951124 0 -35.207290283951124 -3.3912679030405002 0 0 0 0 -0.044596566343253485 -0.17824784328447851 0 -0.17824784328447851 -0.89231379986376047 0 0 0 0 -28.294400841388779 -20.391812351934703 0 -20.391812351934703 5.1932697159957115 0 0 0 0 -17.151274041802026 -38.886315767494921 0 -38.886315767494921 -15.389223903276616 0 0 0 0 -31.833763844650548 -55.143795838883705 0 -55.143795838883705 -31.361478486765236 0 0 0 0 -22.89170774387776 -29.026827341100386 0 -29.026827341100386 -15.192667020450926 0 0 0 0 -17.948173998572202 -36.488263089125326 0 -36.488263089125326 -8.9729824160871061 0 0 0 0 -12.616245415274534 -35.106544111052813 0 -35.106544111052813 -20.762517254536533 0 0 0 0 -12.528750593056429 -36.590432128717566 0 -36.590432128717566 -16.258706354602793 0 0 0 0 -4.3696638291762611 -27.436287155693208 0 -27.436287155693208 -15.347606033883039 0 0 0 0 -19.276611910499923 -19.903778368284748 0 -19.903778368284748 -9.309235520333317 0 0 0 0 -19.01157712248596 -14.393289709198683 0 -14.393289709198683 4.7910852268367989 0 0 0 0 -36.253451577185842 -11.541414761138412 0 -11.541414761138412 -11.957526237260367 0 0 0 0 -53.314191314445452 -5.2783805530746122 0 -5.2783805530746122 -8.4248364769849786 0 0 0 0 -25.405121419948955 -0.27749126217311471 0 -0.27749126217311471 -7.6584472668712351 0 0 0 0 -47.090442463006184 -5.1775381371268168 0 -5.1775381371268168 17.783863055732883 0 0 0 0 -49.939513564923345 23.360888775777255 0 23.360888775777255 -22.711216678782193 0 0 0 0 -38.755534315596833 -9.841328955543247 0 -9.841328955543247 -13.025814227128876 0 0 0 0 -43.200065321692819 11.668260277386594 0 11.668260277386594 -34.022293194057738 0 0 0 0 -71.326278807840936 12.604711049275238 0 12.604711049275238 -25.774834798069264 0 0 0 0 -63.959433582230531 31.324112471985529 0 31.324112471985529 -61.024791964720862 0 0 0 0 -105.17887525811511 56.095727973732437 0 56.095727973732437 -49.028188623992264 0 0 0 0 -99.739132113203596 42.552283936317053 0 42.552283936317053 -42.15101110154842 0 0 0 0 -96.39406074470844 33.156486928930804 0 33.156486928930804 -37.899703415217573 0 0 0 0 -62.99164308329091 19.960694821932861 0 19.960694821932861 -43.560636987553835 0 0 0 0 -79.637771164296737 13.387347529063447 0 13.387347529063447 -30.135313524305502 0 0 0 0 -58.789825670511959 -4.3282225456342047 0 -4.3282225456342047 -26.136911354804852 0 0 0 0 -36.585047141957148 -19.41983011801392 0 -19.41983011801392 -22.32046111183756 0 0 0 0 -59.615028344755046 -5.5392618595491285 0 -5.5392618595491285 -20.571428284660669 0 0 0 0 -33.326314247717619 -12.527734204849651 0 -12.527734204849651 -21.360782234341741 0 0 0 0 -55.246405696551847 -0.56367115593320705 0 -0.56367115593320705 -22.137549531325931 0 0 0 0 -2.970965771145984 -4.9158240974972216 0 -4.9158240974972216 -1.6400848264078718 0 0 0 0 -6.0967471249559821 -2.8248257435189288 0 -2.8248257435189288 0.41456597291966091 0 0 0 0 -5.4649542570971334 -3.3608826875558684 0 -3.3608826875558684 0.5947376294723199 0 0 0 0 -3.6190694970888551 -2.4834867469039286 0 -2.4834867469039286 -2.4779016338161344 0 0 0 0 3.1999593664304484 -3.1671745734270758 0 -3.1671745734270758 -4.8609478324715809 0 0 0 0 -5.8011685164983646 -7.8543030270880081 0 -7.8543030270880081 -0.71890689969387722 0 0 0 0 0.46671648332812765 -4.6538570428891717 0 -4.6538570428891717 -6.471513186859454 0 0 0 0 3.3073533967966569 -4.3883612362123188 0 -4.3883612362123188 -6.5661592769299659 0 0 0 0 1.28508709738162 -8.4767605376654842 0 -8.4767605376654842 -1.0634368377856163 0 0 0 0 -3.2931841487270503 -6.2976034442589821 0 -6.2976034442589821 1.2792700940232464 0 0 0 0 -3.2551160773797676 -2.8699663565988334 0 -2.8699663565988334 -2.3445775169301717 0 0 0 0 -5.0674846575641368 -1.3485402910058895 0 -1.3485402910058895 0.2083996281949112 0 0 0 0 -7.3316485028890384 -4.4971843575347634 0 -4.4971843575347634 2.5333062974437297 0 0 0 0 -25.684440793158501 -6.1466696594308701 0 -6.1466696594308701 -3.2999460076395053 0 0 0 0 -8.2955598834355442 -11.817383092593218 0 -11.817383092593218 -6.9348781487628912 0 0 0 0 -9.0453367293102929 -3.5151546400179825 0 -3.5151546400179825 -9.2654985193971697 0 0 0 0 -13.766593630831949 0.69647187275018041 0 0.69647187275018041 0.55522414221013605 0 0 0 0 0.019719283563393031 0.0051789925035512496 0 0.0051789925035512496 -0.28452928792945009 0 0 0 0 20.6400915243903 5.6559786719116687 0 5.6559786719116687 -28.67632877962194 0 0 0 0 43.576962051900864 -18.812483955115624 0 -18.812483955115624 -10.169634242238203 0 0 0 0 0.0098906574270092307 -0.43867454530291994 0 -0.43867454530291994 -0.23186685453873634 0 0 0 0 -6.1177889080518071 -1.2877019954055982 0 -1.2877019954055982 0.62277604697010247 0 0 0 0 -0.041359882700060524 -0.39794681357308015 0 -0.39794681357308015 -0.55407916784604039 0 0 0 0 2.480962076851938 -6.5017788873290101 0 -6.5017788873290101 8.272595448356185 0 0 0 0 -0.8575429681973894 -1.0331202924164442 0 -1.0331202924164442 1.1484310334380878 0 0 0 0 -2.726400210385691 -2.7435256514896764 0 -2.7435256514896764 0.62243900584624612 0 0 0 0 26.234390703180452 -13.234034743106122 0 -13.234034743106122 -10.066044828741155 0 0 0 0 1.4077139755484041 -6.3809770160644774 0 -6.3809770160644774 -0.13268442759220989 0 0 0 0 0.80647178372805683 -5.0091938601070183 0 -5.0091938601070183 2.3930237012334601 0 0 0 0 -0.10617848208055092 -0.88117349757638674 0 -0.88117349757638674 -2.1876649594724178 0 0 0 0 -4.9470325859556397 -0.87628193167267909 0 -0.87628193167267909 12.935889593720276 0 0 0 0 -3.6330396051812386 2.9962542002156383 0 2.9962542002156383 -2.3157327197166069 0 0 0 0 11.149017657963213 -4.850584677720974 0 -4.850584677720974 -31.643982432005146 0 0 0 0 8.3601259118759117 3.4121943540939128 0 3.4121943540939128 -27.323761041632793 0 0 0 0 -3.1100553043543187 10.295535773420369 0 10.295535773420369 -10.652347282919607 0 0 0 0 0.39546930076214259 -0.13184356135446595 0 -0.13184356135446595 -0.46892742767874918 0 0 0 0 -3.1854129828948317 -8.162971980436879 0 -8.162971980436879 -7.3556275712675188 0 0 0 0 8.497607637381634 -5.5806117581853414 0 -5.5806117581853414 -12.276032974360987 0 0 0 0 -7.5042998625285691 -5.5378630406283946 0 -5.5378630406283946 -2.3256134911263473 0 0 0 0 1.0698089560716362 -1.5293258418705857 0 -1.5293258418705857 -1.4234971371578073 0 0 0 0 -0.84615135258844454 -0.89332156356295433 0 -0.89332156356295433 -0.12919891936807026 0 0 0 0 -1.141868580197297 -4.1265659941037001 0 -4.1265659941037001 -1.9447459325967031 0 0 0 0 0.23605768157540297 -6.8834613446383628 0 -6.8834613446383628 -2.5620096425773227 0 0 0 0 -2.92504401554379 -5.8678094747231171 0 -5.8678094747231171 2.2983437757420404 0 0 0 0 -2.841984060073905 -3.1507056737628503 0 -3.1507056737628503 -2.2919955780536352 0 0 0 0 0.12643502358423575 -4.1000629582522947 0 -4.1000629582522947 -2.8581325976607559 0 0 0 0 -3.291271501007941 -5.2989378061184595 0 -5.2989378061184595 -3.1188577414821168 0 0 0 0 -2.6144062468210905 -3.8351985205587056 0 -3.8351985205587056 -5.5620510565793708 0 0 0 0 -0.30957439691064792 -4.5497227785137966 0 -4.5497227785137966 -6.0493179255862515 0 0 0 0 -1.2053551496054595 -0.64483634173079674 0 -0.64483634173079674 -0.35902045756342277 0 0 0 0 0.47360445428108022 -1.3553947960614465 0 -1.3553947960614465 -2.6122154329030312 0 0 0 0 -2.9552999134621132 -2.620158093032444 0 -2.620158093032444 -8.6664762587527093 0 0 0 0 -6.4854756727454514 -5.5967991964618875 0 -5.5967991964618875 -4.7649935338732519 0 0 0 0 -10.137273185428057 -6.8779570124901284 0 -6.8779570124901284 -7.4844703043093546 0 0 0 0 -3.1013233872063211 -5.5301077159250553 0 -5.5301077159250553 -15.075235536176592 0 0 0 0 -6.4965028569531569 -5.7719675074913539 0 -5.7719675074913539 -7.1484988004826846 0 0 0 0 -10.376896075444165 -5.0126652479446818 0 -5.0126652479446818 -3.3413199672013434 0 0 0 0 -10.936823332041058 -5.9417252649676406 0 -5.9417252649676406 -2.9438333401215573 0 0 0 0 -3.2134146426625421 -5.1072979114273558 0 -5.1072979114273558 -4.8119986211564196 0 0 0 0 -7.5371889142506916 -4.8092015338271779 0 -4.8092015338271779 -0.65535295183390474 0 0 0 0 -10.06227612099201 -3.1556793670620635 0 -3.1556793670620635 -0.074537769927019326 0 0 0 0 -7.3813207909524863 -4.5679999114293253 0 -4.5679999114293253 -2.5051568169147345 0 0 0 0 -13.719338546196354 -6.6439392436552254 0 -6.6439392436552254 -5.0022446364916959 0 0 0 0 -9.1679226225787716 -10.160777372451548 0 -10.160777372451548 0.52789950692204002 0 0 0 0 -4.2191256082305699 -12.560366217434989 0 -12.560366217434989 1.6863488065730508 0 0 0 0 -1.1484488165236009 -0.74634374755209443 0 -0.74634374755209443 -0.98457251708141946 0 0 0 0 -15.380729726249228 1.9442991350696275 0 1.9442991350696275 -4.650519971939957 0 0 0 0 -9.4147323898141622 -1.7923753951311028 0 -1.7923753951311028 -4.8979713303405106 0 0 0 0 -4.7599448934949553 -0.96718622183662628 0 -0.96718622183662628 1.1553880449479457 0 0 0 0 -6.0800591180072843 -6.6328892289336068 0 -6.6328892289336068 -6.8481364384392691 0 0 0 0 -6.4717537823125895 -9.4478618948218696 0 -9.4478618948218696 -19.277088207451726 0 0 0 0 -0.3601752997025649 0.72352524537553387 0 0.72352524537553387 0.52413104798412058 0 0 0 0 -3.8876820080716961 -2.3723419570622011 0 -2.3723419570622011 -0.59576392362175801 0 0 0 0 -3.1604849065788585 -2.4612561260891539 0 -2.4612561260891539 -2.7543246845961278 0 0 0 0 -11.659081036998941 -2.7708066865054661 0 -2.7708066865054661 -4.8040664437933174 0 0 0 0 -0.21459047247026319 -5.4553450283061693 0 -5.4553450283061693 0.069916602551060691 0 0 0 0 -8.169471709872596 -7.7044683794056255 0 -7.7044683794056255 -0.23546004613172045 0 0 0 0 -3.5495144303831694 -2.803468361028763 0 -2.803468361028763 -1.6332549975145412 0 0 0 0 -13.187327829051355 -5.6503934761498158 0 -5.6503934761498158 -1.5222589434031306 0 0 0 0 -4.2584089594333818 -5.1301971835041513 0 -5.1301971835041513 -10.699867809872785 0 0 0 0 -9.565857213920026 -4.5530921489789762 0 -4.5530921489789762 4.1057412864784055 0 0 0 0 -4.7630330864885764 -2.392594460556154 0 -2.392594460556154 -12.321839448996116 0 0 0 0 6.7501571764960318 -19.783129348719626 0 -19.783129348719626 0.090334960013365162 0 0 0 0 -8.6098979942029459 -4.3662066689353534 0 -4.3662066689353534 -1.4844449279875982 0 0 0 0 -44.899475182183778 -82.465819949972911 0 -82.465819949972911 42.494442582986267 0 0 0 0 -10.63240996170339 -4.3181001949445958 0 -4.3181001949445958 -1.0766470998573252 0 0 0 0 -6.4648046810902997 3.8296579574151508 0 3.8296579574151508 -11.128193253496647 0 0 0 0 13.998765184111107 -6.9392220048280819 0 -6.9392220048280819 -23.541601823041873 0 0 0 0 -7.8829585061166654 -3.9389515471614232 0 -3.9389515471614232 -4.338822129258574 0 0 0 0 -7.5123970551237562 1.6825939144020197 0 1.6825939144020197 -8.8212237148388795 0 0 0 0 -8.2917185515409528 1.6594753129246698 0 1.6594753129246698 -0.78657974654061036 0 0 0 0 -6.4610814735697204 0.02338308850607973 0 0.02338308850607973 10.87594271488183 0 0 0 0 -8.435812806256763 1.1597507928631785 0 1.1597507928631785 4.7621300877885915 0 0 0 0 -5.1374278787370713 -2.5681852257071114 0 -2.5681852257071114 2.1172726561951549 0 0 0 0 -9.2271540720830671 -2.8637865695245637 0 -2.8637865695245637 7.4666577159910048 0 0 0 0 0.86847562162256509 -4.2798895523850433 0 -4.2798895523850433 7.4419736699542227 0 0 0 0 8.7345613941597549 -33.128521579380163 0 -33.128521579380163 -7.3811905982759072 0 0 0 0 -3.5924142235146022 -1.5006200462436299 0 -1.5006200462436299 -0.56299848703226019 0 0 0 0 -22.720476946340568 -2.7401125316773687 0 -2.7401125316773687 -16.454168696987381 0 0 0 0 15.691715884284349 -38.868339852280769 0 -38.868339852280769 -30.143242203545242 0 0 0 0 -48.191731473638356 -12.822927835481323 0 -12.822927835481323 -3.0435368171636128 0 0 0 0 -34.124659751146282 27.120084639339666 0 27.120084639339666 11.746995425677142 0 0 0 0 2.4041060991439736 5.2984561940143067 0 5.2984561940143067 14.74912605024565 0 0 0 0 -9.8965668646851555 -0.56589989672431784 0 -0.56589989672431784 34.562387669047894 0 0 0 0 -6.5578550603927397 -1.2265101895189332 0 -1.2265101895189332 9.0823025372624215 0 0 0 0 -5.9857171445358937 -2.1615203951245423 0 -2.1615203951245423 -0.69549569997554617 0 0 0 0 -8.4590113226126959 -4.2954849791951233 0 -4.2954849791951233 14.256669526345604 0 0 0 0 -6.6427082229479311 -9.2992530191364722 0 -9.2992530191364722 15.813991616553039 0 0 0 0 -2.8082352824949339 -4.7530193269083156 0 -4.7530193269083156 4.111286011029776 0 0 0 0 -3.5763083812735204 -1.3375207873820045 0 -1.3375207873820045 9.6990625116836782 0 0 0 0 -3.9423101884203788 -1.0005600672476476 0 -1.0005600672476476 11.841642758495709 0 0 0 0 -0.5567131043462723 4.2426259983690215 0 4.2426259983690215 12.516151157040895 0 0 0 0 -2.5565524980993359 1.03594869307517 0 1.03594869307517 6.7401278968163751 0 0 0 0 -2.530381692249648 1.9721445172081076 0 1.9721445172081076 9.9102003060386323 0 0 0 0 -4.8553380401335744 -2.8309891360665915 0 -2.8309891360665915 7.9569875909900816 0 0 0 0 -4.805306123351329 -1.3697007038226729 0 -1.3697007038226729 5.1275005175298247 0 0 0 0 -4.0877300161773746 0.24995109777523794 0 0.24995109777523794 8.7511319197019475 0 0 0 0 -6.3525847111231997 -1.7435794416178396 0 -1.7435794416178396 4.615079581613827 0 0 0 0 -6.3363879710050242 -1.9439520455234742 0 -1.9439520455234742 6.7478343243888048 0 0 0 0 -6.6184223664859019 -2.1609650294551557 0 -2.1609650294551557 6.6518018685301286 0 0 0 0 -4.8554517451811989 -2.7782013623861985 0 -2.7782013623861985 5.6864004165652204 0 0 0 0 -6.9190748139335483 -4.4181291735712875 0 -4.4181291735712875 11.485591117422018 0 0 0 0 -6.9791572651679417 -5.9917257333851808 0 -5.9917257333851808 8.1043181614718378 0 0 0 0 -30.667348466793555 -0.91785585805070014 0 -0.91785585805070014 24.434162308336681 0 0 0 0 -7.8087357816535032 -2.7034909968370311 0 -2.7034909968370311 -0.96499115241699518 0 0 0 0 -11.687271754520463 -4.0016530909616632 0 -4.0016530909616632 -0.94389106762716912 0 0 0 0 -12.360267244144552 -3.7892317366193708 0 -3.7892317366193708 10.041666462906278 0 0 0 0 -23.038717063699551 -7.9928813981435951 0 -7.9928813981435951 21.458263939859023 0 0 0 0 -21.22230113479327 -10.386097560319229 0 -10.386097560319229 17.993613208757758 0 0 0 0 -21.34165177409777 15.247914522348136 0 15.247914522348136 32.420659332155878 0 0 0 0 -1.5348973212130659 -17.528580536684586 0 -17.528580536684586 4.8472521140654559 0 0 0 0 -22.892614721525661 1.0652000347853487 0 1.0652000347853487 52.66144878497812 0 0 0 0 -6.709871041143515 -26.411214325727002 0 -26.411214325727002 29.543422073327974 0 0 0 0 -34.185841737098144 -6.3414172889051201 0 -6.3414172889051201 94.940729972832401 0 0 0 0 16.487503770675175 -9.8752938237131502 0 -9.8752938237131502 -16.686475292793602 0 0 0 0 -4.987181590965065 -40.732513778989755 0 -40.732513778989755 -54.422886164669649 0 0 0 0 14.731934143766921 61.520734586989306 0 61.520734586989306 -16.073532050849536 0 0 0 0 -13.547363235809826 -2.788379500461815 0 -2.788379500461815 2.2577856838365733 0 0 0 0 -13.512081631256308 0.55106844972400904 0 0.55106844972400904 4.1430141300311334 0 0 0 0 -10.495323578006719 3.1742808218386926 0 3.1742808218386926 5.1711705676069641 0 0 0 0 -8.826201505442441 -0.48827735214285894 0 -0.48827735214285894 1.4035533495275558 0 0 0 0 -13.939259749571647 2.1650076679227368 0 2.1650076679227368 9.0804937611072774 0 0 0 0 -16.193834106856229 4.372009237445468 0 4.372009237445468 7.3487018263041364 0 0 0 0 -11.703738952004645 -4.1971905845580393 0 -4.1971905845580393 -0.99399951280492949 0 0 0 0 -10.690728750643757 6.5816070452881377 0 6.5816070452881377 5.0724847748444972 0 0 0 0 -21.409914064988698 8.6036181787412715 0 8.6036181787412715 4.9331653796925821 0 0 0 0 -20.665726595578121 3.990086403830432 0 3.990086403830432 2.4600533872730921 0 0 0 0 -9.739412422292844 3.1593757357637742 0 3.1593757357637742 4.8534368697755781 0 0 0 0 -4.6004239396424964 -2.3865407608896021 0 -2.3865407608896021 6.5511690070139821 0 0 0 0 -7.6409372950929537 3.2101007365087071 0 3.2101007365087071 3.2107018893550503 0 0 0 0 20.81414349636907 -33.210096742544692 0 -33.210096742544692 -7.574438898745484 0 0 0 0 -5.9899007253234231 -5.7423649866435653 0 -5.7423649866435653 14.207305122892592 0 0 0 0 2.346394452804816 -4.2020192160315446 0 -4.2020192160315446 4.6684452099043483 0 0 0 0 -1.0977945834389899 -0.53155182647545729 0 -0.53155182647545729 -0.29683503309511639 0 0 0 0 -26.096101076471314 12.146305740686785 0 12.146305740686785 -3.357852649896472 0 0 0 0 -1.5004287006752293 7.9303115094375869 0 7.9303115094375869 -4.5076916531720599 0 0 0 0 -47.297157701324636 -43.531565802783064 0 -43.531565802783064 -48.192348246072925 0 0 0 0 -53.478968877257103 -0.95837780300519171 0 -0.95837780300519171 3.0708972615980201 0 0 0 0 -21.130173637073085 -18.063797426408343 0 -18.063797426408343 -6.5499721635233072 0 0 0 0 -34.142447536344662 1.3499741250217312 0 1.3499741250217312 8.8956159793394818 0 0 0 0 -9.4845798989672403 -6.2868176506751752 0 -6.2868176506751752 5.157900055851087 0 0 0 0 -5.2288894852636076 -18.691387005140712 0 -18.691387005140712 -33.780657126669439 0 0 0 0 -19.193170288997862 -9.8790156320553706 0 -9.8790156320553706 -8.1396119778535763 0 0 0 0 1.5393861846478103 -3.2426444547449478 0 -3.2426444547449478 -3.488774132464755 0 0 0 0 2.8870725219380802 -4.8599586163223307 0 -4.8599586163223307 -10.821997412341943 0 0 0 0 3.0030025625023882 -1.5120963922425403 0 -1.5120963922425403 -2.5407826003017817 0 0 0 0 -2.6547543366532027 -1.346963978930928 0 -1.346963978930928 -1.9965117311556106 0 0 0 0 -8.3981014589357983 3.5847769812695276 0 3.5847769812695276 3.1363598451274584 0 0 0 0 -4.8257312504174479 -8.5936346681478426 0 -8.5936346681478426 -6.4927225026498832 0 0 0 0 -10.117313124951323 -17.187226879420454 0 -17.187226879420454 -5.4535558630796004 0 0 0 0 -5.597681251963877 -9.5440835513829825 0 -9.5440835513829825 6.1542619599956652 0 0 0 0 -2.477352803004095 0.29277513894022267 0 0.29277513894022267 1.975620322158453 0 0 0 0 -10.712062570486069 12.24575584865849 0 12.24575584865849 21.095515742718277 0 0 0 0 -11.172771115641872 -3.8558608271346344 0 -3.8558608271346344 -1.0020919588559511 0 0 0 0 -17.399504802241609 56.264731218716179 0 56.264731218716179 -27.694373224956337 0 0 0 0 -185.10683125833657 -28.344019091008363 0 -28.344019091008363 -50.510719717585062 0 0 0 0 -146.18961096997919 147.48754117188889 0 147.48754117188889 -234.9517613871451 0 0 0 0 -199.11269580684075 129.08412734577848 0 129.08412734577848 27.147640076831976 0 0 0 0 -74.695787551490866 43.141336549156108 0 43.141336549156108 -89.803675213831184 0 0 0 0 29.852635413892017 -85.201523525656683 0 -85.201523525656683 -39.613111283298394 0 0 0 0 -91.338326436098669 65.409822553084638 0 65.409822553084638 61.775755704330322 0 0 0 0 3.6108420520017717 49.558476618289198 0 49.558476618289198 -70.800137275601131 0 0 0 0 -59.305537743722653 31.057127708397957 0 31.057127708397957 64.357827832521934 0 0 0 0 -1.6574321536814729 0.95770205703237021 0 0.95770205703237021 -0.46333296015457937 0 0 0 0 -21.892713084428578 84.989822796046298 0 84.989822796046298 -117.44733707124874 0 0 0 0 -44.780244436965404 -19.364487536801221 0 -19.364487536801221 -6.0836963669952979 0 0 0 0 -116.1755490188275 104.81255636676161 0 104.81255636676161 -49.074497280009211 0 0 0 0 -29.599653808812036 45.914114094045431 0 45.914114094045431 -28.827299432386383 0 0 0 0 -6.4270848140929093 0.014229311392235822 0 0.014229311392235822 0.11926740565339244 0 0 0 0 -89.360212623899315 45.440457261103546 0 45.440457261103546 22.528816450568968 0 0 0 0 -9.0323572012089244 119.10935058206459 0 119.10935058206459 -186.63522923002427 0 0 0 0 -22.863067941764712 58.300333956537543 0 58.300333956537543 -67.471654781543862 0 0 0 0 -35.457524207149163 -26.382970725875111 0 -26.382970725875111 -10.80111282284679 0 0 0 0 -2.4071423915500532 0.52228805492825137 0 0.52228805492825137 0.090694037859897936 0 0 0 0 -6.2210322023493063 7.3795656339378581 0 7.3795656339378581 -7.6631812277119025 0 0 0 0 -0.34527115874374203 -0.89351837981428162 0 -0.89351837981428162 -1.4279195983525996 0 0 0 0 -10.887164750552074 -7.8608755673069766 0 -7.8608755673069766 -13.978838171432244 0 0 0 0 -121.82093659275688 17.1468952539866 0 17.1468952539866 -1.5894707531438392 0 0 0 0 -41.991677843710022 -3.7171084677212889 0 -3.7171084677212889 -0.61460432267779197 0 0 0 0 0.84961649561591912 16.394918771848921 0 16.394918771848921 -140.84759383070138 0 0 0 0 -70.67602978584182 84.105739756031724 0 84.105739756031724 -66.554011981192502 0 0 0 0 5.9109296142378298 26.023631747092338 0 26.023631747092338 -66.729525007545988 0 0 0 0 8.4114099559592432 34.47887063317188 0 34.47887063317188 -49.024273712060605 0 0 0 0 -5.9026520683200943 39.732091111035743 0 39.732091111035743 -37.38684857860801 0 0 0 0 -2.131784680630517 41.246559469169483 0 41.246559469169483 -50.936999921014319 0 0 0 0 37.922976848931285 23.187410200198457 0 23.187410200198457 -57.864028276964746 0 0 0 0 0.040598712607788912 27.083592747113634 0 27.083592747113634 -7.6548002189730084 0 0 0 0 1.1493309762818171 1.1597766260907889 0 1.1597766260907889 -7.126071295423543 0 0 0 0 0.31706462142577507 0.64559962929674719 0 0.64559962929674719 -0.31157610303929922 0 0 0 0 23.309881128145207 10.865751499618753 0 10.865751499618753 2.1902721977444131 0 0 0 0 8.4753814362775302 0.56045066623971707 0 0.56045066623971707 -4.5705105664154644 0 0 0 0 30.84839850616072 -19.353833311534402 0 -19.353833311534402 -43.180718598256107 0 0 0 0 -14.765904384713394 -32.223625848598445 0 -32.223625848598445 -10.216422623558003 0 0 0 0 6.9523484055216613 -11.73595649816815 0 -11.73595649816815 5.8677131021956939 0 0 0 0 -9.0085549634186464 -10.817981593187369 0 -10.817981593187369 11.690910593791159 0 0 0 0 6.7424258785314919 -4.8105214824466245 0 -4.8105214824466245 1.9102239620832506 0 0 0 0 -151.51389744050448 75.353734524732602 0 75.353734524732602 -28.684124805863704 0 0 0 0 -67.624652081923159 -62.243384734998415 0 -62.243384734998415 -53.716554365416158 0 0 0 0 -19.095477001740164 -15.431486945442892 0 -15.431486945442892 -10.852206592041085 0 0 0 0 -10.408724260168128 3.6311027263371329 0 3.6311027263371329 41.739352777029467 0 0 0 0 -66.08695085168074 -3.0965445357708177 0 -3.0965445357708177 90.068983972922638 0 0 0 0 -33.359202333143912 -32.411771561131332 0 -32.411771561131332 9.4318357084312652 0 0 0 0 -4.3201664033113047 -5.9847358105248532 0 -5.9847358105248532 30.86061555053891 0 0 0 0 29.624346907210565 45.793160180440623 0 45.793160180440623 58.093819182412574 0 0 0 0 -1.2542913324440796 0.030195929603351601 0 0.030195929603351601 0.61789209145302104 0 0 0 0 50.467129799055328 24.508019651190352 0 24.508019651190352 -27.156549284833972 0 0 0 0 -4.8451506886005724 2.1002509053265439 0 2.1002509053265439 0.056637680687205316 0 0 0 0 -3.7912972481653924 4.1107533447460014 0 4.1107533447460014 3.5397371265876245 0 0 0 0 -17.764058395671782 11.184316286989429 0 11.184316286989429 34.13137940715751 0 0 0 0 -2.7678371421759955 2.483744908281369 0 2.483744908281369 -0.62321494455570936 0 0 0 0 -4.8279871444728997 2.618101915797574 0 2.618101915797574 5.1089128878516021 0 0 0 0 -4.7596291995669162 4.5331404986113171 0 4.5331404986113171 0.20904144743002462 0 0 0 0 -3.4167703474831796 1.8025944243619278 0 1.8025944243619278 4.6829734973149471 0 0 0 0 -1.8283263029463797 0.27286376401226864 0 0.27286376401226864 1.1643591837902205 0 0 0 0 -2.8104819255231632 3.7463961940673016 0 3.7463961940673016 1.9620993311363293 0 0 0 0 -1.8885223104027968 1.6481913055135546 0 1.6481913055135546 2.4655294604432436 0 0 0 0 -4.1627178088060646 3.5767068053708897 0 3.5767068053708897 2.8432141644279909 0 0 0 0 -0.16817333668268475 5.1847248912155557 0 5.1847248912155557 -0.17648617099820285 0 0 0 0 -0.4512219808173441 1.4875695475108337 0 1.4875695475108337 3.1535779715684145 0 0 0 0 1.789422362951882 -2.2193540415506732 0 -2.2193540415506732 8.0921340501250825 0 0 0 0 -14.377511129965569 7.5401354885358671 0 7.5401354885358671 7.7482598854555818 0 0 0 0 0.68874078592077836 1.6982311650060598 0 1.6982311650060598 0.2001306858255642 0 0 0 0 -1.5513166275200092 -2.6292732803891568 0 -2.6292732803891568 19.716836362491563 0 0 0 0 -3.9822158292972247 3.0263072622121152 0 3.0263072622121152 -0.070674530405258368 0 0 0 0 -5.1040494136686902 5.9690029033415044 0 5.9690029033415044 3.3583890919434225 0 0 0 0 -4.9553506715656113 5.1737878848210244 0 5.1737878848210244 1.3120500408545013 0 0 0 0 -2.6947289407899007 3.3082569600051954 0 3.3082569600051954 2.8197660670285245 0 0 0 0 -5.8969875931106799 4.480840513036469 0 4.480840513036469 2.6653216739767487 0 0 0 0 -10.587324244392221 11.796408888800521 0 11.796408888800521 -2.8831945705319555 0 0 0 0 -10.930705083614157 13.239124806822538 0 13.239124806822538 3.0934580901579096 0 0 0 0 -7.2736585667489635 5.1322506467531923 0 5.1322506467531923 3.1307930140968665 0 0 0 0 1.2774179207378804 4.0282628043550481 0 4.0282628043550481 1.5504542931787437 0 0 0 0 -1.0210379839489852 4.3138067406377232 0 4.3138067406377232 2.5521243115865877 0 0 0 0 -18.419741360866283 8.7744635483489546 0 8.7744635483489546 15.488259417360567 0 0 0 0 -6.9597886232068049 4.7018453003610716 0 4.7018453003610716 1.220806493414841 0 0 0 0 -5.8061764182784827 4.2948210710448507 0 4.2948210710448507 0.30858191873164742 0 0 0 0 -13.717334129354185 3.7191272137568845 0 3.7191272137568845 1.5833747561656537 0 0 0 0 -6.8073576535873919 2.5457182048083138 0 2.5457182048083138 0.33119293398181104 0 0 0 0 -13.300496357124068 -0.051135311535564075 0 -0.051135311535564075 0.30198883974049745 0 0 0 0 -11.030120836991046 0.29200082606449485 0 0.29200082606449485 -14.302490326896681 0 0 0 0 -2.6757898872801889 2.5789519050488252 0 2.5789519050488252 1.7225483605150202 0 0 0 0 -0.89918965355165703 1.5224844796007426 0 1.5224844796007426 1.3606734236861664 0 0 0 0 -1.4917516830922519 1.1075072569523563 0 1.1075072569523563 2.471343064981339 0 0 0 0 -3.0030819108637843 2.5573130075180757 0 2.5573130075180757 0.76191921779604854 0 0 0 0 -1.9164309582592569 2.3467485524472611 0 2.3467485524472611 0.2131840511155294 0 0 0 0 -6.4977445419226569 3.90964322021415 0 3.90964322021415 0.97564344556948868 0 0 0 0 -15.753158546225222 4.6170611418998746 0 4.6170611418998746 1.5427551195176648 0 0 0 0 -0.98448231516766738 0.30099848698315235 0 0.30099848698315235 0.15051197679688655 0 0 0 0 -2.0947879733848964 2.0944658377463714 0 2.0944658377463714 0.42220951538448337 0 0 0 0 -1.4518327345911075 4.0431210931370032 0 4.0431210931370032 0.75879166164131107 0 0 0 0 -2.6306027840209936 2.1460418335534541 0 2.1460418335534541 1.1434076190933524 0 0 0 0 -3.3414880387994952 2.1349746963093468 0 2.1349746963093468 1.0362962315926603 0 0 0 0 -3.7249459301624483 2.5804902559386278 0 2.5804902559386278 2.862560264236663 0 0 0 0 -3.9189875731585744 2.023769125009153 0 2.023769125009153 3.2266985441000315 0 0 0 0 -2.0051978337056067 3.1419890644200126 0 3.1419890644200126 1.8016450530107722 0 0 0 0 -2.9550279392974517 3.1079954903021303 0 3.1079954903021303 0.72151429437622028 0 0 0 0 -3.3616899512817326 2.5916127067795287 0 2.5916127067795287 0.85966449150419066 0 0 0 0 -3.9859679285727907 3.0555666751199624 0 3.0555666751199624 1.084623267663801 0 0 0 0 -2.8245610352114454 1.6288303951395164 0 1.6288303951395164 -0.50573394939763716 0 0 0 0 -2.9699524863885927 2.5437404986865317 0 2.5437404986865317 -4.4238879165400249 0 0 0 0 -4.8455550251546811 10.607838313989305 0 10.607838313989305 -7.8449812167795017 0 0 0 0 -4.6218235083342734 6.1091998330412025 0 6.1091998330412025 -1.5056204184960222 0 0 0 0 -6.8279075861437377 4.4643069550240853 0 4.4643069550240853 0.49467122211615333 0 0 0 0 -5.1652694135603721 1.7238335771144424 0 1.7238335771144424 1.7012139208207171 0 0 0 0 -8.557625099240795 -9.8480930540451936 0 -9.8480930540451936 1.5444993510305522 0 0 0 0 -10.75753160641375 5.3047237595333172 0 5.3047237595333172 8.3441338950337922 0 0 0 0 -7.006809706626445 1.3566767433422864 0 1.3566767433422864 0.026443508615577482 0 0 0 0 -7.4769745010971747 6.064842553855442 0 6.064842553855442 5.787329873462113 0 0 0 0 -5.9957880588050134 0.67766531634506233 0 0.67766531634506233 -0.041864287408438963 0 0 0 0 -13.30544490293687 4.0006590731532015 0 4.0006590731532015 14.778675689645112 0 0 0 0 -12.037498778913914 -0.37130156648228763 0 -0.37130156648228763 12.408763737806794 0 0 0 0 -116.9519506523302 73.667877402641764 0 73.667877402641764 -54.393196059367028 0 0 0 0 0.041134583625794363 0.68412097317181786 0 0.68412097317181786 -1.1350164207101083 0 0 0 0 -0.60552900721995684 -0.5057948674493673 0 -0.5057948674493673 -7.591658881020976 0 0 0 0 2.0611357041270821 4.4244872121456638 0 4.4244872121456638 -32.920702878954216 0 0 0 0 -116.0756632504349 77.447931635082796 0 77.447931635082796 -51.660409504760537 0 0 0 0 -22.425646739770855 2.8622158406201379 0 2.8622158406201379 5.992861577185522 0 0 0 0 -2.020306804332904 20.924597464723206 0 20.924597464723206 -73.092478957697949 0 0 0 0 -114.41231712661374 70.301412766799388 0 70.301412766799388 -65.106855461679515 0 0 0 0 -102.48058271449372 57.73874918754268 0 57.73874918754268 -56.099574867841511 0 0 0 0 -117.79390930629961 66.868890899196913 0 66.868890899196913 -41.623870916894248 0 0 0 0 -0.87384968631828031 0.033437928646480763 0 0.033437928646480763 0.003160407862855763 0 0 0 0 -16.825782818817061 -8.8116899923800247 0 -8.8116899923800247 2.279060625147622 0 0 0 0 -3.1978873397156349 4.158667843759531 0 4.158667843759531 -10.074593874374841 0 0 0 0 -25.30689897672346 7.9783545311358921 0 7.9783545311358921 -2.5682523110476723 0 0 0 0 -5.3216087469518243 11.474315967176153 0 11.474315967176153 2.514882753278016 0 0 0 0 -7.3518492374359994 9.8640088987311856 0 9.8640088987311856 4.2197060756694782 0 0 0 0 -6.280729953973605 16.300884092175011 0 16.300884092175011 -13.71675713046767 0 0 0 0 -34.564334626564232 20.592777362609695 0 20.592777362609695 23.068303264295082 0 0 0 0 -9.9937209046111093 0.58096312179702636 0 0.58096312179702636 16.25173508984426 0 0 0 0 -3.0085995825061218 12.118656881251638 0 12.118656881251638 5.3270516434367892 0 0 0 0 -186.70373215951713 52.993001705813526 0 52.993001705813526 -27.876342905296269 0 0 0 0 -96.730382971478321 50.623232429680911 0 50.623232429680911 -68.577990743559894 0 0 0 0 -109.46402705562105 59.572996530512228 0 59.572996530512228 -54.849331696886338 0 0 0 0 -109.10949217194252 58.984479623200542 0 58.984479623200542 -80.380651876979755 0 0 0 0 -119.27318108280724 32.822596070208874 0 32.822596070208874 -77.62860979606458 0 0 0 0 -87.449449451056353 51.729493399210924 0 51.729493399210924 -59.460409777755217 0 0 0 0 -116.01043482334444 43.987865591172806 0 43.987865591172806 -50.513589393070561 0 0 0 0 -55.762537520216938 14.544858631466695 0 14.544858631466695 -33.648693816121522 0 0 0 0 -105.82124305727484 96.651994030203184 0 96.651994030203184 -52.420915578413542 0 0 0 0 -65.114135877011904 158.58774315854703 0 158.58774315854703 -17.72419523743514 0 0 0 0 24.105575638929167 54.395015771771227 0 54.395015771771227 -39.323279393623579 0 0 0 0 -17.102413729591717 -10.76317583791274 0 -10.76317583791274 9.7631704830135391 0 0 0 0 23.997635115445064 7.4746971131362443 0 7.4746971131362443 1.1515982248408818 0 0 0 0 0.03879892481436098 0.16111636066239221 0 0.16111636066239221 -0.21566148257904327 0 0 0 0 -189.72569829630083 161.894870909052 0 161.894870909052 -21.753026248529977 0 0 0 0 -52.202877509479549 164.65436432617173 0 164.65436432617173 -111.06050048795707 0 0 0 0 2.0333753092986626 67.933246501310293 0 67.933246501310293 8.0096778630299923 0 0 0 0 -29.037886969938882 6.4923402558335965 0 6.4923402558335965 14.947473122365864 0 0 0 0 -123.71837119581005 9.7125179022308998 0 9.7125179022308998 24.368592481179348 0 0 0 0 -5.5114061005306212 -6.2163650357615552 0 -6.2163650357615552 -3.3579451782969727 0 0 0 0 -15.285734389743993 12.031552804706052 0 12.031552804706052 16.13472034566189 0 0 0 0 -20.776602755613112 2.6665234060047283 0 2.6665234060047283 8.217451024721413 0 0 0 0 -1.9786365419904541 6.4284810205318763 0 6.4284810205318763 5.2801003131585276 0 0 0 0 1.0990078742165679 4.1431001464941346 0 4.1431001464941346 1.4305284310446496 0 0 0 0 -3.8029323373843908 1.2571712049800681 0 1.2571712049800681 -0.062206905311313676 0 0 0 0 -1.8124991431022863 4.6120186774182912 0 4.6120186774182912 1.8615415818314887 0 0 0 0 -2.9215702723101913 3.3908868948385305 0 3.3908868948385305 0.83286315607119832 0 0 0 0 -3.773635092926952 4.0340898243272818 0 4.0340898243272818 2.1017773009680241 0 0 0 0 -9.1610249022996868 4.1412247517822607 0 4.1412247517822607 2.1189129331050651 0 0 0 0 -7.4639585405202524 9.3605311002609142 0 9.3605311002609142 1.9938775687741597 0 0 0 0 -4.2741456340236255 7.3797354359995779 0 7.3797354359995779 1.8872868640473826 0 0 0 0 -8.3404680056355573 6.5714557022914732 0 6.5714557022914732 9.2455053142282395 0 0 0 0 
</DataArray>
<DataArray type="Float64" Name="cross_section_updated" format="ascii">
1 1 1 1 1 1 0.0097495571071368158 1 1 1 0.0095589191770491799 1 1 1 0.0099012367136547472 1 1 1 1 1 1 0.010004224785136935 0.0097361807028263653 1 1 1 1 0.0100021054160929 0.010001120299513068 1 0.0098904217666402998 0.0098635658208298931 1 0.010036103128235 1 1 1 0.0097677271655802079 1 1 0.010024689848851581 1 1 1 1 1 1 1 0.0098087529184098764 1 1 1 1 1 1 1 1 0.0088249994108079554 1 1 0.0096719825844632755 1 0.0087636496760303811 1 0.010020379169719349 1 0.0094198202382267116 1 1 1 1 1 1 1 1 1 1 1 1 1 1 1 1 0.010420555051510391 1 1 1 1 1 1 1 1 0.0097133419026017194 1 1 0.0093016605891619603 0.0099243119041423199 1 1 1 1 1 1 1 1 1 1 1 1 0.0089351512718481348 1 1 1 1 1 0.0099564798238163492 1 1 0.0099767197093545371 1 1 1 1 1 1 1 1 1 1 1 1 1 1 1 1 1 1 1 0.0099526591950241921 1 1 1 1 1 0.0099854282909893639 1 1 1 1 1 1 1 1 1 1 1 1 1 1 1 1 1 1 1 1 1 1 1 1 0.0099999908380017585 1 0.0097931597222174795 1 1 1 0.0094290789001939788 1 1 1 0.0092966885105356892 1 1 1 0.010031486950911061 0.0090684069911380026 1 1 0.010322138483523839 1 1 1 1 0.010235761720415112 1 1 1 1 1 0.009952965373428109 1 1 1 1 0.010003583569079369 1 0.0099314367208936591 1 1 0.0099457061549816789 1 1 1 0.0099965067685848959 1 1 0.0096123583094335288 1 1 1 1 1 1 1 1 1 1 0.0099474814997898686 1 1 0.01000302148073573 1 1 1 1 1 1 1 0.009934137564504399 1 1 1 1 1 1 1 1 1 1 1 1 1 1 1 1 1 1 1 1 1 0.009554358886919169 1 0.0094900405437518126 1 1 1 1 1 0.0099997719173347301 1 1 1 1 1 1 1 1 0.0083368026338042252 1 1 1 0.0098722824130487597 1 1 0.010183355551097409 1 1 1 1 0.0099610457643843978 1 1 0.0098921601407375732 1 1 1 1 1 0.010011122553601082 1 0.0098069320022171995 1 1 1 1 1 1 1 1 1 1 1 1 1 1 1 1 1 1 0.010003155278588636 1 1 1 1 1 0.0091238666841905736 0.0096890894089123117 1 1 1 1 1 1 1 1 1 1 0.0098753308706789854 1 1 1 1 1 1 1 1 1 0.010029602271721168 1 1 0.0096452468073426993 0.010000237174513522 1 1 1 0.009999619360502407 1 1 0.0097007305547807225 1 1 1 1 1 1 1 1 1 1 1 1 1 1 1 0.009841699443415175 1 1 1 1 1 1 1 1 0.0089063107388271823 1 1 0.0099982796518810861 1 1 1 1 0.0091329555084243043 1 1 1 1 1 1 1 1 1 1 1 1 1 1 0.0097230617297724177 0.010032285928313775 1 1 0.0099392919315371038 0.0093400431134205118 1 0.0099809186859763314 1 0.0093750093869517347 1 0.010077269687049036 1 1 0.0092008231244240304 1 1 1 1 1 1 1 1 1 0.0099566637515867817 0.0098113327374218153 1 1 0.0099871192906153608 1 1 1 1 1 0.0099820582798972879 1 1 0.0099723130173334992 1 1 1 1 0.0099699568738247923 1 1 1 0.0092383083564441179 1 1 1 0.0094152859173326567 1 0.0098472231844759818 1 1 0.0099632980735141694 1 1 1 1 1 1 1 1 1 1 1 0.010001089723978491 1 1 1 1 1 1 0.0099979311805984961 1 1 1 0.0099976965328773884 1 1 1 1 1 1 1 0.0096579553873479777 1 1 1 1 1 0.0098551561158558964 1 0.0097365482170358141 1 1 1 1 1 0.0098986492116955385 0.0098772811352297249 1 1 1 0.010000266718635641 0.0096996757124143441 1 0.0096612999122776058 1 1 1 1 1 1 1 0.010056366738375339 1 1 1 1 1 1 1 1 1 1 1 1 1 1 0.010066955739518298 1 1 0.010121175672714205 1 0.010123322477893635 1 1 1 1 1 1 1 1 1 1 1 1 1 1 0.010010120127681117 1 1 1 1 1 1 1 1 1 1 1 1 1 1 1 1 0.009997853537504816 1 1 1 1 1 1 1 1 1 1 1 0.0099935084376767905 0.010012747578345695 1 1 1 1 1 1 1 1 1 1 1 1 1 1 1 1 0.0086387091999959552 1 1 1 1 1 1 1 0.0088422888838819731 1 1 1 1 1 1 1 1 0.0097183192292584798 1 1 1 0.010014141064345053 1 1 1 1 1 1 1 1 1 1 1 1 1 1 1 1 1 1 1 1 1 1 1 1 1 1 1 1 0.0099519282496439709 1 0.0097990536017600431 1 1 1 1 1 1 1 1 1 1 1 1 1 0.0095858393543370064 1 1 1 0.0099852099054413487 1 1 1 1 1 1 1 1 1 1 1 1 1 0.0097578316219673941 0.0094812793524340529 1 1 1 1 1 1 1 0.0093888199948782905 1 1 1 1 1 1 1 1 1 1 1 0.0094217318993681833 1 1 1 1 1 1 1 0.0097980106780124025 1 1 1 1 1 1 1 1 1 1 1 1 1 1 1 1 1 0.0099841101894598949 1 1 1 1 1 1 1 1 1 1 0.010062407332413899 1 1 1 1 1 0.010129563578387802 1 1 1 0.010102153494119954 1 1 1 1 0.0092827415320152571 1 1 1 1 1 1 1 0.010197124605974146 1 0.0084139151377325208 1 1 0.010507283549668015 1 0.010099602041595967 1 1 1 1 1 1 1 1 1 1 1 1 1 1 1 1 1 1 1 1 1 1 1 1 1 1 1 1 1 1 1 1 1 1 1 0.0099988410454153447 1 0.010338570426893106 0.010001311975434331 1 1 1 1 1 1 1 1 1 1 1 0.0097696752389419377 1 1 1 1 1 1 1 0.0095857935474710273 1 0.010019479704325556 1 0.009505954344827856 1 1 1 1 1 1 0.0098569228944268145 1 0.010034997248146051 0.0095660738916690281 1 1 1 1 1 1 1 1 1 1 1 1 1 1 1 1 1 0.009863707390105985 1 1 1 1 1 1 1 1 1 1 1 1 1 1 0.0099529234339453369 1 1 1 1 1 1 1 1 1 1 1 1 1 0.0099691325377423232 1 1 1 1 1 1 1 1 1 0.010057076708062745 1 1 1 1 1 0.009908293484992968 0.009995602347584738 1 1 1 1 0.0098105518501821511 0.010010727939150154 1 1 1 1 1 1 1 1 1 1 1 0.0099595763691988411 1 1 1 1 0.009908620786841623 1 1 1 1 1 1 0.0098010928076097611 1 1 0.010014585634231576 1 0.0098982536446697751 1 1 1 0.0097814876010562535 1 1 1 1 1 1 1 0.0099984911310523807 1 1 1 1 0.0098331731334200256 0.0097548227356866711 1 1 0.009995614768564684 1 1 1 0.0099507849836069345 0.0094909564080999584 0.0098135556038151193 0.010000291974663619 1 1 0.0099241766280591115 1 1 1 1 1 1 1 1 0.0096924560727960785 0.0096896549957683625 1 1 1 1 1 1 0.0096886976612890838 1 0.0098608749988041873 1 1 1 0.0099885050491960118 1 1 1 1 1 1 1 1 1 1 1 1 1 1 1 1 1 1 1 1 1 1 1 1 1 1 1 1 0.0099726152386559082 1 1 1 1 1 1 1 1 1 1 1 1 1 1 1 1 1 1 1 1 1 0.0086464609908372767 1 1 1 1 1 1 1 1 1 0.010025347313058486 1 1 1 1 1 1 0.009999365107057949 1 1 1 1 1 0.0087232813326535517 1 1 1 1 1 0.0097744823738383467 1 1 1 1 1 1 1 1 1 1 0.0096353696257622315 1 1 1 1 0.0096321367107681348 0.0099785691544586625 1 1 0.009961198732838043 1 1 1 1 0.0099412188645216799 1 1 0.0099736593303385527 1 1 1 1 1 0.0086520178603434906 0.0099362098142571752 1 1 1 1 1 1 0.0098049699299944462 1 1 1 1 1 1 1 0.0098863134425580361 0.010015304298350788 1 1 1 0.0092218295225162186 1 1 1 0.0094309111490873503 1 1 0.009806676752200762 1 0.0098396232511975719 1 1 1 0.0096564614407815899 1 1 0.0095426295720800313 0.0099253464257682729 1 1 1 1 1 1 0.0097374588778551402 1 0.009969759923445537 1 0.0099869845660850408 1 1 1 0.0099975227814653404 0.0099348397499119216 1 0.0099233375753798852 1 1 1 1 1 1 1 1 1 1 1 1 1 1 1 1 0.0098426492973932612 1 1 1 1 1 1 1 0.0098306410165998493 1 1 1 1 1 0.010042699656370642 1 1 1 0.0097318008876696831 1 1 1 1 0.0097361840691048453 1 0.0099995189019559307 1 0.0096983651826559724 1 1 1 1 0.0097212196833190521 1 1 0.010090640965018487 1 1 1 1 1 1 1 1 1 1 1 0.009545427481355697 1 1 1 1 0.009269587906502938 1 1 1 1 0.010174774886810989 1 1 1 1 1 1 0.0099906608478732839 1 1 1 0.0091320627004694756 1 0.010000030471598685 0.0099890193534446156 1 1 1 1 1 1 1 1 1 1 1 1 1 1 1 1 1 1 1 1 1 1 1 1 1 1 1 1 0.009970679813265387 1 1 0.0099887525483226582 0.0094043070813211276 1 0.0093475321991006444 1 1 1 1 0.0099828593849472392 1 1 0.0099937374637174992 1 1 1 1 1 1 1 1 1 1 1 1 1 1 1 1 1 1 1 1 1 1 1 1 1 1 1 1 0.0099103855048185228 1 1 1 1 1 1 1 1 0.0098513839688879456 1 1 1 1 1 1 1 0.0096449573635196857 1 0.0098945893282659028 1 1 1 0.0096751572506299163 1 1 1 1 1 1 1 0.0097852916645834315 1 0.01005204750807793 1 1 1 1 1 0.0096746118853260829 1 1 1 1 1 1 1 1 1 1 1 1 1 1 1 1 1 1 1 1 1 1 1 1 1 1 1 1 1 1 1 1 1 1 1 1 1 1 1 0.0094031485708817326 0.0094300133989566812 1 1 0.00937633221170521 1 1 1 0.0098935718774939702 1 1 1 0.0098464166794122836 0.0097023108079992999 1 1 0.0095265896417521898 1 1 1 1 1 1 1 1 1 1 1 1 1 1 1 1 1 1 1 1 1 0.010145590407902166 1 0.010037215702672414 1 1 1 1 1 1 1 1 1 1 1 1 1 1 1 1 1 1 1 1 1 1 1 1 1 1 1 1 1 1 1 1 1 1 1 1 1 1 1 1 1 1 1 1 1 0.0099423408468711921 1 0.0093171911545960693 1 0.0097770526742459347 1 1 0.0094351864217897749 1 1 1 1 1 1 1 1 1 1 1 1 1 1 1 1 1 1 1 1 1 1 1 1 1 1 1 0.010006185695983253 1 1 1 1 1 1 1 1 1 1 1 1 1 1 1 1 1 1 1 1 1 1 1 1 1 1 1 1 1 1 1 1 1 1 1 1 1 1 1 1 1 1 1 1 1 1 1 1 1 0.0099880389185782112 1 1 1 1 0.0099464191916534776 1 1 1 1 1 1 1 1 0.0099866568678656231 1 1 1 1 1 0.0099529298867843778 0.0098719436873285649 0.0098701376054993913 1 1 1 1 0.0098875363134726096 0.0099179813605365808 1 1 0.0098609580220246074 1 1 1 1 1 1 1 1 1 1 1 1 1 1 0.0097224450062478526 0.0099980057122858561 1 0.0099702968163009401 1 1 1 1 1 1 1 1 1 1 1 1 1 1 1 1 1 1 0.010015698119472271 1 1 1 1 1 1 0.010053539298923867 1 1 1 1 1 1 1 1 1 1 1 1 1 1 1 1 1 1 0.0099756473921487534 1 1 1 1 1 1 1 1 1 0.0099285570184445421 1 1 0.010000559480254858 1 1 1 1 1 1 1 1 1 1 1 1 1 1 1 1 0.009876073113338513 1 0.0095831591471108417 1 1 1 1 0.0094908682952160699 1 0.0098390304084694929 1 1 0.00969826311924127 0.0098214067222275742 1 1 0.0097569314342091599 1 1 1 0.0099914651086939511 1 1 1 1 1 1 0.0099997336998678063 1 1 1 0.0095537266018082337 1 1 1 1 0.0098302054626640684 1 1 1 1 1 1 1 0.0099550795424636872 1 1 1 1 1 0.0098820528544475844 1 1 0.0099742022338475157 1 1 1 1 1 1 1 0.0099717081873302305 1 1 1 0.0099239999897102419 0.0095212889452616824 1 1 1 0.0099815288946581704 1 1 1 1 1 0.0099993444788691772 0.0097357065366543826 0.0098143636626196219 1 1 1 1 1 1 1 1 1 0.0096424308121299922 0.0096177637621759054 1 0.0096003166769596145 1 1 1 1 1 0.0097766453612256887 1 1 0.0096625872476812039 1 0.0096493182016199157 1 1 1 0.0096521878052801147 1 1 0.009958788569973346 1 1 1 1 1 1 1 0.0099421030096675678 1 1 0.0099986668384209557 0.0095768883841724772 1 1 0.0099816647990475932 1 0.009891942439306297 1 1 0.0096907493469680969 1 1 0.009887907772590486 1 0.0097542702677976163 1 1 1 0.0098897537323371955 1 1 0.01009627958861496 1 0.0099815869639307692 1 1 0.0099945175343119762 1 0.0099924770871117861 1 1 1 1 0.0098997317597646194 0.0097378820488398243 1 1 1 1 1 1 1 1 1 0.0099259911582655416 1 1 1 1 1 1 1 1 1 1 1 1 1 1 1 1 1 1 0.010000007265641571 0.010554629259249784 1 1 1 0.009441868249986619 1 1 1 1 0.0094334985556721439 1 1 0.0097989923844468002 1 1 1 0.0098414513764019038 1 1 0.0097442156456513818 1 1 1 1 0.0099988492586089318 1 1 1 1 1 0.0093748526226372416 1 1 1 0.0095411025333764412 0.0099998591312549217 1 1 0.0099608403658634423 1 1 1 1 1 0.0097278661655650269 0.0092394062124150009 1 1 1 1 0.009800121767527533 1 1 1 1 0.0097666097173598372 1 1 1 1 1 1 1 1 1 1 1 1 1 1 1 1 1 1 1 1 1 1 1 1 1 1 1 1 0.0098526040079233105 1 1 1 1 1 1 1 1 1 1 1 0.0094331900711494172 1 1 1 1 0.0099515327686988085 1 1 1 0.0094168507746536945 1 1 0.010000003821021064 1 1 1 1 1 0.010031746923109392 1 1 1 1 1 1 1 1 1 1 1 1 1 1 1 1 1 1 1 1 0.009874951234157223 1 1 1 1 1 0.0098308433101796967 1 1 1 1 1 1 1 0.010029695678523035 1 1 1 1 1 1 1 1 1 1 1 1 1 0.0096003787950211892 1 1 1 1 1 0.010085545521691993 0.009349882656985083 1 1 1 1 0.010161643163757611 1 0.009999467033547484 1 1 1 0.0097845367295244443 0.0098560266104329511 1 1 0.0081410931824457983 1 1 1 0.0083881376420471693 1 1 1 1 0.0099780537140190424 1 1 0.0097522613399326843 0.0099085210398026195 1 1 1 1 1 1 0.010287783812328028 1 1 0.0098641951165320159 1 1 1 1 0.010050176384217959 1 1 1 1 1 1 1 1 1 1 1 1 1 1 1 1 1 1 1 0.0092816141195460958 1 0.010002377287647211 1 1 1 0.010006084243800931 1 0.0098361869267354161 1 0.0099946449432165713 1 1 0.0097119478215117565 1 1 0.009609118930185432 0.0094338307386474685 0.0099095367420127794 1 1 1 0.0094837735798554736 1 1 1 1 1 1 0.0099914452747497714 1 1 1 1 1 1 1 0.0096523071452303284 1 0.010036827364876029 1 1 1 1 1 1 1 0.0099481182138951331 1 1 1 1 1 1 1 1 1 1 1 0.0098776244917904484 1 1 0.01000143334446948 1 1 1 1 1 1 1 1 1 1 1 1 1 1 1 1 0.0099179993739722996 1 1 1 1 1 1 1 1 1 1 1 1 1 1 1 1 1 1 1 1 1 0.009873010570882617 1 1 1 0.0099435042929873017 1 1 1 1 1 1 1 1 1 1 0.0099622866359051036 1 1 1 1 1 1 1 1 1 1 0.0099176275708213659 1 1 1 1 1 1 0.0098439089791314601 1 1 1 0.0095064174503692658 1 1 1 1 1 1 1 1 1 1 1 1 1 1 1 1 1 1 1 1 1 0.0099681262191966477 1 1 1 1 1 0.0081765933601197112 1 1 0.010318571610353126 1 1 1 1 1 1 0.010133745161151663 1 1 1 1 0.010023799162988067 1 1 1 1 1 1 1 1 1 1 1 1 1 1 1 1 1 1 0.009999743061107489 1 1 1 1 1 0.0096543444416846546 1 1 1 0.0093763047754539062 1 0.0077417471913144541 1 1 1 1 1 1 1 0.0086825262640992332 1 1 1 0.0083146558029199846 0.0084425195583503511 1 1 1 1 1 0.010033529713308044 1 1 1 0.010149967292713651 1 1 1 1 1 1 1 1 1 1 1 1 1 1 1 0.009431446988078681 1 1 1 1 1 1 0.0098130024945040084 1 1 1 1 1 1 1 1 1 1 1 0.0099835454724278867 1 1 1 1 1 1 1 1 1 0.0097076279236730963 1 1 1 1 0.0095883458623544186 0.010023893470098754 1 1 1 1 1 1 1 1 0.0068785428977577098 0.0098210770970111379 1 0.0064729887855697384 1 1 1 1 1 0.010102044098627347 1 1 1 1 1 1 0.008721397673844309 1 0.010024893001942333 1 1 1 1 1 1 1 1 1 1 0.00986066504029697 1 1 1 1 1 1 0.0099269040938060518 1 1 1 1 1 1 1 1 0.0098808185245372656 1 1 1 1 1 0.009721245285772534 1 1 0.0099566581708718412 1 1 1 1 1 1 0.0097129413450147382 1 1 1 1 1 1 1 1 0.0091802478363368512 1 1 1 1 0.0087341695096437282 1 1 1 1 1 1 1 1 1 1 0.0098902797339163271 1 1 1 1 1 1 1 1 1 0.0083580796111954875 1 1 1 1 0.0080272536683903793 1 1 1 1 1 1 1 1 0.010045326913603993 1 0.0090578128106315638 1 1 1 0.010011176568251222 1 1 1 1 1 1 1 1 0.0093174816995646899 1 1 1 0.0090715346865440308 1 1 1 0.010077004103596639 1 1 0.010017959450479928 1 1 1 1 1 1 1 1 1 1 1 1 1 1 1 1 1 1 1 1 1 1 1 1 1 1 1 1 1 1 1 1 1 1 1 1 1 1 1 1 1 1 1 1 1 1 1 1 1 1 1 1 1 0.0098746281182598497 1 1 1 0.0099169218593269243 1 1 1 1 1 1 0.010007962218917955 1 0.0099808217176176241 1 1 1 1 0.0099218776949434248 0.0098649180935237273 1 1 1 1 1 1 1 1 1 1 1 1 1 1 1 1 1 1 1 1 1 1 0.0085688028913641981 1 1 0.0088318576093719594 1 1 1 0.0099831404817801277 1 1 1 1 1 1 1 1 1 1 1 1 1 1 0.009865267871678407 1 0.0094155178115055416 1 0.0094439908432039713 1 1 1 1 1 1 1 1 1 1 1 1 1 1 1 1 1 0.0096038407176354847 1 1 1 1 1 1 1 1 1 1 1 1 1 1 1 1 1 1 1 1 1 1 1 1 1 1 1 1 1 1 1 1 1 0.0099717685958051437 1 1 1 1 1 1 0.009435803452672125 1 1 0.010256519442422701 1 0.0099964100409288444 1 1 0.0093661013389723935 1 1 1 0.010040676658862598 1 1 1 1 1 1 1 1 1 1 1 1 1 1 1 1 1 1 1 1 1 1 1 1 1 0.0099772976396557585 1 1 1 1 0.0099612978469772965 1 1 0.0099839672620969308 1 1 1 1 1 1 1 1 1 1 1 1 1 1 1 1 1 1 1 1 1 1 1 1 1 1 1 1 1 1 0.010010367108174312 1 1 1 0.0099939480351229001 1 1 1 1 0.010037366998848957 1 1 1 1 1 0.010066506282459311 1 1 1 1 0.0099581422587363445 1 1 1 1 1 1 1 1 1 1 1 1 1 1 0.0099826590630502244 0.0099495939294154991 1 0.009815746016454404 1 0.0098731538868610108 1 1 1 1 1 1 1 1 1 1 1 1 1 1 1 1 1 1 1 1 1 1 1 1 1 0.0099060154770450673 0.010065825025553263 1 1 0.0099786088164169201 1 1 0.0098589290715984483 1 1 1 1 1 1 1 1 1 1 1 0.009908514713855187 1 1 0.0099716535047336876 1 1 1 1 1 1 1 1 1 1 1 1 1 1 0.0099690840597188753 0.0099978482576554735 1 0.0096845896028364964 0.010004393020965455 1 1 1 1 0.0099998138584067725 1 1 1 0.010110453834120951 0.0096316105995932835 1 1 1 1 1 1 1 0.010001843750491868 1 1 1 1 1 1 1 1 1 1 1 1 1 1 1 1 0.010034873952619573 1 1 1 1 0.010075370972498825 1 1 1 1 1 1 1 0.0096585693888465805 1 1 1 1 1 1 1 0.009729856720240071 1 1 0.0098905185017704855 1 1 1 1 1 1 1 1 1 1 1 1 1 1 1 0.0099891376810350933 1 1 1 1 1 1 1 1 0.0099870811262732177 1 1 1 1 1 1 1 0.01000113943305357 1 1 1 1 1 0.010004189298213329 1 1 1 1 0.0099746737230047167 1 1 1 1 1 1 1 1 1 1 1 1 0.010007070895013145 1 1 1 1 1 1 1 1 1 1 1 1 1 1 0.0098871183449259215 1 1 1 1 1 1 1 1 1 1 1 1 1 0.0099995772862234381 0.010007567960155728 1 1 0.0097025460930363246 1 1 1 1 0.0098486161936840212 1 1 1 0.0097663389490116829 1 1 0.0099675767952584378 1 1 1 1 0.0097286074237817807 1 1 1 1 1 1 1 1 1 1 1 1 1 1 1 1 1 1 1 1 1 1 1 1 1 1 1 1 1 1 1 1 1 1 0.0099705589170513299 1 1 1 0.0099346308407314895 1 0.0099599571177267747 1 1 1 1 1 1 1 1 1 1 1 1 1 1 0.0099876229857695543 1 1 1 1 1 1 1 1 0.0086339855018457701 1 1 1 0.0099984853047344596 1 1 1 1 1 1 1 0.0088384163793518294 1 0.0086566802309408671 1 1 1 1 1 1 1 1 1 1 1 1 1 1 0.0098306391337690587 1 1 0.0099377083307028418 1 1 1 1 1 1 1 0.0086855046138017561 1 1 1 1 1 1 1 1 1 1 1 1 1 1 1 1 1 1 1 1 1 1 1 1 1 1 1 0.0098094180609938735 1 1 0.0080091839116504734 1 1 1 0.0082185042202311716 1 1 0.00939660327058571 1 1 1 1 1 1 1 1 1 1 1 1 1 1 1 1 1 1 1 0.0097964695722366109 1 1 1 1 1 1 1 1 1 1 1 1 1 0.009903538769170394 1 1 1 1 1 1 1 1 1 1 1 1 1 1 1 1 1 1 1 0.0098837234656586684 1 1 1 1 1 1 1 1 1 1 1 1 1 1 1 1 0.0099923764394914301 1 1 0.0098647451115360472 1 1 1 0.0099472541897470262 1 1 0.010028645687087591 1 1 1 1 1 1 1 1 1 1 1 1 1 1 0.0096537811167784499 1 1 0.0094363884025369694 1 1 1 1 1 1 1 1 1 1 1 1 1 1 1 1 1 1 1 1 1 1 1 1 1 1 1 1 1 1 1 1 1 1 1 1 0.0095986841255710983 1 1 1 1 0.0096546174128072735 1 1 1 1 1 1 1 1 1 1 1 1 1 1 1 0.0092306382133143725 1 0.010018738680038063 0.0089485704185887673 1 1 0.0097166566805137362 1 0.009528845902668984 1 1 1 1 1 1 1 1 0.0076158616992171857 1 1 0.0097523139293542518 1 1 1 1 0.0085653740715698895 0.0091959658551297591 1 0.0094134082533563479 1 1 1 1 1 1 1 1 1 1 1 1 1 1 1 1 1 1 1 1 1 0.0099901309914329772 1 1 1 1 1 1 1 1 1 1 1 1 1 1 1 1 1 1 1 1 1 1 1 1 1 0.008709177016933637 1 1 1 1 1 0.0089099817963789931 1 1 1 1 1 1 1 1 1 0.0084814318491513059 1 1 1 1 1 1 1 1 1 1 1 1 1 1 1 1 1 0.0079063846259850509 0.0092759237386441894 1 1 0.0082244991110496275 1 1 1 0.0099816823621569802 1 1 1 1 1 1 1 1 1 1 0.008957317907063141 1 1 0.010009434202425914 1 0.0096664352627989919 1 1 1 1 0.0098241755833784559 1 1 1 0.0097257589794568604 1 1 1 1 1 1 0.0098857180196906796 1 1 1 1 1 1 0.009886548301264125 1 1 1 1 1 1 1 1 1 1 1 1 1 1 0.0099791575537987315 1 1 0.009939542297099313 1 1 1 0.0099531783197941218 0.0099782244043349726 1 1 1 1 1 1 1 1 1 1 0.0088630406212068091 1 1 1 0.0088319545667356371 1 1 1 1 0.0099556317685378058 1 1 1 1 1 1 1 1 0.0094980113130878115 1 1 1 1 1 0.0097841392798936281 0.0090528636164645838 1 1 1 0.0087103130561390942 1 0.0099254897907884772 0.0099752350593872007 1 1 1 1 1 0.0089574221440171832 1 1 1 1 1 1 0.0099559462485239621 1 1 1 1 1 1 1 0.0098993552540276187 1 1 0.0098604701824009135 1 1 0.0099809923330648129 1 1 1 1 1 1 1 1 1 1 1 1 1 1 0.0098396408013809444 1 1 1 0.0099999960947841048 1 1 0.0098815480281311246 1 1 1 1 0.010000079847321163 1 1 1 1 1 1 1 1 0.0099127269132128163 1 1 1 1 0.0093321087172694266 1 1 1 1 1 1 1 1 0.0090242162089871642 1 1 1 1 1 1 1 1 1 0.0099373677509255517 1 1 1 0.0098031845334092781 1 1 0.0086180097400506243 1 1 0.008159385572750576 1 1 1 1 1 1 1 1 1 0.0091472751864161827 1 1 1 1 1 1 1 1 1 1 1 1 1 1 1 1 0.010003034523798349 1 1 1 1 1 1 1 1 1 1 1 1 1 1 1 1 1 1 1 1 1 1 1 1 1 1 0.0090556368760682671 1 0.0090331364712724193 1 1 1 1 1 1 1 1 1 1 0.0090954914531670324 1 1 0.0099960151939291319 1 1 1 1 1 1 1 1 1 1 1 1 1 1 1 1 1 1 1 1 1 0.0097082278304080425 1 1 1 1 1 1 1 1 1 0.0093477537724280298 1 0.010045975406371548 1 1 1 1 1 1 1 0.0097977745029256286 1 0.0098728916365767166 1 1 1 1 1 1 1 1 1 1 1 0.0094367129521017185 1 1 1 1 0.0099997983225979508 1 0.0098122206195608384 1 1 1 1 1 1 0.0094373748836938335 1 1 0.0093964169924755613 1 1 0.0094905713245420163 1 1 1 0.0091425140414053314 0.0096334766818861155 0.0096928564450679856 1 1 1 1 1 1 1 1 1 1 1 1 1 0.0099617484460354979 1 1 1 1 1 1 1 0.0093704096418952762 1 0.0098981845042923622 1 0.0093896654532945149 1 1 0.0092980658044161842 0.0099999336062632782 1 1 1 1 1 1 0.0098109735530128809 1 1 1 1 0.0099807952412794103 1 0.009599346537849239 1 0.0099628778698557414 1 0.0094537963630355239 1 1 1 1 0.0098278391152539901 1 1 1 1 1 0.0099254280384625769 1 1 1 1 1 1 1 1 1 1 1 1 1 1 0.009819215855016411 1 1 1 1 1 0.0099103212624953932 1 1 1 0.009767808658139877 1 1 1 1 1 1 1 1 1 1 1 1 1 1 1 1 1 0.009343603828722331 1 1 1 1 0.0093539315526919853 1 1 1 1 1 1 0.010004114891967977 1 1 1 1 1 1 1 1 1 1 0.0096634009303135527 1 1 0.0095215372317973314 1 0.010007763033714317 1 1 1 1 1 1 1 1 1 1 1 0.0097695834738438549 1 1 1 1 1 1 0.010029337834958952 1 0.010340371111524171 0.0095818621313086116 1 0.0098212966326648096 1 1 1 1 1 1 1 0.010117441826193389 1 1 1 1 1 1 1 1 1 1 1 1 1 1 1 1 0.0098142630415458173 1 1 1 1 1 1 1 1 1 1 0.0098335845057708655 1 1 1 1 1 1 1 1 1 1 0.0097092172825551937 1 1 1 1 0.0098753381106701215 1 1 1 1 1 0.010030651100105552 1 1 1 1 0.010003669031997134 1 1 1 1 1 1 1 1 1 1 1 1 1 1 1 1 1 1 0.010103008416219417 1 1 1 1 1 1 1 1 0.010087617026101713 1 0.0098862621073313745 0.0099995134461128305 1 1 1 1 1 0.0099441610685545804 1 1 1 1 1 1 1 1 1 1 1 1 1 1 0.0099504555901096473 1 1 0.0095237180934560853 1 0.0099961292231460983 0.010075710151498897 1 1 1 1 1 1 0.0099663566935897056 1 1 1 1 0.0099704311484680608 1 0.0098381657080629948 1 1 0.010063585779755808 1 1 1 1 1 1 0.010009331449166495 0.0099262514826420137 1 1 1 1 1 1 1 1 1 1 1 1 1 1 1 0.0098677192953927784 1 1 1 1 1 1 1 0.0099941231217922765 1 0.0099347760599689579 1 1 1 0.0099802410894653821 1 0.0099200910548314092 1 1 1 1 1 1 1 1 0.010002286814710605 1 1 1 1 1 0.0098753892207300072 1 0.0099910289622570109 1 1 1 1 0.0099840617916976751 1 1 1 1 1 0.0099909010278681331 1 1 1 1 1 1 1 1 1 1 1 1 1 1 1 1 1 1 1 1 1 1 1 1 0.0090088503771842427 1 1 1 0.0098913546014523426 1 0.0089846327773224471 1 1 1 0.0099604693134461852 1 1 1 1 1 1 1 1 1 1 1 1 1 1 1 1 1 0.0099294607266780747 0.010006898340785865 0.0099634659491269258 0.0099179549370804476 1 1 1 1 1 1 0.010033943981686345 1 1 1 0.010110732498636327 1 1 1 1 1 1 1 1 1 1 0.0098387608571314216 0.0093611960097674165 0.0099787432728136987 1 1 0.0097751794820365844 0.010000389897614988 1 1 1 1 1 1 1 1 1 0.0096748916771779957 1 1 1 1 1 1 1 1 0.0095787365144664217 0.0092205586495362098 1 1 1 0.0099784566266914523 1 1 1 1 1 1 1 1 1 1 1 0.009338280073474918 1 0.0099968252758677791 1 1 1 1 1 0.0099979929986023317 0.0097388174765837068 1 1 0.009922692188811387 0.0095382524066672247 1 1 1 1 1 1 1 1 1 1 1 1 1 1 1 1 1 1 1 1 1 1 1 1 1 1 1 1 1 1 1 1 1 1 1 1 1 1 1 1 1 1 0.0098686899398149099 0.0099597902873053805 1 1 1 1 1 1 1 1 1 1 1 1 1 1 1 1 1 1 1 1 0.0099378999076516674 1 1 1 1 1 1 1 1 1 1 1 1 1 1 1 1 0.0099878236627661456 1 0.0098728172748023153 1 1 1 1 1 1 1 1 0.0098500531990795958 1 1 1 1 1 1 1 1 1 1 1 0.010000487687128752 1 1 0.008706215145590385 1 1 0.0092878983754029892 1 1 1 1 0.008641244682054532 1 1 1 1 0.010002930067142968 1 1 0.0084833738300324722 1 0.0098923228738040901 1 1 1 1 1 0.0096052764403164372 1 1 1 1 1 1 1 0.0098790496400446241 1 1 1 1 1 1 1 1 1 1 1 1 1 1 1 1 1 1 1 1 1 1 1 1 0.010135899351339551 1 1 1 0.010000741417565592 1 1 0.010213588262450611 1 1 1 0.0099554972379272272 1 1 1 1 0.010032332651998339 1 0.010283376600107827 1 1 1 1 1 1 1 1 0.0099973310957811 1 1 1 1 1 1 1 1 1 1 0.0083200627566418859 1 1 0.0099975966976434353 1 1 0.0091999830520517606 1 1 0.0093193923359539306 0.010137032846296036 1 1 1 1 1 1 1 0.0098880457307052253 0.010434529198899759 1 1 1 0.009780481404548607 1 1 0.009836031147565193 0.0094963601589871573 1 1 1 0.0096802294340620782 0.010165231890311863 1 0.0098662626826746553 1 1 0.0099973981501215742 1 1 1 1 0.010597352941247111 1 0.0094094427792471534 0.0096918820868442737 1 1 1 0.010066019396709954 1 0.0096098868995476861 0.0098200251005471535 1 0.010160009334435156 0.010090606547589469 0.0099838120974067752 0.010292597727615191 1 0.010105713405827417 1 0.0098441166101238421 1 0.010099397763048457 1 1 1 0.01004422730836522 1 1 0.0098864117767587557 1 0.010142099978226234 0.0096831579632795529 1 1 1 1 0.0099643452027597546 1 0.0098907983222776812 0.0097845559116696221 1 1 1 0.0098575659364788584 0.0098649346775269309 1 1 0.0096253914946069288 0.0098756968193402343 1 1 1 1 0.010004263564357362 1 1 1 1 0.0099718787861480581 1 1 1 1 0.010019898724044164 1 0.0092484654171952167 1 0.010076588420887543 1 0.0098392824665896241 1 0.0095789703593005295 1 0.010000256737425968 1 1 1 1 1 0.010014015038244855 1 1 0.0095286449366379349 0.0099998227698776965 0.0099387933125505996 1 1 0.009970453216337799 0.0099351371253277223 1 0.0097474260143165306 1 1 0.0097568119807607216 1 1 1 1 1 1 0.009712374575444039 1 1 0.0099408939497570899 1 0.0098849574405071826 1 1 1 1 0.0097546862971407029 1 0.010008294969930054 1 0.0099167685644985237 1 1 1 0.009993862091631606 1 1 0.009675955320133503 1 0.0098415113921759487 1 0.0095957521033266466 1 1 1 1 1 0.0098637665896105699 1 1 1 1 1 1 1 1 1 1 0.0098678453072633121 1 1 1 1 0.0099470257045830863 1 1 0.0098914753877221619 1 1 1 1 1 0.010047979455362241 1 1 0.010281957303631246 1 1 1 0.0096876938085935366 1 0.0099700463513708211 1 1 1 0.0098325163109456958 1 1 1 1 0.0093230678457912938 1 1 1 1 0.0091270257283097688 0.0099601687176769423 1 1 1 1 1 1 0.0098593884342823429 1 1 0.0096407107481655523 1 1 1 1 1 1 1 1 1 1 1 1 1 1 1 1 1 1 1 1 1 1 1 1 1 1 1 1 1 1 1 1 1 1 1 1 1 1 1 1 1 1 1 1 1 1 1 1 1 1 1 1 1 1 1 1 1 1 0.0097256442842022228 1 1 1 1 1 1 1 1 1 1 1 1 0.010690768424697043 1 1 0.0098233524694796241 1 1 1 0.0099705066861276465 1 1 1 1 1 1 1 1 1 1 1 1 1 1 1 0.0092310499222337684 1 1 1 1 1 1 1 1 1 1 1 1 1 1 1 1 0.0099654895222090825 1 1 1 1 1 1 1 1 1 1 1 1 1 0.009424111008466322 1 1 0.0099671403711620553 1 1 0.0097140378803204832 1 0.0091891388296983633 1 1 1 1 1 1 1 0.0091378277858919985 1 1 1 1 1 1 1 1 1 1 1 1 0.0099967262462372641 1 1 1 0.0099512713176337902 1 1 1 1 1 1 1 1 1 0.009989966284605729 1 1 1 1 1 1 0.0088795215055054843 1 1 1 1 1 1 0.0089858963738261074 1 1 1 0.01006498126600818 1 1 1 1 1 1 1 0.010170324050329293 1 1 1 1 1 1 1 1 1 1 0.0088772682673387508 1 1 1 1 1 1 1 1 1 1 1 1 1 1 1 1 0.0096810501474694898 1 0.0099930939892550197 1 1 1 1 1 1 1 1 1 1 0.01022452979565361 1 0.0096714924875661943 1 1 1 1 1 1 1 1 1 1 1 0.0089300134747787915 1 1 1 1 1 1 1 1 1 1 1 0.0088766777525236991 1 1 1 1 1 1 1 0.0099916378719579618 1 1 1 1 1 1 1 0.0099954166534573681 1 1 1 1 1 1 1 1 1 1 1 0.010075648650038471 1 1 1 1 1 1 1 1 0.0090324414820326625 1 0.010232865546545126 1 1 1 1 1 1 1 1 1 1 0.0099267202644294627 1 1 1 0.0098502264001937134 1 1 1 1 1 1 1 1 1 0.009340348668217131 1 1 1 1 1 1 1 1 1 1 1 1 1 1 1 1 0.0098924116222936266 1 1 1 1 1 1 1 1 1 1 1 1 1 1 1 1 1 1 0.0099419318260449176 1 1 0.009894321705732706 1 1 0.0099288349439996086 1 1 1 1 1 0.0098746189813575785 1 1 1 1 1 1 1 1 1 1 1 1 1 1 1 1 1 1 1 1 1 1 1 1 1 1 1 1 1 1 1 1 1 1 1 1 1 1 1 1 1 1 1 1 1 1 1 1 1 1 1 1 1 1 1 1 1 1 1 0.0099777220984062828 1 1 0.0099249084990530399 1 1 1 1 1 1 1 1 1 1 1 1 1 1 1 1 1 1 1 1 1 1 1 1 0.010045498219355511 0.0099193537491543762 1 1 1 1 1 1 1 1 1 1 1 1 1 1 1 1 0.010003892259286039 0.0098844748824490746 1 1 1 1 1 1 1 0.0097936906796310015 1 0.0099608027862514385 1 1 0.0098061085591268065 0.010002452998543944 1 1 1 1 1 1 1 1 1 1 1 0.0099996002652137303 1 0.010436025543273353 1 1 1 0.010307460895739775 1 1 1 0.0097741527427655777 1 0.0097748546009911817 1 1 1 1 1 0.0097541166380501511 0.0096713881443130853 1 1 1 1 1 1 1 1 1 1 1 1 1 1 1 1 1 1 1 1 1 1 1 1 1 1 1 1 1 1 1 1 1 1 1 1 1 1 1 1 1 1 1 1 1 1 1 1 1 1 1 1 1 1 1 1 1 1 1 1 1 1 1 1 1 1 1 1 1 1 1 1 1 1 1 1 1 1 1 1 1 1 1 1 1 1 1 1 1 1 1 1 1 1 1 1 1 1 1 1 1 1 1 1 0.0098205997942019622 0.010023759309428578 1 0.0093646637450708423 1 0.0098811139704766873 1 1 0.0098962448499075178 1 1 1 1 0.01002574079839527 1 1 1 1 1 1 1 0.0091617937676374966 0.010072422559108573 0.0099509236258788214 1 1 1 1 1 0.0092136732471178318 0.0099132882912799057 1 1 1 1 1 1 1 1 1 1 1 1 1 1 1 1 1 1 1 1 1 1 1 1 1 1 1 1 1 1 1 1 1 1 0.0096308584692659065 1 1 0.0098680978408790532 1 1 1 1 1 1 1 1 1 1 1 0.0099402056779632503 1 1 1 1 1 1 1 0.0098652248919321259 1 1 1 1 1 1 1 1 1 1 1 1 1 1 1 1 0.0092256273487912564 1 1 0.0095157916325283066 1 1 1 1 1 1 1 1 1 1 1 1 1 1 1 1 1 1 1 1 1 1 1 0.010030928681078053 1 1 0.0099910485262018865 1 1 0.0099288493434837206 1 1 1 1 1 1 1 0.0098538685574525962 1 1 1 1 1 1 0.0099342931629124841 1 1 0.009842424058462227 1 1 1 1 0.0099684364231624918 1 0.010017020600237675 1 1 0.0095113167050739598 1 1 1 1 0.0099051840881490705 1 0.0096100619008535858 1 1 0.0097017835147743398 1 1 1 1 1 1 1 1 1 1 1 1 0.0094408086342737743 1 1 1 0.0097743021256501902 1 1 0.0097770581278868868 1 1 1 1 0.0099995275673746744 1 1 1 1 1 1 1 1 1 1 0.010003873904961076 1 1 1 1 1 1 1 1 1 1 0.0099510976562511271 1 1 1 1 1 1 1 1 1 1 1 1 0.0097853689091786707 1 1 0.010139773685128504 1 1 1 1 1 1 1 1 1 1 0.0099417584740290176 1 1 1 1 1 0.010050572123628488 1 0.010033856037723964 0.0099841273414350805 1 1 0.010012317351236493 1 1 1 1 1 1 1 1 1 0.0099641412485894712 0.01009154906488432 1 1 1 1 1 1 0.0099636231997638318 1 1 1 1 1 1 1 1 1 1 1 1 1 1 1 1 1 1 1 1 1 1 1 1 1 0.0099933625069913625 1 1 1 1 1 1 1 1 1 1 1 1 1 1 1 1 1 1 1 1 1 1 1 1 1 1 1 1 1 1 1 1 1 1 1 1 1 1 1 1 0.0099200821610311123 1 1 1 1 1 1 1 1 1 1 0.0099878470175821972 1 1 1 0.01003517483200856 1 0.010046408892063187 1 1 1 0.0097404168001463589 1 1 1 0.0099963851013225476 1 0.010006099317871463 1 0.009852598349988426 1 0.01008326817154925 0.0098999328759767011 1 1 0.0097554466431496629 1 1 1 0.010007410722099794 1 1 1 1 1 0.01000572484561537 1 1 1 1 0.0098406822455836002 1 1 1 0.009940930058179788 1 1 1 1 0.0097808882033853742 1 0.010002174422826929 1 1 1 1 1 1 1 1 1 1 1 1 1 1 0.0099744457932572153 1 1 1 1 0.0099083060397253415 1 1 0.010001843447862526 1 1 0.010208462617301808 0.0099978344978179211 1 1 0.010088234969134238 1 0.0099077717654601546 1 1 1 0.010024202204238547 0.010074182262789654 0.0099536946113056128 0.010017532347074082 1 1 0.009811547734952214 1 1 1 1 0.010298104121252406 1 0.0094353162301346015 1 1 0.010028214996173216 0.010056205326486954 0.010000109895157906 1 0.0099432537564905291 1 1 0.0098567455728591977 0.0099292077604778775 0.010053711556996707 1 1 1 1 1 1 1 1 1 0.0098768393533676998 0.0094946249990189753 1 1 1 1 0.0095442881196310687 0.009888519737932179 1 1 1 0.0083404917643340893 1 0.0085160258900396722 1 1 1 1 1 1 1 1 1 1 1 0.008227110553951646 1 1 1 1 1 1 1 1 1 1 1 1 1 1 1 1 1 1 1 1 1 1 1 0.0099514918902027568 1 1 1 1 1 1 1 1 1 1 1 1 1 1 1 1 0.0077523837893790819 1 1 0.009869069991302673 1 1 1 1 1 1 1 1 1 0.0098354105822464136 1 1 1 0.0095577516366921449 0.0098557598900094606 1 1 0.01000144789252095 1 1 1 1 1 0.0099606578999502232 1 0.0099736274904145064 1 1 1 0.0098330588113661032 1 1 1 1 1 1 1 0.0098273078647476489 1 1 0.0099918570776900244 1 1 1 1 0.0098254453239870511 1 1 1 0.0099817631497513548 0.0099984130940350951 1 1 0.0097244497299800066 1 1 1 0.0081061437877140863 1 1 1 1 1 1 1 0.010054689020050914 1 1 0.0081950571849172676 1 0.0098830043349032171 0.0089674902885053878 0.0098670773072107483 1 0.0099977577541015099 1 0.0087197806618389932 0.0088719533338371612 1 1 1 1 1 1 0.0078413445947648902 1 1 0.0079631527297690657 1 1 1 1 1 1 1 1 1 1 1 1 1 1 1 1 1 1 1 1 1 1 1 1 1 1 1 1 1 1 1 1 1 1 1 0.0099871705600831258 0.0085864252365818426 1 1 1 1 1 1 1 1 0.0099635986191469999 0.010162160104619129 0.0085621968358049125 0.0085453474501265107 1 1 0.010364946245165435 1 1 1 1 1 1 1 1 0.010338955243890282 1 1 0.0099607292636071099 1 1 1 0.010049770520291049 1 1 1 1 0.010087583394749723 1 1 1 1 1 1 1 1 1 1 1 1 1 1 0.0099319760736697651 1 1 1 1 1 0.0089680531115919546 1 1 1 1 1 1 1 1 0.0096963651498001603 1 1 1 0.010152107820928704 0.0094162245448039649 1 1 0.0094252278243531582 0.010180095266064624 1 1 1 1 1 0.010000003426910424 1 1 1 1 1 1 0.01003082426541165 1 0.0082558424199587945 1 1 1 1 1 1 1 1 0.0096747532495817228 0.0095306613428341042 1 0.0087166799745851641 0.0098657381363609249 0.0084498278569976361 1 0.0094631639514040911 1 1 1 1 1 1 0.009593472490372186 1 1 1 1 1 1 1 0.009725673398542977 1 1 1 1 1 1 1 1 1 1 1 1 1 1 1 1 1 1 1 1 1 1 1 1 1 1 1 1 1 1 1 1 1 1 1 1 1 1 1 1 1 1 1 1 1 1 1 1 1 1 1 1 1 1 1 1 1 0.0099343285722139872 1 1 1 1 1 1 1 0.0097986297796946783 1 1 0.0086944993063788594 1 1 1 0.01049849132841274 1 0.0099996540152607772 1 1 0.01003376086295751 1 1 1 1 1 1 1 0.0093108130545586348 1 1 1 0.0099357061261764329 1 1 1 1 1 1 1 0.01010454658055111 1 0.010006663831053557 1 1 1 1 1 1 1 1 1 1 1 1 1 1 1 1 1 1 1 1 1 1 1 1 1 0.009985371899590971 0.0089526942399596673 1 0.008838532515763782 1 1 1 1 1 1 1 0.0099955645276842229 1 0.0099224872472629226 1 0.0097750198890970124 0.010136226566610736 0.0089140047918581326 1 1 0.0087325268858005397 1 1 0.0095274290932846582 1 1 1 0.0097974360478115946 1 1 1 1 1 1 1 0.010149114823158114 0.0094616777665698371 1 1 0.0097501991908458836 1 1 1 0.0099035151218206247 1 1 1 1 0.010027984392036957 1 0.0095081706966978277 1 1 1 1 1 1 0.0099192134823405439 1 0.0099122815767679201 1 1 1 1 1 0.0097396146091279241 1 1 0.0098419494144166147 1 1 1 1 1 1 1 1 1 1 1 1 1 1 1 1 0.010005959669512211 1 1 0.0097501941649117199 0.010000859215877837 1 0.0099985101743828401 1 1 1 1 1 1 1 1 0.0099716073642333609 1 1 1 1 1 1 1 1 1 1 1 1 1 1 1 1 0.0090670501061452177 1 1 1 0.0098971881672010424 1 1 0.0087860921464783734 1 1 1 1 1 1 0.0087536180671429157 1 1 1 1 1 1 1 1 1 1 1 1 1 1 1 1 1 1 1 0.01017420325654596 0.0099957584839364347 1 1 1 1 1 1 1 0.010053524832611082 1 1 1 0.00999991085625976 1 1 0.010076197485817336 1 0.010129781543943677 1 1 0.01014242658602052 1 0.0099526435526885761 0.0094755776038375622 1 0.010193359704416037 1 0.0096905417957802945 1 0.0095941470322372761 1 1 1 1 1 1 1 1 1 1 1 1 1 1 1 0.0099313637406577004 0.010029883672249681 1 1 1 1 1 1 1 0.0098068567797813949 1 1 1 1 1 1 1 1 1 1 1 1 1 1 1 0.0099244187440454285 1 0.0099423215236749858 1 1 1 1 1 1 0.009873731984749912 1 1 1 0.0097072857456856725 1 1 1 0.0098754579765483151 1 1 1 1 1 1 1 1 1 1 1 1 1 1 1 1 1 1 1 1 1 0.010020082257505256 1 1 1 1 0.0096196670143652192 1 1 1 1 1 0.0092455626273154311 1 1 1 0.0093361680619382294 1 1 1 1 1 1 1 1 1 1 1 1 0.010005364468887055 1 1 1 1 0.0094726018121175926 1 1 1 1 1 1 1 1 0.0097323747490859463 1 1 1 1 1 1 1 0.0098189490624949229 1 1 1 1 0.0098968991466832409 1 1 1 1 1 1 1 1 0.0097784398947819463 1 1 1 1 1 1 1 1 1 0.0099085867704256248 1 1 1 1 1 1 1 1 1 1 1 1 1 1 1 1 1 1 1 1 1 1 1 1 1 1 1 1 0.0099538720714599013 1 1 1 1 1 1 1 0.0096037760528692919 1 1 1 1 1 1 1 1 1 1 1 1 1 1 1 1 1 1 1 1 1 1 1 1 1 1 1 1 1 0.0099331364528733295 1 1 1 1 1 1 1 1 1 1 1 1 1 1 1 1 1 1 1 1 1 1 1 1 1 1 1 1 1 1 1 1 0.0099830411627701583 1 1 0.0099911840850801341 1 1 1 1 0.0088420331142675546 1 1 0.0087770029760691152 1 1 1 1 0.0088470460136292478 1 1 1 0.0088698758078399574 1 1 1 0.009905735490776767 1 1 1 1 1 1 1 1 1 1 0.0097231241078368034 1 1 0.0096168131005718287 1 1 1 1 1 1 0.0078671704575646768 1 1 1 1 1 0.0095904237556046906 1 1 1 1 0.0095910162009407787 1 1 1 1 1 1 1 1 1 1 0.0096339496149214516 1 1 1 1 1 1 1 1 1 0.0098806110919753658 1 1 1 1 1 1 1 1 1 1 1 1 1 0.007895558717923773 1 1 1 1 1 1 1 0.0095716494910620589 1 1 1 1 1 0.0098614337881555852 1 1 1 1 1 1 1 1 1 1 1 1 1 1 0.0097786214970268133 1 1 1 1 1 1 1 1 0.0096736390860106113 1 1 1 1 1 1 1 1 1 1 1 1 1 1 1 1 1 1 1 1 1 1 1 1 1 1 1 1 1 1 1 1 1 0.0098363704253099354 1 1 1 1 0.0097228905169971097 0.0096679917088505433 1 1 0.0093333344755813299 1 1 0.0096714462491358007 1 1 0.0086002500435758966 1 1 1 1 1 1 1 1 1 1 1 1 1 1 1 1 1 1 1 0.0082585286678837494 1 1 1 1 0.008015295700030645 1 1 1 1 1 1 1 1 1 1 1 1 1 1 1 1 1 1 1 1 1 1 1 1 1 1 1 1 1 1 1 1 1 1 1 1 1 1 1 1 1 1 1 1 1 1 1 1 1 1 1 1 1 1 1 1 1 1 1 1 1 1 1 1 1 1 1 1 1 1 1 0.0097814681169614663 1 1 1 1 0.0099186282847089583 1 0.0099554626002656531 1 1 0.0097812442603748637 1 1 1 1 0.0099894086272148061 1 1 0.0099865451316746498 1 1 1 1 1 1 1 1 1 1 1 1 1 1 1 1 1 1 1 1 1 1 1 1 1 1 1 1 1 1 1 1 1 1 1 1 1 1 1 1 1 1 1 1 1 1 1 1 1 1 1 1 1 1 1 1 1 1 1 1 0.01001444825040328 1 1 1 1 1 1 1 1 1 0.009936242792231386 1 1 1 1 1 1 1 0.0098575477951127026 1 1 1 1 1 1 1 1 1 1 1 1 1 1 1 1 1 1 1 0.0081841063028452038 0.0092506201804685387 1 1 0.010004648677308386 1 0.0099973713192412009 1 1 1 1 1 1 1 1 1 1 1 1 1 1 1 1 1 1 1 1 1 1 1 1 1 1 1 1 1 1 1 1 1 1 1 1 1 1 1 1 1 1 1 1 1 1 1 1 1 1 1 1 1 1 1 0.0090022129178812769 0.0089319586760220285 1 1 1 1 1 1 1 1 1 1 1 1 1 1 1 1 1 1 1 1 0.0099882439734561446 1 1 1 1 1 1 1 1 1 1 0.0099964155757737341 1 1 1 0.010039184843243716 1 1 1 1 1 1 0.009995557534684835 1 1 1 1 1 1 1 1 1 1 1 1 1 0.010053222822932936 1 1 1 1 1 1 0.0099994323889255766 0.010024914614193789 1 0.0097129237107574928 1 1 0.0099843993260013801 1 1 1 0.009703746242607357 1 1 1 0.0097072817192436107 1 1 1 1 1 0.0099841223085025757 1 0.010068553549546387 1 1 1 1 0.0096584793160817365 1 1 1 1 0.010027321703709683 1 0.010004654145095706 1 1 0.0099916704607662544 0.0099947938729482814 1 1 1 1 1 0.009986742136410702 1 1 1 1 1 0.0099725112419200412 0.010006761485105844 0.0099248019532392033 1 0.0098340829063828603 1 0.010000888822894908 1 1 1 1 1 0.0099951985575315819 1 1 1 1 1 1 1 1 0.010001351072904533 0.0098246202029508151 1 1 0.0099080457495692824 1 1 1 1 0.0097406917835856539 1 1 0.0099775101406487498 1 1 0.0099800147272079975 1 1 1 1 1 1 1 1 1 0.0099834268870734339 1 1 1 1 1 1 1 1 0.0099611255757312903 1 1 1 1 1 1 1 1 1 0.010009849942644202 0.0099426031787552775 1 1 1 1 1 1 1 1 1 1 1 1 1 1 1 1 1 1 1 1 1 1 1 1 1 1 1 1 1 1 1 1 1 1 1 0.0099984726864886537 1 1 1 1 0.0099927788030701684 1 1 1 1 1 1 1 1 1 1 1 1 1 1 1 1 0.0098808329256472541 0.0096280359361426045 1 1 1 1 1 1 1 1 1 0.0096987333914968325 1 1 1 1 0.0098691776451838228 1 1 0.0098929559819216813 1 1 1 1 1 1 1 1 1 1 1 1 1 0.0099796322312304606 1 1 1 1 1 1 1 1 1 1 1 1 1 1 1 1 1 1 1 1 1 1 1 1 1 0.0098553723545866945 1 1 1 1 1 0.010002761919799076 1 1 1 0.0096421193089381643 1 1 1 0.010166794911489594 0.010002041671936916 1 1 1 1 1 1 1 1 1 1 1 1 1 1 0.009786457265884594 1 1 1 0.0092714638772785699 1 1 1 1 0.0096981627432249119 0.0097858259149200249 1 1 1 1 1 1 1 1 1 1 1 1 1 1 1 1 1 1 1 1 1 1 1 0.0097942736099044525 1 1 1 1 1 1 1 1 1 0.010057512878276501 1 1 1 1 0.0099256176070246175 1 0.01003587100473227 1 1 1 1 0.010004607213647661 1 1 1 1 1 1 1 1 1 1 1 1 1 1 1 0.0099835764766164729 1 1 0.0099560939196938914 1 1 1 1 1 1 1 1 1 1 0.010061860784558884 0.010065451725957903 1 1 1 1 0.0096933647672146888 1 1 1 0.0096169070284992993 1 1 1 1 0.0099179739811078131 0.0099701398291505306 1 0.0099249633955152648 1 0.010084295195057567 1 0.0092883808324633662 1 1 0.010048042732828059 1 1 0.0094355031456947562 1 1 0.010094419125742863 1 1 1 0.0097822326491876308 1 1 0.010000001682253824 1 0.0099635812283319601 1 0.0097282265878835712 1 1 0.0099522323287432983 1 1 1 1 1 1 1 1 1 1 1 1 1 0.010014019815405322 1 1 1 1 1 1 1 1 1 1 1 1 1 1 1 1 0.010135419800264216 0.010234974277566013 1 1 1 1 1 0.0098364168435617558 1 1 1 1 0.0097882861751409523 1 1 0.010339027984166683 1 1 1 1 0.0099321845022281949 1 1 1 1 1 1 1 1 1 1 1 1 1 1 1 1 1 1 1 1 1 1 1 1 1 1 1 1 1 1 1 1 1 1 1 1 1 1 0.0099761988240412505 1 1 1 1 1 1 1 1 1 1 1 1 1 0.010052272607177122 1 0.0099722241644384785 1 1 1 1 0.010038591250441379 1 1 1 1 1 1 1 1 1 1 1 1 1 1 1 1 1 1 0.010022849418995851 1 0.010007725858670271 1 1 0.010034667057230922 1 1 1 0.010032473677307027 1 1 1 1 1 1 1 1 1 1 1 1 1 1 1 1 1 1 1 1 1 1 1 1 1 1 1 0.0099755358296236274 1 1 0.0099459911174796748 1 1 1 1 1 1 1 1 1 1 1 1 1 1 1 1 1 1 1 1 1 1 1 1 1 1 1 1 1 1 1 1 1 1 1 0.0099697922934384245 1 0.0098957822845000161 1 1 1 1 1 1 1 1 1 1 1 1 1 1 1 1 1 0.0099217281571553489 0.0098338445247632411 1 1 1 1 1 0.0099482816515052523 1 1 1 1 0.0098796191072444573 1 1 1 1 0.0099578197136694635 1 1 1 1 1 1 1 1 1 1 1 1 1 1 1 1 1 1 0.0099121163676078924 1 1 1 1 1 1 0.0099049899327511761 1 1 0.0097569763999132038 1 1 1 1 1 1 1 1 1 1 1 1 0.0099352507117841 1 1 0.0099179875117362502 1 1 1 1 1 1 1 1 0.0099750829137173168 1 1 1 1 1 1 0.0099526952482176124 1 1 0.0098840327039568208 1 1 1 1 1 1 1 1 1 1 1 1 1 1 1 1 1 1 1 1 1 1 1 1 1 1 1 1 1 1 1 1 1 1 1 1 0.0099847564920139964 1 1 1 0.0099797487826648826 1 1 0.0099555012501085886 1 1 1 1 1 1 0.0099560824033500771 1 1 1 1 1 0.0099807350449100957 1 1 1 1 1 1 0.0099840522609441085 1 1 1 1 0.0097615776526969317 1 0.0098132556036171457 1 1 0.0098772288361669465 1 1 1 0.0099949922906508865 1 1 1 1 1 1 1 1 1 1 1 1 1 0.0099842301079228445 1 1 1 1 1 1 1 1 1 1 1 1 1 1 1 1 1 1 1 1 1 1 1 1 0.010000115366448965 1 0.010000273441966599 1 0.010004272991449329 1 0.010037271321907931 1 1 1 1 0.0099936727222505808 1 1 1 1 0.0099596174968300151 1 1 1 1 1 1 1 1 1 1 1 1 1 1 0.0098844728174098014 1 1 1 0.0098337814780757992 1 1 1 0.0099517513361483869 1 1 0.0099069934498892606 1 1 1 0.0099116407059779595 1 1 1 1 0.0099558484657324229 1 1 1 1 0.0099259278406850088 1 1 1 1 1 1 1 1 1 1 0.0091779766879826266 1 1 1 1 1 0.0091696749186963595 1 0.009997389257809762 1 1 1 1 1 0.0098720736987713241 0.0094653139884497278 1 1 0.0097043179539490036 1 0.0099998177851892602 1 1 0.0099905255492317227 1 1 1 1 1 1 1 1 1 1 1 1 1 0.010106344474428255 1 1 1 1 1 0.0091959424789357716 1 1 1 1 1 1 1 1 1 1 0.0099809672510001446 1 0.0097998850584168733 1 1 0.0097177526542087684 1 1 0.010008266830580155 1 0.0094764492864112641 1 0.010123614413034958 1 1 1 1 1 0.010033839179464467 0.010093903360896779 1 1 1 1 1 1 1 1 1 1 1 0.010016512098100547 1 1 1 1 1 0.010000775876074839 1 1 1 0.0092676530889683577 1 0.0099886519949614078 1 1 1 1 1 1 1 1 1 1 1 1 1 1 1 0.010001627094357382 1 1 1 1 0.010004612767919035 1 1 1 1 1 1 1 1 1 1 1 1 1 1 1 1 1 1 1 1 1 1 1 0.010002985673561653 1 1 0.0095755999692587954 1 1 1 1 1 1 1 0.0095144751883644435 1 1 0.0098577991442040866 1 0.0096781428968174404 1 1 1 1 1 1 1 1 1 0.0098664057159183853 1 1 0.0093376673559002008 1 1 1 0.009405243551330076 1 1 1 1 1 1 1 0.0099711002086507027 1 1 1 1 0.0094649978785466445 0.010071402363552133 1 1 1 1 1 1 1 1 1 0.010026217068311057 1 1 1 1 1 1 1 1 1 1 1 1 1 1 1 1 0.0099519848929347041 1 0.0099828385471601427 1 1 1 0.009847088646744568 1 1 1 1 1 1 1 1 1 1 1 1 1 0.0099473177756083959 1 1 1 1 1 0.0098493163813693444 1 1 1 0.0099493985958839185 0.0099528672148576428 1 1 1 0.0098364776646382678 1 1 0.0099660852507575479 1 1 1 1 0.0088615831525369875 0.0099946744435204377 1 1 1 0.010116995068410196 1 1 0.010029983965253085 1 1 1 1 0.0090176556118237577 1 0.0083522929772374931 1 1 1 0.0086404148203495339 1 1 1 1 1 1 1 1 1 1 1 1 1 1 1 1 1 1 1 1 1 0.0099365612309681214 1 1 1 1 1 1 1 1 1 0.0092982935427988866 1 1 1 0.0093800714130899288 1 0.0093830387699751928 1 1 1 1 1 1 1 1 1 1 1 0.009382029643232882 1 1 1 1 1 0.0088724445119624535 1 1 1 1 1 0.0096887388387970688 1 1 1 1 1 1 1 1 1 1 1 1 1 1 1 1 0.0096507194440135849 1 1 1 1 1 1 1 1 1 0.0097342369950093495 1 1 1 1 1 1 1 1 1 1 1 1 1 1 1 0.0099660212053265217 1 1 1 1 1 1 1 1 1 1 1 1 1 1 1 1 1 1 1 1 1 1 1 1 1 1 1 1 1 0.0093535091608174959 1 1 1 1 0.0097130108207740262 1 0.0096667308804378998 0.009999452896317363 1 1 1 1 1 1 0.0099785220035733917 1 0.010091943618547362 1 1 1 0.0099963075250984433 1 1 0.0096316919653489236 1 1 1 1 1 1 0.0099908869970795032 1 1 1 1 1 1 1 0.0099810594141814847 1 1 1 1 0.0099642856306213067 1 1 1 1 1 1 0.0097978539982415611 1 1 1 1 1 1 1 1 1 1 1 1 0.0099391229275926276 1 0.0098862132922636018 1 1 1 1 1 1 1 0.0098590886532213921 0.0099030900978669123 1 1 1 1 1 1 1 1 0.0099654861280042278 1 1 1 0.0098630018032808617 1 1 0.0099490178274165529 1 1 1 1 1 1 1 1 1 1 1 1 1 1 1 1 1 1 1 1 1 1 1 1 1 0.0099863738439863615 1 1 0.0099952592140471839 1 1 1 1 1 0.0099515319775607299 1 1 0.0098527162292711499 1 0.009575373322746366 1 1 1 0.010006976089912162 1 1 1 1 0.0097937903450222349 1 1 0.010072823792560463 0.0097000172599794477 1 1 1 1 1 0.0099963792201387888 1 1 0.010009750332719582 1 1 1 1 1 0.010002842875661942 1 1 1 1 1 1 1 1 1 0.0099967019757721282 1 1 1 1 0.010002861823569376 1 1 1 1 1 1 0.009349109387920617 1 0.0095036698904107722 1 1 1 0.010154615919296311 1 0.0090221551508809904 1 1 0.0093580626428245162 1 0.010016525746054401 1 1 1 0.010006944431491553 1 1 1 1 1 1 1 1 1 1 1 1 1 0.0087466625329237838 1 1 1 1 0.0086854786180774572 1 1 1 1 1 1 0.010062242946298103 1 1 1 1 1 1 1 0.0098887610222721089 1 1 1 1 1 1 0.0096949755230386885 1 1 1 1 1 1 1 0.0095537751599492869 1 1 0.0099609681667745704 1 1 1 1 1 1 1 1 1 0.0099743415612097569 0.010007392153725616 1 1 1 1 1 1 1 1 1 1 1 1 0.0099924294396568046 1 1 1 1 1 1 1 0.00991642130713879 1 1 1 0.0099993207432562074 1 0.009852514178714019 1 1 0.010033967938548303 1 1 1 1 1 0.010080877330308605 1 1 1 0.0097161388232853644 1 1 1 1 0.0092691772993773285 1 1 1 0.010014979197808896 1 1 1 1 1 1 1 0.0099425604420335951 1 1 0.0099678852466045988 1 1 1 0.0088347944702814561 1 1 1 0.0089477866577228702 1 1 1 1 0.010106340457239096 1 1 1 0.010035155230295268 1 1 1 1 1 1 1 1 1 0.0088184245788776264 1 1 1 1 1 1 1 1 1 0.0089937335616234858 1 1 1 1 0.0095849093370686707 1 1 0.0094038686236722034 1 1 1 1 1 1 1 1 1 1 1 1 1 1 1 1 1 1 1 1 1 1 1 1 1 1 0.0099907655490125927 1 1 1 1 1 1 1 1 1 1 1 0.0099928943412701116 1 1 1 0.010053909312653608 1 1 1 1 1 1 0.010024285928026405 1 1 1 1 1 1 1 1 1 1 1 1 1 1 1 1 1 1 1 1 1 1 1 1 1 1 0.0092102763063037392 1 0.010606355525997185 1 1 0.009828243500296277 0.010165863369332787 1 1 1 1 1 1 1 1 1 1 1 1 1 1 1 1 1 0.0097075561754088706 1 1 1 1 1 1 1 1 1 1 1 1 1 1 1 1 1 1 1 1 1 1 1 1 1 1 1 1 1 1 1 1 1 1 1 1 1 1 1 1 1 1 1 1 1 1 1 1 1 1 1 1 1 1 1 1 1 1 1 1 1 0.010099118588048732 1 1 0.010249301589466178 1 1 1 1 0.010396610358277634 1 1 1 1 1 1 1 1 1 1 0.0099994949525040368 1 0.0089380609609172011 1 1 1 0.0098577065805530561 1 1 1 0.010002621393799102 1 0.010010822702785964 1 1 1 0.0098980766806882163 1 0.0099850062923105415 1 0.0098243296156663648 1 1 1 0.0095638656811003753 1 1 1 1 0.0099925768526537423 1 0.0097440318225456169 1 1 1 1 1 0.0097079663025574636 1 0.0099987033586004456 0.010067477178103487 1 1 1 1 1 1 0.0096961753260705642 1 1 1 0.0099982448779306586 1 1 1 1 1 1 1 1 1 1 1 1 1 1 1 1 1 1 1 0.010001591007724273 1 1 1 0.0097292713228092059 0.009988559651351878 1 1 1 1 1 0.0099694807759714808 1 1 1 1 1 1 1 1 1 1 1 1 1 1 0.0098039421154907866 1 1 0.0096850016264165839 1 0.0098410881499874474 1 1 1 0.010003062321124854 1 0.0099125483136378555 1 1 0.0096836213881821009 1 1 1 1 1 1 1 1 1 1 1 0.0096488567885619943 1 1 1 1 1 1 1 1 1 1 0.0096553058981971134 0.0099846077354575676 1 1 1 1 1 1 1 0.0097584299247206376 1 1 1 1 1 1 1 1 1 1 1 1 1 1 0.0099152058634140276 1 1 1 1 1 1 1 1 1 1 0.0099330099939456927 1 1 1 0.0098257253137196583 1 0.0097643281540322185 0.0098020838051100893 1 1 1 1 1 1 1 1 0.0096566276600144971 1 1 1 1 1 1 1 1 1 0.0098405656336155341 1 0.0096952876384477915 1 0.010019800476432099 1 1 1 1 1 1 1 1 0.0099213747790778701 1 0.009841367519645797 1 1 1 1 1 1 0.01004431682433481 1 1 0.0098053314962196336 1 0.010089739713415025 1 1 1 1 1 1 1 1 1 1 1 1 1 1 0.0098793130805268081 1 1 1 1 1 1 1 1 1 1 0.0099307024717148022 1 1 1 1 1 1 0.0099676364555486095 1 1 1 1 1 1 1 1 1 1 1 1 1 1 1 1 1 1 1 1 1 1 1 1 1 0.0098527222836550764 1 1 1 1 1 0.0096064055859281985 1 1 1 1 1 1 1 1 1 1 1 0.0099953557025892672 1 1 1 1 0.0082848714331406146 1 1 1 1 1 0.0082628500230346579 1 1 1 1 1 0.0083578118689028782 1 1 0.0085135570535062946 1 1 1 1 1 1 1 1 1 1 1 1 1 1 1 1 1 1 1 1 1 1 1 1 1 1 0.0098647430110317142 1 1 0.0098651034240981872 1 1 1 1 1 1 1 1 1 1 1 1 1 1 1 0.0099668594358582659 1 1 1 1 1 1 1 1 1 0.0099344958914068752 1 1 1 1 1 1 1 0.0094322313284233572 1 1 1 1 1 0.0099879568955901186 1 1 1 1 1 1 0.0084539935833828107 1 1 1 1 0.0087528237753102846 1 1 1 1 1 1 1 0.0099926011930008517 1 1 0.0093354872613042109 1 1 0.0093996142384981871 1 1 1 1 0.0090761340552386466 1 1 1 1 1 1 1 1 0.0093472617283305633 1 1 0.0096842045139095886 1 1 1 1 1 1 1 1 1 0.009909325967343393 1 1 1 1 1 0.0099347305354089144 1 1 1 1 0.0098738254301909724 1 1 1 0.009742152935041366 1 1 1 1 1 1 1 1 1 1 1 0.0098727367721243853 0.0098673062623345908 1 1 1 1 1 1 1 1 1 1 1 0.009873249433884004 1 1 1 1 1 0.0095167623987639713 1 0.0097184347164663547 0.010031762432283075 1 0.0097389476112453698 0.010028040738480489 1 1 0.010004163017662271 1 1 1 1 1 1 0.0094631495004454617 1 0.0098356895935411484 0.009996590252234443 1 1 1 1 1 0.010003422728552877 1 1 1 1 1 1 1 1 0.0094810425709101146 1 1 1 1 0.0098978880864160085 1 1 1 1 1 0.0099778594205200445 1 1 0.0099168376194575993 1 1 1 1 1 1 1 0.0097122469289775311 1 0.010035638816683585 1 1 1 1 1 1 1 0.0096724153486034466 0.0098687844402738905 1 1 1 1 1 1 1 0.0099594576098138779 1 1 1 1 1 1 0.0098899470408745829 1 1 1 1 1 1 1 1 1 1 1 1 1 1 0.0097119402752393145 1 1 0.009901056151895021 1 1 1 1 0.0099589183218596628 1 1 1 1 0.0094550927987064725 1 1 1 1 1 1 0.0092333839922842734 1 1 1 1 1 1 1 0.0099832647062275282 1 1 1 0.0096645880988363662 1 1 1 1 0.0091327252448080848 1 1 0.0096560739138816729 1 1 1 1 1 1 1 0.009129446673318279 1 1 1 1 0.009141622007985413 1 0.010003980984159833 1 1 1 1 1 1 1 1 1 1 1 1 1 1 0.0098006783706672297 1 1 1 1 1 1 1 0.009797350091243457 1 1 0.0098774543509470517 1 1 0.0098419430323909221 1 1 1 1 1 1 1 1 1 0.0094756149864881831 1 1 1 0.0096136021887786235 1 1 1 1 1 1 1 1 1 0.009757847580660603 1 1 1 1 1 1 1 1 1 1 1 0.010041225744803622 1 1 1 0.0099163107675439809 1 1 1 1 1 1 1 1 1 1 1 0.01015174058183556 1 1 1 1 1 1 1 1 1 1 0.010295356118634177 1 1 1 1 1 0.009489677087481203 1 1 1 1 1 1 1 1 0.0099977754078033314 1 1 0.009107506104091884 1 1 0.0092896187559497519 1 1 1 1 0.0089519273419335441 0.010018379167601772 1 1 1 1 0.0094011067184500193 1 1 1 1 0.010015250606291741 1 1 0.010006012170181074 1 1 1 1 0.0097765534896402245 1 1 0.0098292570840793 1 1 1 1 1 0.0098806604285329221 1 1 1 1 1 1 1 1 0.0095808499100209221 1 0.0099982382054232249 1 1 1 1 1 1 1 1 1 0.0098576852306696792 0.0097528182150767046 1 1 1 1 1 1 0.009725378557628046 1 1 0.0099326153105223133 1 1 0.009941272209075978 1 0.010000513711813853 1 1 1 0.010069196351579848 1 1 0.010006385232265769 1 1 1 1 1 1 1 1 0.0098376121120860322 0.0098369382477529466 1 1 0.0099989655041519653 0.0094787457107427149 1 1 1 1 0.0099060137114758938 1 1 1 0.0096677643998517339 1 0.01015792468682384 1 0.0099451421266183188 0.0096562577426071699 0.0097860284631267544 1 0.010075726126151565 1 1 1 0.010020708999354727 1 1 1 1 1 1 1 1 1 0.0093943570039895143 1 1 0.0094504968714900512 1 1 1 1 1 1 0.010088274616692858 1 1 1 1 1 1 0.010009371632166746 0.010012087090692186 0.010294074646105876 1 1 1 1 1 1 1 1 1 1 1 0.01029243086659519 1 1 1 1 0.0095118496588519549 1 1 1 1 1 1 1 1 0.0096224337792222107 1 1 0.010169545225425737 1 1 1 0.0099701223679523193 1 1 1 1 1 1 1 1 1 0.010019460777965122 1 1 1 1 1 1 1 1 0.009443434966513873 1 1 1 0.0093554819634467708 1 1 0.01000054840209171 1 1 1 0.010053715456277009 1 0.0097029039337752886 1 1 0.0097619024828937261 1 0.0097153083146500029 1 1 0.010012356212895569 1 1 1 1 1 1 0.0096964444064802473 1 1 0.010008752537156093 1 1 1 1 1 1 1 1 1 1 1 1 1 1 1 1 1 1 1 1 1 1 1 1 1 1 1 1 1 1 1 1 1 1 1 1 1 1 1 1 1 1 1 1 1 1 1 1 1 1 1 1 1 1 1 1 1 1 1 1 1 1 1 1 1 1 1 1 1 1 1 1 1 1 1 1 1 1 1 1 1 1 1 1 1 1 1 1 1 1 1 1 1 1 1 1 0.0099761172931851199 1 1 1 1 0.0090842499895787115 1 1 1 1 1 1 1 1 1 1 1 1 0.0099266307039157196 0.0092373115656255653 1 1 1 1 1 1 1 1 1 1 1 1 1 1 1 0.0098754236621772205 1 1 1 0.0096455609874684933 1 1 1 1 1 1 1 1 1 1 0.0090519802377333949 1 0.0091783936848993074 1 1 1 1 1 1 1 1 1 1 1 1 1 1 1 1 1 1 1 1 1 1 1 1 0.0099517705193921686 1 1 1 1 0.0098867239178925953 1 1 1 1 1 1 1 1 0.009979576984191961 1 1 1 1 1 1 1 1 1 1 1 1 1 1 1 1 1 1 1 1 1 1 1 1 1 1 1 1 1 1 1 1 1 1 1 1 1 1 1 1 1 1 1 1 1 1 1 1 1 0.0099079993277823037 1 1 1 1 1 1 1 1 1 1 1 1 1 1 1 1 1 1 1 1 1 1 1 1 1 1 1 1 1 1 1 1 0.0094529726480114956 1 1 1 1 1 1 0.0094383048715623342 1 1 1 1 1 1 0.0099743886865011691 1 1 0.010029375873296791 1 0.0099268247675025987 1 0.01013616094607612 1 1 1 1 0.0097498350759146965 1 1 1 1 1 0.0099792923154363236 1 1 1 0.01010656833693317 0.010003284846810734 1 1 1 0.0094320028818637869 1 1 1 1 0.0099498313009319054 0.0099942458856358968 1 1 1 1 1 1 1 1 1 1 1 1 1 1 0.0099680838421468652 1 1 0.0097272821410611249 1 1 0.0099903476590992926 0.0095421405615237331 1 1 1 1 1 1 1 1 1 1 0.009014840959875297 1 0.0088209909008357314 1 1 1 1 1 1 1 1 1 1 1 0.0095831783913808595 1 1 1 1 1 1 1 0.0093261339186104346 1 1 1 1 1 1 1 1 1 1 1 1 1 1 1 1 1 1 0.0091268266166550441 0.0087292810731462809 1 1 1 1 1 1 1 1 1 1 1 1 1 1 1 1 1 0.0087210846463692589 1 1 1 1 1 1 1 1 1 0.0098675791523530777 1 1 1 1 1 1 1 1 1 1 1 1 0.0096805305092861355 1 1 1 1 0.010133563123330398 1 0.0087839387931469386 1 1 1 1 1 1 1 1 1 0.0098007142277344254 1 1 1 1 0.009376112888793255 1 1 1 1 0.0097835306460429677 1 0.0098074907085878588 1 1 1 1 1 1 1 1 1 1 1 1 0.01004000830662956 1 1 1 1 1 1 1 1 1 1 1 1 1 1 1 0.010049992741184805 1 0.0094516135002437347 1 1 0.0096321851913513112 1 1 1 0.010000080782841977 1 0.010146790962579649 1 1 0.010361149053308169 1 1 0.0099983372831633326 1 0.009496371557663124 1 1 1 1 1 1 1 0.010322855922686794 0.010419770411158952 1 1 1 1 0.0093301880619375659 0.0086703285209485323 1 1 0.010179741547396214 0.010167605966159649 1 0.0099019089461641428 1 1 0.0099949422344761743 0.0097993627745689323 1 1 0.0096749425505806789 1 1 0.010311418467411073 1 1 1 1 1 1 1 1 0.0096265707866286555 1 1 0.0093052809828201126 1 0.0094035053226238039 1 1 1 0.0099593567392076403 1 1 1 1 1 1 1 1 0.0099495013739793366 1 1 1 1 1 1 1 1 1 1 1 1 1 1 1 1 1 1 1 1 1 1 0.0099951955329860738 1 1 1 1 1 1 1 1 1 1 1 1 1 1 1 1 1 1 
</DataArray>
</CellData>
</Piece>
</UnstructuredGrid>
</VTKFile>
